10
Lattice="2.46604 0.0 0.0 1.23302 2.135653286748577 0.0 0.0 0.0 30.9729661776" Properties=species:S:1:pos:R:3 pbc="T T F"
C        0.00000000       0.00000000       0.50000000
C        1.23302000       0.71188443       0.50000000
C        1.23302000       0.71188443       3.85403576
C        2.46604000       1.42376886       3.85410575
C        0.00000000       0.00000000       7.19652098
C        1.23302000       0.71188443       7.19672330
C        1.23302000       0.71188443      10.47216360
C        2.46604000       1.42376886      10.47286512
C        1.23302000       0.71188443      20.47296618
C        2.46604000       1.42376886      20.47286512
