12
Lattice="2.46604 0.0 0.0 1.23302 2.135653286748577 0.0 0.0 0.0 34.296124833099995" Properties=species:S:1:pos:R:3 pbc="T T F"
C        0.00000000       0.00000000       0.50000000
C        1.23302000       0.71188443       0.50000000
C        1.23302000       0.71188443       3.85021990
C        2.46604000       1.42376886       3.85023130
C        0.00000000       0.00000000       7.14307643
C        1.23302000       0.71188443       7.14245795
C        0.00000000       0.00000000      17.14369289
C        1.23302000       0.71188443      17.14307643
C        2.46604000       1.42376886      20.43713659
C        0.00000000       0.00000000      20.43713682
C        0.00000000       0.00000000      23.79543641
C        1.23302000       0.71188443      23.79612483
