
     Program PWSCF v.7.4.1 starts on  6Oct2026 at  2:41:33 

     This program is part of the open-source Quantum ESPRESSO suite
     for quantum simulation of materials; please cite
         "P. Giannozzi et al., J. Phys.:Condens. Matter 21 395502 (2009);
         "P. Giannozzi et al., J. Phys.:Condens. Matter 29 465901 (2017);
         "P. Giannozzi et al., J. Chem. Phys. 152 154105 (2020);
          URL http://www.quantum-espresso.org", 
     in publications or presentations arising from this work. More details at
     http://www.quantum-espresso.org/quote

     Parallel version (MPI & OpenMP), running on       1 processor cores
     Number of MPI processes:                 1
     Threads/MPI process:                     1

     MPI processes distributed on     1 nodes
     13084 MiB available memory on the printing compute node when the environment starts
 
     Reading input from pw.in

     Current dimensions of program PWSCF are:
     Max number of different atomic species (ntypx) = 10
     Max number of k-points (npk) =  40000
     Max angular momentum in pseudopotentials (lmaxx) =  4
     Presently no symmetry can be used with electric field

     file C.pbe-n-kjpaw_psl.1.0.0.UPF: wavefunction(s)  2S 2P renormalized
 
     Subspace diagonalization in iterative solution of the eigenvalue problem:
     a serial algorithm will be used

 
     G-vector sticks info
     --------------------
     sticks:   dense  smooth     PW     G-vecs:    dense   smooth      PW
     Sum        3193    1273    367              1013711   256635   40609
 
     Using Slab Decomposition
 


     bravais-lattice index     =            0
     lattice parameter (alat)  =       9.4208  a.u.
     unit-cell volume          =    5061.5162 (a.u.)^3
     number of atoms/cell      =           36
     number of atomic types    =            2
     number of electrons       =       324.00
     number of Kohn-Sham states=          194
     kinetic-energy cutoff     =      52.0000  Ry
     charge density cutoff     =     520.0000  Ry
     scf convergence threshold =      1.0E-08
     mixing beta               =       0.3000
     number of iterations used =            8  local-TF  mixing
     Exchange-correlation= SLA  PW   PBX  PBC
                           (   1   4   3   4   0   0   0)

     GPU acceleration is ACTIVE.  1 visible GPUs per MPI rank


     celldm(1)=   9.420781  celldm(2)=   0.000000  celldm(3)=   0.000000
     celldm(4)=   0.000000  celldm(5)=   0.000000  celldm(6)=   0.000000

     crystal axes: (cart. coord. in units of alat)
               a(1) = (   1.000000  -0.000000   0.000000 )  
               a(2) = (   0.500000   0.866025   0.000000 )  
               a(3) = (   0.000000   0.000000   6.990194 )  

     reciprocal axes: (cart. coord. in units 2 pi/alat)
               b(1) = (  1.000000 -0.577350  0.000000 )  
               b(2) = (  0.000000  1.154701 -0.000000 )  
               b(3) = ( -0.000000  0.000000  0.143058 )  


     PseudoPot. # 1 for Ag read from file:
     /home/kgy/work/pseudo/Ag_ONCV_PBE-1.0.oncvpsp.upf
     MD5 check sum: 94f47bd0669c641108e45594df92fabc
     Pseudo is Norm-conserving, Zval = 19.0
     Generated using ONCVPSP code by D. R. Hamann
     Using radial grid of 1398 points,  6 beta functions with: 
                l(1) =   0
                l(2) =   0
                l(3) =   1
                l(4) =   1
                l(5) =   2
                l(6) =   2

     PseudoPot. # 2 for C  read from file:
     /home/kgy/work/pseudo/C.pbe-n-kjpaw_psl.1.0.0.UPF
     MD5 check sum: 5d2aebdfa2cae82b50a7e79e9516da0f
     Pseudo is Projector augmented-wave + core cor, Zval =  4.0
     Generated using "atomic" code by A. Dal Corso  v.5.1
     Shape of augmentation charge: PSQ
     Using radial grid of 1073 points,  4 beta functions with: 
                l(1) =   0
                l(2) =   0
                l(3) =   1
                l(4) =   1
     Q(r) pseudized with 0 coefficients 


     atomic species   valence    mass     pseudopotential
     Ag               19.00   107.86820     Ag( 1.00)
     C                 4.00    12.01100     C ( 1.00)

     No symmetry found



   Cartesian axes

     site n.     atom                  positions (alat units)
         1        Ag     tau(   1) = (   0.3337695   0.5765948   0.5717001  )
         2        Ag     tau(   2) = (   0.8337695   0.8652699   0.5717001  )
         3        Ag     tau(   3) = (   0.1663703   0.2881544   1.0403732  )
         4        Ag     tau(   4) = (   0.5004501   0.2909658   0.1002956  )
         5        Ag     tau(   5) = (   0.8337695   0.2879196   0.5717001  )
         6        Ag     tau(   6) = (   0.6665488   0.5768162   1.0406486  )
         7        Ag     tau(   7) = (   0.5010830   0.2879746   1.5114859  )
         8        Ag     tau(   8) = (   1.0004501   0.5796409   0.1002956  )
         9        Ag     tau(   9) = (   1.0010908   0.5766899   1.5119266  )
        10        Ag     tau(  10) = (   0.6663790  -0.0006697   1.0404436  )
        11        Ag     tau(  11) = (   1.0004501   0.0022906   0.1002956  )
        12        Ag     tau(  12) = (   1.0011201  -0.0006539   1.5116201  )
        13        C      tau(  13) = (   0.8337834   0.6758659   2.1590026  )
        14        C      tau(  14) = (   1.0837834   0.8202035   2.1592781  )
        15        C      tau(  15) = (   1.0837834   1.1088786   2.1586586  )
        16        C      tau(  16) = (   1.3337834   1.2532162   2.1592675  )
        17        C      tau(  17) = (   1.3337834   0.6758659   2.1591765  )
        18        C      tau(  18) = (   1.5837834   0.8202035   2.1587837  )
        19        C      tau(  19) = (   1.5837834   1.1088786   2.1591935  )
        20        C      tau(  20) = (   1.8337834   1.2532162   2.1591369  )
        21        C      tau(  21) = (   1.0837834   0.8202035   2.8435044  )
        22        C      tau(  22) = (   1.3337834   0.9645411   2.8434390  )
        23        C      tau(  23) = (   1.3337834   1.2532162   2.8435055  )
        24        C      tau(  24) = (   1.5837834   1.3975538   2.8434470  )
        25        C      tau(  25) = (   1.5837834   0.8202035   2.8435010  )
        26        C      tau(  26) = (   1.8337834   0.9645411   2.8434353  )
        27        C      tau(  27) = (   1.8337834   1.2532162   2.8435040  )
        28        C      tau(  28) = (   2.0837834   1.3975538   2.8434358  )
        29        C      tau(  29) = (   0.8337834   0.6758659   3.5248054  )
        30        C      tau(  30) = (   1.0837834   0.8202035   3.5246833  )
        31        C      tau(  31) = (   1.0837834   1.1088786   3.5248044  )
        32        C      tau(  32) = (   1.3337834   1.2532162   3.5246835  )
        33        C      tau(  33) = (   1.3337834   0.6758659   3.5248058  )
        34        C      tau(  34) = (   1.5837834   0.8202035   3.5246852  )
        35        C      tau(  35) = (   1.5837834   1.1088786   3.5248059  )
        36        C      tau(  36) = (   1.8337834   1.2532162   3.5246840  )

     --------------------------------------------
     DFT-D3 Dispersion Correction (no 3-body):
     --------------------------------------------
       Reference C6 values for interpolation: 

         atom   Coordination number   C6
         C          0.000            98.23
         C          0.987            86.49
         C          1.998            58.72
         C          2.999            51.56
         C          3.984            36.41
         Ag         0.000           853.49
         Ag         0.968           537.23

       Values used:

         atom   Coordination number  R0_AB[au]  C6      C8
         Ag         9.097            3.147    537.23  47741.54
         Ag         9.097            3.147    537.23  47741.54
         Ag         9.103            3.147    537.23  47741.54
         Ag         6.767            3.147    537.23  47741.54
         Ag         9.097            3.147    537.23  47741.54
         Ag         9.102            3.147    537.23  47741.54
         Ag         6.860            3.147    537.23  47741.54
         Ag         6.767            3.147    537.23  47741.54
         Ag         6.850            3.147    537.23  47741.54
         Ag         9.102            3.147    537.23  47741.54
         Ag         6.767            3.147    537.23  47741.54
         Ag         6.858            3.147    537.23  47741.54
         C          3.307            2.750     48.42   1400.53
         C          3.305            2.750     48.48   1402.01
         C          3.313            2.750     48.30   1397.06
         C          3.305            2.750     48.47   1401.95
         C          3.305            2.750     48.48   1402.04
         C          3.313            2.750     48.30   1396.97
         C          3.304            2.750     48.48   1402.11
         C          3.307            2.750     48.43   1400.54
         C          3.281            2.750     48.91   1414.57
         C          3.281            2.750     48.92   1414.74
         C          3.281            2.750     48.91   1414.57
         C          3.281            2.750     48.92   1414.74
         C          3.281            2.750     48.91   1414.57
         C          3.281            2.750     48.92   1414.74
         C          3.281            2.750     48.91   1414.57
         C          3.281            2.750     48.92   1414.75
         C          3.274            2.750     49.03   1417.92
         C          3.275            2.750     49.02   1417.83
         C          3.274            2.750     49.03   1417.92
         C          3.275            2.750     49.02   1417.83
         C          3.274            2.750     49.03   1417.92
         C          3.275            2.750     49.02   1417.83
         C          3.274            2.750     49.03   1417.92
         C          3.275            2.750     49.02   1417.83

         Molecular C6 ( Ry / a.u.^6 ) =    198485.01


     number of k points=    41  Marzari-Vanderbilt smearing, width (Ry)=  0.0100
                       cart. coord. in units 2pi/alat
        k(    1) = (   0.0000000   0.0000000   0.0000000), wk =   0.0246914
        k(    2) = (   0.0000000   0.1283001   0.0000000), wk =   0.0493827
        k(    3) = (   0.0000000   0.2566001   0.0000000), wk =   0.0493827
        k(    4) = (   0.0000000   0.3849002   0.0000000), wk =   0.0493827
        k(    5) = (   0.0000000   0.5132002   0.0000000), wk =   0.0493827
        k(    6) = (   0.1111111  -0.0641500   0.0000000), wk =   0.0493827
        k(    7) = (   0.1111111   0.0641500   0.0000000), wk =   0.0493827
        k(    8) = (   0.1111111   0.1924501   0.0000000), wk =   0.0493827
        k(    9) = (   0.1111111   0.3207501   0.0000000), wk =   0.0493827
        k(   10) = (   0.1111111   0.4490502   0.0000000), wk =   0.0493827
        k(   11) = (   0.1111111  -0.5773503   0.0000000), wk =   0.0493827
        k(   12) = (   0.1111111  -0.4490502   0.0000000), wk =   0.0493827
        k(   13) = (   0.1111111  -0.3207501   0.0000000), wk =   0.0493827
        k(   14) = (   0.1111111  -0.1924501   0.0000000), wk =   0.0493827
        k(   15) = (   0.2222222  -0.1283001   0.0000000), wk =   0.0493827
        k(   16) = (   0.2222222   0.0000000   0.0000000), wk =   0.0493827
        k(   17) = (   0.2222222   0.1283001   0.0000000), wk =   0.0493827
        k(   18) = (   0.2222222   0.2566001   0.0000000), wk =   0.0493827
        k(   19) = (   0.2222222   0.3849002   0.0000000), wk =   0.0493827
        k(   20) = (   0.2222222  -0.6415003   0.0000000), wk =   0.0493827
        k(   21) = (   0.2222222  -0.5132002   0.0000000), wk =   0.0493827
        k(   22) = (   0.2222222  -0.3849002   0.0000000), wk =   0.0493827
        k(   23) = (   0.2222222  -0.2566001   0.0000000), wk =   0.0493827
        k(   24) = (   0.3333333  -0.1924501   0.0000000), wk =   0.0493827
        k(   25) = (   0.3333333  -0.0641500   0.0000000), wk =   0.0493827
        k(   26) = (   0.3333333   0.0641500   0.0000000), wk =   0.0493827
        k(   27) = (   0.3333333   0.1924501   0.0000000), wk =   0.0493827
        k(   28) = (   0.3333333   0.3207501   0.0000000), wk =   0.0493827
        k(   29) = (   0.3333333  -0.7056503   0.0000000), wk =   0.0493827
        k(   30) = (   0.3333333  -0.5773503   0.0000000), wk =   0.0493827
        k(   31) = (   0.3333333  -0.4490502   0.0000000), wk =   0.0493827
        k(   32) = (   0.3333333  -0.3207501   0.0000000), wk =   0.0493827
        k(   33) = (   0.4444444  -0.2566001   0.0000000), wk =   0.0493827
        k(   34) = (   0.4444444  -0.1283001   0.0000000), wk =   0.0493827
        k(   35) = (   0.4444444   0.0000000   0.0000000), wk =   0.0493827
        k(   36) = (   0.4444444   0.1283001   0.0000000), wk =   0.0493827
        k(   37) = (   0.4444444   0.2566001   0.0000000), wk =   0.0493827
        k(   38) = (   0.4444444  -0.7698004   0.0000000), wk =   0.0493827
        k(   39) = (   0.4444444  -0.6415003   0.0000000), wk =   0.0493827
        k(   40) = (   0.4444444  -0.5132002   0.0000000), wk =   0.0493827
        k(   41) = (   0.4444444  -0.3849002   0.0000000), wk =   0.0493827

     Dense  grid:  1013711 G-vectors     FFT dimensions: (  72,  72, 480)

     Smooth grid:   256635 G-vectors     FFT dimensions: (  45,  45, 320)

     Estimated max dynamical RAM per process >       2.73 GB

     Check: negative core charge=   -0.000002

     Initial potential from superposition of free atoms

     starting charge     323.9955, renormalised to     324.0000

     negative rho (up, down):  2.440E-04 0.000E+00
 
     Adding external electric field

     Computed dipole along edir(3) : 
        Dipole               -0.0064 Ry au,         -0.0164 Debye
        Dipole field         -0.0000 Ry au, 
 
        Potential amp.        0.0020 Ry
        Total length         63.9631 bohr
 
     Starting wfcs are  216 randomized atomic wfcs
     Checking if some PAW data can be deallocated... 

     total cpu time spent up to now is       66.0 secs

     Self-consistent Calculation

     iteration #  1     ecut=    52.00 Ry     beta= 0.30
     Davidson diagonalization with overlap
     ethr =  1.00E-02,  avg # of iterations =  8.0

     negative rho (up, down):  1.268E-07 0.000E+00
 
     Adding external electric field

     Computed dipole along edir(3) : 
        Dipole               -0.1518 Ry au,         -0.3859 Debye
        Dipole field         -0.0004 Ry au, 
 
        Potential amp.        0.0482 Ry
        Total length         63.9631 bohr
 

     total cpu time spent up to now is      302.5 secs

     total energy              =   -3891.65778882 Ry
     estimated scf accuracy    <       4.66317462 Ry

     iteration #  2     ecut=    52.00 Ry     beta= 0.30
     Davidson diagonalization with overlap
     ethr =  1.44E-03,  avg # of iterations =  2.1

     negative rho (up, down):  1.686E-08 0.000E+00
 
     Adding external electric field

     Computed dipole along edir(3) : 
        Dipole               -0.3738 Ry au,         -0.9501 Debye
        Dipole field         -0.0009 Ry au, 
 
        Potential amp.        0.1187 Ry
        Total length         63.9631 bohr
 

     total cpu time spent up to now is      453.0 secs

     total energy              =   -3891.28331771 Ry
     estimated scf accuracy    <       1.78802656 Ry

     iteration #  3     ecut=    52.00 Ry     beta= 0.30
     Davidson diagonalization with overlap
     ethr =  5.52E-04,  avg # of iterations =  5.9

     negative rho (up, down):  6.572E-08 0.000E+00
 
     Adding external electric field

     Computed dipole along edir(3) : 
        Dipole               -0.7235 Ry au,         -1.8391 Debye
        Dipole field         -0.0018 Ry au, 
 
        Potential amp.        0.2298 Ry
        Total length         63.9631 bohr
 

     total cpu time spent up to now is      634.0 secs

     total energy              =   -3891.07348824 Ry
     estimated scf accuracy    <       0.71554276 Ry

     iteration #  4     ecut=    52.00 Ry     beta= 0.30
     Davidson diagonalization with overlap
     c_bands:  1 eigenvalues not converged
     ethr =  2.21E-04,  avg # of iterations = 10.5

     negative rho (up, down):  6.436E-08 0.000E+00
 
     Adding external electric field

     Computed dipole along edir(3) : 
        Dipole               -0.9714 Ry au,         -2.4690 Debye
        Dipole field         -0.0024 Ry au, 
 
        Potential amp.        0.3085 Ry
        Total length         63.9631 bohr
 

     total cpu time spent up to now is      867.7 secs

     total energy              =   -3891.12123938 Ry
     estimated scf accuracy    <       0.76227987 Ry

     iteration #  5     ecut=    52.00 Ry     beta= 0.30
     Davidson diagonalization with overlap
     ethr =  2.21E-04,  avg # of iterations =  1.1

     negative rho (up, down):  4.541E-08 0.000E+00
 
     Adding external electric field

     Computed dipole along edir(3) : 
        Dipole               -0.9820 Ry au,         -2.4960 Debye
        Dipole field         -0.0024 Ry au, 
 
        Potential amp.        0.3119 Ry
        Total length         63.9631 bohr
 

     total cpu time spent up to now is     1007.0 secs

     total energy              =   -3891.12719598 Ry
     estimated scf accuracy    <       1.15522545 Ry

     iteration #  6     ecut=    52.00 Ry     beta= 0.30
     Davidson diagonalization with overlap
     ethr =  2.21E-04,  avg # of iterations =  1.0

     negative rho (up, down):  4.228E-07 0.000E+00
 
     Adding external electric field

     Computed dipole along edir(3) : 
        Dipole               -0.9720 Ry au,         -2.4706 Debye
        Dipole field         -0.0024 Ry au, 
 
        Potential amp.        0.3087 Ry
        Total length         63.9631 bohr
 

     total cpu time spent up to now is     1144.3 secs

     total energy              =   -3891.11907141 Ry
     estimated scf accuracy    <       1.15375447 Ry

     iteration #  7     ecut=    52.00 Ry     beta= 0.30
     Davidson diagonalization with overlap
     ethr =  2.21E-04,  avg # of iterations =  1.6

     negative rho (up, down):  1.640E-04 0.000E+00
 
     Adding external electric field

     Computed dipole along edir(3) : 
        Dipole               -1.1867 Ry au,         -3.0162 Debye
        Dipole field         -0.0029 Ry au, 
 
        Potential amp.        0.3769 Ry
        Total length         63.9631 bohr
 

     total cpu time spent up to now is     1286.7 secs

     total energy              =   -3891.10520943 Ry
     estimated scf accuracy    <       0.86227348 Ry

     iteration #  8     ecut=    52.00 Ry     beta= 0.30
     Davidson diagonalization with overlap
     c_bands:  2 eigenvalues not converged
     ethr =  2.21E-04,  avg # of iterations =  3.0

     negative rho (up, down):  6.235E-07 0.000E+00
 
     Adding external electric field

     Computed dipole along edir(3) : 
        Dipole               -1.1746 Ry au,         -2.9854 Debye
        Dipole field         -0.0029 Ry au, 
 
        Potential amp.        0.3730 Ry
        Total length         63.9631 bohr
 

     total cpu time spent up to now is     1440.2 secs

     total energy              =   -3891.10555619 Ry
     estimated scf accuracy    <       0.11636343 Ry

     iteration #  9     ecut=    52.00 Ry     beta= 0.30
     Davidson diagonalization with overlap
     ethr =  3.59E-05,  avg # of iterations =  5.5
 
     Adding external electric field

     Computed dipole along edir(3) : 
        Dipole               -0.9533 Ry au,         -2.4229 Debye
        Dipole field         -0.0024 Ry au, 
 
        Potential amp.        0.3028 Ry
        Total length         63.9631 bohr
 

     total cpu time spent up to now is     1617.9 secs

     total energy              =   -3891.09882267 Ry
     estimated scf accuracy    <       0.24662213 Ry

     iteration # 10     ecut=    52.00 Ry     beta= 0.30
     Davidson diagonalization with overlap
     ethr =  3.59E-05,  avg # of iterations =  3.0

     negative rho (up, down):  1.701E-07 0.000E+00
 
     Adding external electric field

     Computed dipole along edir(3) : 
        Dipole               -0.8940 Ry au,         -2.2724 Debye
        Dipole field         -0.0022 Ry au, 
 
        Potential amp.        0.2839 Ry
        Total length         63.9631 bohr
 

     total cpu time spent up to now is     1777.0 secs

     total energy              =   -3891.10068000 Ry
     estimated scf accuracy    <       0.05153456 Ry

     iteration # 11     ecut=    52.00 Ry     beta= 0.30
     Davidson diagonalization with overlap
     ethr =  1.59E-05,  avg # of iterations =  7.8

     negative rho (up, down):  4.565E-08 0.000E+00
 
     Adding external electric field

     Computed dipole along edir(3) : 
        Dipole               -0.7178 Ry au,         -1.8244 Debye
        Dipole field         -0.0018 Ry au, 
 
        Potential amp.        0.2280 Ry
        Total length         63.9631 bohr
 

     total cpu time spent up to now is     1973.1 secs

     total energy              =   -3891.09534368 Ry
     estimated scf accuracy    <       0.04846164 Ry

     iteration # 12     ecut=    52.00 Ry     beta= 0.30
     Davidson diagonalization with overlap
     ethr =  1.50E-05,  avg # of iterations =  9.6

     negative rho (up, down):  3.006E-07 0.000E+00
 
     Adding external electric field

     Computed dipole along edir(3) : 
        Dipole               -0.7085 Ry au,         -1.8008 Debye
        Dipole field         -0.0018 Ry au, 
 
        Potential amp.        0.2250 Ry
        Total length         63.9631 bohr
 

     total cpu time spent up to now is     2185.2 secs

     total energy              =   -3891.09676201 Ry
     estimated scf accuracy    <       0.02077277 Ry

     iteration # 13     ecut=    52.00 Ry     beta= 0.30
     Davidson diagonalization with overlap
     ethr =  6.41E-06,  avg # of iterations =  1.3

     negative rho (up, down):  4.331E-07 0.000E+00
 
     Adding external electric field

     Computed dipole along edir(3) : 
        Dipole               -0.7054 Ry au,         -1.7929 Debye
        Dipole field         -0.0018 Ry au, 
 
        Potential amp.        0.2240 Ry
        Total length         63.9631 bohr
 

     total cpu time spent up to now is     2325.5 secs

     total energy              =   -3891.09680477 Ry
     estimated scf accuracy    <       0.02137400 Ry

     iteration # 14     ecut=    52.00 Ry     beta= 0.30
     Davidson diagonalization with overlap
     ethr =  6.41E-06,  avg # of iterations =  1.0

     negative rho (up, down):  6.546E-07 0.000E+00
 
     Adding external electric field

     Computed dipole along edir(3) : 
        Dipole               -0.7561 Ry au,         -1.9219 Debye
        Dipole field         -0.0019 Ry au, 
 
        Potential amp.        0.2401 Ry
        Total length         63.9631 bohr
 

     total cpu time spent up to now is     2461.6 secs

     total energy              =   -3891.09587062 Ry
     estimated scf accuracy    <       0.02154193 Ry

     iteration # 15     ecut=    52.00 Ry     beta= 0.30
     Davidson diagonalization with overlap
     ethr =  6.41E-06,  avg # of iterations =  2.0

     negative rho (up, down):  1.008E-03 0.000E+00
 
     Adding external electric field

     Computed dipole along edir(3) : 
        Dipole               -0.3938 Ry au,         -1.0010 Debye
        Dipole field         -0.0010 Ry au, 
 
        Potential amp.        0.1251 Ry
        Total length         63.9631 bohr
 

     total cpu time spent up to now is     2613.0 secs

     total energy              =   -3891.09089305 Ry
     estimated scf accuracy    <       0.02611073 Ry

     iteration # 16     ecut=    52.00 Ry     beta= 0.30
     Davidson diagonalization with overlap
     ethr =  6.41E-06,  avg # of iterations = 13.0

     negative rho (up, down):  4.782E-03 0.000E+00
 
     Adding external electric field

     Computed dipole along edir(3) : 
        Dipole               -0.2058 Ry au,         -0.5231 Debye
        Dipole field         -0.0005 Ry au, 
 
        Potential amp.        0.0654 Ry
        Total length         63.9631 bohr
 

     total cpu time spent up to now is     2856.0 secs

     total energy              =   -3891.09008596 Ry
     estimated scf accuracy    <       0.00502094 Ry

     iteration # 17     ecut=    52.00 Ry     beta= 0.30
     Davidson diagonalization with overlap
     ethr =  1.55E-06,  avg # of iterations =  9.8

     negative rho (up, down):  4.899E-03 0.000E+00
 
     Adding external electric field

     Computed dipole along edir(3) : 
        Dipole               -0.1752 Ry au,         -0.4452 Debye
        Dipole field         -0.0004 Ry au, 
 
        Potential amp.        0.0556 Ry
        Total length         63.9631 bohr
 

     total cpu time spent up to now is     3081.1 secs

     total energy              =   -3891.09033690 Ry
     estimated scf accuracy    <       0.00620484 Ry

     iteration # 18     ecut=    52.00 Ry     beta= 0.30
     Davidson diagonalization with overlap
     ethr =  1.55E-06,  avg # of iterations =  8.4

     negative rho (up, down):  3.122E-03 0.000E+00
 
     Adding external electric field

     Computed dipole along edir(3) : 
        Dipole               -0.2362 Ry au,         -0.6002 Debye
        Dipole field         -0.0006 Ry au, 
 
        Potential amp.        0.0750 Ry
        Total length         63.9631 bohr
 

     total cpu time spent up to now is     3285.1 secs

     total energy              =   -3891.09056036 Ry
     estimated scf accuracy    <       0.00766041 Ry

     iteration # 19     ecut=    52.00 Ry     beta= 0.30
     Davidson diagonalization with overlap
     c_bands:  1 eigenvalues not converged
     c_bands:  1 eigenvalues not converged
     c_bands:  1 eigenvalues not converged
     c_bands:  1 eigenvalues not converged
     ethr =  1.55E-06,  avg # of iterations = 11.1

     negative rho (up, down):  3.119E-03 0.000E+00
 
     Adding external electric field

     Computed dipole along edir(3) : 
        Dipole               -0.2018 Ry au,         -0.5128 Debye
        Dipole field         -0.0005 Ry au, 
 
        Potential amp.        0.0641 Ry
        Total length         63.9631 bohr
 

     total cpu time spent up to now is     3511.1 secs

     total energy              =   -3891.09047691 Ry
     estimated scf accuracy    <       0.00686635 Ry

     iteration # 20     ecut=    52.00 Ry     beta= 0.30
     Davidson diagonalization with overlap
     ethr =  1.55E-06,  avg # of iterations =  7.0

     negative rho (up, down):  4.415E-03 0.000E+00
 
     Adding external electric field

     Computed dipole along edir(3) : 
        Dipole               -0.1974 Ry au,         -0.5017 Debye
        Dipole field         -0.0005 Ry au, 
 
        Potential amp.        0.0627 Ry
        Total length         63.9631 bohr
 

     total cpu time spent up to now is     3702.0 secs

     total energy              =   -3891.09059295 Ry
     estimated scf accuracy    <       0.00726443 Ry

     iteration # 21     ecut=    52.00 Ry     beta= 0.30
     Davidson diagonalization with overlap
     c_bands:  1 eigenvalues not converged
     c_bands:  1 eigenvalues not converged
     ethr =  1.55E-06,  avg # of iterations =  8.9

     negative rho (up, down):  4.730E-03 0.000E+00
 
     Adding external electric field

     Computed dipole along edir(3) : 
        Dipole               -0.1883 Ry au,         -0.4786 Debye
        Dipole field         -0.0005 Ry au, 
 
        Potential amp.        0.0598 Ry
        Total length         63.9631 bohr
 

     total cpu time spent up to now is     3909.0 secs

     total energy              =   -3891.09056252 Ry
     estimated scf accuracy    <       0.00803956 Ry

     iteration # 22     ecut=    52.00 Ry     beta= 0.30
     Davidson diagonalization with overlap
     ethr =  1.55E-06,  avg # of iterations =  2.1

     negative rho (up, down):  5.906E-06 0.000E+00
 
     Adding external electric field

     Computed dipole along edir(3) : 
        Dipole               -0.2729 Ry au,         -0.6937 Debye
        Dipole field         -0.0007 Ry au, 
 
        Potential amp.        0.0867 Ry
        Total length         63.9631 bohr
 

     total cpu time spent up to now is     4061.3 secs

     total energy              =   -3891.09003974 Ry
     estimated scf accuracy    <       0.00768383 Ry

     iteration # 23     ecut=    52.00 Ry     beta= 0.30
     Davidson diagonalization with overlap
     c_bands:  1 eigenvalues not converged
     c_bands:  1 eigenvalues not converged
     c_bands:  1 eigenvalues not converged
     c_bands:  1 eigenvalues not converged
     c_bands:  1 eigenvalues not converged
     c_bands:  1 eigenvalues not converged
     ethr =  1.55E-06,  avg # of iterations = 10.2

     negative rho (up, down):  1.753E-03 0.000E+00
 
     Adding external electric field

     Computed dipole along edir(3) : 
        Dipole               -0.1752 Ry au,         -0.4453 Debye
        Dipole field         -0.0004 Ry au, 
 
        Potential amp.        0.0556 Ry
        Total length         63.9631 bohr
 

     total cpu time spent up to now is     4279.7 secs

     total energy              =   -3891.09002135 Ry
     estimated scf accuracy    <       0.00298675 Ry

     iteration # 24     ecut=    52.00 Ry     beta= 0.30
     Davidson diagonalization with overlap
     ethr =  9.22E-07,  avg # of iterations =  8.7

     negative rho (up, down):  6.918E-04 0.000E+00
 
     Adding external electric field

     Computed dipole along edir(3) : 
        Dipole               -0.2140 Ry au,         -0.5440 Debye
        Dipole field         -0.0005 Ry au, 
 
        Potential amp.        0.0680 Ry
        Total length         63.9631 bohr
 

     total cpu time spent up to now is     4486.8 secs

     total energy              =   -3891.09023943 Ry
     estimated scf accuracy    <       0.00690801 Ry

     iteration # 25     ecut=    52.00 Ry     beta= 0.30
     Davidson diagonalization with overlap
     ethr =  9.22E-07,  avg # of iterations =  7.1

     negative rho (up, down):  7.590E-03 0.000E+00
 
     Adding external electric field

     Computed dipole along edir(3) : 
        Dipole                0.0279 Ry au,          0.0710 Debye
        Dipole field          0.0001 Ry au, 
 
        Potential amp.       -0.0089 Ry
        Total length         63.9631 bohr
 

     total cpu time spent up to now is     4680.8 secs

     total energy              =   -3891.09028637 Ry
     estimated scf accuracy    <       0.00547451 Ry

     iteration # 26     ecut=    52.00 Ry     beta= 0.30
     Davidson diagonalization with overlap
     ethr =  9.22E-07,  avg # of iterations = 10.8

     negative rho (up, down):  3.370E-03 0.000E+00
 
     Adding external electric field

     Computed dipole along edir(3) : 
        Dipole                0.0367 Ry au,          0.0933 Debye
        Dipole field          0.0001 Ry au, 
 
        Potential amp.       -0.0117 Ry
        Total length         63.9631 bohr
 

     total cpu time spent up to now is     4905.4 secs

     total energy              =   -3891.09014115 Ry
     estimated scf accuracy    <       0.00678014 Ry

     iteration # 27     ecut=    52.00 Ry     beta= 0.30
     Davidson diagonalization with overlap
     ethr =  9.22E-07,  avg # of iterations =  8.2

     negative rho (up, down):  1.061E-03 0.000E+00
 
     Adding external electric field

     Computed dipole along edir(3) : 
        Dipole                0.0230 Ry au,          0.0586 Debye
        Dipole field          0.0001 Ry au, 
 
        Potential amp.       -0.0073 Ry
        Total length         63.9631 bohr
 

     total cpu time spent up to now is     5107.3 secs

     total energy              =   -3891.08991889 Ry
     estimated scf accuracy    <       0.00480492 Ry

     iteration # 28     ecut=    52.00 Ry     beta= 0.30
     Davidson diagonalization with overlap
     ethr =  9.22E-07,  avg # of iterations =  8.2

     negative rho (up, down):  8.826E-04 0.000E+00
 
     Adding external electric field

     Computed dipole along edir(3) : 
        Dipole                0.0144 Ry au,          0.0367 Debye
        Dipole field          0.0000 Ry au, 
 
        Potential amp.       -0.0046 Ry
        Total length         63.9631 bohr
 

     total cpu time spent up to now is     5308.3 secs

     total energy              =   -3891.08989378 Ry
     estimated scf accuracy    <       0.00403855 Ry

     iteration # 29     ecut=    52.00 Ry     beta= 0.30
     Davidson diagonalization with overlap
     ethr =  9.22E-07,  avg # of iterations =  2.0

     negative rho (up, down):  7.927E-04 0.000E+00
 
     Adding external electric field

     Computed dipole along edir(3) : 
        Dipole                0.0058 Ry au,          0.0146 Debye
        Dipole field          0.0000 Ry au, 
 
        Potential amp.       -0.0018 Ry
        Total length         63.9631 bohr
 

     total cpu time spent up to now is     5458.5 secs

     total energy              =   -3891.08988281 Ry
     estimated scf accuracy    <       0.00397821 Ry

     iteration # 30     ecut=    52.00 Ry     beta= 0.30
     Davidson diagonalization with overlap
     ethr =  9.22E-07,  avg # of iterations =  5.3

     negative rho (up, down):  1.187E-03 0.000E+00
 
     Adding external electric field

     Computed dipole along edir(3) : 
        Dipole                0.0251 Ry au,          0.0637 Debye
        Dipole field          0.0001 Ry au, 
 
        Potential amp.       -0.0080 Ry
        Total length         63.9631 bohr
 

     total cpu time spent up to now is     5636.7 secs

     total energy              =   -3891.08992325 Ry
     estimated scf accuracy    <       0.00363069 Ry

     iteration # 31     ecut=    52.00 Ry     beta= 0.30
     Davidson diagonalization with overlap
     ethr =  9.22E-07,  avg # of iterations =  4.1

     negative rho (up, down):  1.191E-03 0.000E+00
 
     Adding external electric field

     Computed dipole along edir(3) : 
        Dipole                0.0264 Ry au,          0.0670 Debye
        Dipole field          0.0001 Ry au, 
 
        Potential amp.       -0.0084 Ry
        Total length         63.9631 bohr
 

     total cpu time spent up to now is     5805.7 secs

     total energy              =   -3891.08989433 Ry
     estimated scf accuracy    <       0.00391171 Ry

     iteration # 32     ecut=    52.00 Ry     beta= 0.30
     Davidson diagonalization with overlap
     ethr =  9.22E-07,  avg # of iterations =  2.0

     negative rho (up, down):  5.146E-03 0.000E+00
 
     Adding external electric field

     Computed dipole along edir(3) : 
        Dipole               -0.0373 Ry au,         -0.0948 Debye
        Dipole field         -0.0001 Ry au, 
 
        Potential amp.        0.0119 Ry
        Total length         63.9631 bohr
 

     total cpu time spent up to now is     5956.8 secs

     total energy              =   -3891.08946636 Ry
     estimated scf accuracy    <       0.00384742 Ry

     iteration # 33     ecut=    52.00 Ry     beta= 0.30
     Davidson diagonalization with overlap
     c_bands:  1 eigenvalues not converged
     c_bands:  1 eigenvalues not converged
     c_bands:  1 eigenvalues not converged
     ethr =  9.22E-07,  avg # of iterations =  8.3

     negative rho (up, down):  3.135E-03 0.000E+00
 
     Adding external electric field

     Computed dipole along edir(3) : 
        Dipole                0.0354 Ry au,          0.0899 Debye
        Dipole field          0.0001 Ry au, 
 
        Potential amp.       -0.0112 Ry
        Total length         63.9631 bohr
 

     total cpu time spent up to now is     6159.5 secs

     total energy              =   -3891.08964758 Ry
     estimated scf accuracy    <       0.00071332 Ry

     iteration # 34     ecut=    52.00 Ry     beta= 0.30
     Davidson diagonalization with overlap
     ethr =  2.20E-07,  avg # of iterations =  8.0

     negative rho (up, down):  1.363E-03 0.000E+00
 
     Adding external electric field

     Computed dipole along edir(3) : 
        Dipole               -0.0197 Ry au,         -0.0502 Debye
        Dipole field         -0.0000 Ry au, 
 
        Potential amp.        0.0063 Ry
        Total length         63.9631 bohr
 

     total cpu time spent up to now is     6361.1 secs

     total energy              =   -3891.08965415 Ry
     estimated scf accuracy    <       0.00333070 Ry

     iteration # 35     ecut=    52.00 Ry     beta= 0.30
     Davidson diagonalization with overlap
     ethr =  2.20E-07,  avg # of iterations = 10.6

     negative rho (up, down):  1.604E-03 0.000E+00
 
     Adding external electric field

     Computed dipole along edir(3) : 
        Dipole                0.0008 Ry au,          0.0021 Debye
        Dipole field          0.0000 Ry au, 
 
        Potential amp.       -0.0003 Ry
        Total length         63.9631 bohr
 

     total cpu time spent up to now is     6582.2 secs

     total energy              =   -3891.08974669 Ry
     estimated scf accuracy    <       0.00201563 Ry

     iteration # 36     ecut=    52.00 Ry     beta= 0.30
     Davidson diagonalization with overlap
     ethr =  2.20E-07,  avg # of iterations =  3.7

     negative rho (up, down):  1.410E-03 0.000E+00
 
     Adding external electric field

     Computed dipole along edir(3) : 
        Dipole               -0.0166 Ry au,         -0.0421 Debye
        Dipole field         -0.0000 Ry au, 
 
        Potential amp.        0.0053 Ry
        Total length         63.9631 bohr
 

     total cpu time spent up to now is     6746.4 secs

     total energy              =   -3891.08961665 Ry
     estimated scf accuracy    <       0.00315266 Ry

     iteration # 37     ecut=    52.00 Ry     beta= 0.30
     Davidson diagonalization with overlap
     ethr =  2.20E-07,  avg # of iterations =  3.9

     negative rho (up, down):  2.069E-03 0.000E+00
 
     Adding external electric field

     Computed dipole along edir(3) : 
        Dipole               -0.0258 Ry au,         -0.0657 Debye
        Dipole field         -0.0001 Ry au, 
 
        Potential amp.        0.0082 Ry
        Total length         63.9631 bohr
 

     total cpu time spent up to now is     6912.7 secs

     total energy              =   -3891.08959138 Ry
     estimated scf accuracy    <       0.00142319 Ry

     iteration # 38     ecut=    52.00 Ry     beta= 0.30
     Davidson diagonalization with overlap
     ethr =  2.20E-07,  avg # of iterations =  4.0

     negative rho (up, down):  2.461E-06 0.000E+00
 
     Adding external electric field

     Computed dipole along edir(3) : 
        Dipole               -0.0284 Ry au,         -0.0723 Debye
        Dipole field         -0.0001 Ry au, 
 
        Potential amp.        0.0090 Ry
        Total length         63.9631 bohr
 

     total cpu time spent up to now is     7080.0 secs

     total energy              =   -3891.08963936 Ry
     estimated scf accuracy    <       0.00042866 Ry

     iteration # 39     ecut=    52.00 Ry     beta= 0.30
     Davidson diagonalization with overlap
     c_bands:  1 eigenvalues not converged
     ethr =  1.32E-07,  avg # of iterations =  6.9

     negative rho (up, down):  1.559E-04 0.000E+00
 
     Adding external electric field

     Computed dipole along edir(3) : 
        Dipole                0.0198 Ry au,          0.0504 Debye
        Dipole field          0.0000 Ry au, 
 
        Potential amp.       -0.0063 Ry
        Total length         63.9631 bohr
 

     total cpu time spent up to now is     7270.5 secs

     total energy              =   -3891.08974411 Ry
     estimated scf accuracy    <       0.00146526 Ry

     iteration # 40     ecut=    52.00 Ry     beta= 0.30
     Davidson diagonalization with overlap
     ethr =  1.32E-07,  avg # of iterations =  5.7

     negative rho (up, down):  2.098E-04 0.000E+00
 
     Adding external electric field

     Computed dipole along edir(3) : 
        Dipole                0.0119 Ry au,          0.0301 Debye
        Dipole field          0.0000 Ry au, 
 
        Potential amp.       -0.0038 Ry
        Total length         63.9631 bohr
 

     total cpu time spent up to now is     7450.7 secs

     total energy              =   -3891.08968541 Ry
     estimated scf accuracy    <       0.00315260 Ry

     iteration # 41     ecut=    52.00 Ry     beta= 0.30
     Davidson diagonalization with overlap
     ethr =  1.32E-07,  avg # of iterations =  3.8

     negative rho (up, down):  1.311E-03 0.000E+00
 
     Adding external electric field

     Computed dipole along edir(3) : 
        Dipole               -0.0052 Ry au,         -0.0131 Debye
        Dipole field         -0.0000 Ry au, 
 
        Potential amp.        0.0016 Ry
        Total length         63.9631 bohr
 

     total cpu time spent up to now is     7617.1 secs

     total energy              =   -3891.08958851 Ry
     estimated scf accuracy    <       0.00166642 Ry

     iteration # 42     ecut=    52.00 Ry     beta= 0.30
     Davidson diagonalization with overlap
     ethr =  1.32E-07,  avg # of iterations =  5.4

     negative rho (up, down):  1.924E-03 0.000E+00
 
     Adding external electric field

     Computed dipole along edir(3) : 
        Dipole                0.0064 Ry au,          0.0161 Debye
        Dipole field          0.0000 Ry au, 
 
        Potential amp.       -0.0020 Ry
        Total length         63.9631 bohr
 

     total cpu time spent up to now is     7794.5 secs

     total energy              =   -3891.08964183 Ry
     estimated scf accuracy    <       0.00008424 Ry

     iteration # 43     ecut=    52.00 Ry     beta= 0.30
     Davidson diagonalization with overlap
     ethr =  2.60E-08,  avg # of iterations =  4.0

     negative rho (up, down):  9.123E-04 0.000E+00
 
     Adding external electric field

     Computed dipole along edir(3) : 
        Dipole                0.0233 Ry au,          0.0591 Debye
        Dipole field          0.0001 Ry au, 
 
        Potential amp.       -0.0074 Ry
        Total length         63.9631 bohr
 

     total cpu time spent up to now is     7963.5 secs

     total energy              =   -3891.08963402 Ry
     estimated scf accuracy    <       0.00016204 Ry

     iteration # 44     ecut=    52.00 Ry     beta= 0.30
     Davidson diagonalization with overlap
     c_bands:  1 eigenvalues not converged
     c_bands:  1 eigenvalues not converged
     ethr =  2.60E-08,  avg # of iterations =  6.3

     negative rho (up, down):  5.337E-04 0.000E+00
 
     Adding external electric field

     Computed dipole along edir(3) : 
        Dipole                0.0201 Ry au,          0.0510 Debye
        Dipole field          0.0000 Ry au, 
 
        Potential amp.       -0.0064 Ry
        Total length         63.9631 bohr
 

     total cpu time spent up to now is     8151.9 secs

     total energy              =   -3891.08963528 Ry
     estimated scf accuracy    <       0.00013961 Ry

     iteration # 45     ecut=    52.00 Ry     beta= 0.30
     Davidson diagonalization with overlap
     c_bands:  1 eigenvalues not converged
     ethr =  2.60E-08,  avg # of iterations =  4.8

     negative rho (up, down):  2.002E-04 0.000E+00
 
     Adding external electric field

     Computed dipole along edir(3) : 
        Dipole                0.0190 Ry au,          0.0482 Debye
        Dipole field          0.0000 Ry au, 
 
        Potential amp.       -0.0060 Ry
        Total length         63.9631 bohr
 

     total cpu time spent up to now is     8325.4 secs

     total energy              =   -3891.08963935 Ry
     estimated scf accuracy    <       0.00004754 Ry

     iteration # 46     ecut=    52.00 Ry     beta= 0.30
     Davidson diagonalization with overlap
     ethr =  1.47E-08,  avg # of iterations =  2.4

     negative rho (up, down):  3.007E-04 0.000E+00
 
     Adding external electric field

     Computed dipole along edir(3) : 
        Dipole                0.0221 Ry au,          0.0562 Debye
        Dipole field          0.0001 Ry au, 
 
        Potential amp.       -0.0070 Ry
        Total length         63.9631 bohr
 

     total cpu time spent up to now is     8479.3 secs

     total energy              =   -3891.08963997 Ry
     estimated scf accuracy    <       0.00003230 Ry

     iteration # 47     ecut=    52.00 Ry     beta= 0.30
     Davidson diagonalization with overlap
     ethr =  9.97E-09,  avg # of iterations =  1.2

     negative rho (up, down):  2.953E-04 0.000E+00
 
     Adding external electric field

     Computed dipole along edir(3) : 
        Dipole                0.0223 Ry au,          0.0566 Debye
        Dipole field          0.0001 Ry au, 
 
        Potential amp.       -0.0071 Ry
        Total length         63.9631 bohr
 

     total cpu time spent up to now is     8619.6 secs

     total energy              =   -3891.08964074 Ry
     estimated scf accuracy    <       0.00001285 Ry

     iteration # 48     ecut=    52.00 Ry     beta= 0.30
     Davidson diagonalization with overlap
     ethr =  3.97E-09,  avg # of iterations =  1.0

     negative rho (up, down):  2.775E-04 0.000E+00
 
     Adding external electric field

     Computed dipole along edir(3) : 
        Dipole                0.0235 Ry au,          0.0597 Debye
        Dipole field          0.0001 Ry au, 
 
        Potential amp.       -0.0075 Ry
        Total length         63.9631 bohr
 

     total cpu time spent up to now is     8757.3 secs

     total energy              =   -3891.08964036 Ry
     estimated scf accuracy    <       0.00000522 Ry

     iteration # 49     ecut=    52.00 Ry     beta= 0.30
     Davidson diagonalization with overlap
     ethr =  1.61E-09,  avg # of iterations =  1.4

     negative rho (up, down):  3.081E-04 0.000E+00
 
     Adding external electric field

     Computed dipole along edir(3) : 
        Dipole                0.0244 Ry au,          0.0620 Debye
        Dipole field          0.0001 Ry au, 
 
        Potential amp.       -0.0077 Ry
        Total length         63.9631 bohr
 

     total cpu time spent up to now is     8899.7 secs

     total energy              =   -3891.08964021 Ry
     estimated scf accuracy    <       0.00000528 Ry

     iteration # 50     ecut=    52.00 Ry     beta= 0.30
     Davidson diagonalization with overlap
     ethr =  1.61E-09,  avg # of iterations =  1.0

     negative rho (up, down):  2.309E-04 0.000E+00
 
     Adding external electric field

     Computed dipole along edir(3) : 
        Dipole                0.0223 Ry au,          0.0568 Debye
        Dipole field          0.0001 Ry au, 
 
        Potential amp.       -0.0071 Ry
        Total length         63.9631 bohr
 

     total cpu time spent up to now is     9037.2 secs

     total energy              =   -3891.08964032 Ry
     estimated scf accuracy    <       0.00000129 Ry

     iteration # 51     ecut=    52.00 Ry     beta= 0.30
     Davidson diagonalization with overlap
     ethr =  3.98E-10,  avg # of iterations =  2.0

     negative rho (up, down):  2.646E-04 0.000E+00
 
     Adding external electric field

     Computed dipole along edir(3) : 
        Dipole                0.0231 Ry au,          0.0588 Debye
        Dipole field          0.0001 Ry au, 
 
        Potential amp.       -0.0073 Ry
        Total length         63.9631 bohr
 

     total cpu time spent up to now is     9188.3 secs

     total energy              =   -3891.08964016 Ry
     estimated scf accuracy    <       0.00000125 Ry

     iteration # 52     ecut=    52.00 Ry     beta= 0.30
     Davidson diagonalization with overlap
     ethr =  3.86E-10,  avg # of iterations =  1.4

     negative rho (up, down):  2.830E-04 0.000E+00
 
     Adding external electric field

     Computed dipole along edir(3) : 
        Dipole                0.0236 Ry au,          0.0599 Debye
        Dipole field          0.0001 Ry au, 
 
        Potential amp.       -0.0075 Ry
        Total length         63.9631 bohr
 

     total cpu time spent up to now is     9332.5 secs

     total energy              =   -3891.08964016 Ry
     estimated scf accuracy    <       0.00000010 Ry

     iteration # 53     ecut=    52.00 Ry     beta= 0.30
     Davidson diagonalization with overlap
     ethr =  2.96E-11,  avg # of iterations =  1.9

     negative rho (up, down):  2.760E-04 0.000E+00
 
     Adding external electric field

     Computed dipole along edir(3) : 
        Dipole                0.0232 Ry au,          0.0589 Debye
        Dipole field          0.0001 Ry au, 
 
        Potential amp.       -0.0074 Ry
        Total length         63.9631 bohr
 

     total cpu time spent up to now is     9480.0 secs

     total energy              =   -3891.08964019 Ry
     estimated scf accuracy    <       0.00000005 Ry

     iteration # 54     ecut=    52.00 Ry     beta= 0.30
     Davidson diagonalization with overlap
     ethr =  1.54E-11,  avg # of iterations =  2.4

     negative rho (up, down):  2.770E-04 0.000E+00
 
     Adding external electric field

     Computed dipole along edir(3) : 
        Dipole                0.0232 Ry au,          0.0589 Debye
        Dipole field          0.0001 Ry au, 
 
        Potential amp.       -0.0074 Ry
        Total length         63.9631 bohr
 

     total cpu time spent up to now is     9638.0 secs

     total energy              =   -3891.08964019 Ry
     estimated scf accuracy    <       0.00000001 Ry

     iteration # 55     ecut=    52.00 Ry     beta= 0.30
     Davidson diagonalization with overlap
     ethr =  3.99E-12,  avg # of iterations =  2.0

     negative rho (up, down):  2.761E-04 0.000E+00
 
     Adding external electric field

     Computed dipole along edir(3) : 
        Dipole                0.0223 Ry au,          0.0566 Debye
        Dipole field          0.0001 Ry au, 
 
        Potential amp.       -0.0071 Ry
        Total length         63.9631 bohr
 

     total cpu time spent up to now is     9786.1 secs

     End of self-consistent calculation

          k = 0.0000 0.0000 0.0000 ( 32011 PWs)   bands (ev):

   -87.1898 -87.1770 -87.1741 -87.1738 -87.1654 -87.1654 -87.0026 -86.9892
   -86.9891 -86.9236 -86.9102 -86.9100 -50.6908 -50.6747 -50.6746 -50.6738
   -50.6735 -50.6704 -50.6704 -50.6469 -50.6467 -50.6164 -50.6161 -50.6094
   -50.6094 -50.6044 -50.5754 -50.5753 -50.5596 -50.5593 -50.4887 -50.4881
   -50.4857 -50.4850 -50.4219 -50.4110 -50.4108 -50.4099 -50.4098 -50.4079
   -50.4078 -50.3983 -50.3981 -50.3380 -50.3256 -50.3253 -50.3197 -50.3193
   -14.6816 -14.3394 -14.1838  -9.5789  -9.5721  -9.5697  -9.2214  -9.2213
    -9.2213  -9.1226  -9.1226  -9.1226  -8.4419  -8.4381  -8.4368  -8.0830
    -8.0829  -8.0829  -7.9919  -7.9919  -7.9919  -3.2851  -2.6849  -2.4889
    -1.8529  -1.7355  -1.7336  -1.7297  -1.6080  -1.3756  -1.3756  -1.3756
    -1.3478  -1.2913  -1.2913  -1.2913  -1.1818  -0.7286  -0.7277  -0.7091
    -0.7090  -0.7042  -0.7039  -0.3665  -0.3662  -0.3497  -0.3496  -0.1829
    -0.1799  -0.1467  -0.1465   0.0850   0.1253   0.1258   0.1739   0.1748
     0.2364   0.2379   0.2666   0.2673   0.2935   0.3865   0.3871   0.4753
     0.4775   0.4956   0.5106   0.5335   0.5447   0.6287   0.6287   0.6453
     0.6454   1.0219   1.0227   1.1443   1.1472   1.1483   1.1535   1.2065
     1.2066   1.2955   1.3085   1.5019   1.5485   1.5500   1.5591   1.6154
     1.6433   1.6474   1.7532   1.7671   1.8081   1.8114   1.8275   1.8293
     1.8901   1.8983   1.9071   1.9072   1.9874   1.9874   2.2258   2.2363
     2.2630   2.5566   2.5575   2.5599   2.8532   2.8532   2.8532   4.1233
     5.3722   6.1269   6.1633   6.1756   6.5456   6.5485   6.5496   6.8803
     6.8825   6.8833   8.3529   8.3538   8.5483   8.5528   8.5563   8.5582
     8.6432   9.0539   9.3365   9.3527   9.3619   9.3651   9.5639   9.7537
     9.7590  10.0268  10.7351  11.0139  11.0234  11.0372  11.0382  11.0710
    11.3202  11.3325

          k = 0.0000 0.1283 0.0000 ( 32037 PWs)   bands (ev):

   -87.1892 -87.1765 -87.1744 -87.1741 -87.1657 -87.1656 -87.0022 -86.9895
   -86.9893 -86.9231 -86.9105 -86.9102 -50.6894 -50.6870 -50.6843 -50.6777
   -50.6762 -50.6598 -50.6576 -50.6394 -50.6392 -50.6180 -50.6167 -50.6079
   -50.6070 -50.6055 -50.5794 -50.5769 -50.5646 -50.5606 -50.4998 -50.4976
   -50.4725 -50.4711 -50.4221 -50.4214 -50.4198 -50.4112 -50.4110 -50.4034
   -50.3994 -50.3942 -50.3928 -50.3376 -50.3258 -50.3255 -50.3246 -50.3208
   -14.6099 -14.2677 -14.1126 -10.2864  -9.9391  -9.8149  -9.7776  -9.7725
    -9.4258  -9.4257  -9.3117  -9.3117  -8.1275  -8.1234  -7.7736  -7.7736
    -7.6685  -7.6685  -7.6274  -7.2770  -7.1669  -3.1979  -2.5952  -2.3808
    -1.9545  -1.9519  -1.7684  -1.6625  -1.5961  -1.5961  -1.5108  -1.5108
    -1.5103  -1.3050  -1.2658  -1.2208  -1.0960  -0.9152  -0.8430  -0.7836
    -0.7327  -0.6074  -0.5686  -0.4946  -0.4454  -0.4361  -0.3755  -0.2190
    -0.1863  -0.1718  -0.1212   0.0568   0.0784   0.0951   0.1848   0.1892
     0.1965   0.2204   0.2877   0.2937   0.3395   0.3572   0.3947   0.4366
     0.4394   0.4528   0.5228   0.5310   0.5659   0.6461   0.7662   0.7801
     0.8980   0.9290   0.9767   1.0324   1.1118   1.1655   1.1733   1.2117
     1.2421   1.2555   1.2995   1.3135   1.3941   1.4308   1.5283   1.5412
     1.6123   1.6185   1.6421   1.6931   1.6963   1.7559   1.7588   1.8081
     1.8364   1.8399   1.8470   1.8941   1.9186   1.9545   2.1183   2.1458
     2.1650   2.1929   2.5038   2.5082   2.5943   2.8585   2.8587   4.2851
     5.6093   6.2498   6.2741   6.5698   6.6532   6.6583   6.7058   7.0118
     7.0136   7.0258   7.4296   7.4447   7.6067   7.7071   8.3516   8.7399
     8.7802   8.9414   9.1490   9.5391   9.6014   9.6590   9.9787  10.1095
    10.4208  10.5155  10.5981  10.7936  10.8266  11.1074  11.1527  11.5741
    11.6864  11.7096

          k = 0.0000 0.2566 0.0000 ( 32015 PWs)   bands (ev):

   -87.1877 -87.1754 -87.1753 -87.1747 -87.1664 -87.1660 -87.0008 -86.9903
   -86.9898 -86.9218 -86.9113 -86.9107 -50.6982 -50.6876 -50.6872 -50.6855
   -50.6792 -50.6489 -50.6403 -50.6324 -50.6272 -50.6178 -50.6111 -50.6106
   -50.6061 -50.6027 -50.5885 -50.5832 -50.5769 -50.5645 -50.5103 -50.5005
   -50.4577 -50.4541 -50.4329 -50.4229 -50.4206 -50.4172 -50.4119 -50.4115
   -50.4034 -50.3793 -50.3756 -50.3391 -50.3360 -50.3266 -50.3261 -50.3248
   -14.3952 -14.0528 -13.8992 -11.2586 -10.9130 -10.7800 -10.0959 -10.0903
    -9.7456  -9.7455  -9.6226  -9.6226  -7.4694  -7.4647  -7.1162  -7.1162
    -7.0077  -7.0077  -6.3411  -5.9900  -5.8830  -2.9381  -2.5440  -2.5408
    -2.3325  -2.1862  -2.1861  -2.0981  -2.0981  -2.0679  -1.5183  -1.4536
    -1.2490  -1.0961  -1.0925  -1.0373  -1.0120  -0.9279  -0.9062  -0.8949
    -0.8708  -0.8480  -0.6534  -0.5960  -0.4347  -0.4340  -0.3860  -0.3107
    -0.2706  -0.2602  -0.2054  -0.1270  -0.0189   0.0488   0.1063   0.1814
     0.2657   0.2726   0.3242   0.3402   0.3521   0.3809   0.4112   0.4271
     0.4445   0.4891   0.5252   0.5590   0.5730   0.6367   0.6779   0.7576
     0.7701   0.8036   0.8177   0.8862   0.9352   0.9667   0.9955   1.0422
     1.0991   1.1227   1.1874   1.2000   1.2252   1.2459   1.2794   1.3535
     1.3568   1.3759   1.4348   1.4972   1.5370   1.5898   1.5942   1.6392
     1.7875   1.7948   1.8493   1.8817   1.9034   1.9455   1.9912   2.0126
     2.0627   2.0889   2.3847   2.4000   2.5500   2.8390   2.8400   4.7062
     5.0054   5.8539   6.2362   6.4533   6.5576   6.5784   6.9281   6.9538
     6.9751   7.2951   7.3228   7.3246   7.4965   7.8261   7.9336   8.1958
     8.6305   9.0297   9.3508   9.4334   9.4373   9.9439  10.1138  10.3597
    10.8090  10.8816  11.0671  11.1005  11.4035  11.5718  11.8057  11.8464
    12.1443  12.1858

          k = 0.0000 0.3849 0.0000 ( 32055 PWs)   bands (ev):

   -87.1853 -87.1772 -87.1753 -87.1736 -87.1677 -87.1664 -86.9988 -86.9919
   -86.9903 -86.9197 -86.9128 -86.9112 -50.7063 -50.6955 -50.6819 -50.6799
   -50.6750 -50.6447 -50.6332 -50.6255 -50.6246 -50.6171 -50.6090 -50.6059
   -50.6035 -50.5983 -50.5978 -50.5931 -50.5857 -50.5711 -50.5177 -50.4947
   -50.4434 -50.4407 -50.4399 -50.4381 -50.4184 -50.4169 -50.4131 -50.4120
   -50.4099 -50.3648 -50.3612 -50.3594 -50.3343 -50.3313 -50.3280 -50.3266
   -14.0387 -13.6959 -13.5446 -12.1441 -11.7996 -11.6607 -10.3390 -10.3333
    -9.9893  -9.9893  -9.8630  -9.8630  -6.6952  -6.6904  -6.3411  -6.3410
    -6.2364  -6.2364  -4.9460  -4.5934  -4.4921  -3.3342  -3.3304  -2.9768
    -2.9768  -2.8860  -2.8860  -2.5097  -1.9064  -1.6049  -1.2582  -1.1598
    -1.1525  -1.1154  -1.1097  -0.9197  -0.8743  -0.8528  -0.8312  -0.7571
    -0.7512  -0.7130  -0.6920  -0.6733  -0.6609  -0.6196  -0.5198  -0.4561
    -0.3907  -0.3558  -0.3181  -0.2833  -0.2700  -0.2313  -0.1795  -0.1372
    -0.1092  -0.0187   0.0922   0.1051   0.1528   0.1870   0.2573   0.2634
     0.3003   0.3332   0.4048   0.4519   0.5192   0.5306   0.5570   0.6513
     0.6518   0.6586   0.7075   0.7238   0.8112   0.8583   0.8683   0.8933
     0.9127   0.9470   0.9843   1.1069   1.1216   1.1989   1.2631   1.3112
     1.3250   1.3589   1.4342   1.4691   1.5750   1.6445   1.6732   1.7314
     1.7421   1.8335   1.8632   1.8706   1.8943   1.9477   1.9701   1.9805
     2.0435   2.0778   2.2654   2.2987   2.7907   2.7933   3.0686   3.5787
     4.3202   5.2942   5.6576   5.8485   6.2900   6.7783   6.9363   6.9755
     7.1212   7.1693   7.3167   7.3201   7.6526   7.6541   8.0213   9.1633
     9.2596   9.5118   9.6262   9.8203   9.9054  10.0216  10.4177  10.5182
    10.6462  10.7839  11.5527  11.8237  11.8355  11.9774  12.0794  12.2541
    12.3330  12.3803

          k = 0.0000 0.5132 0.0000 ( 32102 PWs)   bands (ev):

   -87.1826 -87.1797 -87.1757 -87.1715 -87.1694 -87.1666 -86.9964 -86.9940
   -86.9906 -86.9173 -86.9149 -86.9116 -50.7106 -50.6997 -50.6745 -50.6740
   -50.6637 -50.6454 -50.6404 -50.6344 -50.6251 -50.6141 -50.6078 -50.6060
   -50.6006 -50.5972 -50.5945 -50.5903 -50.5901 -50.5800 -50.5215 -50.4806
   -50.4605 -50.4447 -50.4318 -50.4302 -50.4191 -50.4164 -50.4147 -50.4123
   -50.4025 -50.3821 -50.3530 -50.3517 -50.3404 -50.3321 -50.3299 -50.3269
   -13.5421 -13.1989 -13.0509 -12.9088 -12.5651 -12.4212 -10.4658 -10.4600
   -10.1163 -10.1162  -9.9887  -9.9887  -6.0003  -5.9955  -5.6435  -5.6435
    -5.5492  -5.5492  -4.0589  -4.0548  -3.7006  -3.7006  -3.6120  -3.6120
    -3.5030  -3.1487  -3.0532  -2.0669  -1.9212  -1.7109  -1.6206  -1.3947
    -1.3259  -1.3030  -1.2430  -1.1910  -1.1256  -0.9841  -0.8659  -0.8261
    -0.7895  -0.6960  -0.6631  -0.6305  -0.6289  -0.6044  -0.5672  -0.5428
    -0.5273  -0.4655  -0.3947  -0.3747  -0.3044  -0.2914  -0.2897  -0.2210
    -0.1240  -0.0575  -0.0410   0.0238   0.0462   0.0741   0.0871   0.1407
     0.1782   0.2286   0.2339   0.2610   0.2724   0.3167   0.3565   0.3615
     0.4642   0.5537   0.6014   0.6310   0.7151   0.7980   0.8379   0.8812
     0.9078   1.0697   1.0798   1.1370   1.1489   1.2867   1.3850   1.4300
     1.4646   1.5158   1.5231   1.5741   1.6833   1.7039   1.7360   1.7677
     1.8035   1.8178   1.8312   1.9016   1.9195   1.9574   2.0272   2.1380
     2.1429   2.1919   2.2018   2.2429   2.4500   2.7518   2.7558   3.0375
     3.7295   4.6377   5.1239   5.9171   6.0183   6.4501   6.6670   6.8964
     7.2194   7.2268   7.5711   7.5724   7.8558   7.8563   8.1622   9.0574
     9.3060   9.6708  10.1836  10.4260  10.5633  10.7844  11.0208  11.0798
    11.1611  11.3862  11.4063  11.4676  11.6173  11.9370  12.1293  12.1366
    12.2902  12.2932

          k = 0.1111-0.0642 0.0000 ( 32037 PWs)   bands (ev):

   -87.1892 -87.1765 -87.1744 -87.1741 -87.1657 -87.1656 -87.0022 -86.9895
   -86.9893 -86.9231 -86.9105 -86.9102 -50.6894 -50.6869 -50.6843 -50.6777
   -50.6764 -50.6596 -50.6577 -50.6394 -50.6393 -50.6180 -50.6168 -50.6078
   -50.6071 -50.6055 -50.5794 -50.5769 -50.5647 -50.5605 -50.4998 -50.4976
   -50.4725 -50.4711 -50.4219 -50.4214 -50.4200 -50.4112 -50.4110 -50.4033
   -50.3995 -50.3941 -50.3930 -50.3376 -50.3258 -50.3255 -50.3248 -50.3206
   -14.6099 -14.2677 -14.1126 -10.2864  -9.9391  -9.8149  -9.7787  -9.7715
    -9.4258  -9.4257  -9.3117  -9.3117  -8.1278  -8.1231  -7.7736  -7.7735
    -7.6685  -7.6685  -7.6274  -7.2770  -7.1669  -3.1979  -2.5952  -2.3807
    -1.9557  -1.9508  -1.7684  -1.6623  -1.5961  -1.5961  -1.5108  -1.5108
    -1.5102  -1.3050  -1.2659  -1.2208  -1.0960  -0.9145  -0.8436  -0.7843
    -0.7324  -0.6081  -0.5677  -0.4953  -0.4449  -0.4361  -0.3753  -0.2192
    -0.1859  -0.1728  -0.1204   0.0572   0.0778   0.0947   0.1848   0.1899
     0.1967   0.2205   0.2885   0.2922   0.3397   0.3569   0.3924   0.4374
     0.4394   0.4535   0.5247   0.5309   0.5658   0.6436   0.7678   0.7808
     0.8985   0.9290   0.9761   1.0341   1.1086   1.1666   1.1742   1.2120
     1.2423   1.2543   1.3006   1.3125   1.3975   1.4317   1.5257   1.5369
     1.6123   1.6206   1.6435   1.6931   1.6956   1.7541   1.7559   1.8079
     1.8364   1.8414   1.8542   1.8911   1.9188   1.9530   2.1195   2.1489
     2.1568   2.1968   2.5032   2.5089   2.5942   2.8586   2.8586   4.2853
     5.6094   6.2444   6.2796   6.5702   6.6528   6.6587   6.7053   7.0118
     7.0137   7.0257   7.4288   7.4447   7.6063   7.7084   8.3519   8.7399
     8.7834   8.9409   9.1490   9.5375   9.6027   9.6590   9.9743  10.1095
    10.4211  10.5165  10.5988  10.7935  10.8266  11.1071  11.1527  11.5741
    11.6859  11.7073

          k = 0.1111 0.0642 0.0000 ( 32037 PWs)   bands (ev):

   -87.1892 -87.1765 -87.1744 -87.1741 -87.1657 -87.1656 -87.0022 -86.9895
   -86.9893 -86.9231 -86.9105 -86.9102 -50.6894 -50.6870 -50.6843 -50.6777
   -50.6762 -50.6598 -50.6575 -50.6395 -50.6393 -50.6178 -50.6168 -50.6076
   -50.6073 -50.6055 -50.5794 -50.5770 -50.5644 -50.5608 -50.4999 -50.4975
   -50.4726 -50.4710 -50.4222 -50.4214 -50.4197 -50.4112 -50.4110 -50.4032
   -50.3996 -50.3944 -50.3926 -50.3376 -50.3258 -50.3255 -50.3244 -50.3210
   -14.6099 -14.2677 -14.1126 -10.2864  -9.9391  -9.8149  -9.7776  -9.7725
    -9.4258  -9.4257  -9.3117  -9.3117  -8.1275  -8.1234  -7.7736  -7.7736
    -7.6685  -7.6685  -7.6274  -7.2770  -7.1669  -3.1979  -2.5952  -2.3808
    -1.9545  -1.9518  -1.7684  -1.6625  -1.5961  -1.5961  -1.5108  -1.5108
    -1.5102  -1.3051  -1.2659  -1.2208  -1.0963  -0.9160  -0.8437  -0.7817
    -0.7312  -0.6087  -0.5682  -0.4951  -0.4452  -0.4367  -0.3769  -0.2185
    -0.1868  -0.1714  -0.1199   0.0579   0.0781   0.0950   0.1850   0.1885
     0.1974   0.2195   0.2882   0.2958   0.3407   0.3564   0.3940   0.4369
     0.4385   0.4526   0.5192   0.5320   0.5667   0.6451   0.7664   0.7784
     0.8970   0.9320   0.9760   1.0377   1.1110   1.1672   1.1736   1.2107
     1.2423   1.2545   1.2937   1.3131   1.3953   1.4292   1.5268   1.5424
     1.6123   1.6154   1.6452   1.6931   1.6964   1.7559   1.7598   1.8080
     1.8364   1.8389   1.8478   1.8980   1.9178   1.9551   2.1172   2.1458
     2.1653   2.1928   2.5036   2.5084   2.5943   2.8585   2.8587   4.2849
     5.6090   6.2501   6.2738   6.5696   6.6533   6.6584   6.7062   7.0118
     7.0136   7.0259   7.4282   7.4445   7.6064   7.7096   8.3484   8.7399
     8.7772   8.9438   9.1490   9.5395   9.6020   9.6590   9.9805  10.1095
    10.4215  10.5150  10.6012  10.7908  10.8266  11.1068  11.1528  11.5727
    11.6863  11.7101

          k = 0.1111 0.1925 0.0000 ( 31991 PWs)   bands (ev):

   -87.1882 -87.1757 -87.1749 -87.1747 -87.1660 -87.1660 -87.0012 -86.9899
   -86.9898 -86.9222 -86.9109 -86.9107 -50.6917 -50.6915 -50.6867 -50.6822
   -50.6821 -50.6479 -50.6478 -50.6323 -50.6319 -50.6157 -50.6156 -50.6089
   -50.6053 -50.6049 -50.5862 -50.5797 -50.5743 -50.5630 -50.5047 -50.5040
   -50.4603 -50.4596 -50.4269 -50.4267 -50.4207 -50.4130 -50.4116 -50.4114
   -50.4020 -50.3816 -50.3814 -50.3369 -50.3341 -50.3263 -50.3260 -50.3235
   -14.4667 -14.1244 -13.9702 -10.7307 -10.7273 -10.3827 -10.3826 -10.2538
   -10.2537  -9.3877  -9.0354  -8.9371  -8.2647  -7.9085  -7.8183  -6.9662
    -6.9660  -6.6155  -6.6154  -6.5066  -6.5066  -3.0244  -2.6160  -2.4194
    -2.2598  -2.1717  -2.1705  -1.8138  -1.8093  -1.6012  -1.4544  -1.4544
    -1.3692  -1.3692  -1.3328  -1.1122  -0.9876  -0.9867  -0.9421  -0.8286
    -0.8283  -0.7325  -0.7324  -0.5128  -0.5115  -0.3781  -0.3755  -0.3088
    -0.3078  -0.1915  -0.1898  -0.0767   0.0193   0.0701   0.1584   0.1657
     0.2939   0.3000   0.3039   0.3266   0.3283   0.3513   0.3937   0.3984
     0.4335   0.5437   0.5443   0.5520   0.6346   0.7276   0.8044   0.8103
     0.8231   0.9261   0.9316   1.0385   1.0408   1.0700   1.0837   1.0907
     1.0968   1.1678   1.1873   1.1976   1.2862   1.3083   1.3315   1.3693
     1.3743   1.3916   1.4533   1.5338   1.5500   1.5578   1.5582   1.6438
     1.7156   1.7328   1.8726   1.8765   1.9032   1.9078   1.9385   2.0334
     2.0439   2.3283   2.3319   2.4213   2.4861   2.8141   3.1098   4.5731
     5.8176   5.8293   6.0343   6.1109   6.4866   6.6625   6.6678   6.7531
     7.1203   7.1726   7.5317   7.5418   7.9545   7.9613   8.0328   8.0474
     8.8482   8.8520   8.9332   9.3387   9.8490   9.8956   9.9014  10.2760
    10.5191  10.5256  11.0095  11.3191  11.4216  11.4265  11.5660  11.5687
    12.0570  12.0645

          k = 0.1111 0.3208 0.0000 ( 32047 PWs)   bands (ev):

   -87.1862 -87.1762 -87.1754 -87.1742 -87.1669 -87.1665 -86.9995 -86.9910
   -86.9904 -86.9205 -86.9120 -86.9113 -50.6998 -50.6896 -50.6894 -50.6820
   -50.6813 -50.6426 -50.6363 -50.6273 -50.6238 -50.6199 -50.6093 -50.6059
   -50.6024 -50.6004 -50.5959 -50.5903 -50.5843 -50.5675 -50.5117 -50.5023
   -50.4470 -50.4449 -50.4344 -50.4310 -50.4248 -50.4190 -50.4124 -50.4120
   -50.4068 -50.3684 -50.3664 -50.3521 -50.3350 -50.3283 -50.3272 -50.3266
   -14.1811 -13.8385 -13.6863 -11.6644 -11.3193 -11.1836 -11.0579 -10.7121
   -10.5805  -9.3990  -9.0492  -8.9371  -7.8003  -7.4477  -7.3454  -6.2102
    -5.8586  -5.7536  -5.6233  -5.2713  -5.1677  -3.4950  -3.1398  -3.0481
    -2.6804  -2.3227  -2.0758  -1.9662  -1.8787  -1.7870  -1.5331  -1.2725
    -1.1758  -1.1421  -1.0909  -1.0647  -1.0337  -1.0236  -0.9896  -0.8991
    -0.8626  -0.8223  -0.7037  -0.6938  -0.5519  -0.5154  -0.4543  -0.3782
    -0.3312  -0.2450  -0.2079  -0.1910  -0.1754  -0.0835  -0.0272   0.1102
     0.1539   0.1646   0.2369   0.2410   0.2577   0.3056   0.3068   0.3250
     0.4091   0.4444   0.4634   0.5233   0.5454   0.5501   0.5697   0.5818
     0.5994   0.7539   0.7619   0.8321   0.8687   0.9152   0.9288   0.9587
     0.9780   1.0101   1.0501   1.0684   1.0846   1.1973   1.2045   1.2770
     1.3274   1.3417   1.3518   1.4330   1.4383   1.4989   1.5374   1.5928
     1.5962   1.6594   1.6823   1.8500   1.8626   1.9051   1.9439   1.9666
     2.0729   2.0837   2.1248   2.6422   2.8643   3.0045   3.3638   4.2724
     5.0656   5.0679   5.0891   5.8585   6.1141   6.4756   6.5515   6.7217
     6.7834   7.1129   7.7122   8.0824   8.1780   8.4152   8.4717   8.6848
     8.8701   9.2681   9.3193   9.4836   9.7167  10.1319  10.2282  10.3677
    10.6137  11.0001  11.0665  11.3736  11.6614  11.6782  12.2117  12.4266
    12.5368  12.6550

          k = 0.1111 0.4491 0.0000 ( 32079 PWs)   bands (ev):

   -87.1837 -87.1783 -87.1760 -87.1723 -87.1684 -87.1668 -86.9973 -86.9928
   -86.9908 -86.9183 -86.9137 -86.9118 -50.7053 -50.6950 -50.6801 -50.6765
   -50.6739 -50.6421 -50.6389 -50.6356 -50.6170 -50.6159 -50.6128 -50.6055
   -50.6019 -50.5960 -50.5932 -50.5925 -50.5913 -50.5745 -50.5167 -50.4920
   -50.4528 -50.4397 -50.4346 -50.4336 -50.4174 -50.4142 -50.4140 -50.4137
   -50.4124 -50.3742 -50.3558 -50.3551 -50.3354 -50.3329 -50.3288 -50.3271
   -13.7545 -13.4116 -13.2622 -12.4904 -12.1462 -12.0051 -11.2589 -10.9133
   -10.7802  -9.5219  -9.1735  -9.0543  -7.0766  -6.7240  -6.6225  -5.4486
    -5.0951  -4.9971  -4.3974  -4.2120  -4.0424  -3.9497  -3.8584  -3.7607
    -2.9992  -2.6431  -2.5542  -2.1719  -1.5738  -1.4193  -1.3377  -1.3069
    -1.2278  -1.1805  -1.1287  -1.0619  -0.9753  -0.9380  -0.9163  -0.8999
    -0.8740  -0.8441  -0.7952  -0.7710  -0.7356  -0.7080  -0.6986  -0.6866
    -0.5601  -0.5278  -0.5181  -0.3719  -0.3471  -0.3249  -0.1703  -0.1629
    -0.1439  -0.0750  -0.0323  -0.0114   0.0949   0.1295   0.2146   0.2547
     0.2860   0.2952   0.3259   0.3808   0.4085   0.4218   0.4575   0.5743
     0.5860   0.6163   0.6306   0.7674   0.7887   0.8051   0.8455   0.8565
     0.8689   0.9925   1.0004   1.0076   1.1303   1.1763   1.2020   1.3047
     1.3419   1.3532   1.4137   1.4691   1.5047   1.5651   1.5924   1.7386
     1.7839   1.8164   1.8171   1.8601   1.8636   1.9162   1.9352   1.9723
     1.9808   2.0257   2.1262   2.6749   2.9635   3.0864   3.4266   3.5478
     3.6457   4.4916   5.2285   5.2476   5.7043   6.1897   6.4889   6.5463
     6.8239   7.4696   7.6537   7.7267   8.1746   8.5296   8.8382   9.2840
     9.8622   9.8968   9.9126  10.0560  10.2806  10.3284  10.6743  10.7133
    10.7958  11.1302  11.6206  11.8659  11.9104  12.0881  12.1119  12.1888
    12.4094  12.5091

          k = 0.1111-0.5774 0.0000 ( 32048 PWs)   bands (ev):

   -87.1810 -87.1808 -87.1762 -87.1703 -87.1703 -87.1670 -86.9950 -86.9949
   -86.9910 -86.9161 -86.9158 -86.9120 -50.7073 -50.6969 -50.6737 -50.6736
   -50.6593 -50.6592 -50.6360 -50.6346 -50.6344 -50.6106 -50.6078 -50.6023
   -50.6021 -50.5976 -50.5974 -50.5883 -50.5836 -50.5834 -50.5185 -50.4748
   -50.4743 -50.4415 -50.4297 -50.4234 -50.4231 -50.4155 -50.4154 -50.4126
   -50.3965 -50.3962 -50.3510 -50.3448 -50.3445 -50.3309 -50.3306 -50.3273
   -13.1901 -13.1891 -12.8461 -12.8461 -12.7004 -12.7004 -11.3264 -10.9809
   -10.8473  -9.5725  -9.2245  -9.1038  -6.6296  -6.2744  -6.1834  -5.0181
    -4.8993  -4.6620  -4.5738  -4.5421  -4.4560  -3.4108  -3.0533  -2.9684
    -2.7885  -2.7869  -2.4324  -2.4324  -2.3404  -2.3404  -1.5127  -1.5102
    -1.3830  -1.3024  -1.2196  -1.0281  -1.0273  -0.9801  -0.9179  -0.9167
    -0.8308  -0.8297  -0.8208  -0.7787  -0.7784  -0.6179  -0.6175  -0.5489
    -0.5334  -0.5328  -0.3571  -0.3552  -0.2761  -0.2754  -0.2594  -0.2594
    -0.1758  -0.1758  -0.1456  -0.1446  -0.0525  -0.0518  -0.0320   0.0707
     0.0772   0.0783   0.2691   0.3370   0.3374   0.3599   0.3650   0.5227
     0.5234   0.6175   0.6830   0.6837   0.7996   0.8041   0.8333   0.8830
     0.9386   0.9403   1.0779   1.0808   1.1137   1.2364   1.2380   1.3045
     1.4485   1.5104   1.5125   1.5626   1.5638   1.6335   1.6864   1.6870
     1.8205   1.8506   1.8718   1.8724   1.9020   1.9521   2.0018   2.0022
     2.0045   2.1121   2.1889   2.5245   2.5254   2.6737   3.1037   3.6093
     4.1850   4.1861   4.2315   5.0020   6.2170   6.2446   6.4973   6.5078
     6.6017   6.8811   7.4671   8.3518   8.7050   8.8015   8.8132   8.9691
     9.2249   9.8291  10.6081  10.6600  10.6600  11.0256  11.0269  11.4499
    11.4522  11.5608  11.5630  11.7499  11.7505  11.8932  11.8937  11.9702
    12.0832  12.0835

          k = 0.1111-0.4491 0.0000 ( 32079 PWs)   bands (ev):

   -87.1837 -87.1783 -87.1760 -87.1723 -87.1684 -87.1668 -86.9973 -86.9928
   -86.9908 -86.9183 -86.9137 -86.9118 -50.7053 -50.6950 -50.6801 -50.6765
   -50.6739 -50.6420 -50.6390 -50.6355 -50.6170 -50.6160 -50.6127 -50.6056
   -50.6022 -50.5960 -50.5932 -50.5924 -50.5912 -50.5744 -50.5167 -50.4920
   -50.4528 -50.4397 -50.4345 -50.4337 -50.4174 -50.4140 -50.4139 -50.4137
   -50.4124 -50.3744 -50.3560 -50.3551 -50.3352 -50.3330 -50.3288 -50.3271
   -13.7545 -13.4116 -13.2622 -12.4904 -12.1462 -12.0051 -11.2589 -10.9133
   -10.7802  -9.5219  -9.1735  -9.0543  -7.0766  -6.7240  -6.6225  -5.4486
    -5.0951  -4.9971  -4.3974  -4.2120  -4.0424  -3.9497  -3.8584  -3.7607
    -2.9992  -2.6431  -2.5542  -2.1719  -1.5738  -1.4193  -1.3372  -1.3068
    -1.2280  -1.1805  -1.1286  -1.0619  -0.9753  -0.9386  -0.9156  -0.8996
    -0.8732  -0.8449  -0.7950  -0.7710  -0.7357  -0.7080  -0.6977  -0.6866
    -0.5598  -0.5282  -0.5159  -0.3733  -0.3489  -0.3266  -0.1712  -0.1627
    -0.1441  -0.0774  -0.0325  -0.0118   0.0970   0.1304   0.2145   0.2542
     0.2848   0.2916   0.3259   0.3792   0.4085   0.4217   0.4586   0.5803
     0.5887   0.6156   0.6357   0.7635   0.7876   0.8068   0.8493   0.8548
     0.8694   0.9930   0.9994   1.0066   1.1293   1.1733   1.2025   1.3030
     1.3459   1.3532   1.4146   1.4699   1.5006   1.5674   1.5930   1.7359
     1.7835   1.8165   1.8188   1.8611   1.8678   1.9154   1.9328   1.9723
     1.9799   2.0257   2.1223   2.6749   2.9636   3.0864   3.4263   3.5478
     3.6460   4.4916   5.2298   5.2476   5.7059   6.1895   6.4890   6.5463
     6.8239   7.4693   7.6539   7.7284   8.1747   8.5296   8.8382   9.2838
     9.8587   9.8968   9.9144  10.0540  10.2806  10.3284  10.6743  10.7132
    10.7958  11.1302  11.6205  11.8662  11.9103  12.0885  12.1099  12.1890
    12.4106  12.5071

          k = 0.1111-0.3208 0.0000 ( 32047 PWs)   bands (ev):

   -87.1862 -87.1762 -87.1754 -87.1742 -87.1669 -87.1665 -86.9995 -86.9910
   -86.9904 -86.9205 -86.9120 -86.9113 -50.6998 -50.6897 -50.6893 -50.6820
   -50.6813 -50.6425 -50.6362 -50.6273 -50.6236 -50.6200 -50.6097 -50.6064
   -50.6019 -50.6004 -50.5958 -50.5905 -50.5842 -50.5673 -50.5117 -50.5023
   -50.4470 -50.4450 -50.4345 -50.4310 -50.4246 -50.4190 -50.4124 -50.4120
   -50.4067 -50.3686 -50.3663 -50.3524 -50.3350 -50.3280 -50.3272 -50.3266
   -14.1811 -13.8385 -13.6863 -11.6644 -11.3193 -11.1836 -11.0579 -10.7121
   -10.5805  -9.3990  -9.0492  -8.9371  -7.8003  -7.4477  -7.3454  -6.2103
    -5.8586  -5.7536  -5.6233  -5.2713  -5.1677  -3.4950  -3.1398  -3.0481
    -2.6803  -2.3227  -2.0758  -1.9663  -1.8787  -1.7867  -1.5331  -1.2725
    -1.1758  -1.1421  -1.0909  -1.0645  -1.0344  -1.0234  -0.9884  -0.9002
    -0.8617  -0.8228  -0.7008  -0.6929  -0.5514  -0.5154  -0.4557  -0.3790
    -0.3319  -0.2482  -0.2081  -0.1926  -0.1759  -0.0848  -0.0269   0.1088
     0.1539   0.1679   0.2369   0.2428   0.2558   0.3035   0.3059   0.3177
     0.4093   0.4414   0.4687   0.5228   0.5457   0.5543   0.5695   0.5856
     0.6087   0.7531   0.7610   0.8312   0.8703   0.9148   0.9288   0.9555
     0.9780   1.0101   1.0498   1.0672   1.0859   1.1939   1.2048   1.2751
     1.3323   1.3457   1.3533   1.4319   1.4367   1.5000   1.5348   1.5947
     1.5968   1.6593   1.6810   1.8547   1.8604   1.9013   1.9447   1.9665
     2.0698   2.0829   2.1237   2.6424   2.8644   3.0045   3.3638   4.2725
     5.0665   5.0689   5.0889   5.8586   6.1138   6.4756   6.5538   6.7218
     6.7846   7.1130   7.7126   8.0828   8.1778   8.4157   8.4715   8.6859
     8.8701   9.2681   9.3193   9.4834   9.7167  10.1318  10.2282  10.3631
    10.6137  11.0004  11.0618  11.3735  11.6614  11.6786  12.2117  12.4278
    12.5367  12.6549

          k = 0.1111-0.1925 0.0000 ( 31991 PWs)   bands (ev):

   -87.1882 -87.1757 -87.1749 -87.1747 -87.1660 -87.1660 -87.0012 -86.9899
   -86.9898 -86.9222 -86.9109 -86.9107 -50.6916 -50.6914 -50.6867 -50.6823
   -50.6821 -50.6479 -50.6477 -50.6320 -50.6319 -50.6160 -50.6159 -50.6089
   -50.6051 -50.6049 -50.5862 -50.5797 -50.5747 -50.5627 -50.5045 -50.5041
   -50.4601 -50.4598 -50.4268 -50.4267 -50.4207 -50.4131 -50.4116 -50.4114
   -50.4019 -50.3817 -50.3815 -50.3369 -50.3344 -50.3263 -50.3260 -50.3231
   -14.4667 -14.1244 -13.9702 -10.7299 -10.7281 -10.3827 -10.3826 -10.2537
   -10.2537  -9.3877  -9.0354  -8.9371  -8.2647  -7.9085  -7.8183  -6.9661
    -6.9661  -6.6154  -6.6154  -6.5066  -6.5066  -3.0244  -2.6161  -2.4193
    -2.2598  -2.1717  -2.1704  -1.8126  -1.8104  -1.6012  -1.4544  -1.4544
    -1.3692  -1.3692  -1.3328  -1.1117  -0.9870  -0.9863  -0.9409  -0.8302
    -0.8295  -0.7328  -0.7324  -0.5116  -0.5108  -0.3775  -0.3760  -0.3099
    -0.3072  -0.1921  -0.1911  -0.0794   0.0189   0.0706   0.1612   0.1631
     0.2941   0.2993   0.3041   0.3249   0.3265   0.3478   0.3899   0.3972
     0.4394   0.5443   0.5526   0.5560   0.6334   0.7275   0.8010   0.8156
     0.8173   0.9278   0.9343   1.0353   1.0413   1.0718   1.0839   1.0856
     1.0974   1.1678   1.1826   1.2046   1.3008   1.3129   1.3176   1.3705
     1.3728   1.3899   1.4533   1.5338   1.5503   1.5553   1.5633   1.6422
     1.7187   1.7274   1.8738   1.8778   1.9014   1.9182   1.9274   2.0332
     2.0395   2.3291   2.3308   2.4222   2.4863   2.8141   3.1098   4.5742
     5.8185   5.8283   6.0356   6.1101   6.4866   6.6618   6.6682   6.7528
     7.1353   7.1588   7.5344   7.5385   7.9569   7.9585   8.0415   8.0431
     8.8522   8.8548   8.9332   9.3387   9.8490   9.8908   9.8954  10.2760
    10.5180  10.5228  11.0094  11.3191  11.4229  11.4267  11.5661  11.5681
    12.0585  12.0621

          k = 0.2222-0.1283 0.0000 ( 32015 PWs)   bands (ev):

   -87.1877 -87.1754 -87.1753 -87.1748 -87.1664 -87.1660 -87.0008 -86.9903
   -86.9898 -86.9218 -86.9113 -86.9107 -50.6981 -50.6875 -50.6872 -50.6854
   -50.6795 -50.6486 -50.6403 -50.6326 -50.6271 -50.6179 -50.6111 -50.6107
   -50.6060 -50.6028 -50.5884 -50.5833 -50.5769 -50.5644 -50.5103 -50.5005
   -50.4578 -50.4540 -50.4328 -50.4230 -50.4206 -50.4171 -50.4119 -50.4115
   -50.4035 -50.3791 -50.3758 -50.3393 -50.3361 -50.3266 -50.3260 -50.3246
   -14.3952 -14.0528 -13.8992 -11.2586 -10.9130 -10.7800 -10.0965 -10.0897
    -9.7456  -9.7455  -9.6226  -9.6226  -7.4695  -7.4646  -7.1162  -7.1162
    -7.0077  -7.0077  -6.3411  -5.9900  -5.8830  -2.9381  -2.5450  -2.5399
    -2.3324  -2.1862  -2.1861  -2.0981  -2.0981  -2.0679  -1.5182  -1.4534
    -1.2487  -1.0961  -1.0921  -1.0376  -1.0120  -0.9278  -0.9064  -0.8956
    -0.8706  -0.8490  -0.6529  -0.5961  -0.4351  -0.4343  -0.3858  -0.3092
    -0.2709  -0.2595  -0.2066  -0.1272  -0.0189   0.0479   0.1071   0.1818
     0.2657   0.2730   0.3223   0.3420   0.3506   0.3808   0.4120   0.4269
     0.4444   0.4892   0.5269   0.5597   0.5727   0.6336   0.6789   0.7573
     0.7711   0.8036   0.8188   0.8862   0.9352   0.9677   0.9947   1.0408
     1.1005   1.1223   1.1888   1.2001   1.2270   1.2450   1.2791   1.3535
     1.3570   1.3750   1.4348   1.4960   1.5362   1.5887   1.5938   1.6395
     1.7844   1.7994   1.8488   1.8790   1.9038   1.9625   1.9846   2.0004
     2.0650   2.0890   2.3841   2.4007   2.5510   2.8392   2.8398   4.7066
     5.0053   5.8535   6.2366   6.4567   6.5516   6.5783   6.9294   6.9512
     6.9785   7.2951   7.3231   7.3242   7.4981   7.8261   7.9388   8.1958
     8.6304   9.0297   9.3507   9.4310   9.4334   9.9439  10.1138  10.3597
    10.8112  10.8803  11.0634  11.1005  11.4035  11.5709  11.8055  11.8486
    12.1444  12.1839

          k = 0.2222 0.0000 0.0000 ( 31991 PWs)   bands (ev):

   -87.1882 -87.1757 -87.1749 -87.1747 -87.1660 -87.1660 -87.0012 -86.9899
   -86.9898 -86.9222 -86.9109 -86.9107 -50.6916 -50.6914 -50.6867 -50.6823
   -50.6821 -50.6479 -50.6476 -50.6323 -50.6320 -50.6158 -50.6156 -50.6090
   -50.6052 -50.6049 -50.5862 -50.5797 -50.5744 -50.5629 -50.5045 -50.5042
   -50.4601 -50.4598 -50.4269 -50.4266 -50.4207 -50.4129 -50.4116 -50.4114
   -50.4021 -50.3817 -50.3813 -50.3369 -50.3342 -50.3263 -50.3260 -50.3233
   -14.4667 -14.1244 -13.9702 -10.7299 -10.7282 -10.3827 -10.3826 -10.2538
   -10.2537  -9.3877  -9.0354  -8.9371  -8.2647  -7.9085  -7.8183  -6.9661
    -6.9661  -6.6154  -6.6154  -6.5066  -6.5066  -3.0244  -2.6161  -2.4193
    -2.2598  -2.1717  -2.1705  -1.8125  -1.8104  -1.6012  -1.4544  -1.4544
    -1.3692  -1.3692  -1.3326  -1.1124  -0.9878  -0.9863  -0.9418  -0.8291
    -0.8283  -0.7327  -0.7323  -0.5134  -0.5121  -0.3767  -0.3755  -0.3089
    -0.3075  -0.1914  -0.1904  -0.0776   0.0189   0.0706   0.1599   0.1652
     0.2938   0.2993   0.3039   0.3260   0.3290   0.3505   0.3898   0.3986
     0.4353   0.5445   0.5459   0.5535   0.6345   0.7276   0.8048   0.8100
     0.8208   0.9273   0.9349   1.0368   1.0426   1.0702   1.0838   1.0891
     1.0971   1.1678   1.1901   1.1963   1.2890   1.3099   1.3243   1.3704
     1.3725   1.3904   1.4533   1.5338   1.5531   1.5549   1.5586   1.6454
     1.7145   1.7326   1.8746   1.8772   1.9048   1.9122   1.9314   2.0352
     2.0396   2.3293   2.3306   2.4223   2.4863   2.8141   3.1098   4.5735
     5.8191   5.8278   6.0352   6.1099   6.4866   6.6625   6.6673   6.7528
     7.1321   7.1620   7.5334   7.5398   7.9550   7.9606   8.0329   8.0488
     8.8482   8.8548   8.9332   9.3387   9.8490   9.8913   9.9014  10.2760
    10.5189  10.5256  11.0094  11.3191  11.4222  11.4236  11.5662  11.5685
    12.0585  12.0631

          k = 0.2222 0.1283 0.0000 ( 32015 PWs)   bands (ev):

   -87.1877 -87.1754 -87.1753 -87.1748 -87.1664 -87.1660 -87.0008 -86.9903
   -86.9898 -86.9218 -86.9113 -86.9107 -50.6983 -50.6876 -50.6871 -50.6855
   -50.6792 -50.6488 -50.6402 -50.6329 -50.6271 -50.6176 -50.6111 -50.6105
   -50.6058 -50.6031 -50.5884 -50.5832 -50.5767 -50.5647 -50.5103 -50.5005
   -50.4578 -50.4540 -50.4331 -50.4227 -50.4206 -50.4171 -50.4119 -50.4115
   -50.4035 -50.3795 -50.3754 -50.3389 -50.3360 -50.3266 -50.3261 -50.3250
   -14.3952 -14.0528 -13.8992 -11.2586 -10.9130 -10.7800 -10.0959 -10.0903
    -9.7456  -9.7455  -9.6226  -9.6226  -7.4694  -7.4647  -7.1162  -7.1162
    -7.0077  -7.0077  -6.3411  -5.9900  -5.8830  -2.9381  -2.5440  -2.5408
    -2.3325  -2.1862  -2.1861  -2.0981  -2.0981  -2.0680  -1.5183  -1.4536
    -1.2488  -1.0961  -1.0932  -1.0381  -1.0120  -0.9275  -0.9060  -0.8952
    -0.8716  -0.8467  -0.6529  -0.5949  -0.4361  -0.4345  -0.3866  -0.3083
    -0.2712  -0.2600  -0.2060  -0.1255  -0.0192   0.0489   0.1038   0.1828
     0.2658   0.2738   0.3217   0.3395   0.3508   0.3852   0.4093   0.4263
     0.4455   0.4947   0.5205   0.5564   0.5760   0.6381   0.6775   0.7603
     0.7678   0.8036   0.8181   0.8862   0.9337   0.9652   0.9956   1.0435
     1.0990   1.1212   1.1887   1.2000   1.2200   1.2492   1.2789   1.3535
     1.3554   1.3755   1.4348   1.4966   1.5366   1.5898   1.5947   1.6392
     1.7857   1.7978   1.8485   1.8851   1.9027   1.9482   1.9941   2.0028
     2.0724   2.0854   2.3847   2.4000   2.5497   2.8390   2.8400   4.7054
     5.0056   5.8537   6.2355   6.4537   6.5632   6.5719   6.9308   6.9541
     6.9776   7.2962   7.3222   7.3252   7.4892   7.8260   7.9245   8.1958
     8.6305   9.0297   9.3506   9.4334   9.4444   9.9439  10.1192  10.3597
    10.8107  10.8791  11.0655  11.1005  11.4036  11.5700  11.8058  11.8467
    12.1445  12.3176

          k = 0.2222 0.2566 0.0000 ( 32047 PWs)   bands (ev):

   -87.1862 -87.1762 -87.1755 -87.1742 -87.1670 -87.1664 -86.9995 -86.9910
   -86.9904 -86.9205 -86.9120 -86.9113 -50.6998 -50.6896 -50.6893 -50.6820
   -50.6813 -50.6424 -50.6367 -50.6274 -50.6236 -50.6199 -50.6093 -50.6058
   -50.6020 -50.6008 -50.5958 -50.5903 -50.5843 -50.5676 -50.5118 -50.5022
   -50.4472 -50.4448 -50.4346 -50.4309 -50.4246 -50.4190 -50.4124 -50.4120
   -50.4068 -50.3686 -50.3662 -50.3520 -50.3350 -50.3283 -50.3272 -50.3267
   -14.1811 -13.8385 -13.6863 -11.6644 -11.3193 -11.1836 -11.0579 -10.7121
   -10.5805  -9.3990  -9.0492  -8.9371  -7.8003  -7.4477  -7.3454  -6.2102
    -5.8586  -5.7536  -5.6233  -5.2713  -5.1677  -3.4950  -3.1398  -3.0481
    -2.6804  -2.3227  -2.0758  -1.9662  -1.8787  -1.7870  -1.5331  -1.2725
    -1.1758  -1.1424  -1.0909  -1.0647  -1.0337  -1.0235  -0.9888  -0.8991
    -0.8632  -0.8224  -0.7038  -0.6922  -0.5536  -0.5148  -0.4539  -0.3773
    -0.3298  -0.2446  -0.2083  -0.1944  -0.1748  -0.0838  -0.0271   0.1071
     0.1539   0.1656   0.2369   0.2416   0.2583   0.3045   0.3053   0.3207
     0.4082   0.4465   0.4655   0.5248   0.5477   0.5562   0.5694   0.5805
     0.6012   0.7518   0.7614   0.8303   0.8660   0.9148   0.9288   0.9608
     0.9794   1.0101   1.0497   1.0661   1.0852   1.1939   1.2049   1.2763
     1.3273   1.3434   1.3535   1.4333   1.4375   1.4983   1.5368   1.5954
     1.5981   1.6556   1.6835   1.8505   1.8612   1.9061   1.9432   1.9678
     2.0724   2.0852   2.1245   2.6422   2.8639   3.0045   3.3638   4.2727
     5.0653   5.0675   5.0892   5.8596   6.1141   6.4756   6.5533   6.7217
     6.7830   7.1071   7.7119   8.0822   8.1732   8.4151   8.4717   8.6848
     8.8700   9.2681   9.3193   9.4913   9.7167  10.1372  10.2282  10.3652
    10.6137  10.9979  11.0615  11.3736  11.6615  11.6816  12.2117  12.4501
    12.5367  12.6549

          k = 0.2222 0.3849 0.0000 ( 32067 PWs)   bands (ev):

   -87.1841 -87.1771 -87.1768 -87.1726 -87.1675 -87.1675 -86.9977 -86.9917
   -86.9916 -86.9187 -86.9127 -86.9124 -50.6936 -50.6934 -50.6851 -50.6851
   -50.6774 -50.6394 -50.6390 -50.6373 -50.6170 -50.6169 -50.6121 -50.6031
   -50.6029 -50.5957 -50.5940 -50.5937 -50.5906 -50.5717 -50.5060 -50.5054
   -50.4506 -50.4355 -50.4347 -50.4283 -50.4282 -50.4176 -50.4131 -50.4129
   -50.4115 -50.3719 -50.3565 -50.3563 -50.3334 -50.3330 -50.3280 -50.3276
   -13.8255 -13.4826 -13.3327 -11.9397 -11.9371 -11.5936 -11.5935 -11.4560
   -11.4560  -8.8314  -8.4788  -8.3820  -7.8182  -7.4610  -7.3745  -4.8650
    -4.8639  -4.5112  -4.5111  -4.5026  -4.4124  -4.4124  -4.1480  -4.0540
    -2.2562  -1.9623  -1.9585  -1.6575  -1.6036  -1.6036  -1.5170  -1.5170
    -1.4299  -1.1300  -1.1291  -1.0961  -1.0898  -1.0896  -1.0449  -1.0438
    -0.9731  -0.8718  -0.7477  -0.7416  -0.7396  -0.7373  -0.6542  -0.5658
    -0.5632  -0.5603  -0.4546  -0.4537  -0.3707  -0.1702  -0.1654  -0.1513
    -0.1116  -0.0852   0.0152   0.0266   0.1973   0.1986   0.2410   0.2458
     0.3272   0.3373   0.3408   0.4014   0.4557   0.4778   0.4893   0.5453
     0.5555   0.5587   0.6990   0.7125   0.7163   0.7376   0.8686   0.9023
     1.0315   1.0540   1.0569   1.1019   1.1664   1.1693   1.2026   1.2225
     1.2274   1.3611   1.3874   1.3914   1.4173   1.4195   1.5337   1.5352
     1.6275   1.6323   1.6357   1.7663   1.8558   1.8596   1.9278   1.9285
     1.9319   2.0561   2.0594   3.2188   3.3153   3.5660   3.6164   3.6390
     3.8715   4.3722   4.3777   5.5818   5.7363   5.9063   5.9130   6.1160
     6.1997   7.5741   8.0145   8.0315   9.0915   9.0943   9.4509   9.4517
     9.7883   9.7886   9.8011  10.0462  10.0508  10.1859  10.6573  10.6724
    10.7008  11.0448  11.3538  11.3809  11.8259  12.1025  12.3749  12.3754
    12.6053  12.6336

          k = 0.2222-0.6415 0.0000 ( 32050 PWs)   bands (ev):

   -87.1816 -87.1791 -87.1774 -87.1708 -87.1690 -87.1678 -86.9955 -86.9934
   -86.9920 -86.9165 -86.9144 -86.9129 -50.6961 -50.6875 -50.6806 -50.6754
   -50.6745 -50.6582 -50.6401 -50.6390 -50.6304 -50.6093 -50.6070 -50.6040
   -50.6000 -50.5992 -50.5968 -50.5867 -50.5852 -50.5777 -50.5079 -50.4920
   -50.4724 -50.4305 -50.4279 -50.4258 -50.4180 -50.4159 -50.4145 -50.4141
   -50.4133 -50.3940 -50.3491 -50.3471 -50.3395 -50.3313 -50.3294 -50.3281
   -13.3305 -12.9872 -12.8405 -12.6996 -12.3556 -12.2131 -12.0762 -11.7316
   -11.5931  -8.6677  -8.3172  -8.2085  -7.4186  -7.0637  -6.9704  -5.3187
    -4.9625  -4.8735  -4.2216  -3.8660  -3.7758  -3.5060  -3.1509  -3.0587
    -2.4735  -2.2163  -2.1162  -2.0306  -1.8594  -1.7732  -1.6750  -1.4612
    -1.2753  -1.2295  -1.1953  -1.1240  -1.1160  -1.1038  -1.0796  -1.0737
    -1.0187  -1.0066  -0.9812  -0.9143  -0.8904  -0.8342  -0.8117  -0.7232
    -0.7194  -0.6456  -0.5351  -0.4897  -0.4760  -0.4675  -0.3966  -0.3930
    -0.3104  -0.3050  -0.2371  -0.2197   0.0309   0.0348   0.0626   0.1622
     0.2156   0.2691   0.3108   0.3521   0.3715   0.3725   0.3878   0.4284
     0.4350   0.6921   0.7062   0.7547   0.8301   0.8793   0.9663   0.9873
     1.0299   1.0336   1.1068   1.1126   1.1547   1.2294   1.2536   1.2872
     1.3510   1.4076   1.4410   1.4533   1.4833   1.5804   1.6064   1.6639
     1.6850   1.7150   1.7406   1.7689   1.7868   1.8690   1.9234   1.9390
     1.9482   2.0441   2.1686   2.4014   3.0767   3.1094   3.5763   3.8946
     3.9300   3.9756   4.3301   4.7844   5.3935   5.5247   5.7448   6.0041
     6.2765   7.1023   7.7027   8.5282   9.4618   9.5763   9.8197   9.8758
    10.0805  10.4527  10.4728  10.5247  10.8351  10.8576  11.1344  11.1975
    11.3377  11.3589  11.5740  11.6556  11.8708  11.8974  12.1856  12.2094
    12.2116  12.4139

          k = 0.2222-0.5132 0.0000 ( 32050 PWs)   bands (ev):

   -87.1816 -87.1791 -87.1774 -87.1708 -87.1690 -87.1678 -86.9955 -86.9934
   -86.9920 -86.9165 -86.9144 -86.9129 -50.6961 -50.6876 -50.6805 -50.6754
   -50.6744 -50.6584 -50.6398 -50.6390 -50.6307 -50.6093 -50.6070 -50.6040
   -50.6002 -50.5992 -50.5966 -50.5867 -50.5853 -50.5775 -50.5079 -50.4919
   -50.4724 -50.4305 -50.4279 -50.4259 -50.4179 -50.4159 -50.4144 -50.4139
   -50.4133 -50.3943 -50.3491 -50.3474 -50.3391 -50.3314 -50.3294 -50.3281
   -13.3305 -12.9872 -12.8405 -12.6996 -12.3556 -12.2131 -12.0762 -11.7316
   -11.5931  -8.6677  -8.3172  -8.2085  -7.4186  -7.0637  -6.9704  -5.3188
    -4.9625  -4.8735  -4.2216  -3.8660  -3.7758  -3.5060  -3.1509  -3.0587
    -2.4734  -2.2163  -2.1162  -2.0306  -1.8594  -1.7732  -1.6750  -1.4612
    -1.2752  -1.2296  -1.1944  -1.1249  -1.1162  -1.1038  -1.0805  -1.0735
    -1.0187  -1.0056  -0.9805  -0.9139  -0.8902  -0.8342  -0.8113  -0.7235
    -0.7197  -0.6454  -0.5378  -0.4900  -0.4760  -0.4649  -0.3966  -0.3930
    -0.3110  -0.3057  -0.2373  -0.2200   0.0278   0.0360   0.0606   0.1647
     0.2158   0.2763   0.3106   0.3497   0.3657   0.3707   0.3873   0.4321
     0.4347   0.6885   0.7086   0.7602   0.8317   0.8807   0.9645   0.9896
     1.0290   1.0317   1.1046   1.1117   1.1534   1.2305   1.2537   1.2903
     1.3516   1.4070   1.4395   1.4564   1.4844   1.5806   1.6043   1.6636
     1.6819   1.7140   1.7403   1.7694   1.7914   1.8671   1.9222   1.9393
     1.9478   2.0411   2.1694   2.4013   3.0771   3.1096   3.5763   3.8945
     3.9294   3.9756   4.3301   4.7863   5.3935   5.5250   5.7448   6.0041
     6.2787   7.1008   7.7030   8.5321   9.4625   9.5700   9.8197   9.8758
    10.0805  10.4533  10.4728  10.5240  10.8352  10.8575  11.1344  11.1975
    11.3377  11.3589  11.5741  11.6559  11.8710  11.8951  12.1855  12.2094
    12.2112  12.4592

          k = 0.2222-0.3849 0.0000 ( 32067 PWs)   bands (ev):

   -87.1841 -87.1771 -87.1768 -87.1726 -87.1675 -87.1674 -86.9977 -86.9917
   -86.9916 -86.9187 -86.9127 -86.9124 -50.6935 -50.6933 -50.6852 -50.6851
   -50.6773 -50.6391 -50.6389 -50.6374 -50.6170 -50.6169 -50.6123 -50.6033
   -50.6031 -50.5957 -50.5939 -50.5937 -50.5905 -50.5715 -50.5058 -50.5055
   -50.4506 -50.4353 -50.4349 -50.4282 -50.4281 -50.4176 -50.4131 -50.4129
   -50.4115 -50.3723 -50.3566 -50.3564 -50.3333 -50.3327 -50.3279 -50.3276
   -13.8255 -13.4826 -13.3327 -11.9390 -11.9377 -11.5936 -11.5935 -11.4560
   -11.4560  -8.8314  -8.4788  -8.3820  -7.8182  -7.4610  -7.3745  -4.8647
    -4.8642  -4.5112  -4.5111  -4.5026  -4.4124  -4.4124  -4.1480  -4.0540
    -2.2561  -1.9613  -1.9595  -1.6575  -1.6036  -1.6036  -1.5170  -1.5170
    -1.4293  -1.1298  -1.1293  -1.0961  -1.0906  -1.0901  -1.0444  -1.0438
    -0.9723  -0.8716  -0.7459  -0.7406  -0.7400  -0.7373  -0.6542  -0.5638
    -0.5626  -0.5619  -0.4574  -0.4541  -0.3727  -0.1715  -0.1645  -0.1528
    -0.1122  -0.0865   0.0149   0.0240   0.2037   0.2042   0.2379   0.2457
     0.3272   0.3343   0.3354   0.3988   0.4582   0.4773   0.4914   0.5448
     0.5562   0.5597   0.7022   0.7171   0.7218   0.7373   0.8693   0.8978
     1.0319   1.0532   1.0555   1.0990   1.1661   1.1697   1.2024   1.2233
     1.2250   1.3647   1.3907   1.3944   1.4189   1.4205   1.5310   1.5339
     1.6240   1.6304   1.6352   1.7698   1.8586   1.8597   1.9245   1.9290
     1.9318   2.0528   2.0551   3.2189   3.3155   3.5659   3.6161   3.6392
     3.8715   4.3726   4.3780   5.5845   5.7357   5.9104   5.9133   6.1160
     6.1997   7.5769   8.0195   8.0289   9.0922   9.0936   9.4511   9.4515
     9.7884   9.7885   9.8011  10.0434  10.0469  10.1859  10.6558  10.6686
    10.7007  11.0449  11.3532  11.3807  11.8258  12.1025  12.3747  12.3751
    12.5991  12.6256

          k = 0.2222-0.2566 0.0000 ( 32047 PWs)   bands (ev):

   -87.1862 -87.1762 -87.1755 -87.1742 -87.1669 -87.1664 -86.9995 -86.9910
   -86.9904 -86.9205 -86.9120 -86.9113 -50.6997 -50.6896 -50.6894 -50.6820
   -50.6815 -50.6422 -50.6365 -50.6274 -50.6235 -50.6201 -50.6097 -50.6063
   -50.6020 -50.6003 -50.5958 -50.5906 -50.5842 -50.5673 -50.5118 -50.5022
   -50.4471 -50.4449 -50.4343 -50.4310 -50.4247 -50.4190 -50.4124 -50.4120
   -50.4068 -50.3684 -50.3665 -50.3525 -50.3350 -50.3279 -50.3272 -50.3266
   -14.1811 -13.8385 -13.6863 -11.6644 -11.3193 -11.1836 -11.0579 -10.7121
   -10.5805  -9.3990  -9.0492  -8.9371  -7.8003  -7.4477  -7.3454  -6.2102
    -5.8586  -5.7536  -5.6233  -5.2713  -5.1677  -3.4950  -3.1398  -3.0481
    -2.6804  -2.3227  -2.0758  -1.9662  -1.8787  -1.7867  -1.5329  -1.2725
    -1.1758  -1.1419  -1.0909  -1.0644  -1.0345  -1.0234  -0.9891  -0.9005
    -0.8620  -0.8225  -0.7007  -0.6928  -0.5513  -0.5156  -0.4558  -0.3781
    -0.3323  -0.2482  -0.2081  -0.1931  -0.1760  -0.0848  -0.0274   0.1104
     0.1539   0.1678   0.2369   0.2427   0.2560   0.3034   0.3056   0.3184
     0.4103   0.4413   0.4681   0.5235   0.5447   0.5533   0.5701   0.5850
     0.6089   0.7531   0.7611   0.8321   0.8698   0.9140   0.9288   0.9548
     0.9786   1.0101   1.0498   1.0684   1.0854   1.1943   1.2045   1.2750
     1.3325   1.3453   1.3540   1.4322   1.4358   1.4997   1.5346   1.5940
     1.5985   1.6575   1.6822   1.8557   1.8596   1.9005   1.9437   1.9676
     2.0708   2.0817   2.1235   2.6424   2.8649   3.0045   3.3638   4.2725
     5.0663   5.0686   5.0886   5.8598   6.1135   6.4756   6.5537   6.7218
     6.7848   7.1138   7.7131   8.0829   8.1812   8.4153   8.4716   8.6857
     8.8702   9.2682   9.3193   9.4778   9.7167  10.1314  10.2282  10.3652
    10.6137  10.9966  11.0621  11.3735  11.6614  11.6812  12.2118  12.4219
    12.5367  12.6549

          k = 0.3333-0.1925 0.0000 ( 32055 PWs)   bands (ev):

   -87.1853 -87.1772 -87.1754 -87.1736 -87.1677 -87.1664 -86.9988 -86.9919
   -86.9903 -86.9197 -86.9128 -86.9112 -50.7062 -50.6954 -50.6819 -50.6798
   -50.6752 -50.6444 -50.6334 -50.6256 -50.6247 -50.6171 -50.6091 -50.6057
   -50.6035 -50.5984 -50.5977 -50.5932 -50.5857 -50.5710 -50.5177 -50.4946
   -50.4434 -50.4406 -50.4398 -50.4380 -50.4184 -50.4170 -50.4130 -50.4120
   -50.4100 -50.3647 -50.3614 -50.3596 -50.3343 -50.3311 -50.3280 -50.3266
   -14.0387 -13.6959 -13.5446 -12.1441 -11.7996 -11.6607 -10.3395 -10.3328
    -9.9893  -9.9893  -9.8630  -9.8630  -6.6952  -6.6904  -6.3411  -6.3410
    -6.2364  -6.2364  -4.9460  -4.5933  -4.4921  -3.3351  -3.3296  -2.9768
    -2.9768  -2.8860  -2.8860  -2.5097  -1.9064  -1.6047  -1.2583  -1.1600
    -1.1524  -1.1146  -1.1101  -0.9191  -0.8749  -0.8539  -0.8311  -0.7571
    -0.7520  -0.7132  -0.6913  -0.6733  -0.6610  -0.6192  -0.5199  -0.4564
    -0.3904  -0.3558  -0.3172  -0.2834  -0.2700  -0.2319  -0.1795  -0.1380
    -0.1083  -0.0194   0.0926   0.1070   0.1529   0.1873   0.2572   0.2634
     0.3001   0.3345   0.4020   0.4525   0.5214   0.5316   0.5548   0.6504
     0.6508   0.6606   0.7061   0.7236   0.8112   0.8595   0.8688   0.8933
     0.9134   0.9457   0.9844   1.1076   1.1208   1.1984   1.2624   1.3103
     1.3247   1.3604   1.4340   1.4701   1.5767   1.6437   1.6703   1.7303
     1.7413   1.8424   1.8592   1.8694   1.8948   1.9446   1.9716   1.9811
     2.0412   2.0777   2.2656   2.2987   2.7911   2.7929   3.0696   3.5787
     4.3200   5.2948   5.6551   5.8488   6.2921   6.7804   6.9199   6.9911
     7.1233   7.1734   7.3148   7.3223   7.6523   7.6544   8.0214   9.1570
     9.2594   9.5118   9.6263   9.8198   9.9054  10.0216  10.4177  10.5193
    10.6423  10.7839  11.5527  11.8198  11.8354  11.9775  12.0793  12.2519
    12.3323  12.3830

          k = 0.3333-0.0642 0.0000 ( 32047 PWs)   bands (ev):

   -87.1862 -87.1762 -87.1755 -87.1742 -87.1669 -87.1665 -86.9995 -86.9910
   -86.9904 -86.9205 -86.9120 -86.9113 -50.6997 -50.6896 -50.6894 -50.6820
   -50.6815 -50.6423 -50.6364 -50.6274 -50.6238 -50.6201 -50.6094 -50.6059
   -50.6024 -50.6003 -50.5958 -50.5905 -50.5842 -50.5674 -50.5118 -50.5023
   -50.4470 -50.4449 -50.4343 -50.4309 -50.4248 -50.4190 -50.4124 -50.4120
   -50.4069 -50.3683 -50.3665 -50.3523 -50.3350 -50.3280 -50.3273 -50.3266
   -14.1811 -13.8385 -13.6863 -11.6644 -11.3193 -11.1836 -11.0579 -10.7121
   -10.5805  -9.3990  -9.0492  -8.9371  -7.8003  -7.4477  -7.3455  -6.2102
    -5.8586  -5.7536  -5.6233  -5.2713  -5.1677  -3.4950  -3.1398  -3.0481
    -2.6804  -2.3227  -2.0758  -1.9662  -1.8787  -1.7867  -1.5329  -1.2725
    -1.1758  -1.1418  -1.0909  -1.0640  -1.0337  -1.0238  -0.9898  -0.8997
    -0.8632  -0.8222  -0.7032  -0.6939  -0.5523  -0.5151  -0.4548  -0.3771
    -0.3315  -0.2459  -0.2077  -0.1919  -0.1759  -0.0834  -0.0276   0.1112
     0.1539   0.1659   0.2369   0.2407   0.2570   0.3053   0.3077   0.3238
     0.4101   0.4426   0.4646   0.5237   0.5450   0.5498   0.5693   0.5824
     0.6022   0.7539   0.7611   0.8329   0.8694   0.9154   0.9288   0.9574
     0.9777   1.0101   1.0501   1.0702   1.0840   1.1967   1.2043   1.2774
     1.3285   1.3404   1.3525   1.4335   1.4366   1.4975   1.5379   1.5937
     1.5956   1.6595   1.6830   1.8530   1.8608   1.9026   1.9442   1.9673
     2.0719   2.0826   2.1241   2.6424   2.8654   3.0045   3.3638   4.2724
     5.0661   5.0679   5.0886   5.8597   6.1136   6.4756   6.5518   6.7218
     6.7838   7.1139   7.7132   8.0829   8.1810   8.4150   8.4715   8.6852
     8.8702   9.2682   9.3193   9.4779   9.7167  10.1316  10.2282  10.3677
    10.6137  10.9967  11.0667  11.3735  11.6614  11.6783  12.2118  12.4208
    12.5367  12.6550

          k = 0.3333 0.0642 0.0000 ( 32047 PWs)   bands (ev):

   -87.1862 -87.1762 -87.1755 -87.1742 -87.1669 -87.1664 -86.9995 -86.9910
   -86.9904 -86.9205 -86.9120 -86.9113 -50.6998 -50.6897 -50.6893 -50.6820
   -50.6813 -50.6423 -50.6365 -50.6276 -50.6237 -50.6200 -50.6093 -50.6059
   -50.6019 -50.6008 -50.5958 -50.5903 -50.5843 -50.5675 -50.5118 -50.5022
   -50.4471 -50.4448 -50.4346 -50.4309 -50.4245 -50.4190 -50.4124 -50.4120
   -50.4069 -50.3687 -50.3661 -50.3522 -50.3350 -50.3282 -50.3272 -50.3267
   -14.1811 -13.8385 -13.6863 -11.6644 -11.3193 -11.1836 -11.0579 -10.7121
   -10.5805  -9.3990  -9.0492  -8.9371  -7.8003  -7.4477  -7.3455  -6.2103
    -5.8586  -5.7536  -5.6233  -5.2713  -5.1677  -3.4950  -3.1398  -3.0481
    -2.6803  -2.3227  -2.0758  -1.9663  -1.8787  -1.7868  -1.5331  -1.2725
    -1.1758  -1.1424  -1.0909  -1.0641  -1.0337  -1.0237  -0.9884  -0.8992
    -0.8636  -0.8227  -0.7035  -0.6924  -0.5541  -0.5143  -0.4543  -0.3770
    -0.3298  -0.2456  -0.2082  -0.1948  -0.1752  -0.0837  -0.0271   0.1064
     0.1539   0.1671   0.2369   0.2414   0.2575   0.3040   0.3067   0.3190
     0.4083   0.4450   0.4672   0.5245   0.5482   0.5568   0.5682   0.5822
     0.6036   0.7518   0.7605   0.8302   0.8672   0.9159   0.9288   0.9601
     0.9785   1.0101   1.0497   1.0667   1.0850   1.1930   1.2051   1.2768
     1.3282   1.3425   1.3536   1.4340   1.4361   1.4972   1.5375   1.5956
     1.5972   1.6575   1.6831   1.8533   1.8594   1.9043   1.9445   1.9675
     2.0705   2.0851   2.1240   2.6424   2.8646   3.0045   3.3638   4.2726
     5.0658   5.0681   5.0890   5.8594   6.1138   6.4756   6.5538   6.7218
     6.7832   7.1072   7.7124   8.0826   8.1728   8.4154   8.4715   8.6854
     8.8701   9.2681   9.3193   9.4912   9.7167  10.1372  10.2282  10.3632
    10.6137  10.9981  11.0614  11.3736  11.6615  11.6791  12.2117  12.4502
    12.5367  12.6548

          k = 0.3333 0.1925 0.0000 ( 32055 PWs)   bands (ev):

   -87.1853 -87.1772 -87.1754 -87.1736 -87.1677 -87.1664 -86.9988 -86.9919
   -86.9903 -86.9197 -86.9128 -86.9112 -50.7064 -50.6955 -50.6819 -50.6798
   -50.6750 -50.6445 -50.6338 -50.6255 -50.6246 -50.6170 -50.6089 -50.6055
   -50.6033 -50.5982 -50.5982 -50.5931 -50.5857 -50.5713 -50.5178 -50.4946
   -50.4435 -50.4408 -50.4397 -50.4379 -50.4184 -50.4167 -50.4131 -50.4120
   -50.4101 -50.3650 -50.3610 -50.3592 -50.3343 -50.3315 -50.3279 -50.3267
   -14.0387 -13.6959 -13.5446 -12.1441 -11.7996 -11.6607 -10.3390 -10.3333
    -9.9893  -9.9893  -9.8630  -9.8630  -6.6952  -6.6904  -6.3411  -6.3410
    -6.2364  -6.2364  -4.9460  -4.5934  -4.4921  -3.3342  -3.3304  -2.9768
    -2.9768  -2.8860  -2.8860  -2.5097  -1.9064  -1.6049  -1.2580  -1.1597
    -1.1530  -1.1153  -1.1097  -0.9195  -0.8738  -0.8521  -0.8300  -0.7571
    -0.7531  -0.7130  -0.6919  -0.6733  -0.6594  -0.6210  -0.5182  -0.4582
    -0.3895  -0.3558  -0.3173  -0.2812  -0.2700  -0.2319  -0.1797  -0.1422
    -0.1062  -0.0198   0.0881   0.1034   0.1530   0.1870   0.2579   0.2627
     0.2988   0.3358   0.4083   0.4523   0.5162   0.5318   0.5566   0.6514
     0.6542   0.6595   0.7091   0.7301   0.8112   0.8535   0.8616   0.8933
     0.9127   0.9502   0.9841   1.1023   1.1232   1.1993   1.2601   1.3095
     1.3250   1.3581   1.4338   1.4767   1.5791   1.6428   1.6713   1.7289
     1.7417   1.8404   1.8564   1.8727   1.8944   1.9475   1.9704   1.9803
     2.0460   2.0786   2.2657   2.2985   2.7908   2.7932   3.0681   3.5789
     4.3202   5.2929   5.6591   5.8487   6.2992   6.7690   6.9357   6.9718
     7.1202   7.1584   7.3162   7.3205   7.6525   7.6541   8.0201   9.1719
     9.2600   9.5118   9.6263   9.8270   9.9055  10.0216  10.4178  10.5159
    10.6439  10.7839  11.5528  11.8355  11.8447  11.9773  12.0794  12.2532
    12.3330  12.3815

          k = 0.3333 0.3208 0.0000 ( 32079 PWs)   bands (ev):

   -87.1837 -87.1783 -87.1760 -87.1723 -87.1684 -87.1668 -86.9973 -86.9928
   -86.9908 -86.9183 -86.9137 -86.9118 -50.7054 -50.6950 -50.6801 -50.6765
   -50.6739 -50.6418 -50.6389 -50.6361 -50.6169 -50.6158 -50.6127 -50.6052
   -50.6019 -50.5960 -50.5936 -50.5923 -50.5913 -50.5747 -50.5168 -50.4919
   -50.4528 -50.4398 -50.4347 -50.4335 -50.4173 -50.4141 -50.4140 -50.4137
   -50.4125 -50.3741 -50.3560 -50.3549 -50.3355 -50.3329 -50.3288 -50.3272
   -13.7545 -13.4116 -13.2622 -12.4904 -12.1462 -12.0051 -11.2589 -10.9133
   -10.7802  -9.5219  -9.1735  -9.0543  -7.0766  -6.7240  -6.6225  -5.4486
    -5.0951  -4.9971  -4.3974  -4.2120  -4.0424  -3.9497  -3.8584  -3.7607
    -2.9992  -2.6431  -2.5542  -2.1719  -1.5738  -1.4193  -1.3377  -1.3063
    -1.2278  -1.1813  -1.1286  -1.0619  -0.9753  -0.9375  -0.9158  -0.8986
    -0.8741  -0.8445  -0.7953  -0.7710  -0.7340  -0.7079  -0.6995  -0.6866
    -0.5623  -0.5263  -0.5172  -0.3710  -0.3481  -0.3252  -0.1702  -0.1631
    -0.1434  -0.0816  -0.0326  -0.0084   0.0926   0.1266   0.2157   0.2519
     0.2851   0.2963   0.3259   0.3824   0.4085   0.4272   0.4561   0.5749
     0.5862   0.6159   0.6342   0.7685   0.7920   0.8024   0.8486   0.8519
     0.8687   0.9894   1.0007   1.0078   1.1257   1.1752   1.2048   1.3035
     1.3432   1.3532   1.4135   1.4686   1.5046   1.5687   1.5952   1.7372
     1.7850   1.8149   1.8182   1.8612   1.8645   1.9151   1.9339   1.9728
     1.9832   2.0251   2.1253   2.6749   2.9636   3.0864   3.4258   3.5478
     3.6456   4.4922   5.2294   5.2491   5.7035   6.1897   6.4811   6.5463
     6.8239   7.4680   7.6480   7.7261   8.1745   8.5296   8.8382   9.2924
     9.8623   9.8968   9.9166  10.0548  10.2807  10.3284  10.6742  10.7110
    10.7958  11.1302  11.6205  11.8651  11.9104  12.1050  12.1213  12.1889
    12.4106  12.5075

          k = 0.3333-0.7057 0.0000 ( 32050 PWs)   bands (ev):

   -87.1816 -87.1791 -87.1774 -87.1708 -87.1690 -87.1678 -86.9955 -86.9934
   -86.9920 -86.9165 -86.9144 -86.9129 -50.6962 -50.6875 -50.6806 -50.6754
   -50.6745 -50.6583 -50.6397 -50.6394 -50.6303 -50.6092 -50.6070 -50.6037
   -50.6002 -50.5992 -50.5968 -50.5865 -50.5854 -50.5778 -50.5080 -50.4918
   -50.4724 -50.4307 -50.4278 -50.4259 -50.4180 -50.4159 -50.4144 -50.4140
   -50.4133 -50.3940 -50.3489 -50.3473 -50.3395 -50.3313 -50.3294 -50.3282
   -13.3305 -12.9872 -12.8405 -12.6996 -12.3556 -12.2131 -12.0762 -11.7316
   -11.5931  -8.6677  -8.3172  -8.2085  -7.4186  -7.0637  -6.9704  -5.3187
    -4.9625  -4.8735  -4.2216  -3.8660  -3.7758  -3.5060  -3.1509  -3.0587
    -2.4735  -2.2163  -2.1162  -2.0306  -1.8594  -1.7732  -1.6750  -1.4612
    -1.2745  -1.2295  -1.1952  -1.1243  -1.1171  -1.1038  -1.0802  -1.0737
    -1.0187  -1.0066  -0.9800  -0.9146  -0.8890  -0.8342  -0.8117  -0.7213
    -0.7210  -0.6458  -0.5368  -0.4886  -0.4760  -0.4673  -0.3964  -0.3930
    -0.3105  -0.3050  -0.2372  -0.2202   0.0261   0.0397   0.0635   0.1585
     0.2151   0.2699   0.3112   0.3492   0.3703   0.3732   0.3875   0.4316
     0.4357   0.6895   0.7128   0.7517   0.8330   0.8773   0.9658   0.9875
     1.0272   1.0345   1.1064   1.1129   1.1525   1.2282   1.2533   1.2896
     1.3532   1.4065   1.4391   1.4558   1.4841   1.5810   1.6066   1.6632
     1.6843   1.7164   1.7411   1.7681   1.7880   1.8677   1.9250   1.9384
     1.9501   2.0433   2.1680   2.4012   3.0763   3.1098   3.5763   3.8950
     3.9296   3.9757   4.3301   4.7858   5.3935   5.5208   5.7448   6.0041
     6.2762   7.1005   7.7025   8.5279   9.4615   9.5724   9.8197   9.8803
    10.0805  10.4575  10.4728  10.5255  10.8351  10.8576  11.1344  11.1953
    11.3377  11.3589  11.5731  11.6556  11.8705  11.8970  12.1859  12.2089
    12.2117  12.4292

          k = 0.3333-0.5774 0.0000 ( 32121 PWs)   bands (ev):

   -87.1796 -87.1793 -87.1792 -87.1692 -87.1692 -87.1691 -86.9938 -86.9936
   -86.9936 -86.9148 -86.9147 -86.9143 -50.6811 -50.6809 -50.6808 -50.6763
   -50.6762 -50.6762 -50.6397 -50.6393 -50.6393 -50.6028 -50.6027 -50.6026
   -50.6017 -50.6015 -50.6014 -50.5818 -50.5817 -50.5815 -50.4925 -50.4923
   -50.4917 -50.4230 -50.4224 -50.4221 -50.4148 -50.4146 -50.4146 -50.4144
   -50.4142 -50.4140 -50.3441 -50.3438 -50.3436 -50.3298 -50.3297 -50.3293
   -12.7707 -12.7699 -12.7679 -12.4257 -12.4256 -12.4255 -12.2827 -12.2826
   -12.2826  -7.9134  -7.9056  -7.5666  -7.5459  -7.4643  -7.4474  -5.7281
    -5.3698  -5.2869  -3.1302  -3.1279  -3.1269  -2.7714  -2.7713  -2.7713
    -2.6858  -2.6858  -2.6858  -1.7281  -1.7274  -1.7259  -1.3689  -1.3689
    -1.3689  -1.2859  -1.2859  -1.2859  -1.2074  -1.2065  -1.2060  -1.1642
    -1.1634  -1.1627  -1.0404  -1.0390  -1.0354  -0.9614  -0.9594  -0.9584
    -0.7926  -0.7921  -0.7897  -0.6242  -0.6235  -0.6214  -0.4470  -0.4442
    -0.4415  -0.3271  -0.3236  -0.3218   0.0697   0.0730   0.0743   0.2561
     0.2606   0.2622   0.3370   0.3388   0.3411   0.3659   0.3677   0.3687
     0.5014   0.5034   0.5070   0.8726   0.8731   0.8763   0.9470   0.9513
     0.9525   1.2454   1.2460   1.2482   1.3061   1.3075   1.3078   1.5100
     1.5109   1.5134   1.5462   1.5464   1.5473   1.6177   1.6182   1.6187
     1.7104   1.7109   1.7112   1.7698   1.7705   1.7709   1.9643   1.9651
     1.9660   2.0012   2.0018   2.0031   2.8015   2.8033   2.8039   4.3594
     4.5506   4.6178   4.6210   4.6358   4.8231   4.9289   5.0317   5.3716
     6.9656   6.9713   6.9725   9.4277   9.4353   9.4389  10.7228  10.7242
    10.7277  11.0694  11.0696  11.0700  11.2361  11.2363  11.2363  11.3009
    11.3011  11.3012  11.4678  11.4739  11.4748  11.8038  11.8298  11.8309
    12.1072  12.1183

          k = 0.3333-0.4491 0.0000 ( 32050 PWs)   bands (ev):

   -87.1816 -87.1791 -87.1774 -87.1708 -87.1690 -87.1678 -86.9955 -86.9934
   -86.9920 -86.9165 -86.9144 -86.9129 -50.6960 -50.6875 -50.6806 -50.6755
   -50.6744 -50.6584 -50.6398 -50.6391 -50.6307 -50.6093 -50.6070 -50.6039
   -50.6003 -50.5992 -50.5966 -50.5868 -50.5852 -50.5775 -50.5079 -50.4919
   -50.4724 -50.4304 -50.4278 -50.4260 -50.4179 -50.4160 -50.4144 -50.4140
   -50.4133 -50.3943 -50.3493 -50.3472 -50.3391 -50.3314 -50.3294 -50.3281
   -13.3305 -12.9872 -12.8405 -12.6996 -12.3556 -12.2131 -12.0762 -11.7316
   -11.5931  -8.6677  -8.3172  -8.2085  -7.4186  -7.0637  -6.9704  -5.3188
    -4.9625  -4.8735  -4.2216  -3.8660  -3.7758  -3.5061  -3.1509  -3.0587
    -2.4735  -2.2163  -2.1162  -2.0306  -1.8594  -1.7732  -1.6749  -1.4612
    -1.2756  -1.2302  -1.1944  -1.1245  -1.1158  -1.1038  -1.0800  -1.0735
    -1.0187  -1.0056  -0.9802  -0.9149  -0.8899  -0.8341  -0.8115  -0.7239
    -0.7202  -0.6455  -0.5374  -0.4899  -0.4760  -0.4648  -0.3967  -0.3930
    -0.3112  -0.3051  -0.2375  -0.2204   0.0285   0.0352   0.0599   0.1666
     0.2158   0.2764   0.3092   0.3497   0.3676   0.3705   0.3876   0.4313
     0.4351   0.6888   0.7087   0.7603   0.8310   0.8806   0.9638   0.9895
     1.0294   1.0322   1.1036   1.1121   1.1534   1.2302   1.2542   1.2894
     1.3520   1.4070   1.4400   1.4558   1.4844   1.5804   1.6046   1.6640
     1.6816   1.7141   1.7405   1.7696   1.7910   1.8678   1.9213   1.9391
     1.9463   2.0419   2.1696   2.4017   3.0762   3.1087   3.5765   3.8957
     3.9297   3.9758   4.3301   4.7867   5.3935   5.5253   5.7448   6.0041
     6.2789   7.1013   7.7037   8.5323   9.4622   9.5722   9.8197   9.8724
    10.0805  10.4534  10.4728  10.5239  10.8351  10.8576  11.1344  11.1941
    11.3377  11.3589  11.5732  11.6559  11.8714  11.8960  12.1855  12.2093
    12.2118  12.4115

          k = 0.3333-0.3208 0.0000 ( 32079 PWs)   bands (ev):

   -87.1837 -87.1783 -87.1760 -87.1723 -87.1684 -87.1668 -86.9973 -86.9928
   -86.9908 -86.9183 -86.9137 -86.9118 -50.7053 -50.6949 -50.6801 -50.6765
   -50.6741 -50.6418 -50.6391 -50.6358 -50.6170 -50.6160 -50.6127 -50.6054
   -50.6023 -50.5960 -50.5931 -50.5925 -50.5912 -50.5743 -50.5168 -50.4919
   -50.4528 -50.4396 -50.4346 -50.4337 -50.4173 -50.4142 -50.4139 -50.4137
   -50.4125 -50.3745 -50.3558 -50.3553 -50.3351 -50.3329 -50.3288 -50.3271
   -13.7545 -13.4116 -13.2622 -12.4904 -12.1462 -12.0051 -11.2589 -10.9133
   -10.7802  -9.5219  -9.1735  -9.0543  -7.0766  -6.7240  -6.6225  -5.4486
    -5.0951  -4.9971  -4.3974  -4.2121  -4.0424  -3.9497  -3.8584  -3.7607
    -2.9992  -2.6431  -2.5542  -2.1719  -1.5738  -1.4194  -1.3371  -1.3071
    -1.2284  -1.1802  -1.1285  -1.0619  -0.9753  -0.9385  -0.9163  -0.8994
    -0.8731  -0.8445  -0.7951  -0.7710  -0.7360  -0.7084  -0.6979  -0.6866
    -0.5597  -0.5283  -0.5158  -0.3726  -0.3484  -0.3268  -0.1713  -0.1630
    -0.1442  -0.0783  -0.0326  -0.0112   0.0998   0.1306   0.2142   0.2554
     0.2841   0.2914   0.3259   0.3794   0.4085   0.4207   0.4599   0.5788
     0.5883   0.6157   0.6361   0.7636   0.7871   0.8079   0.8483   0.8550
     0.8692   0.9929   0.9999   1.0055   1.1296   1.1728   1.2028   1.3024
     1.3458   1.3530   1.4146   1.4704   1.5010   1.5666   1.5941   1.7360
     1.7836   1.8161   1.8170   1.8619   1.8674   1.9159   1.9331   1.9723
     1.9785   2.0253   2.1230   2.6750   2.9637   3.0864   3.4270   3.5478
     3.6455   4.4904   5.2305   5.2489   5.7062   6.1896   6.4903   6.5463
     6.8239   7.4696   7.6578   7.7290   8.1744   8.5296   8.8382   9.2779
     9.8617   9.8968   9.9115  10.0551  10.2806  10.3284  10.6742  10.7095
    10.7957  11.1302  11.6205  11.8653  11.9103  12.0827  12.1106  12.1889
    12.4095  12.5090

          k = 0.4444-0.2566 0.0000 ( 32102 PWs)   bands (ev):

   -87.1825 -87.1797 -87.1757 -87.1715 -87.1694 -87.1666 -86.9964 -86.9940
   -86.9906 -86.9173 -86.9149 -86.9116 -50.7105 -50.6996 -50.6744 -50.6740
   -50.6638 -50.6455 -50.6403 -50.6346 -50.6251 -50.6141 -50.6076 -50.6059
   -50.6007 -50.5971 -50.5946 -50.5904 -50.5900 -50.5799 -50.5216 -50.4805
   -50.4604 -50.4446 -50.4316 -50.4304 -50.4191 -50.4165 -50.4147 -50.4123
   -50.4026 -50.3823 -50.3532 -50.3515 -50.3402 -50.3321 -50.3299 -50.3269
   -13.5421 -13.1989 -13.0509 -12.9088 -12.5650 -12.4212 -10.4662 -10.4596
   -10.1163 -10.1162  -9.9887  -9.9887  -6.0001  -5.9957  -5.6435  -5.6435
    -5.5492  -5.5492  -4.0599  -4.0539  -3.7006  -3.7006  -3.6120  -3.6120
    -3.5030  -3.1487  -3.0532  -2.0670  -1.9212  -1.7109  -1.6206  -1.3949
    -1.3259  -1.3035  -1.2428  -1.1909  -1.1253  -0.9838  -0.8662  -0.8264
    -0.7907  -0.6971  -0.6623  -0.6301  -0.6281  -0.6043  -0.5673  -0.5432
    -0.5267  -0.4651  -0.3948  -0.3753  -0.3044  -0.2914  -0.2892  -0.2210
    -0.1244  -0.0561  -0.0443   0.0256   0.0521   0.0725   0.0865   0.1408
     0.1788   0.2284   0.2339   0.2599   0.2734   0.3167   0.3573   0.3592
     0.4651   0.5553   0.6000   0.6297   0.7137   0.7972   0.8386   0.8830
     0.9092   1.0693   1.0785   1.1384   1.1470   1.2859   1.3854   1.4299
     1.4650   1.5145   1.5233   1.5739   1.6841   1.7038   1.7369   1.7675
     1.8033   1.8159   1.8316   1.8994   1.9200   1.9578   2.0272   2.1386
     2.1427   2.1929   2.2013   2.2422   2.4501   2.7522   2.7555   3.0372
     3.7304   4.6384   5.1207   5.9191   6.0189   6.4493   6.6762   6.8967
     7.2205   7.2258   7.5707   7.5728   7.8556   7.8565   8.1627   9.0506
     9.3068   9.6700  10.1836  10.4222  10.5632  10.7841  11.0207  11.0797
    11.1610  11.3862  11.4062  11.4676  11.6128  11.9369  12.1292  12.1367
    12.2893  12.2943

          k = 0.4444-0.1283 0.0000 ( 32079 PWs)   bands (ev):

   -87.1837 -87.1783 -87.1760 -87.1723 -87.1684 -87.1668 -86.9973 -86.9928
   -86.9908 -86.9183 -86.9137 -86.9118 -50.7053 -50.6949 -50.6801 -50.6765
   -50.6741 -50.6419 -50.6390 -50.6357 -50.6171 -50.6160 -50.6128 -50.6054
   -50.6020 -50.5960 -50.5931 -50.5926 -50.5913 -50.5744 -50.5168 -50.4919
   -50.4527 -50.4396 -50.4345 -50.4337 -50.4173 -50.4143 -50.4140 -50.4137
   -50.4125 -50.3744 -50.3557 -50.3553 -50.3353 -50.3329 -50.3288 -50.3271
   -13.7545 -13.4116 -13.2622 -12.4904 -12.1462 -12.0051 -11.2589 -10.9133
   -10.7802  -9.5219  -9.1735  -9.0543  -7.0766  -6.7240  -6.6225  -5.4486
    -5.0951  -4.9971  -4.3974  -4.2121  -4.0424  -3.9497  -3.8584  -3.7607
    -2.9992  -2.6431  -2.5542  -2.1719  -1.5738  -1.4194  -1.3372  -1.3071
    -1.2282  -1.1803  -1.1285  -1.0619  -0.9753  -0.9384  -0.9165  -0.8997
    -0.8730  -0.8441  -0.7954  -0.7710  -0.7359  -0.7085  -0.6994  -0.6866
    -0.5605  -0.5280  -0.5186  -0.3705  -0.3461  -0.3257  -0.1705  -0.1633
    -0.1440  -0.0768  -0.0324  -0.0118   0.0986   0.1294   0.2148   0.2577
     0.2854   0.2957   0.3259   0.3791   0.4085   0.4199   0.4579   0.5747
     0.5870   0.6176   0.6294   0.7679   0.7879   0.8062   0.8449   0.8569
     0.8693   0.9929   1.0004   1.0062   1.1307   1.1754   1.2022   1.3038
     1.3421   1.3527   1.4133   1.4696   1.5048   1.5648   1.5939   1.7380
     1.7839   1.8145   1.8168   1.8613   1.8649   1.9163   1.9342   1.9724
     1.9785   2.0260   2.1252   2.6750   2.9635   3.0864   3.4277   3.5478
     3.6456   4.4904   5.2293   5.2488   5.7052   6.1895   6.4903   6.5463
     6.8239   7.4703   7.6576   7.7276   8.1744   8.5296   8.8382   9.2779
     9.8625   9.8968   9.9122  10.0562  10.2806  10.3285  10.6742  10.7094
    10.7957  11.1302  11.6206  11.8660  11.9102  12.0823  12.1109  12.1889
    12.4107  12.5075

          k = 0.4444 0.0000 0.0000 ( 32067 PWs)   bands (ev):

   -87.1841 -87.1771 -87.1768 -87.1726 -87.1675 -87.1674 -86.9977 -86.9917
   -86.9916 -86.9187 -86.9127 -86.9124 -50.6935 -50.6934 -50.6852 -50.6851
   -50.6773 -50.6393 -50.6390 -50.6374 -50.6171 -50.6170 -50.6122 -50.6031
   -50.6029 -50.5957 -50.5941 -50.5937 -50.5905 -50.5716 -50.5059 -50.5055
   -50.4505 -50.4352 -50.4349 -50.4284 -50.4280 -50.4176 -50.4131 -50.4129
   -50.4117 -50.3721 -50.3567 -50.3563 -50.3335 -50.3328 -50.3280 -50.3276
   -13.8255 -13.4826 -13.3327 -11.9390 -11.9377 -11.5936 -11.5935 -11.4560
   -11.4560  -8.8314  -8.4788  -8.3820  -7.8182  -7.4610  -7.3745  -4.8647
    -4.8642  -4.5112  -4.5111  -4.5026  -4.4124  -4.4124  -4.1480  -4.0540
    -2.2561  -1.9612  -1.9595  -1.6575  -1.6036  -1.6036  -1.5170  -1.5170
    -1.4294  -1.1298  -1.1291  -1.0962  -1.0902  -1.0895  -1.0452  -1.0438
    -0.9721  -0.8719  -0.7485  -0.7416  -0.7399  -0.7373  -0.6542  -0.5662
    -0.5625  -0.5607  -0.4561  -0.4526  -0.3702  -0.1731  -0.1634  -0.1518
    -0.1117  -0.0856   0.0178   0.0219   0.2000   0.2013   0.2405   0.2457
     0.3272   0.3354   0.3394   0.4019   0.4573   0.4826   0.4848   0.5433
     0.5559   0.5597   0.7005   0.7124   0.7181   0.7371   0.8688   0.9014
     1.0318   1.0534   1.0583   1.1012   1.1665   1.1693   1.2020   1.2233
     1.2260   1.3619   1.3880   1.3897   1.4169   1.4209   1.5329   1.5349
     1.6295   1.6307   1.6369   1.7657   1.8562   1.8593   1.9265   1.9297
     1.9319   2.0541   2.0580   3.2189   3.3162   3.5659   3.6164   3.6388
     3.8715   4.3727   4.3781   5.5831   5.7354   5.9077   5.9124   6.1160
     6.1997   7.5749   8.0192   8.0281   9.0922   9.0936   9.4511   9.4515
     9.7884   9.7885   9.8011  10.0436  10.0505  10.1859  10.6581  10.6717
    10.7007  11.0449  11.3522  11.3794  11.8258  12.1025  12.3748  12.3754
    12.6028  12.6325

          k = 0.4444 0.1283 0.0000 ( 32079 PWs)   bands (ev):

   -87.1837 -87.1783 -87.1760 -87.1723 -87.1684 -87.1668 -86.9973 -86.9928
   -86.9908 -86.9183 -86.9137 -86.9118 -50.7054 -50.6950 -50.6800 -50.6765
   -50.6739 -50.6418 -50.6390 -50.6360 -50.6170 -50.6158 -50.6128 -50.6052
   -50.6019 -50.5960 -50.5936 -50.5923 -50.5913 -50.5746 -50.5168 -50.4919
   -50.4527 -50.4398 -50.4346 -50.4336 -50.4173 -50.4141 -50.4139 -50.4137
   -50.4125 -50.3742 -50.3561 -50.3549 -50.3354 -50.3330 -50.3288 -50.3272
   -13.7545 -13.4116 -13.2622 -12.4904 -12.1462 -12.0051 -11.2589 -10.9133
   -10.7802  -9.5219  -9.1735  -9.0543  -7.0766  -6.7240  -6.6225  -5.4486
    -5.0951  -4.9971  -4.3974  -4.2120  -4.0424  -3.9497  -3.8584  -3.7607
    -2.9992  -2.6431  -2.5542  -2.1719  -1.5739  -1.4193  -1.3372  -1.3062
    -1.2278  -1.1815  -1.1286  -1.0619  -0.9753  -0.9380  -0.9152  -0.8986
    -0.8732  -0.8449  -0.7954  -0.7710  -0.7339  -0.7079  -0.7002  -0.6866
    -0.5627  -0.5263  -0.5178  -0.3704  -0.3476  -0.3257  -0.1702  -0.1632
    -0.1435  -0.0824  -0.0326  -0.0095   0.0933   0.1263   0.2162   0.2538
     0.2852   0.2970   0.3259   0.3805   0.4085   0.4261   0.4552   0.5768
     0.5875   0.6169   0.6327   0.7689   0.7916   0.8025   0.8484   0.8526
     0.8693   0.9900   1.0003   1.0075   1.1257   1.1749   1.2047   1.3031
     1.3435   1.3529   1.4132   1.4686   1.5043   1.5692   1.5956   1.7365
     1.7848   1.8146   1.8186   1.8622   1.8657   1.9147   1.9326   1.9727
     1.9825   2.0259   2.1237   2.6749   2.9635   3.0864   3.4263   3.5478
     3.6460   4.4923   5.2294   5.2491   5.7041   6.1894   6.4811   6.5463
     6.8239   7.4683   7.6481   7.7264   8.1746   8.5296   8.8382   9.2923
     9.8596   9.8968   9.9190  10.0538  10.2806  10.3284  10.6742  10.7109
    10.7958  11.1302  11.6205  11.8661  11.9104  12.1041  12.1208  12.1889
    12.4095  12.5085

          k = 0.4444 0.2566 0.0000 ( 32102 PWs)   bands (ev):

   -87.1825 -87.1797 -87.1757 -87.1715 -87.1694 -87.1666 -86.9964 -86.9940
   -86.9906 -86.9173 -86.9149 -86.9116 -50.7107 -50.6997 -50.6744 -50.6740
   -50.6637 -50.6454 -50.6401 -50.6350 -50.6248 -50.6140 -50.6074 -50.6060
   -50.6005 -50.5971 -50.5945 -50.5905 -50.5901 -50.5803 -50.5216 -50.4805
   -50.4604 -50.4449 -50.4317 -50.4303 -50.4191 -50.4165 -50.4146 -50.4123
   -50.4023 -50.3819 -50.3528 -50.3519 -50.3405 -50.3321 -50.3298 -50.3270
   -13.5421 -13.1989 -13.0509 -12.9088 -12.5650 -12.4212 -10.4658 -10.4600
   -10.1163 -10.1162  -9.9887  -9.9887  -6.0002  -5.9955  -5.6435  -5.6435
    -5.5492  -5.5492  -4.0590  -4.0548  -3.7006  -3.7006  -3.6120  -3.6120
    -3.5030  -3.1487  -3.0532  -2.0669  -1.9212  -1.7109  -1.6206  -1.3941
    -1.3259  -1.3030  -1.2439  -1.1909  -1.1252  -0.9829  -0.8648  -0.8243
    -0.7895  -0.6973  -0.6627  -0.6306  -0.6292  -0.6043  -0.5652  -0.5432
    -0.5279  -0.4661  -0.3965  -0.3760  -0.3044  -0.2913  -0.2897  -0.2210
    -0.1242  -0.0536  -0.0483   0.0252   0.0426   0.0734   0.0864   0.1404
     0.1795   0.2260   0.2339   0.2614   0.2740   0.3167   0.3554   0.3637
     0.4665   0.5505   0.6048   0.6323   0.7207   0.8012   0.8455   0.8727
     0.8987   1.0699   1.0792   1.1312   1.1480   1.2865   1.3879   1.4290
     1.4663   1.5165   1.5321   1.5728   1.6783   1.7033   1.7421   1.7651
     1.8046   1.8206   1.8312   1.9045   1.9190   1.9560   2.0255   2.1386
     2.1420   2.1926   2.2017   2.2425   2.4499   2.7519   2.7558   3.0375
     3.7288   4.6373   5.1269   5.9284   6.0168   6.4355   6.6527   6.8950
     7.2199   7.2262   7.5711   7.5724   7.8557   7.8563   8.1605   9.0668
     9.3041   9.6782  10.1836  10.4233  10.5633  10.7844  11.0208  11.0798
    11.1611  11.3862  11.4063  11.4676  11.6414  11.9369  12.1293  12.1365
    12.2904  12.2932

          k = 0.4444-0.7698 0.0000 ( 32048 PWs)   bands (ev):

   -87.1810 -87.1808 -87.1762 -87.1703 -87.1703 -87.1669 -86.9950 -86.9949
   -86.9910 -86.9161 -86.9158 -86.9120 -50.7074 -50.6969 -50.6737 -50.6736
   -50.6593 -50.6592 -50.6366 -50.6343 -50.6342 -50.6105 -50.6074 -50.6022
   -50.6020 -50.5976 -50.5974 -50.5881 -50.5838 -50.5837 -50.5186 -50.4747
   -50.4742 -50.4417 -50.4296 -50.4235 -50.4232 -50.4155 -50.4153 -50.4126
   -50.3963 -50.3960 -50.3508 -50.3449 -50.3447 -50.3309 -50.3306 -50.3274
   -13.1902 -13.1891 -12.8461 -12.8461 -12.7004 -12.7004 -11.3264 -10.9809
   -10.8473  -9.5725  -9.2245  -9.1038  -6.6296  -6.2744  -6.1834  -5.0181
    -4.8993  -4.6620  -4.5738  -4.5421  -4.4560  -3.4108  -3.0533  -2.9684
    -2.7885  -2.7869  -2.4324  -2.4324  -2.3404  -2.3404  -1.5127  -1.5101
    -1.3823  -1.3023  -1.2206  -1.0278  -1.0269  -0.9789  -0.9181  -0.9161
    -0.8313  -0.8302  -0.8189  -0.7794  -0.7783  -0.6179  -0.6175  -0.5469
    -0.5352  -0.5347  -0.3550  -0.3548  -0.2763  -0.2755  -0.2594  -0.2594
    -0.1758  -0.1758  -0.1455  -0.1449  -0.0546  -0.0534  -0.0384   0.0658
     0.0805   0.0814   0.2701   0.3380   0.3385   0.3622   0.3629   0.5219
     0.5241   0.6189   0.6839   0.6852   0.7980   0.8001   0.8368   0.8887
     0.9353   0.9368   1.0793   1.0811   1.1087   1.2360   1.2367   1.3032
     1.4471   1.5133   1.5144   1.5657   1.5664   1.6387   1.6842   1.6853
     1.8201   1.8492   1.8743   1.8747   1.9021   1.9520   2.0014   2.0018
     2.0028   2.1124   2.1891   2.5238   2.5254   2.6737   3.1037   3.6093
     4.1846   4.1858   4.2325   5.0040   6.2170   6.2359   6.4956   6.5066
     6.6016   6.8811   7.4613   8.3518   8.7050   8.7996   8.8115   8.9691
     9.2335   9.8357  10.6057  10.6600  10.6600  11.0257  11.0267  11.4497
    11.4525  11.5611  11.5627  11.7498  11.7505  11.8929  11.8941  11.9975
    12.0831  12.0836

          k = 0.4444-0.6415 0.0000 ( 32050 PWs)   bands (ev):

   -87.1816 -87.1791 -87.1774 -87.1708 -87.1690 -87.1678 -86.9955 -86.9934
   -86.9920 -86.9165 -86.9144 -86.9129 -50.6962 -50.6876 -50.6805 -50.6754
   -50.6744 -50.6583 -50.6397 -50.6394 -50.6304 -50.6092 -50.6070 -50.6037
   -50.6001 -50.5992 -50.5967 -50.5865 -50.5855 -50.5777 -50.5080 -50.4919
   -50.4723 -50.4307 -50.4277 -50.4259 -50.4181 -50.4159 -50.4144 -50.4138
   -50.4133 -50.3941 -50.3489 -50.3475 -50.3393 -50.3313 -50.3294 -50.3282
   -13.3305 -12.9872 -12.8405 -12.6996 -12.3556 -12.2131 -12.0762 -11.7316
   -11.5931  -8.6677  -8.3172  -8.2085  -7.4186  -7.0637  -6.9704  -5.3188
    -4.9625  -4.8735  -4.2216  -3.8660  -3.7758  -3.5060  -3.1509  -3.0587
    -2.4734  -2.2163  -2.1162  -2.0306  -1.8594  -1.7732  -1.6750  -1.4612
    -1.2745  -1.2295  -1.1946  -1.1247  -1.1172  -1.1038  -1.0807  -1.0734
    -1.0187  -1.0059  -0.9803  -0.9138  -0.8891  -0.8342  -0.8131  -0.7218
    -0.7203  -0.6460  -0.5372  -0.4887  -0.4760  -0.4663  -0.3961  -0.3930
    -0.3108  -0.3056  -0.2368  -0.2203   0.0249   0.0389   0.0627   0.1596
     0.2151   0.2726   0.3116   0.3487   0.3690   0.3729   0.3873   0.4333
     0.4355   0.6876   0.7133   0.7530   0.8335   0.8773   0.9660   0.9881
     1.0272   1.0340   1.1067   1.1123   1.1522   1.2288   1.2534   1.2896
     1.3529   1.4062   1.4386   1.4560   1.4841   1.5812   1.6069   1.6640
     1.6843   1.7159   1.7409   1.7681   1.7894   1.8665   1.9241   1.9395
     1.9500   2.0418   2.1670   2.4010   3.0772   3.1099   3.5763   3.8949
     3.9302   3.9757   4.3301   4.7857   5.3936   5.5209   5.7448   6.0041
     6.2766   7.1003   7.7026   8.5291   9.4624   9.5697   9.8197   9.8804
    10.0805  10.4577  10.4728  10.5253  10.8350  10.8576  11.1344  11.1953
    11.3376  11.3588  11.5742  11.6557  11.8706  11.8953  12.1859  12.2096
    12.2115  12.4600

          k = 0.4444-0.5132 0.0000 ( 32050 PWs)   bands (ev):

   -87.1816 -87.1791 -87.1774 -87.1708 -87.1690 -87.1678 -86.9955 -86.9934
   -86.9920 -86.9165 -86.9144 -86.9129 -50.6960 -50.6875 -50.6806 -50.6755
   -50.6744 -50.6584 -50.6400 -50.6391 -50.6305 -50.6093 -50.6070 -50.6039
   -50.6000 -50.5992 -50.5967 -50.5868 -50.5851 -50.5776 -50.5079 -50.4920
   -50.4723 -50.4304 -50.4278 -50.4259 -50.4181 -50.4159 -50.4145 -50.4141
   -50.4133 -50.3942 -50.3493 -50.3471 -50.3393 -50.3313 -50.3295 -50.3281
   -13.3305 -12.9872 -12.8405 -12.6996 -12.3556 -12.2131 -12.0762 -11.7316
   -11.5931  -8.6677  -8.3172  -8.2085  -7.4186  -7.0637  -6.9704  -5.3188
    -4.9625  -4.8735  -4.2216  -3.8660  -3.7758  -3.5061  -3.1509  -3.0587
    -2.4735  -2.2163  -2.1162  -2.0306  -1.8594  -1.7732  -1.6749  -1.4612
    -1.2756  -1.2301  -1.1947  -1.1241  -1.1157  -1.1038  -1.0795  -1.0733
    -1.0187  -1.0058  -0.9811  -0.9144  -0.8903  -0.8340  -0.8133  -0.7237
    -0.7197  -0.6459  -0.5350  -0.4897  -0.4760  -0.4664  -0.3964  -0.3930
    -0.3109  -0.3050  -0.2369  -0.2201   0.0305   0.0331   0.0610   0.1653
     0.2156   0.2718   0.3098   0.3514   0.3715   0.3733   0.3878   0.4294
     0.4350   0.6904   0.7068   0.7562   0.8299   0.8792   0.9658   0.9878
     1.0302   1.0335   1.1061   1.1123   1.1545   1.2297   1.2544   1.2862
     1.3512   1.4073   1.4408   1.4531   1.4834   1.5804   1.6069   1.6651
     1.6847   1.7146   1.7405   1.7691   1.7878   1.8684   1.9215   1.9398
     1.9466   2.0435   2.1679   2.4015   3.0766   3.1086   3.5764   3.8957
     3.9310   3.9758   4.3301   4.7847   5.3935   5.5251   5.7448   6.0041
     6.2771   7.1026   7.7035   8.5295   9.4624   9.5758   9.8197   9.8724
    10.0805  10.4531  10.4728  10.5244  10.8349  10.8576  11.1344  11.1940
    11.3377  11.3588  11.5740  11.6557  11.8715  11.8968  12.1854  12.2094
    12.2117  12.4599

          k = 0.4444-0.3849 0.0000 ( 32048 PWs)   bands (ev):

   -87.1810 -87.1808 -87.1762 -87.1703 -87.1703 -87.1670 -86.9950 -86.9949
   -86.9910 -86.9161 -86.9158 -86.9120 -50.7072 -50.6968 -50.6737 -50.6736
   -50.6594 -50.6593 -50.6362 -50.6345 -50.6344 -50.6106 -50.6077 -50.6022
   -50.6020 -50.5977 -50.5975 -50.5884 -50.5834 -50.5833 -50.5185 -50.4748
   -50.4742 -50.4414 -50.4296 -50.4238 -50.4229 -50.4155 -50.4154 -50.4126
   -50.3966 -50.3963 -50.3511 -50.3446 -50.3444 -50.3310 -50.3307 -50.3272
   -13.1907 -13.1885 -12.8462 -12.8460 -12.7004 -12.7004 -11.3264 -10.9809
   -10.8473  -9.5725  -9.2245  -9.1038  -6.6296  -6.2744  -6.1834  -5.0180
    -4.8993  -4.6620  -4.5738  -4.5421  -4.4560  -3.4108  -3.0533  -2.9684
    -2.7896  -2.7859  -2.4324  -2.4324  -2.3404  -2.3404  -1.5140  -1.5088
    -1.3832  -1.3029  -1.2193  -1.0278  -1.0273  -0.9798  -0.9185  -0.9157
    -0.8302  -0.8295  -0.8212  -0.7801  -0.7792  -0.6179  -0.6171  -0.5489
    -0.5339  -0.5334  -0.3563  -0.3544  -0.2762  -0.2753  -0.2595  -0.2594
    -0.1758  -0.1758  -0.1460  -0.1444  -0.0525  -0.0515  -0.0351   0.0763
     0.0775   0.0778   0.2678   0.3378   0.3385   0.3607   0.3652   0.5209
     0.5225   0.6177   0.6835   0.6845   0.7997   0.8027   0.8329   0.8833
     0.9400   0.9407   1.0770   1.0801   1.1139   1.2357   1.2375   1.3041
     1.4482   1.5110   1.5136   1.5631   1.5640   1.6324   1.6857   1.6868
     1.8208   1.8506   1.8702   1.8705   1.9026   1.9525   2.0019   2.0025
     2.0045   2.1125   2.1886   2.5237   2.5256   2.6738   3.1038   3.6093
     4.1849   4.1877   4.2297   5.0039   6.2173   6.2462   6.4981   6.5079
     6.6016   6.8811   7.4711   8.3519   8.7051   8.8030   8.8131   8.9690
     9.2189   9.8285  10.6045  10.6600  10.6601  11.0257  11.0266  11.4474
    11.4546  11.5603  11.5635  11.7495  11.7510  11.8929  11.8942  11.9635
    12.0830  12.0838

     the Fermi energy is     5.0626 ev

!    total energy              =   -3891.08964019 Ry
     estimated scf accuracy    <          6.1E-09 Ry
     smearing contrib. (-TS)   =      -0.00171239 Ry
     internal energy E=F+TS    =   -3891.08792780 Ry

     The total energy is F=E-TS. E is the sum of the following terms:
     one-electron contribution =  -47682.62499987 Ry
     hartree contribution      =   23889.01120583 Ry
     xc contribution           =    -436.03349633 Ry
     ewald contribution        =   20487.23000634 Ry
     DFT-D3 Dispersion         =      -0.68861553 Ry
     electric field correction =       0.00000123 Ry
     one-center paw contrib.   =    -147.98202948 Ry

     convergence has been achieved in  55 iterations

     negative rho (up, down):  2.761E-04 0.000E+00

     Forces acting on atoms (cartesian axes, Ry/au):

     atom    1 type  1   force =    -0.00005110    0.00038794    0.00242161
     atom    2 type  1   force =    -0.00009317    0.00036829    0.00240778
     atom    3 type  1   force =     0.00030485   -0.00010986   -0.00075029
     atom    4 type  1   force =     0.00000420   -0.00033351   -0.00310463
     atom    5 type  1   force =    -0.00010941    0.00039323    0.00241858
     atom    6 type  1   force =     0.00009669   -0.00006889   -0.00108254
     atom    7 type  1   force =    -0.00010455    0.00003395    0.00150343
     atom    8 type  1   force =     0.00002077   -0.00033828   -0.00312305
     atom    9 type  1   force =    -0.00030064    0.00009411    0.00026245
     atom   10 type  1   force =     0.00029385    0.00008219   -0.00083164
     atom   11 type  1   force =     0.00000018   -0.00032591   -0.00310810
     atom   12 type  1   force =    -0.00004361   -0.00006929    0.00124260
     atom   13 type  2   force =     0.00092625   -0.00053248    0.00047521
     atom   14 type  2   force =     0.00018785   -0.00082980    0.00071635
     atom   15 type  2   force =     0.00004230   -0.00004282    0.00001723
     atom   16 type  2   force =     0.00082138    0.00024291    0.00070810
     atom   17 type  2   force =    -0.00067890   -0.00005340    0.00067047
     atom   18 type  2   force =    -0.00043024    0.00024693    0.00004668
     atom   19 type  2   force =    -0.00028877    0.00061184    0.00066784
     atom   20 type  2   force =    -0.00058360    0.00031929    0.00046729
     atom   21 type  2   force =     0.00000073   -0.00002028   -0.00018090
     atom   22 type  2   force =     0.00001688   -0.00001479   -0.00025350
     atom   23 type  2   force =     0.00001551    0.00000317   -0.00018186
     atom   24 type  2   force =    -0.00000322   -0.00000543   -0.00025681
     atom   25 type  2   force =    -0.00001148    0.00000340   -0.00017105
     atom   26 type  2   force =    -0.00000836   -0.00000508   -0.00025122
     atom   27 type  2   force =    -0.00001138    0.00000301   -0.00017821
     atom   28 type  2   force =    -0.00000546   -0.00000033   -0.00025212
     atom   29 type  2   force =    -0.00000215   -0.00000299   -0.00012971
     atom   30 type  2   force =    -0.00000008   -0.00000721    0.00005564
     atom   31 type  2   force =    -0.00000225   -0.00000282   -0.00012854
     atom   32 type  2   force =     0.00000024   -0.00000676    0.00005549
     atom   33 type  2   force =    -0.00000110   -0.00000288   -0.00013022
     atom   34 type  2   force =    -0.00000031   -0.00000675    0.00005317
     atom   35 type  2   force =    -0.00000178   -0.00000384   -0.00013038
     atom   36 type  2   force =    -0.00000010   -0.00000688    0.00005485

     Total force =     0.007812     Total SCF correction =     0.000657

     Writing all to output data dir ./tmp/AGC_N3_hollow_fcc_K9_bound.save/ :
     XML data file, charge density, pseudopotentials, collected wavefunctions
 
     init_run     :     63.94s CPU     65.81s WALL (       1 calls)
     electrons    :   9606.47s CPU   9720.14s WALL (       1 calls)
     forces       :     33.63s CPU     34.16s WALL (       1 calls)
     force_dftd3  :      0.01s CPU      0.01s WALL (       1 calls)

     Called by init_run:
     wfcinit      :     53.85s CPU     55.54s WALL (       1 calls)
     potinit      :      9.06s CPU      9.12s WALL (       1 calls)
     hinit0       :      0.42s CPU      0.45s WALL (       1 calls)

     Called by electrons:
     c_bands      :   7508.20s CPU   7586.50s WALL (      55 calls)
     sum_band     :   1537.87s CPU   1570.13s WALL (      55 calls)
     v_of_rho     :      9.93s CPU     10.78s WALL (      56 calls)
     newd         :     12.17s CPU     12.26s WALL (      56 calls)
                                       12.26s GPU  (      56 calls)
     PAW_pot      :    393.25s CPU    393.36s WALL (      56 calls)
     mix_rho      :    149.44s CPU    151.09s WALL (      55 calls)
     energy_dftd3 :      0.01s CPU      0.01s WALL (       1 calls)

     Called by c_bands:
     init_us_2    :    422.29s CPU    423.09s WALL (    4592 calls)
     cegterg      :   6975.87s CPU   6980.15s WALL (    2255 calls)

     Called by *egterg:
     cdiaghg      :    385.19s CPU    386.03s WALL (   13837 calls)
                                      370.03s GPU  (   13837 calls)
     h_psi        :   3558.93s CPU   3578.70s WALL (   13878 calls)
                                     3566.13s GPU  (   13878 calls)
     s_psi        :    605.01s CPU    605.46s WALL (   13878 calls)
     g_psi        :      0.05s CPU     15.79s WALL (   11582 calls)
                                        3.39s GPU  (   11582 calls)

     Called by h_psi:
     h_psi:calbec :      0.85s CPU    573.55s WALL (   13878 calls)
                                      561.18s GPU  (   13878 calls)
     vloc_psi     :   1976.92s CPU   1990.39s WALL (   13878 calls)
                                     1978.76s GPU  (   13878 calls)
     add_vuspsi   :    546.24s CPU    953.14s WALL (   13878 calls)
                                      938.43s GPU  (   13878 calls)

     General routines
     calbec       :      0.94s CPU      0.95s WALL (   16297 calls)
     fft          :      2.45s CPU      3.94s WALL (     737 calls)
                                        0.71s GPU  (     681 calls)
     ffts         :      0.88s CPU      8.71s WALL (    6449 calls)
                                        2.12s GPU  (    6393 calls)
     fftw         :      2.90s CPU   1059.63s WALL (  167647 calls)
                                      885.71s GPU  (  167647 calls)
     interpolate  :      3.45s CPU      3.93s WALL (      56 calls)
     davcio       :      5.30s CPU    108.96s WALL (    7894 calls)
 
     Parallel routines
 
     PWSCF        :      2h41m CPU      2h43m WALL

 
   This run was terminated on:   5:25:15   6Oct2026            

=------------------------------------------------------------------------------=
   JOB DONE.
=------------------------------------------------------------------------------=
