110

P       5.102458590000000      2.513755770000001     10.310089750733187
P       0.074910664266811      7.541293295733189     10.310084810733185
P       0.074910814266812      2.513743570000000     15.337632530733186
P       5.102458499999999      7.541301355733189     15.337636600733187
S       6.130449790000000      3.756155880000001     11.553147440733188
S       1.102875560000000      8.783686045733189     11.553174210733188
S       3.872218600000001      1.302913860000000     11.521176140733187
S       8.899770450000000      6.330421080000001     11.521144760733188
S       3.872210510000000      3.724607920000001      9.099020600733187
S       8.899754070000000      8.752140715733189      9.099014880733186
S       8.899758060000000      3.724594820000000     14.126561750733186
S       3.872211700000000      8.752155335733189     14.126567440733186
S       6.130431660000000      1.271352900000000      9.067018380733188
S       1.102910170000000      6.298925990000001      9.067002280733188
S       1.102907700000000      1.271376150000000     14.094547570733187
S       6.130423450000001      6.298895880000000     14.094561020733186
Li      2.805150690000000      2.253872790000000      7.500054560733187
Li      7.832697530000000      7.281406090000001      7.500041560733187
Li      7.832669880000000      2.253866180000000     12.527612270733187
Li      2.805144470000000      7.281424920000001     12.527609100733187
Li      2.802966340000000      5.321776910000001     10.569143010733187
Li      7.830537340000000      0.294238010000000     10.569132630733188
Li      7.830584180000000      9.760766415733189     15.078561020733186
Li      2.802935740000000      4.733317160000000     15.078611980733188
Li      2.802917310000001      9.760877485733189     10.051065900733185
Li      7.830554750000001      4.733242570000000     10.051019800733187
Li      2.805214910000000      2.773655790000001     13.120174840733187
Li      7.832652190000000      7.801153815733190     13.120067340733188
Li      7.832677470000001      2.773612930000001      8.092540610733188
Li      2.805219380000000      7.801207465733190      8.092633410733187
Li      0.212017020000000      0.928893910000000      8.723092920733187
Li      5.239597890000000      5.956406130000000      8.723165470733187
Li      5.239596820000001      0.928817680000000     13.750754940733186
Li      0.212017430000000      5.956426890000000     13.750659440733187
Li      0.212054190000000      4.098564880000001     11.897071090733185
Li      5.239569100000000      9.126225195733189     11.896995440733189
Cl      9.343852815733188      7.541287385733188     15.337634186466376
Cl      4.316305130000000      7.541306710000002     10.310084750733187
Cl      9.343852605733188      2.513738290000000     10.310077850733187
S       2.192627260000000     10.055078255733189      7.796325110733187
S       7.220176230000000      5.027512960000000      7.796304490733188
S       7.220176240000000     10.055060795733189     12.823852690733187
S       2.192629470000000      5.027530860000001     12.823872750733189
P       5.102458590000000      2.513755770000001     20.365185386466376
P       0.074910664266811      7.541293295733189     20.365180446466375
P       0.074910814266812      2.513743570000000     25.392728166466377
P       5.102458499999999      7.541301355733189     25.392732236466376
S       6.130449790000000      3.756155880000001     21.608243076466376
S       1.102875560000000      8.783686045733189     21.608269846466374
S       1.102878420000000      3.756135490000001     16.580720006466375
S       6.130457850000001      8.783698035733188     16.580690876466377
S       3.872218600000001      1.302913860000000     21.576271776466378
S       8.899770450000000      6.330421080000001     21.576240396466375
S       8.899766630000000      1.302875100000000     16.548691386466373
S       3.872217180000000      6.330461080000001     16.548722756466375
S       3.872210510000000      3.724607920000001     19.154116236466376
S       8.899754070000000      8.752140715733189     19.154110516466375
S       8.899758060000000      3.724594820000000     24.181657386466373
S       3.872211700000000      8.752155335733189     24.181663076466375
S       6.130431660000000      1.271352900000000     19.122114016466377
S       1.102910170000000      6.298925990000001     19.122097916466373
S       1.102907700000000      1.271376150000000     24.149643206466376
S       6.130423450000001      6.298895880000000     24.149656656466377
Li      2.805150690000000      2.253872790000000     17.555150196466375
Li      7.832697530000000      7.281406090000001     17.555137196466376
Li      7.832669880000000      2.253866180000000     22.582707906466375
Li      2.805144470000000      7.281424920000001     22.582704736466376
Li      7.830505540000001      5.321760700000000     15.596672716466376
Li      2.802947280000000      0.294216390000000     15.596688616466373
Li      2.802966340000000      5.321776910000001     20.624238646466374
Li      7.830537340000000      0.294238010000000     20.624228266466375
Li      7.830584180000000      9.760766415733189     25.133656656466371
Li      2.802935740000000      4.733317160000000     25.133707616466374
Li      2.802917310000001      9.760877485733189     20.106161536466374
Li      7.830554750000001      4.733242570000000     20.106115436466375
Li      2.805214910000000      2.773655790000001     23.175270476466373
Li      7.832652190000000      7.801153815733190     23.175162976466375
Li      7.832677470000001      2.773612930000001     18.147636246466377
Li      2.805219380000000      7.801207465733190     18.147729046466374
Li      0.212017020000000      0.928893910000000     18.778188556466375
Li      5.239597890000000      5.956406130000000     18.778261106466374
Li      5.239596820000001      0.928817680000000     23.805850576466376
Li      0.212017430000000      5.956426890000000     23.805755076466376
Li      0.212054190000000      4.098564880000001     21.952166726466373
Li      5.239569100000000      9.126225195733189     21.952091076466377
Li      5.239568970000000      4.098637920000000     16.924585096466373
Li      0.212053290000000      9.126099325733190     16.924636986466375
Cl      9.343852815733188      7.541287385733188     25.392729822199563
Cl      4.316305330000000      2.513752370000001     15.337643286466374
Cl      4.316305130000000      7.541306710000002     20.365180386466374
Cl      9.343852605733188      2.513738290000000     20.365173486466375
S       2.192627260000000     10.055078255733189     17.851420746466371
S       7.220176230000000      5.027512960000000     17.851400126466373
S       7.220176240000000     10.055060795733189     22.878948326466375
S       2.192629470000000      5.027530860000001     22.878968386466376
S       1.102878420000000      3.756135490000001     26.635815642199564
S       6.130457850000001      8.783698035733188     26.635786512199559
S       8.899766630000000      1.302875100000000     26.603787022199565
S       3.872217180000000      6.330461080000001     26.603818392199560
Li      2.805150690000000      2.253872790000000     27.610245832199560
Li      7.832697530000000      7.281406090000001     27.610232832199564
Li      7.830505540000001      5.321760700000000     25.651768352199564
Li      2.802947280000000      0.294216390000000     25.651784252199562
Li      7.832677470000001      2.773612930000001     28.202731882199565
Li      2.805219380000000      7.801207465733190     28.202824682199562
Li      5.239568970000000      4.098637920000000     26.979680732199565
Li      0.212053290000000      9.126099325733190     26.979732622199563
Cl      4.316305330000000      2.513752370000001     25.392738922199559
S       2.192627260000000     10.055078255733189     27.906516382199563
S       7.220176230000000      5.027512960000000     27.906495762199565
