98

P       5.102458590000000      2.513755770000001      9.087016680733189
P       0.074910664266811      7.541293295733189      9.087011740733189
P       0.074910814266812      2.513743570000000     14.114559460733188
P       5.102458499999999      7.541301355733189     14.114563530733189
S       6.130449790000000      3.756155880000001     10.330074370733190
S       1.102875560000000      8.783686045733189     10.330101140733188
S       3.872218600000001      1.302913860000000     10.298103070733189
S       8.899770450000000      6.330421080000001     10.298071690733190
S       3.872210510000000      3.724607920000001      7.875947530733189
S       8.899754070000000      8.752140715733189      7.875941810733188
S       8.899758060000000      3.724594820000000     12.903488680733188
S       3.872211700000000      8.752155335733189     12.903494370733188
S       6.130431660000000      1.271352900000000      7.843945310733189
S       1.102910170000000      6.298925990000001      7.843929210733188
S       1.102907700000000      1.271376150000000     12.871474500733189
S       6.130423450000001      6.298895880000000     12.871487950733188
Li      7.832669880000000      2.253866180000000     11.304539200733188
Li      2.805144470000000      7.281424920000001     11.304536030733189
Li      2.802966340000000      5.321776910000001      9.346069940733189
Li      7.830537340000000      0.294238010000000      9.346059560733188
Li      7.830584180000000      9.760766415733189     13.855487950733188
Li      2.802935740000000      4.733317160000000     13.855538910733189
Li      2.802917310000001      9.760877485733189      8.827992830733189
Li      7.830554750000001      4.733242570000000      8.827946730733188
Li      2.805214910000000      2.773655790000001     11.897101770733190
Li      7.832652190000000      7.801153815733190     11.896994270733190
Li      0.212017020000000      0.928893910000000      7.500019850733189
Li      5.239597890000000      5.956406130000000      7.500092400733190
Li      5.239596820000001      0.928817680000000     12.527681870733188
Li      0.212017430000000      5.956426890000000     12.527586370733189
Li      0.212054190000000      4.098564880000001     10.673998020733189
Li      5.239569100000000      9.126225195733189     10.673922370733191
Cl      9.343852815733188      7.541287385733188     14.114561116466378
Cl      4.316305130000000      7.541306710000002      9.087011680733188
Cl      9.343852605733188      2.513738290000000      9.087004780733189
S       7.220176240000000     10.055060795733189     11.600779620733189
S       2.192629470000000      5.027530860000001     11.600799680733189
P       5.102458590000000      2.513755770000001     19.142112316466381
P       0.074910664266811      7.541293295733189     19.142107376466377
P       0.074910814266812      2.513743570000000     24.169655096466379
P       5.102458499999999      7.541301355733189     24.169659166466378
S       6.130449790000000      3.756155880000001     20.385170006466378
S       1.102875560000000      8.783686045733189     20.385196776466376
S       1.102878420000000      3.756135490000001     15.357646936466377
S       6.130457850000001      8.783698035733188     15.357617806466379
S       3.872218600000001      1.302913860000000     20.353198706466383
S       8.899770450000000      6.330421080000001     20.353167326466377
S       8.899766630000000      1.302875100000000     15.325618316466377
S       3.872217180000000      6.330461080000001     15.325649686466377
S       3.872210510000000      3.724607920000001     17.931043166466377
S       8.899754070000000      8.752140715733189     17.931037446466377
S       8.899758060000000      3.724594820000000     22.958584316466379
S       3.872211700000000      8.752155335733189     22.958590006466377
S       6.130431660000000      1.271352900000000     17.899040946466378
S       1.102910170000000      6.298925990000001     17.899024846466375
S       1.102907700000000      1.271376150000000     22.926570136466378
S       6.130423450000001      6.298895880000000     22.926583586466379
Li      2.805150690000000      2.253872790000000     16.332077126466377
Li      7.832697530000000      7.281406090000001     16.332064126466378
Li      7.832669880000000      2.253866180000000     21.359634836466377
Li      2.805144470000000      7.281424920000001     21.359631666466377
Li      7.830505540000001      5.321760700000000     14.373599646466378
Li      2.802947280000000      0.294216390000000     14.373615546466377
Li      2.802966340000000      5.321776910000001     19.401165576466376
Li      7.830537340000000      0.294238010000000     19.401155196466377
Li      7.830584180000000      9.760766415733189     23.910583586466377
Li      2.802935740000000      4.733317160000000     23.910634546466376
Li      2.802917310000001      9.760877485733189     18.883088466466376
Li      7.830554750000001      4.733242570000000     18.883042366466377
Li      2.805214910000000      2.773655790000001     21.952197406466375
Li      7.832652190000000      7.801153815733190     21.952089906466380
Li      7.832677470000001      2.773612930000001     16.924563176466382
Li      2.805219380000000      7.801207465733190     16.924655976466376
Li      0.212017020000000      0.928893910000000     17.555115486466377
Li      5.239597890000000      5.956406130000000     17.555188036466376
Li      5.239596820000001      0.928817680000000     22.582777506466378
Li      0.212017430000000      5.956426890000000     22.582682006466378
Li      0.212054190000000      4.098564880000001     20.729093656466375
Li      5.239569100000000      9.126225195733189     20.729018006466379
Li      5.239568970000000      4.098637920000000     15.701512026466377
Li      0.212053290000000      9.126099325733190     15.701563916466377
Cl      9.343852815733188      7.541287385733188     24.169656752199565
Cl      4.316305330000000      2.513752370000001     14.114570216466380
Cl      4.316305130000000      7.541306710000002     19.142107316466376
Cl      9.343852605733188      2.513738290000000     19.142100416466377
S       2.192627260000000     10.055078255733189     16.628347676466376
S       7.220176230000000      5.027512960000000     16.628327056466375
S       7.220176240000000     10.055060795733189     21.655875256466377
S       2.192629470000000      5.027530860000001     21.655895316466378
S       1.102878420000000      3.756135490000001     25.412742572199566
S       6.130457850000001      8.783698035733188     25.412713442199564
S       8.899766630000000      1.302875100000000     25.380713952199567
S       3.872217180000000      6.330461080000001     25.380745322199569
Li      7.830505540000001      5.321760700000000     24.428695282199566
Li      2.802947280000000      0.294216390000000     24.428711182199567
Li      5.239568970000000      4.098637920000000     25.756607662199567
Li      0.212053290000000      9.126099325733190     25.756659552199565
Cl      4.316305330000000      2.513752370000001     24.169665852199564
