
     Program PWSCF v.7.4.1 starts on 26Sep2026 at 19: 3:23 

     This program is part of the open-source Quantum ESPRESSO suite
     for quantum simulation of materials; please cite
         "P. Giannozzi et al., J. Phys.:Condens. Matter 21 395502 (2009);
         "P. Giannozzi et al., J. Phys.:Condens. Matter 29 465901 (2017);
         "P. Giannozzi et al., J. Chem. Phys. 152 154105 (2020);
          URL http://www.quantum-espresso.org", 
     in publications or presentations arising from this work. More details at
     http://www.quantum-espresso.org/quote

     Parallel version (MPI & OpenMP), running on      16 processor cores
     Number of MPI processes:                 1
     Threads/MPI process:                    16

     MPI processes distributed on     1 nodes
     84088 MiB available memory on the printing compute node when the environment starts
 
     Reading input from pw.in

     Current dimensions of program PWSCF are:
     Max number of different atomic species (ntypx) = 10
     Max number of k-points (npk) =  40000
     Max angular momentum in pseudopotentials (lmaxx) =  4
     Presently no symmetry can be used with electric field

     file C.pbe-n-kjpaw_psl.1.0.0.UPF: wavefunction(s)  2S 2P renormalized
 
     Subspace diagonalization in iterative solution of the eigenvalue problem:
     a serial algorithm will be used

 
     G-vector sticks info
     --------------------
     sticks:   dense  smooth     PW     G-vecs:    dense   smooth      PW
     Sum        3193    1273    367               699521   177041   27695
 
     Using Slab Decomposition
 


     bravais-lattice index     =            0
     lattice parameter (alat)  =       9.4208  a.u.
     unit-cell volume          =    3493.2160 (a.u.)^3
     number of atoms/cell      =           20
     number of atomic types    =            2
     number of electrons       =       260.00
     number of Kohn-Sham states=          156
     kinetic-energy cutoff     =      52.0000  Ry
     charge density cutoff     =     520.0000  Ry
     scf convergence threshold =      1.0E-08
     mixing beta               =       0.3000
     number of iterations used =            8  local-TF  mixing
     energy convergence thresh.=      1.0E-05
     force convergence thresh. =      1.0E-03
     Exchange-correlation= SLA  PW   PBX  PBC
                           (   1   4   3   4   0   0   0)
     nstep                     =          200


     GPU acceleration is ACTIVE.  1 visible GPUs per MPI rank


     celldm(1)=   9.420781  celldm(2)=   0.000000  celldm(3)=   0.000000
     celldm(4)=   0.000000  celldm(5)=   0.000000  celldm(6)=   0.000000

     crystal axes: (cart. coord. in units of alat)
               a(1) = (   1.000000  -0.000000   0.000000 )  
               a(2) = (   0.500000   0.866025   0.000000 )  
               a(3) = (   0.000000   0.000000   4.824297 )  

     reciprocal axes: (cart. coord. in units 2 pi/alat)
               b(1) = (  1.000000 -0.577350  0.000000 )  
               b(2) = (  0.000000  1.154701 -0.000000 )  
               b(3) = ( -0.000000  0.000000  0.207284 )  


     PseudoPot. # 1 for Ag read from file:
     /home/ubuntu/wad4l/pseudo_kgy/Ag_ONCV_PBE-1.0.oncvpsp.upf
     MD5 check sum: 94f47bd0669c641108e45594df92fabc
     Pseudo is Norm-conserving, Zval = 19.0
     Generated using ONCVPSP code by D. R. Hamann
     Using radial grid of 1398 points,  6 beta functions with: 
                l(1) =   0
                l(2) =   0
                l(3) =   1
                l(4) =   1
                l(5) =   2
                l(6) =   2

     PseudoPot. # 2 for C  read from file:
     /home/ubuntu/wad4l/pseudo_kgy/C.pbe-n-kjpaw_psl.1.0.0.UPF
     MD5 check sum: 5d2aebdfa2cae82b50a7e79e9516da0f
     Pseudo is Projector augmented-wave + core cor, Zval =  4.0
     Generated using "atomic" code by A. Dal Corso  v.5.1
     Shape of augmentation charge: PSQ
     Using radial grid of 1073 points,  4 beta functions with: 
                l(1) =   0
                l(2) =   0
                l(3) =   1
                l(4) =   1
     Q(r) pseudized with 0 coefficients 


     atomic species   valence    mass     pseudopotential
     Ag               19.00   107.86820     Ag( 1.00)
     C                 4.00    12.01100     C ( 1.00)

     No symmetry found



   Cartesian axes

     site n.     atom                  positions (alat units)
         1        Ag     tau(   1) = (   0.3337695   0.5765948   0.5717001  )
         2        Ag     tau(   2) = (   0.8337695   0.8652699   0.5717001  )
         3        Ag     tau(   3) = (   0.1685438   0.2891990   1.0409669  )
         4        Ag     tau(   4) = (   0.5004501   0.2909658   0.1002956  )
         5        Ag     tau(   5) = (   0.8337695   0.2879196   0.5717001  )
         6        Ag     tau(   6) = (   0.6684483   0.5780659   1.0414061  )
         7        Ag     tau(   7) = (   0.5006343   0.2908158   1.5132429  )
         8        Ag     tau(   8) = (   1.0004501   0.5796409   0.1002956  )
         9        Ag     tau(   9) = (   1.0017451   0.5788310   1.5118103  )
        10        Ag     tau(  10) = (   0.6685717   0.0008239   1.0412312  )
        11        Ag     tau(  11) = (   1.0004501   0.0022906   0.1002956  )
        12        Ag     tau(  12) = (   1.0009907   0.0019308   1.5135744  )
        13        C      tau(  13) = (   0.6671168   0.7720910   2.1770475  )
        14        C      tau(  14) = (   0.9171168   0.9164286   2.1773853  )
        15        C      tau(  15) = (   0.9171168   1.2051037   2.1765353  )
        16        C      tau(  16) = (   1.1671168   1.3494413   2.1773500  )
        17        C      tau(  17) = (   1.1671168   0.7720910   2.1774513  )
        18        C      tau(  18) = (   1.4171168   0.9164286   2.1764840  )
        19        C      tau(  19) = (   1.4171168   1.2051037   2.1773410  )
        20        C      tau(  20) = (   1.6671168   1.3494413   2.1771548  )

     --------------------------------------------
     DFT-D3 Dispersion Correction (no 3-body):
     --------------------------------------------
       Reference C6 values for interpolation: 

         atom   Coordination number   C6
         C          0.000            98.23
         C          0.987            86.49
         C          1.998            58.72
         C          2.999            51.56
         C          3.984            36.41
         Ag         0.000           853.49
         Ag         0.968           537.23

       Values used:

         atom   Coordination number  R0_AB[au]  C6      C8
         Ag         9.085            3.147    537.23  47741.54
         Ag         9.086            3.147    537.23  47741.54
         Ag         9.087            3.147    537.23  47741.54
         Ag         6.766            3.147    537.23  47741.54
         Ag         9.086            3.147    537.23  47741.54
         Ag         9.081            3.147    537.23  47741.54
         Ag         6.825            3.147    537.23  47741.54
         Ag         6.766            3.147    537.23  47741.54
         Ag         6.841            3.147    537.23  47741.54
         Ag         9.083            3.147    537.23  47741.54
         Ag         6.766            3.147    537.23  47741.54
         Ag         6.822            3.147    537.23  47741.54
         C          3.294            2.750     48.68   1407.88
         C          3.292            2.750     48.72   1408.96
         C          3.298            2.750     48.60   1405.69
         C          3.292            2.750     48.72   1408.96
         C          3.292            2.750     48.72   1409.01
         C          3.298            2.750     48.60   1405.63
         C          3.292            2.750     48.72   1409.00
         C          3.294            2.750     48.68   1408.02

         Molecular C6 ( Ry / a.u.^6 ) =    111465.74


     number of k points=    20  Marzari-Vanderbilt smearing, width (Ry)=  0.0100
                       cart. coord. in units 2pi/alat
        k(    1) = (   0.0000000   0.0000000   0.0000000), wk =   0.0555556
        k(    2) = (   0.0000000   0.1924501   0.0000000), wk =   0.1111111
        k(    3) = (   0.0000000   0.3849002   0.0000000), wk =   0.1111111
        k(    4) = (   0.0000000  -0.5773503   0.0000000), wk =   0.0555556
        k(    5) = (   0.1666667  -0.0962250   0.0000000), wk =   0.1111111
        k(    6) = (   0.1666667   0.0962250   0.0000000), wk =   0.1111111
        k(    7) = (   0.1666667   0.2886751   0.0000000), wk =   0.1111111
        k(    8) = (   0.1666667  -0.6735753   0.0000000), wk =   0.1111111
        k(    9) = (   0.1666667  -0.4811252   0.0000000), wk =   0.1111111
        k(   10) = (   0.1666667  -0.2886751   0.0000000), wk =   0.1111111
        k(   11) = (   0.3333333  -0.1924501   0.0000000), wk =   0.1111111
        k(   12) = (   0.3333333  -0.0000000   0.0000000), wk =   0.1111111
        k(   13) = (   0.3333333   0.1924501   0.0000000), wk =   0.1111111
        k(   14) = (   0.3333333  -0.7698004   0.0000000), wk =   0.1111111
        k(   15) = (   0.3333333  -0.5773503   0.0000000), wk =   0.1111111
        k(   16) = (   0.3333333  -0.3849002   0.0000000), wk =   0.1111111
        k(   17) = (  -0.5000000   0.2886751   0.0000000), wk =   0.0555556
        k(   18) = (  -0.5000000   0.4811252   0.0000000), wk =   0.1111111
        k(   19) = (  -0.5000000   0.6735753   0.0000000), wk =   0.1111111
        k(   20) = (  -0.5000000  -0.2886751   0.0000000), wk =   0.0555556

     Dense  grid:   699521 G-vectors     FFT dimensions: (  72,  72, 360)

     Smooth grid:   177041 G-vectors     FFT dimensions: (  45,  45, 216)

     Estimated max dynamical RAM per process >       1.34 GB

     Check: negative core charge=   -0.000001

     Initial potential from superposition of free atoms

     starting charge     259.9962, renormalised to     260.0000

     negative rho (up, down):  1.044E-04 0.000E+00
 
     Adding external electric field

     Computed dipole along edir(3) : 
        Dipole               -0.0110 Ry au,         -0.0280 Debye
        Dipole field         -0.0000 Ry au, 
 
        Potential amp.        0.0035 Ry
        Total length         43.5589 bohr
 
     Starting wfcs are  152 randomized atomic wfcs +    4 random wfcs
     Checking if some PAW data can be deallocated... 

     total cpu time spent up to now is        4.0 secs

     Self-consistent Calculation

     iteration #  1     ecut=    52.00 Ry     beta= 0.30
     Davidson diagonalization with overlap
     ethr =  1.00E-02,  avg # of iterations =  5.0

     Threshold (ethr) on eigenvalues was too large:
     Diagonalizing with lowered threshold

     Davidson diagonalization with overlap
     ethr =  5.65E-04,  avg # of iterations =  2.6

     negative rho (up, down):  5.501E-08 0.000E+00
 
     Adding external electric field

     Computed dipole along edir(3) : 
        Dipole               -0.1151 Ry au,         -0.2926 Debye
        Dipole field         -0.0004 Ry au, 
 
        Potential amp.        0.0361 Ry
        Total length         43.5589 bohr
 

     total cpu time spent up to now is       13.9 secs

     total energy              =   -3596.10941649 Ry
     estimated scf accuracy    <       1.48253957 Ry

     iteration #  2     ecut=    52.00 Ry     beta= 0.30
     Davidson diagonalization with overlap
     ethr =  5.70E-04,  avg # of iterations =  1.6
 
     Adding external electric field

     Computed dipole along edir(3) : 
        Dipole               -0.3451 Ry au,         -0.8772 Debye
        Dipole field         -0.0012 Ry au, 
 
        Potential amp.        0.1082 Ry
        Total length         43.5589 bohr
 

     total cpu time spent up to now is       18.7 secs

     total energy              =   -3595.89245538 Ry
     estimated scf accuracy    <       0.82584942 Ry

     iteration #  3     ecut=    52.00 Ry     beta= 0.30
     Davidson diagonalization with overlap
     ethr =  3.18E-04,  avg # of iterations =  6.8
 
     Adding external electric field

     Computed dipole along edir(3) : 
        Dipole               -0.6426 Ry au,         -1.6333 Debye
        Dipole field         -0.0023 Ry au, 
 
        Potential amp.        0.2014 Ry
        Total length         43.5589 bohr
 

     total cpu time spent up to now is       24.4 secs

     total energy              =   -3595.84415458 Ry
     estimated scf accuracy    <       0.30766146 Ry

     iteration #  4     ecut=    52.00 Ry     beta= 0.30
     Davidson diagonalization with overlap
     ethr =  1.18E-04,  avg # of iterations =  6.7
 
     Adding external electric field

     Computed dipole along edir(3) : 
        Dipole               -0.6080 Ry au,         -1.5454 Debye
        Dipole field         -0.0022 Ry au, 
 
        Potential amp.        0.1905 Ry
        Total length         43.5589 bohr
 

     total cpu time spent up to now is       30.2 secs

     total energy              =   -3595.86943142 Ry
     estimated scf accuracy    <       0.56429509 Ry

     iteration #  5     ecut=    52.00 Ry     beta= 0.30
     Davidson diagonalization with overlap
     ethr =  1.18E-04,  avg # of iterations =  1.1
 
     Adding external electric field

     Computed dipole along edir(3) : 
        Dipole               -0.9866 Ry au,         -2.5076 Debye
        Dipole field         -0.0035 Ry au, 
 
        Potential amp.        0.3092 Ry
        Total length         43.5589 bohr
 

     total cpu time spent up to now is       35.1 secs

     total energy              =   -3595.86114605 Ry
     estimated scf accuracy    <       0.56069198 Ry

     iteration #  6     ecut=    52.00 Ry     beta= 0.30
     Davidson diagonalization with overlap
     ethr =  1.18E-04,  avg # of iterations =  3.2
 
     Adding external electric field

     Computed dipole along edir(3) : 
        Dipole               -1.0905 Ry au,         -2.7717 Debye
        Dipole field         -0.0039 Ry au, 
 
        Potential amp.        0.3417 Ry
        Total length         43.5589 bohr
 

     total cpu time spent up to now is       40.4 secs

     total energy              =   -3595.85330480 Ry
     estimated scf accuracy    <       0.44918540 Ry

     iteration #  7     ecut=    52.00 Ry     beta= 0.30
     Davidson diagonalization with overlap
     ethr =  1.18E-04,  avg # of iterations =  2.5
 
     Adding external electric field

     Computed dipole along edir(3) : 
        Dipole               -0.8844 Ry au,         -2.2478 Debye
        Dipole field         -0.0032 Ry au, 
 
        Potential amp.        0.2772 Ry
        Total length         43.5589 bohr
 

     total cpu time spent up to now is       45.4 secs

     total energy              =   -3595.85136253 Ry
     estimated scf accuracy    <       0.14829488 Ry

     iteration #  8     ecut=    52.00 Ry     beta= 0.30
     Davidson diagonalization with overlap
     ethr =  5.70E-05,  avg # of iterations =  4.6
 
     Adding external electric field

     Computed dipole along edir(3) : 
        Dipole               -0.6613 Ry au,         -1.6810 Debye
        Dipole field         -0.0024 Ry au, 
 
        Potential amp.        0.2073 Ry
        Total length         43.5589 bohr
 

     total cpu time spent up to now is       50.8 secs

     total energy              =   -3595.84319965 Ry
     estimated scf accuracy    <       0.12749716 Ry

     iteration #  9     ecut=    52.00 Ry     beta= 0.30
     Davidson diagonalization with overlap
     ethr =  4.90E-05,  avg # of iterations =  3.6
 
     Adding external electric field

     Computed dipole along edir(3) : 
        Dipole               -0.3324 Ry au,         -0.8449 Debye
        Dipole field         -0.0012 Ry au, 
 
        Potential amp.        0.1042 Ry
        Total length         43.5589 bohr
 

     total cpu time spent up to now is       56.0 secs

     total energy              =   -3595.83063916 Ry
     estimated scf accuracy    <       0.07348658 Ry

     iteration # 10     ecut=    52.00 Ry     beta= 0.30
     Davidson diagonalization with overlap
     ethr =  2.83E-05,  avg # of iterations =  8.3

     negative rho (up, down):  6.954E-04 0.000E+00
 
     Adding external electric field

     Computed dipole along edir(3) : 
        Dipole               -0.0633 Ry au,         -0.1608 Debye
        Dipole field         -0.0002 Ry au, 
 
        Potential amp.        0.0198 Ry
        Total length         43.5589 bohr
 

     total cpu time spent up to now is       61.9 secs

     total energy              =   -3595.83989357 Ry
     estimated scf accuracy    <       0.01950821 Ry

     iteration # 11     ecut=    52.00 Ry     beta= 0.30
     Davidson diagonalization with overlap
     c_bands:  1 eigenvalues not converged
     ethr =  7.50E-06,  avg # of iterations = 10.9

     negative rho (up, down):  3.187E-03 0.000E+00
 
     Adding external electric field

     Computed dipole along edir(3) : 
        Dipole                0.0680 Ry au,          0.1729 Debye
        Dipole field          0.0002 Ry au, 
 
        Potential amp.       -0.0213 Ry
        Total length         43.5589 bohr
 

     total cpu time spent up to now is       68.5 secs

     total energy              =   -3595.84048540 Ry
     estimated scf accuracy    <       0.03265386 Ry

     iteration # 12     ecut=    52.00 Ry     beta= 0.30
     Davidson diagonalization with overlap
     ethr =  7.50E-06,  avg # of iterations =  8.3

     negative rho (up, down):  3.631E-04 0.000E+00
 
     Adding external electric field

     Computed dipole along edir(3) : 
        Dipole                0.0523 Ry au,          0.1329 Debye
        Dipole field          0.0002 Ry au, 
 
        Potential amp.       -0.0164 Ry
        Total length         43.5589 bohr
 

     total cpu time spent up to now is       74.6 secs

     total energy              =   -3595.83908057 Ry
     estimated scf accuracy    <       0.03810074 Ry

     iteration # 13     ecut=    52.00 Ry     beta= 0.30
     Davidson diagonalization with overlap
     ethr =  7.50E-06,  avg # of iterations =  5.2
 
     Adding external electric field

     Computed dipole along edir(3) : 
        Dipole               -0.0197 Ry au,         -0.0500 Debye
        Dipole field         -0.0001 Ry au, 
 
        Potential amp.        0.0062 Ry
        Total length         43.5589 bohr
 

     total cpu time spent up to now is       80.0 secs

     total energy              =   -3595.83813473 Ry
     estimated scf accuracy    <       0.02978649 Ry

     iteration # 14     ecut=    52.00 Ry     beta= 0.30
     Davidson diagonalization with overlap
     ethr =  7.50E-06,  avg # of iterations =  5.3

     negative rho (up, down):  2.215E-03 0.000E+00
 
     Adding external electric field

     Computed dipole along edir(3) : 
        Dipole                0.2194 Ry au,          0.5577 Debye
        Dipole field          0.0008 Ry au, 
 
        Potential amp.       -0.0688 Ry
        Total length         43.5589 bohr
 

     total cpu time spent up to now is       85.4 secs

     total energy              =   -3595.83985699 Ry
     estimated scf accuracy    <       0.02368471 Ry

     iteration # 15     ecut=    52.00 Ry     beta= 0.30
     Davidson diagonalization with overlap
     ethr =  7.50E-06,  avg # of iterations =  7.8

     negative rho (up, down):  1.568E-03 0.000E+00
 
     Adding external electric field

     Computed dipole along edir(3) : 
        Dipole                0.2396 Ry au,          0.6091 Debye
        Dipole field          0.0009 Ry au, 
 
        Potential amp.       -0.0751 Ry
        Total length         43.5589 bohr
 

     total cpu time spent up to now is       91.4 secs

     total energy              =   -3595.84016586 Ry
     estimated scf accuracy    <       0.03961135 Ry

     iteration # 16     ecut=    52.00 Ry     beta= 0.30
     Davidson diagonalization with overlap
     ethr =  7.50E-06,  avg # of iterations =  2.0

     negative rho (up, down):  9.511E-04 0.000E+00
 
     Adding external electric field

     Computed dipole along edir(3) : 
        Dipole                0.2213 Ry au,          0.5626 Debye
        Dipole field          0.0008 Ry au, 
 
        Potential amp.       -0.0694 Ry
        Total length         43.5589 bohr
 

     total cpu time spent up to now is       96.5 secs

     total energy              =   -3595.83974571 Ry
     estimated scf accuracy    <       0.03345828 Ry

     iteration # 17     ecut=    52.00 Ry     beta= 0.30
     Davidson diagonalization with overlap
     ethr =  7.50E-06,  avg # of iterations =  1.6

     negative rho (up, down):  3.311E-05 0.000E+00
 
     Adding external electric field

     Computed dipole along edir(3) : 
        Dipole                0.1067 Ry au,          0.2711 Debye
        Dipole field          0.0004 Ry au, 
 
        Potential amp.       -0.0334 Ry
        Total length         43.5589 bohr
 

     total cpu time spent up to now is      101.6 secs

     total energy              =   -3595.83713392 Ry
     estimated scf accuracy    <       0.02863827 Ry

     iteration # 18     ecut=    52.00 Ry     beta= 0.30
     Davidson diagonalization with overlap
     ethr =  7.50E-06,  avg # of iterations =  8.3

     negative rho (up, down):  2.626E-03 0.000E+00
 
     Adding external electric field

     Computed dipole along edir(3) : 
        Dipole                0.0572 Ry au,          0.1453 Debye
        Dipole field          0.0002 Ry au, 
 
        Potential amp.       -0.0179 Ry
        Total length         43.5589 bohr
 

     total cpu time spent up to now is      107.4 secs

     total energy              =   -3595.83622140 Ry
     estimated scf accuracy    <       0.01346087 Ry

     iteration # 19     ecut=    52.00 Ry     beta= 0.30
     Davidson diagonalization with overlap
     ethr =  5.18E-06,  avg # of iterations =  5.1

     negative rho (up, down):  5.189E-03 0.000E+00
 
     Adding external electric field

     Computed dipole along edir(3) : 
        Dipole                0.0532 Ry au,          0.1351 Debye
        Dipole field          0.0002 Ry au, 
 
        Potential amp.       -0.0167 Ry
        Total length         43.5589 bohr
 

     total cpu time spent up to now is      113.0 secs

     total energy              =   -3595.83502692 Ry
     estimated scf accuracy    <       0.01020831 Ry

     iteration # 20     ecut=    52.00 Ry     beta= 0.30
     Davidson diagonalization with overlap
     ethr =  3.93E-06,  avg # of iterations =  5.5

     negative rho (up, down):  6.038E-03 0.000E+00
 
     Adding external electric field

     Computed dipole along edir(3) : 
        Dipole                0.0755 Ry au,          0.1919 Debye
        Dipole field          0.0003 Ry au, 
 
        Potential amp.       -0.0237 Ry
        Total length         43.5589 bohr
 

     total cpu time spent up to now is      118.7 secs

     total energy              =   -3595.83557069 Ry
     estimated scf accuracy    <       0.00351224 Ry

     iteration # 21     ecut=    52.00 Ry     beta= 0.30
     Davidson diagonalization with overlap
     ethr =  1.35E-06,  avg # of iterations =  4.7

     negative rho (up, down):  1.752E-03 0.000E+00
 
     Adding external electric field

     Computed dipole along edir(3) : 
        Dipole               -0.0472 Ry au,         -0.1200 Debye
        Dipole field         -0.0002 Ry au, 
 
        Potential amp.        0.0148 Ry
        Total length         43.5589 bohr
 

     total cpu time spent up to now is      124.2 secs

     total energy              =   -3595.83439233 Ry
     estimated scf accuracy    <       0.00488602 Ry

     iteration # 22     ecut=    52.00 Ry     beta= 0.30
     Davidson diagonalization with overlap
     c_bands:  1 eigenvalues not converged
     c_bands:  1 eigenvalues not converged
     c_bands:  1 eigenvalues not converged
     ethr =  1.35E-06,  avg # of iterations = 11.3

     negative rho (up, down):  9.865E-04 0.000E+00
 
     Adding external electric field

     Computed dipole along edir(3) : 
        Dipole                0.0409 Ry au,          0.1039 Debye
        Dipole field          0.0001 Ry au, 
 
        Potential amp.       -0.0128 Ry
        Total length         43.5589 bohr
 

     total cpu time spent up to now is      130.8 secs

     total energy              =   -3595.83466116 Ry
     estimated scf accuracy    <       0.00053092 Ry

     iteration # 23     ecut=    52.00 Ry     beta= 0.30
     Davidson diagonalization with overlap
     ethr =  2.04E-07,  avg # of iterations =  8.5

     negative rho (up, down):  1.594E-03 0.000E+00
 
     Adding external electric field

     Computed dipole along edir(3) : 
        Dipole               -0.0055 Ry au,         -0.0140 Debye
        Dipole field         -0.0000 Ry au, 
 
        Potential amp.        0.0017 Ry
        Total length         43.5589 bohr
 

     total cpu time spent up to now is      137.1 secs

     total energy              =   -3595.83469524 Ry
     estimated scf accuracy    <       0.00270179 Ry

     iteration # 24     ecut=    52.00 Ry     beta= 0.30
     Davidson diagonalization with overlap
     ethr =  2.04E-07,  avg # of iterations =  8.1

     negative rho (up, down):  2.489E-03 0.000E+00
 
     Adding external electric field

     Computed dipole along edir(3) : 
        Dipole               -0.0415 Ry au,         -0.1055 Debye
        Dipole field         -0.0001 Ry au, 
 
        Potential amp.        0.0130 Ry
        Total length         43.5589 bohr
 

     total cpu time spent up to now is      143.1 secs

     total energy              =   -3595.83455773 Ry
     estimated scf accuracy    <       0.00082759 Ry

     iteration # 25     ecut=    52.00 Ry     beta= 0.30
     Davidson diagonalization with overlap
     ethr =  2.04E-07,  avg # of iterations =  8.0

     negative rho (up, down):  1.317E-04 0.000E+00
 
     Adding external electric field

     Computed dipole along edir(3) : 
        Dipole                0.0978 Ry au,          0.2485 Debye
        Dipole field          0.0004 Ry au, 
 
        Potential amp.       -0.0306 Ry
        Total length         43.5589 bohr
 

     total cpu time spent up to now is      148.8 secs

     total energy              =   -3595.83158082 Ry
     estimated scf accuracy    <       0.01767397 Ry

     iteration # 26     ecut=    52.00 Ry     beta= 0.30
     Davidson diagonalization with overlap
     c_bands:  2 eigenvalues not converged
     c_bands:  1 eigenvalues not converged
     ethr =  2.04E-07,  avg # of iterations = 11.0

     negative rho (up, down):  3.598E-04 0.000E+00
 
     Adding external electric field

     Computed dipole along edir(3) : 
        Dipole                0.0939 Ry au,          0.2386 Debye
        Dipole field          0.0003 Ry au, 
 
        Potential amp.       -0.0294 Ry
        Total length         43.5589 bohr
 

     total cpu time spent up to now is      155.7 secs

     total energy              =   -3595.83563711 Ry
     estimated scf accuracy    <       0.00563948 Ry

     iteration # 27     ecut=    52.00 Ry     beta= 0.30
     Davidson diagonalization with overlap
     ethr =  2.04E-07,  avg # of iterations =  3.0

     negative rho (up, down):  4.747E-04 0.000E+00
 
     Adding external electric field

     Computed dipole along edir(3) : 
        Dipole                0.0874 Ry au,          0.2222 Debye
        Dipole field          0.0003 Ry au, 
 
        Potential amp.       -0.0274 Ry
        Total length         43.5589 bohr
 

     total cpu time spent up to now is      160.8 secs

     total energy              =   -3595.83542371 Ry
     estimated scf accuracy    <       0.00459224 Ry

     iteration # 28     ecut=    52.00 Ry     beta= 0.30
     Davidson diagonalization with overlap
     ethr =  2.04E-07,  avg # of iterations =  6.5

     negative rho (up, down):  3.312E-04 0.000E+00
 
     Adding external electric field

     Computed dipole along edir(3) : 
        Dipole                0.0744 Ry au,          0.1891 Debye
        Dipole field          0.0003 Ry au, 
 
        Potential amp.       -0.0233 Ry
        Total length         43.5589 bohr
 

     total cpu time spent up to now is      166.3 secs

     total energy              =   -3595.83527237 Ry
     estimated scf accuracy    <       0.00320069 Ry

     iteration # 29     ecut=    52.00 Ry     beta= 0.30
     Davidson diagonalization with overlap
     ethr =  2.04E-07,  avg # of iterations =  2.8

     negative rho (up, down):  2.961E-04 0.000E+00
 
     Adding external electric field

     Computed dipole along edir(3) : 
        Dipole                0.0636 Ry au,          0.1616 Debye
        Dipole field          0.0002 Ry au, 
 
        Potential amp.       -0.0199 Ry
        Total length         43.5589 bohr
 

     total cpu time spent up to now is      171.4 secs

     total energy              =   -3595.83516382 Ry
     estimated scf accuracy    <       0.00261777 Ry

     iteration # 30     ecut=    52.00 Ry     beta= 0.30
     Davidson diagonalization with overlap
     ethr =  2.04E-07,  avg # of iterations =  4.8

     negative rho (up, down):  3.255E-04 0.000E+00
 
     Adding external electric field

     Computed dipole along edir(3) : 
        Dipole                0.0792 Ry au,          0.2013 Debye
        Dipole field          0.0003 Ry au, 
 
        Potential amp.       -0.0248 Ry
        Total length         43.5589 bohr
 

     total cpu time spent up to now is      176.6 secs

     total energy              =   -3595.83534312 Ry
     estimated scf accuracy    <       0.00232649 Ry

     iteration # 31     ecut=    52.00 Ry     beta= 0.30
     Davidson diagonalization with overlap
     ethr =  2.04E-07,  avg # of iterations =  1.7

     negative rho (up, down):  2.000E-04 0.000E+00
 
     Adding external electric field

     Computed dipole along edir(3) : 
        Dipole                0.0683 Ry au,          0.1735 Debye
        Dipole field          0.0002 Ry au, 
 
        Potential amp.       -0.0214 Ry
        Total length         43.5589 bohr
 

     total cpu time spent up to now is      181.6 secs

     total energy              =   -3595.83521448 Ry
     estimated scf accuracy    <       0.00288967 Ry

     iteration # 32     ecut=    52.00 Ry     beta= 0.30
     Davidson diagonalization with overlap
     ethr =  2.04E-07,  avg # of iterations =  1.0

     negative rho (up, down):  2.827E-04 0.000E+00
 
     Adding external electric field

     Computed dipole along edir(3) : 
        Dipole                0.0385 Ry au,          0.0980 Debye
        Dipole field          0.0001 Ry au, 
 
        Potential amp.       -0.0121 Ry
        Total length         43.5589 bohr
 

     total cpu time spent up to now is      186.4 secs

     total energy              =   -3595.83485842 Ry
     estimated scf accuracy    <       0.00250479 Ry

     iteration # 33     ecut=    52.00 Ry     beta= 0.30
     Davidson diagonalization with overlap
     ethr =  2.04E-07,  avg # of iterations =  7.8

     negative rho (up, down):  3.283E-04 0.000E+00
 
     Adding external electric field

     Computed dipole along edir(3) : 
        Dipole               -0.0080 Ry au,         -0.0202 Debye
        Dipole field         -0.0000 Ry au, 
 
        Potential amp.        0.0025 Ry
        Total length         43.5589 bohr
 

     total cpu time spent up to now is      192.3 secs

     total energy              =   -3595.83444830 Ry
     estimated scf accuracy    <       0.00177464 Ry

     iteration # 34     ecut=    52.00 Ry     beta= 0.30
     Davidson diagonalization with overlap
     c_bands:  1 eigenvalues not converged
     c_bands:  1 eigenvalues not converged
     c_bands:  1 eigenvalues not converged
     ethr =  2.04E-07,  avg # of iterations = 10.8

     negative rho (up, down):  2.338E-04 0.000E+00
 
     Adding external electric field

     Computed dipole along edir(3) : 
        Dipole                0.0346 Ry au,          0.0880 Debye
        Dipole field          0.0001 Ry au, 
 
        Potential amp.       -0.0109 Ry
        Total length         43.5589 bohr
 

     total cpu time spent up to now is      198.7 secs

     total energy              =   -3595.83388963 Ry
     estimated scf accuracy    <       0.01455917 Ry

     iteration # 35     ecut=    52.00 Ry     beta= 0.30
     Davidson diagonalization with overlap
     c_bands:  1 eigenvalues not converged
     c_bands:  1 eigenvalues not converged
     c_bands:  2 eigenvalues not converged
     c_bands:  2 eigenvalues not converged
     ethr =  2.04E-07,  avg # of iterations = 10.5

     negative rho (up, down):  2.597E-04 0.000E+00
 
     Adding external electric field

     Computed dipole along edir(3) : 
        Dipole                0.0327 Ry au,          0.0831 Debye
        Dipole field          0.0001 Ry au, 
 
        Potential amp.       -0.0102 Ry
        Total length         43.5589 bohr
 

     total cpu time spent up to now is      205.0 secs

     total energy              =   -3595.83478992 Ry
     estimated scf accuracy    <       0.00145946 Ry

     iteration # 36     ecut=    52.00 Ry     beta= 0.30
     Davidson diagonalization with overlap
     ethr =  2.04E-07,  avg # of iterations =  2.5

     negative rho (up, down):  2.620E-04 0.000E+00
 
     Adding external electric field

     Computed dipole along edir(3) : 
        Dipole                0.0312 Ry au,          0.0794 Debye
        Dipole field          0.0001 Ry au, 
 
        Potential amp.       -0.0098 Ry
        Total length         43.5589 bohr
 

     total cpu time spent up to now is      210.2 secs

     total energy              =   -3595.83477716 Ry
     estimated scf accuracy    <       0.00117966 Ry

     iteration # 37     ecut=    52.00 Ry     beta= 0.30
     Davidson diagonalization with overlap
     ethr =  2.04E-07,  avg # of iterations =  1.0

     negative rho (up, down):  2.744E-04 0.000E+00
 
     Adding external electric field

     Computed dipole along edir(3) : 
        Dipole                0.0318 Ry au,          0.0808 Debye
        Dipole field          0.0001 Ry au, 
 
        Potential amp.       -0.0100 Ry
        Total length         43.5589 bohr
 

     total cpu time spent up to now is      215.0 secs

     total energy              =   -3595.83478201 Ry
     estimated scf accuracy    <       0.00099039 Ry

     iteration # 38     ecut=    52.00 Ry     beta= 0.30
     Davidson diagonalization with overlap
     ethr =  2.04E-07,  avg # of iterations =  1.0

     negative rho (up, down):  2.841E-04 0.000E+00
 
     Adding external electric field

     Computed dipole along edir(3) : 
        Dipole                0.0259 Ry au,          0.0658 Debye
        Dipole field          0.0001 Ry au, 
 
        Potential amp.       -0.0081 Ry
        Total length         43.5589 bohr
 

     total cpu time spent up to now is      219.9 secs

     total energy              =   -3595.83473193 Ry
     estimated scf accuracy    <       0.00105696 Ry

     iteration # 39     ecut=    52.00 Ry     beta= 0.30
     Davidson diagonalization with overlap
     ethr =  2.04E-07,  avg # of iterations =  1.3

     negative rho (up, down):  2.873E-04 0.000E+00
 
     Adding external electric field

     Computed dipole along edir(3) : 
        Dipole                0.0234 Ry au,          0.0594 Debye
        Dipole field          0.0001 Ry au, 
 
        Potential amp.       -0.0073 Ry
        Total length         43.5589 bohr
 

     total cpu time spent up to now is      224.9 secs

     total energy              =   -3595.83472957 Ry
     estimated scf accuracy    <       0.00032410 Ry

     iteration # 40     ecut=    52.00 Ry     beta= 0.30
     Davidson diagonalization with overlap
     ethr =  1.25E-07,  avg # of iterations =  1.1

     negative rho (up, down):  3.096E-04 0.000E+00
 
     Adding external electric field

     Computed dipole along edir(3) : 
        Dipole                0.0221 Ry au,          0.0561 Debye
        Dipole field          0.0001 Ry au, 
 
        Potential amp.       -0.0069 Ry
        Total length         43.5589 bohr
 

     total cpu time spent up to now is      229.9 secs

     total energy              =   -3595.83472697 Ry
     estimated scf accuracy    <       0.00010705 Ry

     iteration # 41     ecut=    52.00 Ry     beta= 0.30
     Davidson diagonalization with overlap
     ethr =  4.12E-08,  avg # of iterations =  2.4

     negative rho (up, down):  2.247E-04 0.000E+00
 
     Adding external electric field

     Computed dipole along edir(3) : 
        Dipole                0.0222 Ry au,          0.0563 Debye
        Dipole field          0.0001 Ry au, 
 
        Potential amp.       -0.0069 Ry
        Total length         43.5589 bohr
 

     total cpu time spent up to now is      234.9 secs

     total energy              =   -3595.83472870 Ry
     estimated scf accuracy    <       0.00001576 Ry

     iteration # 42     ecut=    52.00 Ry     beta= 0.30
     Davidson diagonalization with overlap
     ethr =  6.06E-09,  avg # of iterations =  1.0

     negative rho (up, down):  1.844E-04 0.000E+00
 
     Adding external electric field

     Computed dipole along edir(3) : 
        Dipole                0.0215 Ry au,          0.0547 Debye
        Dipole field          0.0001 Ry au, 
 
        Potential amp.       -0.0067 Ry
        Total length         43.5589 bohr
 

     total cpu time spent up to now is      239.8 secs

     total energy              =   -3595.83472894 Ry
     estimated scf accuracy    <       0.00002427 Ry

     iteration # 43     ecut=    52.00 Ry     beta= 0.30
     Davidson diagonalization with overlap
     ethr =  6.06E-09,  avg # of iterations =  1.0

     negative rho (up, down):  1.408E-04 0.000E+00
 
     Adding external electric field

     Computed dipole along edir(3) : 
        Dipole                0.0195 Ry au,          0.0495 Debye
        Dipole field          0.0001 Ry au, 
 
        Potential amp.       -0.0061 Ry
        Total length         43.5589 bohr
 

     total cpu time spent up to now is      244.8 secs

     total energy              =   -3595.83472682 Ry
     estimated scf accuracy    <       0.00003117 Ry

     iteration # 44     ecut=    52.00 Ry     beta= 0.30
     Davidson diagonalization with overlap
     ethr =  6.06E-09,  avg # of iterations =  1.1

     negative rho (up, down):  1.269E-04 0.000E+00
 
     Adding external electric field

     Computed dipole along edir(3) : 
        Dipole                0.0194 Ry au,          0.0493 Debye
        Dipole field          0.0001 Ry au, 
 
        Potential amp.       -0.0061 Ry
        Total length         43.5589 bohr
 

     total cpu time spent up to now is      249.6 secs

     total energy              =   -3595.83472785 Ry
     estimated scf accuracy    <       0.00000005 Ry

     iteration # 45     ecut=    52.00 Ry     beta= 0.30
     Davidson diagonalization with overlap
     ethr =  2.02E-11,  avg # of iterations =  2.0

     negative rho (up, down):  1.214E-04 0.000E+00
 
     Adding external electric field

     Computed dipole along edir(3) : 
        Dipole                0.0191 Ry au,          0.0485 Debye
        Dipole field          0.0001 Ry au, 
 
        Potential amp.       -0.0060 Ry
        Total length         43.5589 bohr
 

     total cpu time spent up to now is      254.7 secs

     total energy              =   -3595.83472786 Ry
     estimated scf accuracy    <       0.00000005 Ry

     iteration # 46     ecut=    52.00 Ry     beta= 0.30
     Davidson diagonalization with overlap
     ethr =  1.85E-11,  avg # of iterations =  2.0

     negative rho (up, down):  1.226E-04 0.000E+00
 
     Adding external electric field

     Computed dipole along edir(3) : 
        Dipole                0.0193 Ry au,          0.0490 Debye
        Dipole field          0.0001 Ry au, 
 
        Potential amp.       -0.0060 Ry
        Total length         43.5589 bohr
 

     total cpu time spent up to now is      259.9 secs

     total energy              =   -3595.83472786 Ry
     estimated scf accuracy    <       0.00000020 Ry

     iteration # 47     ecut=    52.00 Ry     beta= 0.30
     Davidson diagonalization with overlap
     ethr =  1.85E-11,  avg # of iterations =  2.0

     negative rho (up, down):  1.222E-04 0.000E+00
 
     Adding external electric field

     Computed dipole along edir(3) : 
        Dipole                0.0193 Ry au,          0.0491 Debye
        Dipole field          0.0001 Ry au, 
 
        Potential amp.       -0.0061 Ry
        Total length         43.5589 bohr
 

     total cpu time spent up to now is      265.0 secs

     total energy              =   -3595.83472786 Ry
     estimated scf accuracy    <       0.00000005 Ry

     iteration # 48     ecut=    52.00 Ry     beta= 0.30
     Davidson diagonalization with overlap
     ethr =  1.75E-11,  avg # of iterations =  1.0

     negative rho (up, down):  1.218E-04 0.000E+00
 
     Adding external electric field

     Computed dipole along edir(3) : 
        Dipole                0.0201 Ry au,          0.0510 Debye
        Dipole field          0.0001 Ry au, 
 
        Potential amp.       -0.0063 Ry
        Total length         43.5589 bohr
 

     total cpu time spent up to now is      269.5 secs

     End of self-consistent calculation

          k = 0.0000 0.0000 0.0000 ( 22161 PWs)   bands (ev):

   -86.0386 -86.0288 -86.0216 -86.0209 -86.0188 -86.0187 -85.8662 -85.8536
   -85.8508 -85.8207 -85.8072 -85.8072 -49.5483 -49.5223 -49.5221 -49.5216
   -49.5211 -49.5197 -49.5196 -49.4946 -49.4946 -49.4701 -49.4696 -49.4673
   -49.4672 -49.4639 -49.4212 -49.4206 -49.4075 -49.4073 -49.3501 -49.3493
   -49.3460 -49.3450 -49.3032 -49.3032 -49.3009 -49.3009 -49.2885 -49.2783
   -49.2753 -49.2590 -49.2589 -49.2409 -49.2291 -49.2290 -49.2132 -49.2128
   -13.2705  -8.1765  -8.1704  -8.1681  -7.0431  -7.0404  -7.0393  -1.6335
    -1.3325  -0.4730  -0.3352  -0.3331  -0.3297  -0.2166  -0.0555   0.4200
     0.4208   0.4348   0.4360   0.4374   0.4388   0.7762   0.7787   0.7847
     0.7864   0.9732   0.9760   0.9913   0.9914   1.2194   1.2783   1.2794
     1.3255   1.3278   1.3798   1.3825   1.3991   1.3992   1.4150   1.5256
     1.5264   1.5933   1.5952   1.6508   1.6546   1.6862   1.6896   1.7313
     1.7313   1.7517   1.7519   2.1683   2.1704   2.2855   2.2928   2.2959
     2.2966   2.3298   2.3298   2.4272   2.4393   2.6748   2.7014   2.7278
     2.7669   2.7701   2.8779   2.8892   2.9461   2.9496   2.9521   2.9549
     2.9625   2.9632   3.0219   3.0248   3.6998   3.7026   3.7088   5.2067
     6.4579   7.5394   7.5742   7.5872   9.4962   9.4994   9.6906   9.6922
     9.6980   9.7005   9.7815  10.1425  10.4752  10.4778  10.4848  10.4893
    10.8815  10.8884  11.3360  11.9947  12.1469  12.1490  12.1529  12.1567
    12.4239  12.4367  13.0642  13.0696

          k = 0.0000 0.1925 0.0000 ( 22089 PWs)   bands (ev):

   -86.0373 -86.0279 -86.0224 -86.0217 -86.0190 -86.0188 -85.8652 -85.8540
   -85.8513 -85.8196 -85.8078 -85.8076 -49.5452 -49.5391 -49.5339 -49.5326
   -49.5281 -49.5028 -49.4971 -49.4872 -49.4817 -49.4720 -49.4662 -49.4658
   -49.4629 -49.4612 -49.4304 -49.4248 -49.4183 -49.4102 -49.3661 -49.3608
   -49.3259 -49.3231 -49.3209 -49.3155 -49.2877 -49.2801 -49.2787 -49.2775
   -49.2758 -49.2701 -49.2619 -49.2399 -49.2296 -49.2294 -49.2242 -49.2160
   -13.1096  -9.3725  -8.5358  -8.5312  -6.4194  -6.4157  -5.6013  -1.4308
    -1.0920  -0.8115  -0.8090  -0.2551  -0.1747  -0.0379   0.1309   0.1386
     0.2661   0.3217   0.3325   0.4064   0.5415   0.6310   0.7089   0.7306
     0.7698   0.8191   0.9179   0.9413   0.9439   1.1116   1.1903   1.2119
     1.2828   1.3289   1.4088   1.4255   1.4298   1.4520   1.4890   1.5005
     1.5137   1.5491   1.5722   1.6474   1.6484   1.7189   1.7306   1.7958
     1.9113   2.0089   2.0485   2.0785   2.0952   2.2000   2.2146   2.2910
     2.3041   2.3149   2.3883   2.3951   2.4041   2.5183   2.5597   2.5776
     2.6223   2.7105   2.7295   2.7596   2.8080   2.9003   2.9688   3.0144
     3.0189   3.0760   3.1018   3.1727   3.4425   3.6017   3.6221   5.5577
     6.9486   6.9718   7.7874   7.8399   7.8452   8.0993   8.4598   8.6361
     9.0247   9.2956   9.4925  10.0013  10.3484  10.7882  10.9819  11.3201
    11.4326  11.5450  11.5764  12.1681  12.3625  12.4479  12.4513  12.5836
    13.1534  13.3886  13.5712  13.7954

          k = 0.0000 0.3849 0.0000 ( 22135 PWs)   bands (ev):

   -86.0339 -86.0257 -86.0251 -86.0230 -86.0203 -86.0192 -85.8627 -85.8554
   -85.8525 -85.8168 -85.8099 -85.8084 -49.5523 -49.5451 -49.5370 -49.5310
   -49.5242 -49.4973 -49.4893 -49.4775 -49.4753 -49.4650 -49.4620 -49.4596
   -49.4510 -49.4499 -49.4469 -49.4462 -49.4313 -49.4191 -49.3783 -49.3554
   -49.3335 -49.3100 -49.3043 -49.3013 -49.2979 -49.2855 -49.2795 -49.2768
   -49.2707 -49.2583 -49.2546 -49.2529 -49.2372 -49.2314 -49.2302 -49.2248
   -12.6285 -10.7365  -8.9332  -8.9283  -5.2926  -5.2887  -3.5441  -1.9333
    -1.9301  -0.8472  -0.4522  -0.1099  -0.0106  -0.0043   0.2276   0.2715
     0.2855   0.2912   0.3069   0.3776   0.4592   0.4685   0.5149   0.6128
     0.6879   0.6954   0.8204   0.8276   0.8599   0.9644   0.9965   1.0070
     1.1189   1.1865   1.2440   1.2840   1.3158   1.3574   1.3924   1.4349
     1.4671   1.5395   1.6602   1.6691   1.6918   1.7892   1.7931   1.8009
     1.8399   1.8565   1.8690   1.9973   1.9995   2.0520   2.0763   2.2423
     2.2454   2.3230   2.3882   2.4427   2.4664   2.4927   2.5542   2.6520
     2.7041   2.7855   2.8486   2.8582   2.9313   2.9712   3.0001   3.0501
     3.0783   3.1047   3.1777   3.1986   3.4269   3.4818   4.1842   4.7217
     5.4463   6.3888   6.7969   6.9676   7.4394   7.9332   8.2007   8.2606
     8.4026   8.4503   9.1333  10.2894  10.6566  10.7354  10.9340  10.9692
    11.6013  11.7442  12.1689  12.7222  12.9511  13.1805  13.3972  13.4371
    13.5167  13.6564  14.0865  14.4756

          k = 0.0000-0.5774 0.0000 ( 22116 PWs)   bands (ev):

   -86.0297 -86.0292 -86.0236 -86.0228 -86.0225 -86.0194 -85.8606 -85.8569
   -85.8531 -85.8132 -85.8132 -85.8087 -49.5570 -49.5498 -49.5289 -49.5283
   -49.5036 -49.5032 -49.4911 -49.4836 -49.4834 -49.4675 -49.4576 -49.4556
   -49.4553 -49.4458 -49.4454 -49.4369 -49.4336 -49.4334 -49.3827 -49.3380
   -49.3332 -49.3305 -49.2912 -49.2866 -49.2862 -49.2861 -49.2843 -49.2839
   -49.2800 -49.2775 -49.2454 -49.2393 -49.2392 -49.2342 -49.2341 -49.2306
   -11.8339 -11.8326  -9.0758  -9.0708  -4.4645  -4.4606  -2.7982  -2.7947
    -1.3795  -1.3780  -0.2636  -0.1727  -0.1066   0.0653   0.0697   0.1327
     0.1911   0.1941   0.2792   0.4103   0.4118   0.5615   0.5846   0.5851
     0.6224   0.6236   0.7172   0.7187   0.8514   0.8537   0.9990   0.9994
     1.1017   1.1274   1.1317   1.1731   1.1974   1.1983   1.3670   1.3713
     1.3993   1.4318   1.4328   1.4777   1.4812   1.7192   1.7211   1.7875
     1.7885   1.9583   2.0049   2.0254   2.0274   2.2316   2.2346   2.2891
     2.3449   2.3455   2.5752   2.6198   2.6200   2.7089   2.7108   2.7447
     2.8142   2.8149   2.9732   2.9790   2.9795   3.0103   3.1117   3.1622
     3.1633   3.1922   3.3086   3.3378   3.3562   3.4088   3.6490   3.6501
     5.2623   5.2625   6.1832   7.0121   7.5250   7.5405   7.5423   7.7335
     8.6993   8.7109   9.8048   9.8133  10.1692  10.7625  11.4989  11.7276
    11.7285  12.0240  12.0247  12.7185  12.9721  12.9753  13.2556  13.2586
    13.6581  13.6592  13.8408  13.8426

          k = 0.1667-0.0962 0.0000 ( 22089 PWs)   bands (ev):

   -86.0373 -86.0279 -86.0225 -86.0217 -86.0190 -86.0189 -85.8652 -85.8540
   -85.8513 -85.8196 -85.8078 -85.8076 -49.5452 -49.5397 -49.5336 -49.5325
   -49.5276 -49.5040 -49.4968 -49.4862 -49.4818 -49.4721 -49.4662 -49.4657
   -49.4636 -49.4607 -49.4300 -49.4252 -49.4185 -49.4101 -49.3661 -49.3608
   -49.3259 -49.3231 -49.3208 -49.3156 -49.2877 -49.2800 -49.2787 -49.2776
   -49.2757 -49.2701 -49.2619 -49.2399 -49.2297 -49.2294 -49.2243 -49.2158
   -13.1096  -9.3725  -8.5366  -8.5303  -6.4195  -6.4156  -5.6013  -1.4308
    -1.0921  -0.8125  -0.8081  -0.2557  -0.1743  -0.0378   0.1311   0.1377
     0.2684   0.3228   0.3307   0.4072   0.5387   0.6312   0.7132   0.7322
     0.7655   0.8198   0.9168   0.9386   0.9464   1.1111   1.1910   1.2131
     1.2839   1.3276   1.4103   1.4256   1.4262   1.4522   1.4866   1.5023
     1.5112   1.5495   1.5727   1.6471   1.6531   1.7188   1.7294   1.7968
     1.9134   2.0027   2.0445   2.0787   2.0978   2.1966   2.2201   2.2869
     2.3040   2.3120   2.3881   2.3999   2.4055   2.5220   2.5627   2.5773
     2.6222   2.7157   2.7277   2.7563   2.8067   2.8998   2.9691   3.0137
     3.0199   3.0742   3.1023   3.1751   3.4395   3.6008   3.6228   5.5580
     6.9485   6.9718   7.7913   7.8334   7.8481   8.1045   8.4519   8.6355
     9.0277   9.2945   9.4884  10.0013  10.3484  10.7976  10.9850  11.3148
    11.4300  11.5450  11.5783  12.1682  12.3589  12.4520  12.4592  12.5834
    13.1534  13.3826  13.5624  13.7398

          k = 0.1667 0.0962 0.0000 ( 22089 PWs)   bands (ev):

   -86.0373 -86.0279 -86.0224 -86.0217 -86.0190 -86.0189 -85.8652 -85.8540
   -85.8513 -85.8196 -85.8078 -85.8076 -49.5452 -49.5393 -49.5338 -49.5326
   -49.5279 -49.5032 -49.4970 -49.4870 -49.4817 -49.4719 -49.4661 -49.4658
   -49.4631 -49.4611 -49.4303 -49.4249 -49.4183 -49.4102 -49.3661 -49.3608
   -49.3259 -49.3232 -49.3210 -49.3154 -49.2877 -49.2802 -49.2787 -49.2773
   -49.2757 -49.2702 -49.2618 -49.2399 -49.2296 -49.2295 -49.2240 -49.2161
   -13.1096  -9.3725  -8.5358  -8.5312  -6.4194  -6.4157  -5.6013  -1.4308
    -1.0921  -0.8115  -0.8090  -0.2553  -0.1747  -0.0379   0.1308   0.1381
     0.2668   0.3226   0.3320   0.4067   0.5408   0.6314   0.7097   0.7311
     0.7681   0.8191   0.9172   0.9409   0.9453   1.1117   1.1905   1.2125
     1.2824   1.3287   1.4091   1.4249   1.4293   1.4522   1.4892   1.5028
     1.5136   1.5483   1.5716   1.6464   1.6485   1.7189   1.7303   1.7979
     1.9104   2.0082   2.0478   2.0771   2.0955   2.2005   2.2169   2.2899
     2.3029   2.3154   2.3885   2.3941   2.4038   2.5183   2.5608   2.5786
     2.6224   2.7098   2.7298   2.7588   2.8078   2.9016   2.9680   3.0131
     3.0213   3.0758   3.1021   3.1736   3.4415   3.6018   3.6220   5.5575
     6.9487   6.9716   7.7886   7.8363   7.8473   8.1016   8.4584   8.6356
     9.0237   9.2958   9.4890  10.0013  10.3484  10.7933  10.9836  11.3188
    11.4317  11.5450  11.5753  12.1681  12.3638  12.4462  12.4559  12.5835
    13.1534  13.3855  13.5732  13.7572

          k = 0.1667 0.2887 0.0000 ( 22089 PWs)   bands (ev):

   -86.0350 -86.0263 -86.0238 -86.0232 -86.0195 -86.0194 -85.8634 -85.8548
   -85.8523 -85.8177 -85.8087 -85.8087 -49.5412 -49.5409 -49.5395 -49.5357
   -49.5355 -49.4932 -49.4927 -49.4765 -49.4764 -49.4731 -49.4605 -49.4603
   -49.4529 -49.4527 -49.4450 -49.4391 -49.4300 -49.4147 -49.3684 -49.3672
   -49.3228 -49.3226 -49.3078 -49.3069 -49.2910 -49.2858 -49.2792 -49.2766
   -49.2670 -49.2615 -49.2613 -49.2449 -49.2379 -49.2305 -49.2304 -49.2213
   -12.7886  -9.9713  -9.9683  -7.7540  -6.6631  -4.5276  -4.5266  -2.1144
    -1.0392  -0.6575  -0.4914  -0.4877   0.0598   0.0776   0.0790   0.1866
     0.1873   0.2216   0.2221   0.2469   0.4121   0.5195   0.5215   0.7004
     0.7021   0.7307   0.7314   0.9006   0.9410   0.9419   1.0779   1.1171
     1.2806   1.3177   1.3222   1.3977   1.4583   1.4722   1.4735   1.5554
     1.5736   1.5752   1.6267   1.6531   1.7075   1.7103   1.7154   1.8534
     1.9362   1.9654   2.0621   2.0631   2.0883   2.1430   2.1588   2.2010
     2.2470   2.2526   2.3296   2.3806   2.3828   2.4470   2.4986   2.5166
     2.5970   2.6011   2.6946   2.6989   2.7208   2.7672   2.9833   2.9920
     3.0451   3.0911   3.0987   3.2226   3.2270   3.9530   4.2646   5.8058
     5.8109   6.1299   6.5900   6.5984   7.3688   7.8292   8.0071   8.0113
     9.5150   9.5818   9.8141   9.8615  10.4391  10.7611  10.8677  10.8746
    11.6588  11.6697  11.9610  12.5265  12.5324  12.5431  13.6007  13.6111
    13.9545  13.9602  14.2596  14.2935

          k = 0.1667-0.6736 0.0000 ( 22149 PWs)   bands (ev):

   -86.0311 -86.0269 -86.0245 -86.0237 -86.0212 -86.0199 -85.8609 -85.8561
   -85.8536 -85.8145 -85.8112 -85.8094 -49.5478 -49.5422 -49.5314 -49.5305
   -49.5239 -49.4969 -49.4933 -49.4930 -49.4723 -49.4662 -49.4618 -49.4560
   -49.4538 -49.4522 -49.4400 -49.4374 -49.4372 -49.4238 -49.3740 -49.3525
   -49.3290 -49.3231 -49.3072 -49.2914 -49.2906 -49.2845 -49.2798 -49.2777
   -49.2771 -49.2765 -49.2455 -49.2445 -49.2353 -49.2325 -49.2311 -49.2308
   -12.1504 -11.2041 -10.2752  -7.6905  -5.8439  -3.4933  -3.4246  -2.4445
    -1.3624  -0.4066  -0.2958  -0.1504  -0.0871  -0.0805  -0.0128   0.1221
     0.1301   0.1645   0.2198   0.2208   0.2326   0.3883   0.3896   0.4875
     0.5718   0.6267   0.6606   0.7256   0.7555   0.8539   0.9230   0.9955
     1.0698   1.0858   1.1464   1.2518   1.3328   1.3758   1.4363   1.4426
     1.4888   1.5234   1.5792   1.6948   1.7629   1.7972   1.8732   1.9254
     1.9806   1.9913   2.0196   2.0406   2.1546   2.1878   2.2073   2.2142
     2.3040   2.3364   2.4052   2.5019   2.5370   2.5402   2.6505   2.6562
     2.6876   2.7562   2.8639   2.9128   2.9268   2.9444   2.9833   3.0074
     3.0499   3.0855   3.1224   3.1333   3.2222   3.8169   4.4668   4.6370
     4.7747   4.9402   5.6924   6.0955   7.0578   7.1442   7.2375   8.3664
     9.0037   9.1964  10.2712  10.5971  10.8160  11.3015  11.3048  11.5954
    11.7316  12.0568  12.5737  12.7851  12.7997  13.1406  13.2457  13.3082
    13.8229  13.8807  13.9434  14.1973

          k = 0.1667-0.4811 0.0000 ( 22149 PWs)   bands (ev):

   -86.0311 -86.0269 -86.0245 -86.0237 -86.0212 -86.0199 -85.8609 -85.8561
   -85.8536 -85.8145 -85.8112 -85.8094 -49.5477 -49.5422 -49.5315 -49.5306
   -49.5240 -49.4966 -49.4934 -49.4930 -49.4723 -49.4661 -49.4616 -49.4560
   -49.4539 -49.4523 -49.4402 -49.4374 -49.4372 -49.4238 -49.3740 -49.3526
   -49.3290 -49.3230 -49.3070 -49.2915 -49.2904 -49.2845 -49.2798 -49.2777
   -49.2773 -49.2766 -49.2455 -49.2447 -49.2353 -49.2325 -49.2311 -49.2306
   -12.1504 -11.2041 -10.2752  -7.6905  -5.8439  -3.4933  -3.4246  -2.4445
    -1.3624  -0.4067  -0.2961  -0.1505  -0.0873  -0.0809  -0.0125   0.1231
     0.1301   0.1642   0.2188   0.2201   0.2330   0.3894   0.3919   0.4877
     0.5737   0.6262   0.6585   0.7267   0.7539   0.8529   0.9225   0.9954
     1.0705   1.0865   1.1488   1.2501   1.3317   1.3757   1.4351   1.4385
     1.4844   1.5257   1.5791   1.6974   1.7651   1.8003   1.8751   1.9226
     1.9775   1.9950   2.0206   2.0419   2.1528   2.1860   2.2058   2.2143
     2.3013   2.3382   2.4060   2.5038   2.5377   2.5411   2.6531   2.6568
     2.6845   2.7546   2.8617   2.9125   2.9269   2.9453   2.9840   3.0095
     3.0499   3.0853   3.1229   3.1342   3.2211   3.8171   4.4657   4.6370
     4.7724   4.9402   5.6925   6.0974   7.0601   7.1441   7.2362   8.3657
     9.0037   9.1962  10.2717  10.5971  10.8154  11.3019  11.3046  11.5953
    11.7318  12.0564  12.5735  12.7850  12.8015  13.1387  13.2456  13.3087
    13.8227  13.8812  13.9444  14.1971

          k = 0.1667-0.2887 0.0000 ( 22089 PWs)   bands (ev):

   -86.0350 -86.0263 -86.0238 -86.0232 -86.0196 -86.0194 -85.8634 -85.8549
   -85.8523 -85.8177 -85.8087 -85.8087 -49.5415 -49.5409 -49.5396 -49.5356
   -49.5352 -49.4937 -49.4926 -49.4761 -49.4759 -49.4728 -49.4611 -49.4605
   -49.4527 -49.4525 -49.4449 -49.4393 -49.4303 -49.4145 -49.3680 -49.3676
   -49.3227 -49.3226 -49.3078 -49.3069 -49.2909 -49.2858 -49.2792 -49.2765
   -49.2671 -49.2615 -49.2614 -49.2452 -49.2379 -49.2305 -49.2303 -49.2210
   -12.7886  -9.9705  -9.9690  -7.7540  -6.6630  -4.5274  -4.5269  -2.1145
    -1.0392  -0.6576  -0.4903  -0.4886   0.0581   0.0776   0.0789   0.1859
     0.1876   0.2217   0.2224   0.2483   0.4147   0.5208   0.5232   0.7001
     0.7018   0.7284   0.7298   0.9004   0.9410   0.9440   1.0770   1.1166
     1.2803   1.3158   1.3212   1.3963   1.4578   1.4692   1.4739   1.5552
     1.5709   1.5744   1.6289   1.6529   1.7072   1.7161   1.7187   1.8533
     1.9360   1.9655   2.0543   2.0670   2.0883   2.1497   2.1556   2.2014
     2.2452   2.2511   2.3282   2.3784   2.3845   2.4507   2.5056   2.5140
     2.5973   2.6015   2.6909   2.6988   2.7256   2.7653   2.9850   2.9910
     3.0445   3.0923   3.0963   3.2238   3.2257   3.9503   4.2646   5.8066
     5.8104   6.1311   6.5902   6.5972   7.3689   7.8288   8.0072   8.0130
     9.5309   9.5628   9.8272   9.8505  10.4391  10.7611  10.8688  10.8744
    11.6614  11.6661  11.9609  12.5303  12.5327  12.5451  13.5935  13.6088
    13.9571  13.9575  14.2602  14.2907

          k = 0.3333-0.1925 0.0000 ( 22135 PWs)   bands (ev):

   -86.0339 -86.0257 -86.0252 -86.0229 -86.0202 -86.0193 -85.8626 -85.8554
   -85.8525 -85.8168 -85.8099 -85.8084 -49.5529 -49.5451 -49.5371 -49.5307
   -49.5236 -49.4984 -49.4882 -49.4770 -49.4755 -49.4650 -49.4621 -49.4599
   -49.4512 -49.4496 -49.4468 -49.4463 -49.4317 -49.4190 -49.3784 -49.3554
   -49.3335 -49.3101 -49.3043 -49.3011 -49.2981 -49.2855 -49.2795 -49.2768
   -49.2707 -49.2582 -49.2548 -49.2530 -49.2373 -49.2314 -49.2301 -49.2247
   -12.6285 -10.7365  -8.9338  -8.9278  -5.2926  -5.2886  -3.5441  -1.9342
    -1.9293  -0.8472  -0.4525  -0.1099  -0.0101  -0.0043   0.2255   0.2731
     0.2859   0.2937   0.3058   0.3801   0.4565   0.4672   0.5159   0.6118
     0.6876   0.6970   0.8183   0.8269   0.8584   0.9644   1.0018   1.0045
     1.1211   1.1885   1.2420   1.2848   1.3135   1.3582   1.3928   1.4382
     1.4607   1.5416   1.6557   1.6703   1.6910   1.7896   1.7925   1.7998
     1.8415   1.8544   1.8612   2.0027   2.0046   2.0538   2.0761   2.2416
     2.2479   2.3231   2.3906   2.4435   2.4677   2.4913   2.5537   2.6475
     2.7004   2.7867   2.8520   2.8592   2.9295   2.9719   3.0016   3.0503
     3.0763   3.1069   3.1799   3.1968   3.4270   3.4817   4.1816   4.7217
     5.4471   6.3893   6.8024   6.9664   7.4246   7.9400   8.2009   8.2603
     8.3900   8.4609   9.1329  10.2980  10.6564  10.7360  10.9310  10.9693
    11.6002  11.7554  12.1689  12.7224  12.9385  13.1807  13.3964  13.4372
    13.5196  13.6544  14.0864  14.4758

          k = 0.3333-0.0000 0.0000 ( 22089 PWs)   bands (ev):

   -86.0350 -86.0263 -86.0238 -86.0232 -86.0196 -86.0194 -85.8634 -85.8549
   -85.8523 -85.8177 -85.8087 -85.8087 -49.5415 -49.5411 -49.5396 -49.5354
   -49.5353 -49.4937 -49.4928 -49.4760 -49.4757 -49.4727 -49.4610 -49.4607
   -49.4528 -49.4524 -49.4449 -49.4393 -49.4304 -49.4146 -49.3681 -49.3675
   -49.3228 -49.3226 -49.3078 -49.3069 -49.2910 -49.2858 -49.2792 -49.2765
   -49.2670 -49.2616 -49.2612 -49.2450 -49.2379 -49.2305 -49.2303 -49.2211
   -12.7886  -9.9705  -9.9690  -7.7540  -6.6630  -4.5274  -4.5269  -2.1145
    -1.0392  -0.6578  -0.4903  -0.4887   0.0574   0.0777   0.0785   0.1865
     0.1873   0.2220   0.2225   0.2487   0.4145   0.5214   0.5232   0.6994
     0.7009   0.7290   0.7303   0.9016   0.9417   0.9445   1.0770   1.1165
     1.2804   1.3152   1.3183   1.3969   1.4584   1.4701   1.4772   1.5544
     1.5700   1.5748   1.6272   1.6530   1.7072   1.7127   1.7193   1.8533
     1.9360   1.9653   2.0555   2.0699   2.0897   2.1385   2.1604   2.2015
     2.2404   2.2563   2.3283   2.3801   2.3830   2.4499   2.5065   2.5132
     2.6003   2.6014   2.6880   2.7007   2.7261   2.7643   2.9870   2.9884
     3.0463   3.0924   3.0956   3.2246   3.2268   3.9494   4.2646   5.8067
     5.8106   6.1306   6.5900   6.5969   7.3688   7.8284   8.0084   8.0111
     9.5298   9.5632   9.8264   9.8494  10.4391  10.7611  10.8722  10.8746
    11.6615  11.6656  11.9610  12.5318  12.5346  12.5457  13.5943  13.6094
    13.9543  13.9603  14.2600  14.2899

          k = 0.3333 0.1925 0.0000 ( 22135 PWs)   bands (ev):

   -86.0339 -86.0257 -86.0251 -86.0230 -86.0203 -86.0193 -85.8627 -85.8554
   -85.8525 -85.8168 -85.8099 -85.8084 -49.5525 -49.5451 -49.5370 -49.5309
   -49.5240 -49.4976 -49.4891 -49.4774 -49.4753 -49.4651 -49.4619 -49.4597
   -49.4510 -49.4500 -49.4467 -49.4462 -49.4314 -49.4192 -49.3783 -49.3554
   -49.3336 -49.3099 -49.3042 -49.3014 -49.2980 -49.2855 -49.2795 -49.2768
   -49.2706 -49.2584 -49.2544 -49.2528 -49.2372 -49.2314 -49.2303 -49.2250
   -12.6285 -10.7365  -8.9332  -8.9283  -5.2926  -5.2887  -3.5441  -1.9333
    -1.9301  -0.8472  -0.4524  -0.1099  -0.0104  -0.0044   0.2270   0.2721
     0.2855   0.2923   0.3067   0.3782   0.4584   0.4686   0.5147   0.6129
     0.6875   0.6958   0.8213   0.8262   0.8600   0.9645   0.9975   1.0066
     1.1196   1.1857   1.2426   1.2839   1.3157   1.3574   1.3924   1.4353
     1.4656   1.5421   1.6579   1.6676   1.6932   1.7904   1.7917   1.8015
     1.8421   1.8554   1.8684   1.9964   1.9990   2.0518   2.0776   2.2427
     2.2451   2.3238   2.3887   2.4430   2.4667   2.4913   2.5542   2.6512
     2.7029   2.7861   2.8499   2.8587   2.9321   2.9707   3.0016   3.0495
     3.0768   3.1052   3.1798   3.1984   3.4265   3.4821   4.1832   4.7217
     5.4466   6.3883   6.7994   6.9673   7.4371   7.9328   8.1995   8.2547
     8.4055   8.4480   9.1330  10.2954  10.6567  10.7355  10.9333  10.9693
    11.6002  11.7490  12.1690  12.7222  12.9543  13.1804  13.3997  13.4370
    13.5142  13.6573  14.0863  14.4756

          k = 0.3333-0.7698 0.0000 ( 22149 PWs)   bands (ev):

   -86.0311 -86.0269 -86.0245 -86.0237 -86.0211 -86.0199 -85.8609 -85.8561
   -85.8536 -85.8145 -85.8112 -85.8094 -49.5480 -49.5422 -49.5313 -49.5305
   -49.5237 -49.4969 -49.4933 -49.4930 -49.4723 -49.4663 -49.4618 -49.4559
   -49.4539 -49.4522 -49.4400 -49.4374 -49.4372 -49.4238 -49.3740 -49.3525
   -49.3291 -49.3231 -49.3070 -49.2915 -49.2905 -49.2845 -49.2798 -49.2777
   -49.2771 -49.2765 -49.2453 -49.2447 -49.2353 -49.2325 -49.2312 -49.2309
   -12.1504 -11.2041 -10.2752  -7.6905  -5.8439  -3.4933  -3.4246  -2.4445
    -1.3624  -0.4066  -0.2958  -0.1501  -0.0866  -0.0805  -0.0132   0.1217
     0.1301   0.1642   0.2199   0.2215   0.2323   0.3886   0.3898   0.4877
     0.5719   0.6267   0.6604   0.7255   0.7552   0.8537   0.9227   0.9954
     1.0700   1.0867   1.1467   1.2498   1.3334   1.3755   1.4371   1.4415
     1.4883   1.5244   1.5780   1.6947   1.7618   1.7978   1.8735   1.9251
     1.9800   1.9922   2.0197   2.0408   2.1556   2.1872   2.2080   2.2147
     2.3037   2.3365   2.4047   2.5019   2.5369   2.5406   2.6509   2.6562
     2.6874   2.7557   2.8641   2.9128   2.9265   2.9438   2.9837   3.0090
     3.0494   3.0870   3.1226   3.1329   3.2215   3.8167   4.4675   4.6370
     4.7743   4.9412   5.6908   6.0951   7.0576   7.1436   7.2374   8.3659
     9.0016   9.1962  10.2712  10.6011  10.8143  11.3015  11.3045  11.5954
    11.7314  12.0616  12.5736  12.7852  12.8005  13.1397  13.2489  13.3081
    13.8233  13.8800  13.9425  14.1978

          k = 0.3333-0.5774 0.0000 ( 22161 PWs)   bands (ev):

   -86.0281 -86.0274 -86.0272 -86.0217 -86.0215 -86.0214 -85.8599 -85.8558
   -85.8549 -85.8118 -85.8117 -85.8117 -49.5319 -49.5315 -49.5313 -49.5257
   -49.5254 -49.5252 -49.4922 -49.4920 -49.4918 -49.4598 -49.4594 -49.4593
   -49.4487 -49.4485 -49.4482 -49.4295 -49.4294 -49.4292 -49.3539 -49.3534
   -49.3514 -49.3076 -49.3075 -49.3074 -49.2843 -49.2840 -49.2836 -49.2818
   -49.2795 -49.2785 -49.2375 -49.2373 -49.2372 -49.2331 -49.2330 -49.2329
   -11.3624 -11.3616 -11.3593  -6.5075  -6.5075  -4.3299  -1.7298  -1.7274
    -1.7265  -0.3283  -0.3277  -0.3263  -0.0491  -0.0483  -0.0473  -0.0132
    -0.0123  -0.0117   0.1649   0.1663   0.1675   0.3222   0.3245   0.3255
     0.4801   0.4827   0.4838   0.6217   0.6283   0.6360   0.8103   0.8160
     0.8191   1.2086   1.2116   1.2128   1.4113   1.4118   1.4168   1.5111
     1.5126   1.5147   1.6311   1.6352   1.6361   2.0043   2.0075   2.0091
     2.0665   2.0704   2.0720   2.3756   2.3771   2.3796   2.4464   2.4466
     2.4477   2.6377   2.6399   2.6406   2.6940   2.6945   2.6961   2.7520
     2.7535   2.7545   2.8429   2.8447   2.8496   2.8920   2.8932   2.8939
     3.0950   3.0959   3.0968   3.1380   3.1395   3.1407   3.9241   3.9267
     3.9289   5.7298   5.7308   5.7341   5.9686   5.9688   8.0689   8.0773
     8.0782  10.5156  10.5224  10.5232  12.1587  12.1603  12.1643  12.3438
    12.3440  12.3448  12.5656  12.5676  12.5685  12.9697  12.9918  12.9936
    13.6950  13.7337  13.7351  13.9924

          k = 0.3333-0.3849 0.0000 ( 22149 PWs)   bands (ev):

   -86.0311 -86.0269 -86.0244 -86.0237 -86.0211 -86.0200 -85.8609 -85.8562
   -85.8535 -85.8145 -85.8112 -85.8094 -49.5483 -49.5421 -49.5315 -49.5304
   -49.5236 -49.4964 -49.4937 -49.4924 -49.4724 -49.4666 -49.4617 -49.4559
   -49.4539 -49.4523 -49.4402 -49.4373 -49.4372 -49.4237 -49.3740 -49.3526
   -49.3290 -49.3230 -49.3071 -49.2915 -49.2905 -49.2845 -49.2798 -49.2776
   -49.2774 -49.2766 -49.2456 -49.2446 -49.2354 -49.2325 -49.2311 -49.2306
   -12.1504 -11.2041 -10.2752  -7.6905  -5.8439  -3.4933  -3.4246  -2.4446
    -1.3624  -0.4067  -0.2960  -0.1503  -0.0861  -0.0810  -0.0127   0.1216
     0.1303   0.1638   0.2188   0.2219   0.2317   0.3878   0.3931   0.4898
     0.5734   0.6255   0.6595   0.7248   0.7533   0.8526   0.9217   0.9952
     1.0712   1.0901   1.1461   1.2521   1.3338   1.3763   1.4374   1.4393
     1.4807   1.5225   1.5761   1.6975   1.7603   1.8028   1.8747   1.9219
     1.9829   1.9913   2.0230   2.0396   2.1556   2.1864   2.2051   2.2172
     2.3050   2.3384   2.4031   2.5045   2.5372   2.5415   2.6512   2.6565
     2.6845   2.7543   2.8632   2.9121   2.9252   2.9441   2.9842   3.0091
     3.0507   3.0864   3.1232   3.1353   3.2206   3.8168   4.4675   4.6373
     4.7718   4.9417   5.6876   6.0949   7.0603   7.1478   7.2361   8.3662
     9.0003   9.1962  10.2715  10.6019  10.8140  11.3005  11.3043  11.5952
    11.7322  12.0677  12.5735  12.7850  12.8006  13.1396  13.2349  13.3088
    13.8236  13.8786  13.9422  14.1975

          k =-0.5000 0.2887 0.0000 ( 22116 PWs)   bands (ev):

   -86.0297 -86.0292 -86.0235 -86.0227 -86.0226 -86.0196 -85.8605 -85.8569
   -85.8531 -85.8132 -85.8132 -85.8087 -49.5576 -49.5498 -49.5289 -49.5284
   -49.5029 -49.5026 -49.4899 -49.4840 -49.4838 -49.4684 -49.4573 -49.4556
   -49.4553 -49.4460 -49.4457 -49.4369 -49.4335 -49.4333 -49.3827 -49.3380
   -49.3336 -49.3300 -49.2912 -49.2870 -49.2863 -49.2862 -49.2843 -49.2835
   -49.2801 -49.2775 -49.2455 -49.2392 -49.2392 -49.2342 -49.2341 -49.2305
   -11.8345 -11.8320  -9.0762  -9.0703  -4.4642  -4.4608  -2.7993  -2.7938
    -1.3806  -1.3771  -0.2635  -0.1716  -0.1064   0.0629   0.0723   0.1317
     0.1907   0.1931   0.2775   0.4141   0.4153   0.5599   0.5820   0.5831
     0.6199   0.6213   0.7213   0.7220   0.8515   0.8536   0.9987   0.9995
     1.1067   1.1229   1.1278   1.1741   1.1952   1.1994   1.3688   1.3743
     1.4013   1.4304   1.4332   1.4742   1.4809   1.7172   1.7182   1.7863
     1.7878   1.9560   1.9951   2.0313   2.0344   2.2333   2.2360   2.2967
     2.3469   2.3477   2.5766   2.6162   2.6166   2.7042   2.7083   2.7418
     2.8162   2.8176   2.9736   2.9791   2.9811   3.0120   3.1094   3.1616
     3.1642   3.1943   3.3085   3.3390   3.3558   3.4083   3.6492   3.6511
     5.2606   5.2609   6.1884   6.9950   7.5343   7.5399   7.5436   7.7323
     8.6974   8.7127   9.8033   9.8133  10.1777  10.7594  11.5113  11.7271
    11.7290  12.0234  12.0252  12.7045  12.9695  12.9777  13.2548  13.2597
    13.6572  13.6607  13.8395  13.8443

          k =-0.5000 0.4811 0.0000 ( 22149 PWs)   bands (ev):

   -86.0311 -86.0269 -86.0244 -86.0237 -86.0211 -86.0200 -85.8609 -85.8562
   -85.8535 -85.8145 -85.8112 -85.8094 -49.5483 -49.5421 -49.5315 -49.5304
   -49.5236 -49.4963 -49.4937 -49.4924 -49.4724 -49.4665 -49.4616 -49.4559
   -49.4539 -49.4523 -49.4403 -49.4373 -49.4372 -49.4238 -49.3740 -49.3525
   -49.3290 -49.3230 -49.3072 -49.2915 -49.2906 -49.2845 -49.2798 -49.2776
   -49.2772 -49.2765 -49.2457 -49.2445 -49.2354 -49.2325 -49.2310 -49.2307
   -12.1504 -11.2041 -10.2752  -7.6905  -5.8439  -3.4933  -3.4246  -2.4446
    -1.3624  -0.4067  -0.2959  -0.1503  -0.0861  -0.0819  -0.0126   0.1222
     0.1303   0.1639   0.2181   0.2214   0.2317   0.3878   0.3943   0.4899
     0.5739   0.6254   0.6599   0.7240   0.7525   0.8534   0.9219   0.9954
     1.0718   1.0909   1.1473   1.2514   1.3332   1.3759   1.4353   1.4385
     1.4806   1.5240   1.5757   1.6994   1.7608   1.8013   1.8738   1.9214
     1.9844   1.9904   2.0229   2.0395   2.1552   2.1868   2.2043   2.2165
     2.3054   2.3390   2.4034   2.5048   2.5374   2.5415   2.6512   2.6565
     2.6846   2.7534   2.8636   2.9125   2.9252   2.9437   2.9826   3.0093
     3.0517   3.0868   3.1223   3.1365   3.2221   3.8170   4.4668   4.6373
     4.7712   4.9417   5.6876   6.0950   7.0597   7.1477   7.2363   8.3664
     9.0002   9.1955  10.2714  10.6020  10.8153  11.3004  11.3045  11.5952
    11.7320  12.0678  12.5736  12.7851  12.7998  13.1408  13.2351  13.3086
    13.8235  13.8786  13.9436  14.1971

          k =-0.5000 0.6736 0.0000 ( 22149 PWs)   bands (ev):

   -86.0311 -86.0269 -86.0245 -86.0237 -86.0212 -86.0199 -85.8609 -85.8561
   -85.8536 -85.8145 -85.8112 -85.8094 -49.5479 -49.5421 -49.5315 -49.5306
   -49.5239 -49.4964 -49.4933 -49.4931 -49.4723 -49.4661 -49.4616 -49.4560
   -49.4539 -49.4523 -49.4403 -49.4374 -49.4372 -49.4238 -49.3739 -49.3526
   -49.3291 -49.3231 -49.3070 -49.2916 -49.2904 -49.2845 -49.2798 -49.2776
   -49.2772 -49.2765 -49.2453 -49.2448 -49.2353 -49.2325 -49.2312 -49.2308
   -12.1504 -11.2041 -10.2752  -7.6905  -5.8439  -3.4933  -3.4246  -2.4445
    -1.3624  -0.4067  -0.2960  -0.1503  -0.0868  -0.0819  -0.0127   0.1233
     0.1301   0.1640   0.2182   0.2204   0.2328   0.3896   0.3933   0.4879
     0.5744   0.6262   0.6586   0.7259   0.7527   0.8534   0.9225   0.9954
     1.0714   1.0883   1.1503   1.2474   1.3317   1.3750   1.4340   1.4365
     1.4837   1.5282   1.5775   1.6990   1.7646   1.7994   1.8745   1.9219
     1.9783   1.9950   2.0206   2.0421   2.1535   2.1858   2.2059   2.2140
     2.3014   2.3390   2.4058   2.5041   2.5378   2.5414   2.6534   2.6568
     2.6844   2.7533   2.8623   2.9129   2.9266   2.9443   2.9827   3.0113
     3.0504   3.0871   3.1223   3.1350   3.2219   3.8170   4.4657   4.6370
     4.7715   4.9412   5.6909   6.0970   7.0594   7.1434   7.2362   8.3654
     9.0015   9.1953  10.2717  10.6011  10.8151  11.3016  11.3046  11.5954
    11.7315  12.0613  12.5735  12.7852  12.8015  13.1390  13.2491  13.3084
    13.8230  13.8806  13.9449  14.1973

          k =-0.5000-0.2887 0.0000 ( 22116 PWs)   bands (ev):

   -86.0297 -86.0292 -86.0236 -86.0227 -86.0226 -86.0195 -85.8606 -85.8569
   -85.8531 -85.8132 -85.8132 -85.8087 -49.5572 -49.5498 -49.5288 -49.5284
   -49.5033 -49.5032 -49.4909 -49.4836 -49.4835 -49.4677 -49.4575 -49.4555
   -49.4555 -49.4459 -49.4454 -49.4368 -49.4338 -49.4334 -49.3826 -49.3381
   -49.3332 -49.3306 -49.2913 -49.2866 -49.2860 -49.2860 -49.2842 -49.2838
   -49.2800 -49.2775 -49.2452 -49.2394 -49.2394 -49.2342 -49.2341 -49.2306
   -11.8339 -11.8326  -9.0758  -9.0708  -4.4645  -4.4606  -2.7982  -2.7947
    -1.3795  -1.3780  -0.2634  -0.1723  -0.1068   0.0654   0.0697   0.1324
     0.1920   0.1927   0.2794   0.4115   0.4130   0.5616   0.5829   0.5849
     0.6220   0.6224   0.7186   0.7189   0.8508   0.8539   0.9991   0.9995
     1.1047   1.1264   1.1297   1.1684   1.1976   1.1999   1.3669   1.3712
     1.4004   1.4298   1.4324   1.4794   1.4810   1.7174   1.7211   1.7884
     1.7907   1.9582   2.0039   2.0237   2.0269   2.2324   2.2353   2.2896
     2.3454   2.3463   2.5757   2.6188   2.6193   2.7081   2.7103   2.7468
     2.8146   2.8154   2.9731   2.9803   2.9811   3.0104   3.1110   3.1619
     3.1629   3.1924   3.3081   3.3374   3.3566   3.4091   3.6493   3.6503
     5.2616   5.2618   6.1865   7.0097   7.5236   7.5400   7.5416   7.7282
     8.6991   8.7110   9.8039   9.8129  10.1753  10.7622  11.5037  11.7275
    11.7285  12.0237  12.0253  12.7221  12.9724  12.9753  13.2563  13.2584
    13.6574  13.6596  13.8395  13.8438

     the Fermi energy is     6.0846 ev

!    total energy              =   -3595.83472786 Ry
     estimated scf accuracy    <          4.7E-09 Ry
     smearing contrib. (-TS)   =      -0.00085226 Ry
     internal energy E=F+TS    =   -3595.83387560 Ry

     The total energy is F=E-TS. E is the sum of the following terms:
     one-electron contribution =  -24421.68695048 Ry
     hartree contribution      =   12240.93666960 Ry
     xc contribution           =    -362.17276680 Ry
     ewald contribution        =    8996.92068037 Ry
     DFT-D3 Dispersion         =      -0.50438049 Ry
     electric field correction =       0.00000145 Ry
     one-center paw contrib.   =     -49.32712925 Ry

     convergence has been achieved in  48 iterations

     negative rho (up, down):  1.218E-04 0.000E+00

     Forces acting on atoms (cartesian axes, Ry/au):

     atom    1 type  1   force =     0.00022419    0.00058341    0.00218219
     atom    2 type  1   force =     0.00018562    0.00044115    0.00214658
     atom    3 type  1   force =    -0.00021257   -0.00011674   -0.00025741
     atom    4 type  1   force =     0.00002330   -0.00035147   -0.00087814
     atom    5 type  1   force =     0.00009175    0.00056554    0.00214928
     atom    6 type  1   force =    -0.00034784   -0.00002455   -0.00043175
     atom    7 type  1   force =     0.00060143   -0.00048164    0.00069669
     atom    8 type  1   force =    -0.00002031   -0.00032741   -0.00088724
     atom    9 type  1   force =    -0.00060402    0.00028155    0.00087548
     atom   10 type  1   force =    -0.00019298    0.00000845   -0.00030537
     atom   11 type  1   force =     0.00000653   -0.00034925   -0.00087594
     atom   12 type  1   force =     0.00024387   -0.00015757    0.00066117
     atom   13 type  2   force =     0.00057777   -0.00033613   -0.00056980
     atom   14 type  2   force =     0.00027982   -0.00059597   -0.00093414
     atom   15 type  2   force =     0.00034915   -0.00021450   -0.00002764
     atom   16 type  2   force =     0.00065092    0.00003865   -0.00090814
     atom   17 type  2   force =    -0.00073455   -0.00023246   -0.00109817
     atom   18 type  2   force =    -0.00012281    0.00006237    0.00006593
     atom   19 type  2   force =    -0.00017452    0.00073655   -0.00084419
     atom   20 type  2   force =    -0.00082474    0.00047004   -0.00075939

     Total force =     0.002810     Total SCF correction =     0.000602
     SCF correction compared to forces is large: reduce conv_thr to get better values

     BFGS Geometry Optimization
     Energy error            =      8.6E-06 Ry
     Gradient error          =      1.1E-03 Ry/Bohr

     number of scf cycles    =   1
     number of bfgs steps    =   0

     energy             new  =   -3595.8347278586 Ry

     new trust radius        =       0.0011002613 bohr
     new conv_thr            =       0.0000000100 Ry


ATOMIC_POSITIONS (angstrom)
Ag               1.6639287800        2.8744764000        2.8500754000    0   0   0
Ag               4.1565601600        4.3135978000        2.8500754000    0   0   0
Ag               0.8401228332        1.4416713947        5.1893574033
Ag               2.4948753000        1.4505407700        0.5000000000    0   0   0
Ag               4.1565601600        1.4353550000        2.8500754000    0   0   0
Ag               3.3322062415        2.8817974096        5.1914547283
Ag               2.4961119307        1.4495383046        7.5442822428
Ag               4.9875066800        2.8896621700        0.5000000000    0   0   0
Ag               4.9936430461        2.8857735182        7.5372350341
Ag               3.3329034679        0.0041119397        5.1906493231
Ag               4.9875066800        0.0114193700        0.5000000000    0   0   0
Ag               4.9903308593        0.0095423074        7.5459161339
C                3.3257524300        3.8490764300       10.8528521945    0   0   1
C                4.5720681200        4.5686371300       10.8543434851    0   0   1
C                4.5720681200        6.0077585300       10.8505856925    0   0   1
C                5.8183838100        6.7273192300       10.8541815228    0   0   1
C                5.8183838100        3.8490764300       10.8545856137    0   0   1
C                7.0646995000        4.5686371300       10.8503794804    0   0   1
C                7.0646995000        6.0077585300       10.8541700334    0   0   1
C                8.3110151900        6.7273192300       10.8532868805    0   0   1



     Writing config-only to output data dir ./tmp/V2_top_hcp_relax.save/ :
     XML data file
     NEW-OLD atomic charge density approx. for the potential

     Check: negative core charge=   -0.000001

     negative rho (up, down):  1.219E-04 0.000E+00
 
     Adding external electric field

     Computed dipole along edir(3) : 
        Dipole                0.0201 Ry au,          0.0510 Debye
        Dipole field          0.0001 Ry au, 
 
        Potential amp.       -0.0063 Ry
        Total length         43.5589 bohr
 

     total cpu time spent up to now is      272.2 secs

     Self-consistent Calculation

     iteration #  1     ecut=    52.00 Ry     beta= 0.30
     Davidson diagonalization with overlap
     ethr =  1.00E-06,  avg # of iterations =  2.0

     Threshold (ethr) on eigenvalues was too large:
     Diagonalizing with lowered threshold

     Davidson diagonalization with overlap
     ethr =  3.55E-09,  avg # of iterations =  2.0

     negative rho (up, down):  1.217E-04 0.000E+00
 
     Adding external electric field

     Computed dipole along edir(3) : 
        Dipole                0.0199 Ry au,          0.0506 Debye
        Dipole field          0.0001 Ry au, 
 
        Potential amp.       -0.0062 Ry
        Total length         43.5589 bohr
 

     total cpu time spent up to now is      281.5 secs

     total energy              =   -3595.83473548 Ry
     estimated scf accuracy    <       0.00000949 Ry

     iteration #  2     ecut=    52.00 Ry     beta= 0.30
     Davidson diagonalization with overlap
     ethr =  3.65E-09,  avg # of iterations =  1.1

     negative rho (up, down):  1.215E-04 0.000E+00
 
     Adding external electric field

     Computed dipole along edir(3) : 
        Dipole                0.0194 Ry au,          0.0494 Debye
        Dipole field          0.0001 Ry au, 
 
        Potential amp.       -0.0061 Ry
        Total length         43.5589 bohr
 

     total cpu time spent up to now is      286.3 secs

     total energy              =   -3595.83473510 Ry
     estimated scf accuracy    <       0.00000505 Ry

     iteration #  3     ecut=    52.00 Ry     beta= 0.30
     Davidson diagonalization with overlap
     ethr =  1.94E-09,  avg # of iterations =  2.1

     negative rho (up, down):  1.217E-04 0.000E+00
 
     Adding external electric field

     Computed dipole along edir(3) : 
        Dipole                0.0194 Ry au,          0.0494 Debye
        Dipole field          0.0001 Ry au, 
 
        Potential amp.       -0.0061 Ry
        Total length         43.5589 bohr
 

     total cpu time spent up to now is      291.3 secs

     total energy              =   -3595.83473527 Ry
     estimated scf accuracy    <       0.00000003 Ry

     iteration #  4     ecut=    52.00 Ry     beta= 0.30
     Davidson diagonalization with overlap
     ethr =  1.02E-11,  avg # of iterations =  4.0

     negative rho (up, down):  1.222E-04 0.000E+00
 
     Adding external electric field

     Computed dipole along edir(3) : 
        Dipole                0.0194 Ry au,          0.0493 Debye
        Dipole field          0.0001 Ry au, 
 
        Potential amp.       -0.0061 Ry
        Total length         43.5589 bohr
 

     total cpu time spent up to now is      296.8 secs

     total energy              =   -3595.83473527 Ry
     estimated scf accuracy    <       0.00000001 Ry

     iteration #  5     ecut=    52.00 Ry     beta= 0.30
     Davidson diagonalization with overlap
     ethr =  5.74E-12,  avg # of iterations =  2.0

     negative rho (up, down):  1.218E-04 0.000E+00
 
     Adding external electric field

     Computed dipole along edir(3) : 
        Dipole                0.0192 Ry au,          0.0489 Debye
        Dipole field          0.0001 Ry au, 
 
        Potential amp.       -0.0060 Ry
        Total length         43.5589 bohr
 

     total cpu time spent up to now is      301.8 secs

     End of self-consistent calculation

          k = 0.0000 0.0000 0.0000 ( 22161 PWs)   bands (ev):

   -86.0381 -86.0284 -86.0211 -86.0204 -86.0185 -86.0184 -85.8657 -85.8530
   -85.8503 -85.8205 -85.8070 -85.8070 -49.5479 -49.5219 -49.5217 -49.5212
   -49.5208 -49.5193 -49.5192 -49.4943 -49.4942 -49.4696 -49.4691 -49.4670
   -49.4669 -49.4635 -49.4208 -49.4202 -49.4071 -49.4069 -49.3495 -49.3488
   -49.3454 -49.3446 -49.3030 -49.3030 -49.3007 -49.3007 -49.2879 -49.2778
   -49.2748 -49.2585 -49.2583 -49.2407 -49.2289 -49.2288 -49.2130 -49.2126
   -13.2708  -8.1767  -8.1706  -8.1684  -7.0434  -7.0407  -7.0396  -1.6338
    -1.3322  -0.4725  -0.3354  -0.3333  -0.3299  -0.2160  -0.0551   0.4202
     0.4211   0.4354   0.4366   0.4380   0.4392   0.7772   0.7793   0.7853
     0.7868   0.9742   0.9768   0.9917   0.9918   1.2197   1.2787   1.2798
     1.3260   1.3282   1.3805   1.3829   1.3996   1.3996   1.4152   1.5262
     1.5270   1.5937   1.5956   1.6510   1.6554   1.6864   1.6903   1.7315
     1.7315   1.7519   1.7521   2.1688   2.1710   2.2859   2.2931   2.2956
     2.2967   2.3300   2.3301   2.4278   2.4398   2.6749   2.7015   2.7282
     2.7672   2.7702   2.8782   2.8894   2.9460   2.9494   2.9524   2.9550
     2.9628   2.9635   3.0221   3.0250   3.6996   3.7024   3.7087   5.2070
     6.4582   7.5392   7.5738   7.5869   9.4965   9.4999   9.6909   9.6926
     9.6984   9.7011   9.7814  10.1425  10.4754  10.4782  10.4851  10.4900
    10.8819  10.8888  11.3359  11.9945  12.1471  12.1491  12.1527  12.1572
    12.4240  12.4368  13.0639  13.0694

          k = 0.0000 0.1925 0.0000 ( 22089 PWs)   bands (ev):

   -86.0369 -86.0275 -86.0219 -86.0213 -86.0187 -86.0185 -85.8646 -85.8535
   -85.8508 -85.8194 -85.8077 -85.8074 -49.5448 -49.5387 -49.5335 -49.5322
   -49.5278 -49.5024 -49.4967 -49.4868 -49.4813 -49.4716 -49.4658 -49.4654
   -49.4625 -49.4608 -49.4300 -49.4244 -49.4179 -49.4098 -49.3656 -49.3603
   -49.3254 -49.3226 -49.3207 -49.3153 -49.2871 -49.2799 -49.2781 -49.2773
   -49.2752 -49.2695 -49.2614 -49.2397 -49.2295 -49.2293 -49.2240 -49.2158
   -13.1098  -9.3728  -8.5360  -8.5314  -6.4197  -6.4160  -5.6015  -1.4312
    -1.0916  -0.8117  -0.8093  -0.2546  -0.1750  -0.0373   0.1314   0.1391
     0.2666   0.3222   0.3330   0.4069   0.5419   0.6318   0.7094   0.7314
     0.7702   0.8198   0.9186   0.9417   0.9445   1.1119   1.1907   1.2123
     1.2832   1.3294   1.4093   1.4260   1.4302   1.4525   1.4894   1.5009
     1.5140   1.5494   1.5726   1.6479   1.6490   1.7193   1.7309   1.7963
     1.9116   2.0092   2.0489   2.0788   2.0956   2.2003   2.2150   2.2914
     2.3039   2.3150   2.3885   2.3956   2.4043   2.5183   2.5601   2.5779
     2.6221   2.7107   2.7296   2.7597   2.8081   2.9005   2.9691   3.0146
     3.0191   3.0762   3.1021   3.1729   3.4428   3.6015   3.6220   5.5580
     6.9490   6.9721   7.7874   7.8400   7.8450   8.0997   8.4602   8.6358
     9.0252   9.2957   9.4929  10.0012  10.3484  10.7884  10.9822  11.3204
    11.4326  11.5448  11.5767  12.1680  12.3629  12.4483  12.4516  12.5841
    13.1531  13.3888  13.5709  13.7951

          k = 0.0000 0.3849 0.0000 ( 22135 PWs)   bands (ev):

   -86.0335 -86.0253 -86.0247 -86.0226 -86.0200 -86.0189 -85.8621 -85.8549
   -85.8520 -85.8166 -85.8097 -85.8082 -49.5519 -49.5447 -49.5366 -49.5306
   -49.5238 -49.4969 -49.4889 -49.4771 -49.4749 -49.4645 -49.4616 -49.4592
   -49.4506 -49.4495 -49.4465 -49.4459 -49.4309 -49.4187 -49.3778 -49.3548
   -49.3333 -49.3098 -49.3038 -49.3008 -49.2974 -49.2849 -49.2789 -49.2763
   -49.2702 -49.2581 -49.2544 -49.2527 -49.2371 -49.2312 -49.2300 -49.2246
   -12.6288 -10.7367  -8.9335  -8.9286  -5.2929  -5.2889  -3.5443  -1.9335
    -1.9304  -0.8476  -0.4518  -0.1095  -0.0102  -0.0038   0.2281   0.2720
     0.2853   0.2917   0.3075   0.3783   0.4597   0.4689   0.5155   0.6135
     0.6877   0.6961   0.8211   0.8282   0.8602   0.9649   0.9969   1.0074
     1.1194   1.1866   1.2443   1.2844   1.3160   1.3575   1.3928   1.4353
     1.4674   1.5399   1.6607   1.6695   1.6923   1.7898   1.7936   1.8013
     1.8401   1.8564   1.8693   1.9979   1.9999   2.0525   2.0767   2.2426
     2.2458   2.3233   2.3886   2.4429   2.4666   2.4930   2.5544   2.6522
     2.7042   2.7859   2.8488   2.8585   2.9315   2.9715   3.0005   3.0503
     3.0786   3.1050   3.1780   3.1988   3.4267   3.4818   4.1844   4.7221
     5.4468   6.3890   6.7973   6.9677   7.4397   7.9336   8.2010   8.2608
     8.4023   8.4501   9.1333  10.2896  10.6565  10.7353  10.9340  10.9692
    11.6014  11.7446  12.1687  12.7221  12.9507  13.1804  13.3974  13.4369
    13.5171  13.6566  14.0862  14.4753

          k = 0.0000-0.5774 0.0000 ( 22116 PWs)   bands (ev):

   -86.0293 -86.0288 -86.0232 -86.0224 -86.0222 -86.0191 -85.8600 -85.8563
   -85.8526 -85.8130 -85.8130 -85.8085 -49.5566 -49.5494 -49.5285 -49.5279
   -49.5032 -49.5028 -49.4907 -49.4832 -49.4830 -49.4671 -49.4572 -49.4552
   -49.4549 -49.4454 -49.4450 -49.4365 -49.4333 -49.4330 -49.3821 -49.3378
   -49.3326 -49.3299 -49.2907 -49.2861 -49.2860 -49.2859 -49.2837 -49.2834
   -49.2795 -49.2769 -49.2452 -49.2391 -49.2390 -49.2340 -49.2339 -49.2304
   -11.8341 -11.8329  -9.0760  -9.0710  -4.4647  -4.4608  -2.7984  -2.7950
    -1.3798  -1.3783  -0.2631  -0.1723  -0.1061   0.0650   0.0693   0.1333
     0.1916   0.1945   0.2796   0.4107   0.4122   0.5622   0.5851   0.5854
     0.6229   0.6241   0.7179   0.7193   0.8521   0.8543   0.9988   0.9992
     1.1021   1.1280   1.1319   1.1733   1.1978   1.1987   1.3676   1.3714
     1.3998   1.4323   1.4333   1.4781   1.4815   1.7197   1.7213   1.7879
     1.7889   1.9590   2.0051   2.0260   2.0280   2.2320   2.2350   2.2894
     2.3452   2.3458   2.5754   2.6199   2.6201   2.7094   2.7111   2.7447
     2.8145   2.8151   2.9735   2.9793   2.9798   3.0105   3.1121   3.1626
     3.1636   3.1926   3.3090   3.3377   3.3565   3.4089   3.6496   3.6504
     5.2624   5.2627   6.1837   7.0124   7.5255   7.5406   7.5426   7.7339
     8.6990   8.7106   9.8051   9.8133  10.1695  10.7625  11.4994  11.7275
    11.7283  12.0240  12.0247  12.7181  12.9718  12.9750  13.2556  13.2584
    13.6579  13.6590  13.8406  13.8424

          k = 0.1667-0.0962 0.0000 ( 22089 PWs)   bands (ev):

   -86.0369 -86.0275 -86.0220 -86.0212 -86.0187 -86.0186 -85.8646 -85.8535
   -85.8508 -85.8194 -85.8077 -85.8074 -49.5448 -49.5393 -49.5332 -49.5321
   -49.5272 -49.5036 -49.4964 -49.4858 -49.4814 -49.4717 -49.4658 -49.4653
   -49.4632 -49.4603 -49.4296 -49.4248 -49.4181 -49.4097 -49.3656 -49.3603
   -49.3254 -49.3226 -49.3206 -49.3154 -49.2871 -49.2798 -49.2781 -49.2774
   -49.2752 -49.2695 -49.2614 -49.2397 -49.2295 -49.2292 -49.2241 -49.2156
   -13.1098  -9.3728  -8.5369  -8.5306  -6.4198  -6.4158  -5.6015  -1.4312
    -1.0917  -0.8127  -0.8084  -0.2551  -0.1745  -0.0372   0.1316   0.1382
     0.2688   0.3233   0.3312   0.4076   0.5392   0.6320   0.7137   0.7331
     0.7660   0.8204   0.9175   0.9391   0.9470   1.1115   1.1914   1.2135
     1.2842   1.3281   1.4107   1.4261   1.4266   1.4528   1.4870   1.5027
     1.5116   1.5498   1.5731   1.6477   1.6535   1.7192   1.7297   1.7972
     1.9137   2.0031   2.0449   2.0791   2.0981   2.1968   2.2204   2.2873
     2.3039   2.3121   2.3883   2.4003   2.4056   2.5220   2.5630   2.5776
     2.6219   2.7159   2.7278   2.7566   2.8068   2.9000   2.9694   3.0139
     3.0201   3.0744   3.1026   3.1754   3.4398   3.6006   3.6227   5.5582
     6.9489   6.9721   7.7914   7.8331   7.8482   8.1048   8.4523   8.6352
     9.0281   9.2946   9.4888  10.0012  10.3484  10.7977  10.9853  11.3152
    11.4301  11.5448  11.5786  12.1680  12.3592  12.4523  12.4595  12.5838
    13.1531  13.3829  13.5623  13.7401

          k = 0.1667 0.0962 0.0000 ( 22089 PWs)   bands (ev):

   -86.0369 -86.0275 -86.0219 -86.0213 -86.0187 -86.0186 -85.8646 -85.8535
   -85.8508 -85.8194 -85.8077 -85.8074 -49.5448 -49.5389 -49.5334 -49.5322
   -49.5275 -49.5028 -49.4966 -49.4866 -49.4813 -49.4715 -49.4657 -49.4654
   -49.4627 -49.4607 -49.4299 -49.4245 -49.4179 -49.4098 -49.3656 -49.3603
   -49.3253 -49.3227 -49.3208 -49.3152 -49.2871 -49.2800 -49.2781 -49.2771
   -49.2752 -49.2696 -49.2613 -49.2397 -49.2294 -49.2293 -49.2238 -49.2159
   -13.1098  -9.3728  -8.5361  -8.5314  -6.4197  -6.4160  -5.6015  -1.4312
    -1.0917  -0.8117  -0.8093  -0.2547  -0.1750  -0.0373   0.1313   0.1385
     0.2672   0.3231   0.3325   0.4072   0.5413   0.6322   0.7101   0.7319
     0.7685   0.8198   0.9179   0.9414   0.9459   1.1120   1.1909   1.2130
     1.2827   1.3292   1.4095   1.4254   1.4297   1.4528   1.4896   1.5031
     1.5139   1.5487   1.5720   1.6468   1.6490   1.7193   1.7306   1.7984
     1.9107   2.0086   2.0482   2.0775   2.0959   2.2008   2.2172   2.2903
     2.3028   2.3155   2.3887   2.3946   2.4039   2.5182   2.5611   2.5788
     2.6222   2.7100   2.7298   2.7590   2.8079   2.9018   2.9683   3.0133
     3.0215   3.0760   3.1024   3.1738   3.4418   3.6016   3.6219   5.5577
     6.9491   6.9719   7.7886   7.8362   7.8472   8.1020   8.4589   8.6353
     9.0241   9.2960   9.4893  10.0012  10.3484  10.7935  10.9839  11.3192
    11.4319  11.5449  11.5756  12.1680  12.3641  12.4463  12.4564  12.5839
    13.1531  13.3857  13.5731  13.7397

          k = 0.1667 0.2887 0.0000 ( 22089 PWs)   bands (ev):

   -86.0346 -86.0260 -86.0233 -86.0228 -86.0192 -86.0191 -85.8629 -85.8543
   -85.8518 -85.8175 -85.8085 -85.8085 -49.5408 -49.5405 -49.5391 -49.5353
   -49.5351 -49.4928 -49.4923 -49.4761 -49.4760 -49.4727 -49.4601 -49.4599
   -49.4525 -49.4523 -49.4446 -49.4387 -49.4296 -49.4143 -49.3678 -49.3667
   -49.3226 -49.3224 -49.3072 -49.3064 -49.2905 -49.2852 -49.2786 -49.2760
   -49.2665 -49.2613 -49.2611 -49.2447 -49.2378 -49.2303 -49.2302 -49.2211
   -12.7888  -9.9715  -9.9685  -7.7542  -6.6633  -4.5278  -4.5269  -2.1147
    -1.0396  -0.6571  -0.4916  -0.4879   0.0603   0.0781   0.0794   0.1871
     0.1878   0.2221   0.2226   0.2475   0.4126   0.5202   0.5221   0.7013
     0.7027   0.7312   0.7319   0.9009   0.9414   0.9422   1.0784   1.1176
     1.2804   1.3181   1.3227   1.3981   1.4588   1.4725   1.4738   1.5559
     1.5740   1.5755   1.6270   1.6535   1.7081   1.7106   1.7159   1.8540
     1.9366   1.9652   2.0623   2.0632   2.0888   2.1434   2.1590   2.2014
     2.2472   2.2526   2.3299   2.3809   2.3831   2.4474   2.4989   2.5167
     2.5973   2.6014   2.6947   2.6992   2.7210   2.7673   2.9836   2.9923
     3.0454   3.0913   3.0990   3.2229   3.2273   3.9532   4.2644   5.8062
     5.8113   6.1301   6.5906   6.5986   7.3686   7.8293   8.0071   8.0115
     9.5149   9.5815   9.8144   9.8614  10.4390  10.7611  10.8680  10.8749
    11.6594  11.6696  11.9609  12.5270  12.5323  12.5432  13.6007  13.6109
    13.9542  13.9600  14.2592  14.2936

          k = 0.1667-0.6736 0.0000 ( 22149 PWs)   bands (ev):

   -86.0307 -86.0264 -86.0241 -86.0233 -86.0208 -86.0196 -85.8603 -85.8556
   -85.8531 -85.8143 -85.8110 -85.8092 -49.5473 -49.5418 -49.5310 -49.5301
   -49.5235 -49.4965 -49.4929 -49.4926 -49.4719 -49.4658 -49.4614 -49.4556
   -49.4534 -49.4518 -49.4396 -49.4370 -49.4369 -49.4234 -49.3735 -49.3520
   -49.3288 -49.3225 -49.3070 -49.2909 -49.2900 -49.2839 -49.2792 -49.2771
   -49.2769 -49.2760 -49.2453 -49.2443 -49.2351 -49.2324 -49.2309 -49.2306
   -12.1507 -11.2044 -10.2755  -7.6908  -5.8441  -3.4935  -3.4248  -2.4448
    -1.3627  -0.4069  -0.2962  -0.1500  -0.0866  -0.0801  -0.0123   0.1226
     0.1299   0.1650   0.2203   0.2212   0.2332   0.3888   0.3900   0.4882
     0.5724   0.6273   0.6608   0.7260   0.7560   0.8540   0.9235   0.9952
     1.0703   1.0861   1.1467   1.2521   1.3331   1.3763   1.4368   1.4430
     1.4892   1.5238   1.5796   1.6953   1.7629   1.7978   1.8735   1.9259
     1.9812   1.9916   2.0202   2.0410   2.1550   2.1882   2.2076   2.2147
     2.3043   2.3367   2.4056   2.5021   2.5373   2.5404   2.6509   2.6565
     2.6878   2.7563   2.8642   2.9131   2.9272   2.9447   2.9836   3.0077
     3.0503   3.0858   3.1227   3.1337   3.2225   3.8172   4.4672   4.6368
     4.7748   4.9406   5.6929   6.0956   7.0581   7.1443   7.2371   8.3665
     9.0039   9.1965  10.2710  10.5974  10.8161  11.3016  11.3048  11.5954
    11.7314  12.0572  12.5736  12.7850  12.7998  13.1409  13.2454  13.3081
    13.8228  13.8804  13.9434  14.1965

          k = 0.1667-0.4811 0.0000 ( 22149 PWs)   bands (ev):

   -86.0307 -86.0264 -86.0241 -86.0233 -86.0208 -86.0195 -85.8603 -85.8556
   -85.8530 -85.8143 -85.8110 -85.8092 -49.5473 -49.5418 -49.5311 -49.5302
   -49.5236 -49.4962 -49.4929 -49.4926 -49.4719 -49.4657 -49.4612 -49.4556
   -49.4535 -49.4519 -49.4397 -49.4370 -49.4368 -49.4234 -49.3734 -49.3520
   -49.3288 -49.3225 -49.3068 -49.2910 -49.2899 -49.2839 -49.2793 -49.2772
   -49.2771 -49.2761 -49.2453 -49.2445 -49.2352 -49.2323 -49.2309 -49.2304
   -12.1507 -11.2044 -10.2755  -7.6908  -5.8441  -3.4935  -3.4249  -2.4448
    -1.3626  -0.4069  -0.2965  -0.1501  -0.0868  -0.0806  -0.0120   0.1235
     0.1299   0.1647   0.2193   0.2206   0.2336   0.3898   0.3924   0.4883
     0.5743   0.6269   0.6587   0.7272   0.7543   0.8529   0.9231   0.9952
     1.0710   1.0869   1.1491   1.2504   1.3321   1.3762   1.4356   1.4389
     1.4848   1.5261   1.5795   1.6978   1.7651   1.8008   1.8755   1.9231
     1.9782   1.9952   2.0213   2.0423   2.1532   2.1864   2.2061   2.2147
     2.3017   2.3386   2.4065   2.5040   2.5379   2.5413   2.6535   2.6570
     2.6847   2.7547   2.8620   2.9127   2.9273   2.9456   2.9842   3.0098
     3.0503   3.0856   3.1233   3.1346   3.2213   3.8174   4.4661   4.6368
     4.7725   4.9406   5.6929   6.0975   7.0603   7.1442   7.2360   8.3658
     9.0039   9.1965  10.2714  10.5974  10.8156  11.3020  11.3045  11.5953
    11.7316  12.0568  12.5734  12.7848  12.8016  13.1390  13.2454  13.3086
    13.8227  13.8808  13.9443  14.1963

          k = 0.1667-0.2887 0.0000 ( 22089 PWs)   bands (ev):

   -86.0346 -86.0259 -86.0233 -86.0228 -86.0193 -86.0191 -85.8629 -85.8543
   -85.8518 -85.8175 -85.8085 -85.8085 -49.5411 -49.5405 -49.5392 -49.5352
   -49.5349 -49.4933 -49.4922 -49.4757 -49.4755 -49.4724 -49.4607 -49.4602
   -49.4523 -49.4521 -49.4445 -49.4390 -49.4299 -49.4141 -49.3675 -49.3671
   -49.3225 -49.3224 -49.3072 -49.3064 -49.2904 -49.2852 -49.2787 -49.2760
   -49.2666 -49.2613 -49.2612 -49.2450 -49.2378 -49.2303 -49.2302 -49.2208
   -12.7888  -9.9708  -9.9692  -7.7542  -6.6633  -4.5276  -4.5271  -2.1147
    -1.0396  -0.6572  -0.4906  -0.4889   0.0586   0.0781   0.0794   0.1865
     0.1880   0.2222   0.2228   0.2489   0.4153   0.5215   0.5238   0.7008
     0.7024   0.7289   0.7302   0.9007   0.9414   0.9444   1.0775   1.1171
     1.2801   1.3163   1.3216   1.3966   1.4583   1.4694   1.4743   1.5556
     1.5713   1.5747   1.6292   1.6533   1.7075   1.7167   1.7192   1.8539
     1.9365   1.9652   2.0544   2.0672   2.0887   2.1499   2.1559   2.2017
     2.2453   2.2513   2.3285   2.3787   2.3848   2.4511   2.5059   2.5142
     2.5976   2.6018   2.6911   2.6990   2.7258   2.7654   2.9853   2.9913
     3.0447   3.0926   3.0966   3.2241   3.2260   3.9506   4.2644   5.8071
     5.8107   6.1313   6.5908   6.5975   7.3686   7.8290   8.0074   8.0131
     9.5308   9.5625   9.8275   9.8507  10.4390  10.7611  10.8691  10.8747
    11.6618  11.6662  11.9608  12.5306  12.5327  12.5453  13.5935  13.6087
    13.9569  13.9572  14.2598  14.2906

          k = 0.3333-0.1925 0.0000 ( 22135 PWs)   bands (ev):

   -86.0335 -86.0253 -86.0247 -86.0225 -86.0199 -86.0190 -85.8621 -85.8549
   -85.8520 -85.8166 -85.8097 -85.8082 -49.5524 -49.5447 -49.5367 -49.5303
   -49.5232 -49.4980 -49.4878 -49.4766 -49.4751 -49.4646 -49.4617 -49.4595
   -49.4508 -49.4492 -49.4464 -49.4459 -49.4313 -49.4186 -49.3778 -49.3548
   -49.3333 -49.3099 -49.3037 -49.3005 -49.2976 -49.2849 -49.2790 -49.2763
   -49.2702 -49.2580 -49.2546 -49.2529 -49.2371 -49.2313 -49.2300 -49.2245
   -12.6288 -10.7367  -8.9340  -8.9280  -5.2929  -5.2889  -3.5443  -1.9344
    -1.9296  -0.8476  -0.4521  -0.1094  -0.0096  -0.0038   0.2260   0.2736
     0.2857   0.2941   0.3065   0.3807   0.4570   0.4677   0.5164   0.6125
     0.6875   0.6976   0.8190   0.8274   0.8588   0.9650   1.0021   1.0049
     1.1215   1.1887   1.2424   1.2852   1.3137   1.3583   1.3932   1.4385
     1.4611   1.5420   1.6562   1.6707   1.6914   1.7902   1.7931   1.8002
     1.8418   1.8541   1.8616   2.0032   2.0051   2.0543   2.0764   2.2420
     2.2482   2.3234   2.3909   2.4437   2.4678   2.4916   2.5539   2.6478
     2.7006   2.7870   2.8522   2.8595   2.9297   2.9722   3.0019   3.0506
     3.0767   3.1072   3.1802   3.1971   3.4269   3.4817   4.1818   4.7221
     5.4475   6.3894   6.8028   6.9665   7.4252   7.9403   8.2012   8.2606
     8.3897   8.4607   9.1330  10.2981  10.6564  10.7357  10.9310  10.9693
    11.6004  11.7556  12.1687  12.7223  12.9383  13.1806  13.3965  13.4370
    13.5200  13.6546  14.0862  14.4754

          k = 0.3333-0.0000 0.0000 ( 22089 PWs)   bands (ev):

   -86.0346 -86.0259 -86.0233 -86.0228 -86.0193 -86.0191 -85.8629 -85.8543
   -85.8518 -85.8175 -85.8085 -85.8085 -49.5411 -49.5407 -49.5392 -49.5350
   -49.5349 -49.4933 -49.4924 -49.4756 -49.4753 -49.4723 -49.4606 -49.4603
   -49.4524 -49.4520 -49.4445 -49.4389 -49.4300 -49.4142 -49.3675 -49.3670
   -49.3226 -49.3224 -49.3072 -49.3064 -49.2905 -49.2852 -49.2787 -49.2760
   -49.2665 -49.2614 -49.2610 -49.2448 -49.2378 -49.2303 -49.2302 -49.2209
   -12.7888  -9.9708  -9.9693  -7.7542  -6.6633  -4.5276  -4.5271  -2.1147
    -1.0396  -0.6574  -0.4906  -0.4889   0.0579   0.0781   0.0790   0.1870
     0.1877   0.2225   0.2229   0.2493   0.4150   0.5221   0.5238   0.7003
     0.7016   0.7295   0.7307   0.9019   0.9421   0.9448   1.0776   1.1171
     1.2802   1.3157   1.3186   1.3973   1.4588   1.4704   1.4776   1.5549
     1.5704   1.5752   1.6275   1.6534   1.7076   1.7131   1.7198   1.8539
     1.9364   1.9651   2.0556   2.0700   2.0901   2.1388   2.1608   2.2018
     2.2405   2.2564   2.3286   2.3803   2.3833   2.4503   2.5067   2.5134
     2.6006   2.6017   2.6882   2.7009   2.7262   2.7646   2.9873   2.9887
     3.0465   3.0927   3.0959   3.2249   3.2271   3.9497   4.2644   5.8071
     5.8109   6.1308   6.5906   6.5972   7.3686   7.8286   8.0086   8.0112
     9.5297   9.5629   9.8267   9.8495  10.4390  10.7611  10.8725  10.8749
    11.6619  11.6658  11.9609  12.5317  12.5349  12.5459  13.5943  13.6093
    13.9540  13.9601  14.2596  14.2899

          k = 0.3333 0.1925 0.0000 ( 22135 PWs)   bands (ev):

   -86.0335 -86.0253 -86.0247 -86.0225 -86.0199 -86.0189 -85.8621 -85.8549
   -85.8520 -85.8166 -85.8097 -85.8082 -49.5521 -49.5448 -49.5366 -49.5305
   -49.5236 -49.4972 -49.4887 -49.4770 -49.4749 -49.4646 -49.4615 -49.4593
   -49.4506 -49.4496 -49.4464 -49.4459 -49.4310 -49.4188 -49.3778 -49.3549
   -49.3335 -49.3097 -49.3037 -49.3009 -49.2975 -49.2849 -49.2789 -49.2763
   -49.2701 -49.2582 -49.2543 -49.2526 -49.2371 -49.2312 -49.2301 -49.2248
   -12.6288 -10.7367  -8.9335  -8.9286  -5.2929  -5.2889  -3.5443  -1.9335
    -1.9304  -0.8476  -0.4520  -0.1094  -0.0099  -0.0040   0.2275   0.2726
     0.2853   0.2928   0.3074   0.3788   0.4589   0.4691   0.5152   0.6136
     0.6874   0.6964   0.8220   0.8268   0.8604   0.9650   0.9978   1.0070
     1.1200   1.1859   1.2430   1.2844   1.3160   1.3575   1.3928   1.4357
     1.4660   1.5424   1.6583   1.6680   1.6936   1.7911   1.7921   1.8019
     1.8424   1.8552   1.8687   1.9969   1.9994   2.0523   2.0780   2.2431
     2.2453   2.3241   2.3890   2.4431   2.4669   2.4916   2.5544   2.6515
     2.7031   2.7865   2.8501   2.8590   2.9323   2.9710   3.0019   3.0498
     3.0771   3.1055   3.1801   3.1986   3.4263   3.4821   4.1834   4.7221
     5.4471   6.3885   6.7998   6.9674   7.4376   7.9331   8.1998   8.2549
     8.4052   8.4478   9.1330  10.2956  10.6566  10.7354  10.9334  10.9693
    11.6004  11.7493  12.1688  12.7221  12.9542  13.1803  13.3998  13.4368
    13.5145  13.6575  14.0861  14.4752

          k = 0.3333-0.7698 0.0000 ( 22149 PWs)   bands (ev):

   -86.0307 -86.0265 -86.0241 -86.0233 -86.0208 -86.0196 -85.8603 -85.8556
   -85.8531 -85.8143 -85.8110 -85.8092 -49.5476 -49.5418 -49.5310 -49.5301
   -49.5233 -49.4965 -49.4929 -49.4926 -49.4719 -49.4659 -49.4614 -49.4555
   -49.4534 -49.4518 -49.4396 -49.4371 -49.4368 -49.4235 -49.3734 -49.3520
   -49.3289 -49.3226 -49.3068 -49.2910 -49.2900 -49.2839 -49.2792 -49.2771
   -49.2769 -49.2760 -49.2451 -49.2445 -49.2351 -49.2323 -49.2310 -49.2307
   -12.1507 -11.2044 -10.2755  -7.6908  -5.8441  -3.4935  -3.4248  -2.4448
    -1.3627  -0.4069  -0.2962  -0.1497  -0.0862  -0.0802  -0.0127   0.1221
     0.1299   0.1647   0.2205   0.2219   0.2330   0.3891   0.3903   0.4884
     0.5725   0.6274   0.6606   0.7260   0.7557   0.8538   0.9232   0.9951
     1.0705   1.0869   1.1470   1.2501   1.3337   1.3759   1.4376   1.4418
     1.4887   1.5249   1.5784   1.6951   1.7619   1.7983   1.8738   1.9257
     1.9806   1.9925   2.0203   2.0413   2.1559   2.1876   2.2084   2.2151
     2.3040   2.3369   2.4052   2.5021   2.5372   2.5408   2.6513   2.6565
     2.6876   2.7559   2.8644   2.9131   2.9269   2.9442   2.9840   3.0092
     3.0498   3.0873   3.1230   3.1333   3.2218   3.8171   4.4679   4.6368
     4.7744   4.9416   5.6913   6.0952   7.0579   7.1437   7.2370   8.3660
     9.0018   9.1963  10.2710  10.6014  10.8144  11.3017  11.3045  11.5954
    11.7313  12.0619  12.5735  12.7851  12.8006  13.1400  13.2489  13.3080
    13.8232  13.8798  13.9425  14.1969

          k = 0.3333-0.5774 0.0000 ( 22161 PWs)   bands (ev):

   -86.0276 -86.0270 -86.0268 -86.0214 -86.0211 -86.0211 -85.8593 -85.8553
   -85.8544 -85.8116 -85.8115 -85.8115 -49.5315 -49.5312 -49.5310 -49.5253
   -49.5250 -49.5248 -49.4918 -49.4916 -49.4914 -49.4594 -49.4590 -49.4589
   -49.4483 -49.4481 -49.4478 -49.4291 -49.4290 -49.4288 -49.3533 -49.3529
   -49.3509 -49.3074 -49.3073 -49.3072 -49.2837 -49.2834 -49.2831 -49.2813
   -49.2790 -49.2779 -49.2373 -49.2372 -49.2370 -49.2329 -49.2328 -49.2327
   -11.3626 -11.3618 -11.3596  -6.5078  -6.5077  -4.3302  -1.7300  -1.7276
    -1.7267  -0.3285  -0.3279  -0.3266  -0.0487  -0.0479  -0.0469  -0.0127
    -0.0119  -0.0112   0.1654   0.1668   0.1679   0.3231   0.3251   0.3259
     0.4804   0.4830   0.4840   0.6217   0.6282   0.6358   0.8109   0.8165
     0.8196   1.2090   1.2119   1.2131   1.4117   1.4122   1.4171   1.5116
     1.5131   1.5151   1.6315   1.6355   1.6365   2.0051   2.0082   2.0098
     2.0668   2.0707   2.0724   2.3762   2.3775   2.3801   2.4468   2.4469
     2.4480   2.6380   2.6400   2.6407   2.6945   2.6950   2.6964   2.7524
     2.7537   2.7546   2.8436   2.8452   2.8495   2.8923   2.8934   2.8941
     3.0953   3.0962   3.0970   3.1385   3.1397   3.1410   3.9247   3.9273
     3.9293   5.7298   5.7310   5.7343   5.9684   5.9686   8.0691   8.0773
     8.0782  10.5160  10.5225  10.5233  12.1587  12.1602  12.1640  12.3437
    12.3439  12.3446  12.5657  12.5676  12.5685  12.9701  12.9920  12.9939
    13.6951  13.7336  13.7350  13.9924

          k = 0.3333-0.3849 0.0000 ( 22149 PWs)   bands (ev):

   -86.0307 -86.0265 -86.0240 -86.0233 -86.0208 -86.0196 -85.8603 -85.8556
   -85.8530 -85.8143 -85.8110 -85.8092 -49.5479 -49.5418 -49.5311 -49.5300
   -49.5232 -49.4960 -49.4933 -49.4920 -49.4720 -49.4662 -49.4613 -49.4555
   -49.4535 -49.4519 -49.4398 -49.4369 -49.4368 -49.4233 -49.3735 -49.3520
   -49.3288 -49.3224 -49.3069 -49.2910 -49.2899 -49.2839 -49.2793 -49.2772
   -49.2771 -49.2761 -49.2454 -49.2444 -49.2352 -49.2323 -49.2309 -49.2304
   -12.1507 -11.2044 -10.2755  -7.6908  -5.8441  -3.4935  -3.4248  -2.4448
    -1.3627  -0.4070  -0.2964  -0.1498  -0.0856  -0.0806  -0.0123   0.1221
     0.1301   0.1643   0.2193   0.2223   0.2323   0.3883   0.3936   0.4905
     0.5740   0.6261   0.6597   0.7253   0.7538   0.8527   0.9222   0.9950
     1.0717   1.0903   1.1465   1.2524   1.3342   1.3767   1.4378   1.4397
     1.4811   1.5230   1.5766   1.6979   1.7604   1.8033   1.8750   1.9224
     1.9834   1.9916   2.0236   2.0400   2.1559   2.1867   2.2054   2.2176
     2.3053   2.3387   2.4036   2.5048   2.5375   2.5417   2.6516   2.6568
     2.6847   2.7544   2.8634   2.9124   2.9256   2.9444   2.9845   3.0093
     3.0510   3.0867   3.1236   3.1357   3.2209   3.8172   4.4679   4.6371
     4.7719   4.9421   5.6881   6.0950   7.0604   7.1480   7.2359   8.3663
     9.0006   9.1964  10.2712  10.6022  10.8141  11.3008  11.3042  11.5952
    11.7319  12.0679  12.5735  12.7848  12.8007  13.1399  13.2348  13.3087
    13.8234  13.8783  13.9421  14.1966

          k =-0.5000 0.2887 0.0000 ( 22116 PWs)   bands (ev):

   -86.0293 -86.0288 -86.0230 -86.0223 -86.0222 -86.0192 -85.8600 -85.8564
   -85.8526 -85.8130 -85.8130 -85.8085 -49.5572 -49.5495 -49.5285 -49.5280
   -49.5025 -49.5023 -49.4895 -49.4836 -49.4835 -49.4680 -49.4569 -49.4552
   -49.4549 -49.4456 -49.4453 -49.4365 -49.4331 -49.4329 -49.3822 -49.3378
   -49.3329 -49.3295 -49.2907 -49.2864 -49.2861 -49.2860 -49.2837 -49.2830
   -49.2795 -49.2769 -49.2453 -49.2390 -49.2390 -49.2340 -49.2339 -49.2303
   -11.8347 -11.8323  -9.0765  -9.0706  -4.4645  -4.4610  -2.7995  -2.7940
    -1.3808  -1.3773  -0.2630  -0.1711  -0.1059   0.0626   0.0718   0.1324
     0.1912   0.1935   0.2779   0.4145   0.4156   0.5606   0.5824   0.5835
     0.6205   0.6218   0.7219   0.7226   0.8522   0.8542   0.9984   0.9993
     1.1070   1.1236   1.1280   1.1744   1.1958   1.1996   1.3695   1.3743
     1.4018   1.4311   1.4336   1.4748   1.4810   1.7175   1.7186   1.7868
     1.7882   1.9567   1.9955   2.0319   2.0349   2.2337   2.2363   2.2969
     2.3473   2.3479   2.5768   2.6163   2.6168   2.7049   2.7086   2.7419
     2.8165   2.8177   2.9738   2.9794   2.9813   3.0121   3.1098   3.1621
     3.1644   3.1947   3.3090   3.3388   3.3560   3.4084   3.6498   3.6514
     5.2606   5.2611   6.1888   6.9955   7.5346   7.5399   7.5439   7.7327
     8.6972   8.7124   9.8037   9.8132  10.1779  10.7595  11.5115  11.7271
    11.7288  12.0235  12.0251  12.7043  12.9693  12.9773  13.2549  13.2593
    13.6571  13.6605  13.8394  13.8441

          k =-0.5000 0.4811 0.0000 ( 22149 PWs)   bands (ev):

   -86.0307 -86.0265 -86.0240 -86.0233 -86.0208 -86.0196 -85.8603 -85.8556
   -85.8530 -85.8143 -85.8110 -85.8092 -49.5479 -49.5417 -49.5311 -49.5301
   -49.5232 -49.4959 -49.4933 -49.4920 -49.4720 -49.4661 -49.4612 -49.4555
   -49.4535 -49.4519 -49.4399 -49.4369 -49.4368 -49.4234 -49.3735 -49.3520
   -49.3288 -49.3225 -49.3070 -49.2910 -49.2900 -49.2839 -49.2793 -49.2771
   -49.2770 -49.2760 -49.2455 -49.2443 -49.2352 -49.2324 -49.2309 -49.2305
   -12.1507 -11.2044 -10.2755  -7.6908  -5.8441  -3.4935  -3.4248  -2.4448
    -1.3627  -0.4070  -0.2963  -0.1499  -0.0857  -0.0815  -0.0121   0.1227
     0.1301   0.1644   0.2186   0.2219   0.2324   0.3882   0.3947   0.4905
     0.5745   0.6261   0.6601   0.7245   0.7530   0.8534   0.9225   0.9951
     1.0723   1.0912   1.1476   1.2517   1.3336   1.3763   1.4358   1.4389
     1.4811   1.5244   1.5762   1.6997   1.7608   1.8017   1.8742   1.9220
     1.9849   1.9907   2.0235   2.0399   2.1556   2.1872   2.2047   2.2170
     2.3057   2.3393   2.4039   2.5050   2.5377   2.5416   2.6515   2.6568
     2.6848   2.7536   2.8639   2.9128   2.9256   2.9440   2.9828   3.0095
     3.0520   3.0871   3.1227   3.1368   3.2224   3.8173   4.4673   4.6371
     4.7714   4.9420   5.6882   6.0951   7.0598   7.1479   7.2360   8.3665
     9.0004   9.1957  10.2712  10.6022  10.8155  11.3006  11.3044  11.5953
    11.7318  12.0680  12.5736  12.7850  12.7998  13.1411  13.2349  13.3085
    13.8233  13.8784  13.9435  14.1962

          k =-0.5000 0.6736 0.0000 ( 22149 PWs)   bands (ev):

   -86.0307 -86.0264 -86.0241 -86.0233 -86.0208 -86.0196 -85.8603 -85.8556
   -85.8530 -85.8143 -85.8110 -85.8092 -49.5475 -49.5418 -49.5311 -49.5302
   -49.5235 -49.4960 -49.4929 -49.4927 -49.4719 -49.4657 -49.4612 -49.4556
   -49.4535 -49.4519 -49.4399 -49.4370 -49.4368 -49.4234 -49.3734 -49.3520
   -49.3289 -49.3225 -49.3068 -49.2911 -49.2899 -49.2839 -49.2793 -49.2771
   -49.2769 -49.2760 -49.2451 -49.2446 -49.2351 -49.2323 -49.2310 -49.2306
   -12.1507 -11.2044 -10.2755  -7.6908  -5.8441  -3.4935  -3.4249  -2.4448
    -1.3626  -0.4069  -0.2963  -0.1498  -0.0864  -0.0815  -0.0122   0.1237
     0.1299   0.1644   0.2187   0.2208   0.2334   0.3901   0.3937   0.4886
     0.5750   0.6269   0.6588   0.7264   0.7532   0.8535   0.9230   0.9952
     1.0719   1.0885   1.1506   1.2477   1.3321   1.3754   1.4344   1.4369
     1.4841   1.5286   1.5780   1.6994   1.7645   1.7999   1.8749   1.9225
     1.9789   1.9953   2.0212   2.0426   2.1538   2.1862   2.2062   2.2144
     2.3017   2.3393   2.4063   2.5043   2.5380   2.5417   2.6538   2.6571
     2.6847   2.7535   2.8626   2.9131   2.9270   2.9446   2.9829   3.0115
     3.0508   3.0874   3.1227   3.1353   3.2221   3.8174   4.4662   4.6368
     4.7716   4.9415   5.6914   6.0971   7.0596   7.1435   7.2359   8.3655
     9.0016   9.1955  10.2714  10.6014  10.8152  11.3018  11.3045  11.5954
    11.7313  12.0616  12.5734  12.7851  12.8016  13.1393  13.2490  13.3083
    13.8230  13.8802  13.9448  14.1964

          k =-0.5000-0.2887 0.0000 ( 22116 PWs)   bands (ev):

   -86.0293 -86.0288 -86.0231 -86.0224 -86.0222 -86.0191 -85.8600 -85.8563
   -85.8526 -85.8130 -85.8130 -85.8085 -49.5568 -49.5495 -49.5284 -49.5281
   -49.5029 -49.5028 -49.4905 -49.4832 -49.4831 -49.4673 -49.4571 -49.4551
   -49.4550 -49.4455 -49.4450 -49.4364 -49.4334 -49.4330 -49.3821 -49.3379
   -49.3326 -49.3300 -49.2908 -49.2861 -49.2858 -49.2858 -49.2836 -49.2833
   -49.2795 -49.2769 -49.2450 -49.2392 -49.2392 -49.2340 -49.2339 -49.2305
   -11.8342 -11.8329  -9.0760  -9.0710  -4.4647  -4.4608  -2.7985  -2.7950
    -1.3798  -1.3782  -0.2629  -0.1718  -0.1064   0.0650   0.0693   0.1331
     0.1926   0.1931   0.2798   0.4119   0.4134   0.5623   0.5834   0.5853
     0.6225   0.6230   0.7193   0.7196   0.8516   0.8545   0.9989   0.9993
     1.1050   1.1272   1.1301   1.1687   1.1980   1.2001   1.3675   1.3712
     1.4009   1.4305   1.4328   1.4797   1.4813   1.7178   1.7212   1.7889
     1.7911   1.9590   2.0043   2.0243   2.0274   2.2328   2.2356   2.2898
     2.3458   2.3466   2.5758   2.6189   2.6195   2.7086   2.7107   2.7469
     2.8148   2.8156   2.9734   2.9807   2.9813   3.0106   3.1114   3.1623
     3.1632   3.1928   3.3085   3.3373   3.3569   3.4091   3.6499   3.6507
     5.2616   5.2620   6.1869   7.0102   7.5238   7.5400   7.5418   7.7285
     8.6989   8.7107   9.8042   9.8128  10.1755  10.7624  11.5041  11.7274
    11.7284  12.0238  12.0253  12.7220  12.9721  12.9750  13.2563  13.2581
    13.6573  13.6595  13.8393  13.8436

     the Fermi energy is     6.0846 ev

!    total energy              =   -3595.83473527 Ry
     estimated scf accuracy    <          4.1E-09 Ry
     smearing contrib. (-TS)   =      -0.00084529 Ry
     internal energy E=F+TS    =   -3595.83388998 Ry

     The total energy is F=E-TS. E is the sum of the following terms:
     one-electron contribution =  -24421.32323389 Ry
     hartree contribution      =   12240.75018222 Ry
     xc contribution           =    -362.17264066 Ry
     ewald contribution        =    8996.74332117 Ry
     DFT-D3 Dispersion         =      -0.50438936 Ry
     electric field correction =       0.00000133 Ry
     one-center paw contrib.   =     -49.32713078 Ry

     convergence has been achieved in   5 iterations

     negative rho (up, down):  1.218E-04 0.000E+00

     Forces acting on atoms (cartesian axes, Ry/au):

     atom    1 type  1   force =     0.00021665    0.00058166    0.00216071
     atom    2 type  1   force =     0.00018444    0.00044235    0.00212422
     atom    3 type  1   force =    -0.00021108   -0.00009340   -0.00015114
     atom    4 type  1   force =     0.00002145   -0.00035005   -0.00088641
     atom    5 type  1   force =     0.00009176    0.00056515    0.00212759
     atom    6 type  1   force =    -0.00033138   -0.00003102   -0.00033632
     atom    7 type  1   force =     0.00052754   -0.00042960    0.00061467
     atom    8 type  1   force =    -0.00001760   -0.00032875   -0.00089499
     atom    9 type  1   force =    -0.00051512    0.00022695    0.00077661
     atom   10 type  1   force =    -0.00019296   -0.00001032   -0.00021806
     atom   11 type  1   force =     0.00000601   -0.00034894   -0.00088434
     atom   12 type  1   force =     0.00022021   -0.00015440    0.00058221
     atom   13 type  2   force =     0.00057216   -0.00033251   -0.00057164
     atom   14 type  2   force =     0.00027840   -0.00059114   -0.00082668
     atom   15 type  2   force =     0.00034668   -0.00021295   -0.00024259
     atom   16 type  2   force =     0.00064677    0.00003723   -0.00078860
     atom   17 type  2   force =    -0.00073064   -0.00023132   -0.00093922
     atom   18 type  2   force =    -0.00012015    0.00006222   -0.00016830
     atom   19 type  2   force =    -0.00017321    0.00073242   -0.00075473
     atom   20 type  2   force =    -0.00081992    0.00046645   -0.00072300

     Total force =     0.002500     Total SCF correction =     0.000317
     SCF correction compared to forces is large: reduce conv_thr to get better values
     Energy error            =      7.4E-06 Ry
     Gradient error          =      9.4E-04 Ry/Bohr

     bfgs converged in   2 scf cycles and   1 bfgs steps
     (criteria: energy <  1.0E-05 Ry, force <  1.0E-03 Ry/Bohr)

     End of BFGS Geometry Optimization

     Final energy             =   -3595.8347352692 Ry

     File ./tmp/V2_top_hcp_relax.bfgs deleted, as requested
Begin final coordinates

ATOMIC_POSITIONS (angstrom)
Ag               1.6639287800        2.8744764000        2.8500754000    0   0   0
Ag               4.1565601600        4.3135978000        2.8500754000    0   0   0
Ag               0.8401228332        1.4416713947        5.1893574033
Ag               2.4948753000        1.4505407700        0.5000000000    0   0   0
Ag               4.1565601600        1.4353550000        2.8500754000    0   0   0
Ag               3.3322062415        2.8817974096        5.1914547283
Ag               2.4961119307        1.4495383046        7.5442822428
Ag               4.9875066800        2.8896621700        0.5000000000    0   0   0
Ag               4.9936430461        2.8857735182        7.5372350341
Ag               3.3329034679        0.0041119397        5.1906493231
Ag               4.9875066800        0.0114193700        0.5000000000    0   0   0
Ag               4.9903308593        0.0095423074        7.5459161339
C                3.3257524300        3.8490764300       10.8528521945    0   0   1
C                4.5720681200        4.5686371300       10.8543434851    0   0   1
C                4.5720681200        6.0077585300       10.8505856925    0   0   1
C                5.8183838100        6.7273192300       10.8541815228    0   0   1
C                5.8183838100        3.8490764300       10.8545856137    0   0   1
C                7.0646995000        4.5686371300       10.8503794804    0   0   1
C                7.0646995000        6.0077585300       10.8541700334    0   0   1
C                8.3110151900        6.7273192300       10.8532868805    0   0   1
End final coordinates



     Writing all to output data dir ./tmp/V2_top_hcp_relax.save/ :
     XML data file, charge density, pseudopotentials, collected wavefunctions
 
     init_run     :      3.64s CPU      3.79s WALL (       1 calls)
     electrons    :    269.25s CPU    295.12s WALL (       2 calls)
     update_pot   :      1.77s CPU      1.24s WALL (       1 calls)
     forces       :      1.33s CPU      1.67s WALL (       2 calls)
     force_dftd3  :      0.06s CPU      0.06s WALL (       2 calls)

     Called by init_run:
     wfcinit      :      1.06s CPU      1.61s WALL (       1 calls)
     potinit      :      1.62s CPU      1.24s WALL (       1 calls)
     hinit0       :      0.64s CPU      0.52s WALL (       1 calls)

     Called by electrons:
     c_bands      :    148.07s CPU    183.28s WALL (      55 calls)
     sum_band     :     30.23s CPU     44.45s WALL (      55 calls)
     v_of_rho     :     13.85s CPU     11.59s WALL (      55 calls)
     newd         :      0.78s CPU      0.80s WALL (      55 calls)
                                        0.80s GPU  (      55 calls)
     PAW_pot      :     63.82s CPU     40.44s WALL (      56 calls)
     mix_rho      :      9.65s CPU     10.15s WALL (      55 calls)
     energy_dftd3 :      0.01s CPU      0.01s WALL (       2 calls)

     Called by c_bands:
     init_us_2    :      2.14s CPU      2.66s WALL (    2280 calls)
     cegterg      :    130.12s CPU    130.73s WALL (    1100 calls)

     Called by *egterg:
     cdiaghg      :     23.33s CPU     23.86s WALL (    5815 calls)
                                       23.82s GPU  (    5815 calls)
     h_psi        :     83.68s CPU     84.18s WALL (    5895 calls)
                                       83.95s GPU  (    5895 calls)
     s_psi        :      2.38s CPU      2.33s WALL (    5895 calls)
     g_psi        :      0.03s CPU      0.65s WALL (    4775 calls)
                                        0.63s GPU  (    4775 calls)

     Called by h_psi:
     h_psi:calbec :      0.22s CPU      3.60s WALL (    5895 calls)
                                        3.57s GPU  (    5895 calls)
     vloc_psi     :     73.35s CPU     73.68s WALL (    5895 calls)
                                       73.65s GPU  (    5895 calls)
     add_vuspsi   :      2.47s CPU      5.96s WALL (    5895 calls)
                                        5.92s GPU  (    5895 calls)

     General routines
     calbec       :      0.27s CPU      0.27s WALL (    7175 calls)
     fft          :      2.54s CPU      2.77s WALL (     736 calls)
                                        0.22s GPU  (     681 calls)
     ffts         :      0.54s CPU      0.96s WALL (    5929 calls)
                                        0.46s GPU  (    5874 calls)
     fftw         :      0.83s CPU     62.54s WALL (   63858 calls)
                                       62.18s GPU  (   63858 calls)
     interpolate  :      3.32s CPU      4.06s WALL (      55 calls)
     davcio       :      3.30s CPU     49.84s WALL (    4292 calls)
 
     Parallel routines
 
     PWSCF        :   4m38.78s CPU   5m 4.96s WALL

 
   This run was terminated on:  19: 8:28  26Sep2026            

=------------------------------------------------------------------------------=
   JOB DONE.
=------------------------------------------------------------------------------=
