
     Program PWSCF v.7.4.1 starts on  5Oct2026 at  2:47:23 

     This program is part of the open-source Quantum ESPRESSO suite
     for quantum simulation of materials; please cite
         "P. Giannozzi et al., J. Phys.:Condens. Matter 21 395502 (2009);
         "P. Giannozzi et al., J. Phys.:Condens. Matter 29 465901 (2017);
         "P. Giannozzi et al., J. Chem. Phys. 152 154105 (2020);
          URL http://www.quantum-espresso.org", 
     in publications or presentations arising from this work. More details at
     http://www.quantum-espresso.org/quote

     Parallel version (MPI & OpenMP), running on       1 processor cores
     Number of MPI processes:                 1
     Threads/MPI process:                     1

     MPI processes distributed on     1 nodes
     9814 MiB available memory on the printing compute node when the environment starts
 
     Reading input from pw.in

     Current dimensions of program PWSCF are:
     Max number of different atomic species (ntypx) = 10
     Max number of k-points (npk) =  40000
     Max angular momentum in pseudopotentials (lmaxx) =  4
     Presently no symmetry can be used with electric field

     file C.pbe-n-kjpaw_psl.1.0.0.UPF: wavefunction(s)  2S 2P renormalized
 
     Subspace diagonalization in iterative solution of the eigenvalue problem:
     a serial algorithm will be used

 
     G-vector sticks info
     --------------------
     sticks:   dense  smooth     PW     G-vecs:    dense   smooth      PW
     Sum        3193    1273    367              1013709   256635   40609
 
     Using Slab Decomposition
 


     bravais-lattice index     =            0
     lattice parameter (alat)  =       9.4208  a.u.
     unit-cell volume          =    5061.5040 (a.u.)^3
     number of atoms/cell      =           36
     number of atomic types    =            2
     number of electrons       =       324.00
     number of Kohn-Sham states=          194
     kinetic-energy cutoff     =      52.0000  Ry
     charge density cutoff     =     520.0000  Ry
     scf convergence threshold =      1.0E-08
     mixing beta               =       0.3000
     number of iterations used =            8  local-TF  mixing
     Exchange-correlation= SLA  PW   PBX  PBC
                           (   1   4   3   4   0   0   0)

     GPU acceleration is ACTIVE.  1 visible GPUs per MPI rank


     celldm(1)=   9.420781  celldm(2)=   0.000000  celldm(3)=   0.000000
     celldm(4)=   0.000000  celldm(5)=   0.000000  celldm(6)=   0.000000

     crystal axes: (cart. coord. in units of alat)
               a(1) = (   1.000000  -0.000000   0.000000 )  
               a(2) = (   0.500000   0.866025   0.000000 )  
               a(3) = (   0.000000   0.000000   6.990177 )  

     reciprocal axes: (cart. coord. in units 2 pi/alat)
               b(1) = (  1.000000 -0.577350  0.000000 )  
               b(2) = (  0.000000  1.154701 -0.000000 )  
               b(3) = ( -0.000000  0.000000  0.143058 )  


     PseudoPot. # 1 for Ag read from file:
     /home/kgy/work/pseudo/Ag_ONCV_PBE-1.0.oncvpsp.upf
     MD5 check sum: 94f47bd0669c641108e45594df92fabc
     Pseudo is Norm-conserving, Zval = 19.0
     Generated using ONCVPSP code by D. R. Hamann
     Using radial grid of 1398 points,  6 beta functions with: 
                l(1) =   0
                l(2) =   0
                l(3) =   1
                l(4) =   1
                l(5) =   2
                l(6) =   2

     PseudoPot. # 2 for C  read from file:
     /home/kgy/work/pseudo/C.pbe-n-kjpaw_psl.1.0.0.UPF
     MD5 check sum: 5d2aebdfa2cae82b50a7e79e9516da0f
     Pseudo is Projector augmented-wave + core cor, Zval =  4.0
     Generated using "atomic" code by A. Dal Corso  v.5.1
     Shape of augmentation charge: PSQ
     Using radial grid of 1073 points,  4 beta functions with: 
                l(1) =   0
                l(2) =   0
                l(3) =   1
                l(4) =   1
     Q(r) pseudized with 0 coefficients 


     atomic species   valence    mass     pseudopotential
     Ag               19.00   107.86820     Ag( 1.00)
     C                 4.00    12.01100     C ( 1.00)

     No symmetry found



   Cartesian axes

     site n.     atom                  positions (alat units)
         1        Ag     tau(   1) = (   0.3337695   0.5765948   0.5717001  )
         2        Ag     tau(   2) = (   0.8337695   0.8652699   0.5717001  )
         3        Ag     tau(   3) = (   0.1658131   0.2881628   1.0404978  )
         4        Ag     tau(   4) = (   0.5004501   0.2909658   0.1002956  )
         5        Ag     tau(   5) = (   0.8337695   0.2879196   0.5717001  )
         6        Ag     tau(   6) = (   0.6657286   0.5768865   1.0406295  )
         7        Ag     tau(   7) = (   0.5013979   0.2880440   1.5121792  )
         8        Ag     tau(   8) = (   1.0004501   0.5796409   0.1002956  )
         9        Ag     tau(   9) = (   1.0014376   0.5767316   1.5111335  )
        10        Ag     tau(  10) = (   0.6658079  -0.0004107   1.0405249  )
        11        Ag     tau(  11) = (   1.0004501   0.0022906   0.1002956  )
        12        Ag     tau(  12) = (   1.0014053  -0.0005819   1.5121715  )
        13        C      tau(  13) = (   0.5004501   0.2909658   3.5180915  )
        14        C      tau(  14) = (   0.7504501   0.4353033   3.5188583  )
        15        C      tau(  15) = (   0.7504501   0.7239785   3.5187516  )
        16        C      tau(  16) = (   1.0004501   0.8683160   3.5188572  )
        17        C      tau(  17) = (   1.0004501   0.2909658   3.5187506  )
        18        C      tau(  18) = (   1.2504501   0.4353033   3.5188571  )
        19        C      tau(  19) = (   1.2504501   0.7239785   3.5187518  )
        20        C      tau(  20) = (   1.5004501   0.8683160   3.5182400  )
        21        C      tau(  21) = (   0.7504501   0.4353033   4.2029261  )
        22        C      tau(  22) = (   1.0004501   0.5796409   4.2028677  )
        23        C      tau(  23) = (   1.0004501   0.8683160   4.2029260  )
        24        C      tau(  24) = (   1.2504501   1.0126536   4.2028556  )
        25        C      tau(  25) = (   1.2504501   0.4353033   4.2029260  )
        26        C      tau(  26) = (   1.5004501   0.5796409   4.2028556  )
        27        C      tau(  27) = (   1.5004501   0.8683160   4.2029207  )
        28        C      tau(  28) = (   1.7504501   1.0126536   4.2028556  )
        29        C      tau(  29) = (   0.5004501   0.2909658   4.8839678  )
        30        C      tau(  30) = (   0.7504501   0.4353033   4.8838407  )
        31        C      tau(  31) = (   0.7504501   0.7239785   4.8839693  )
        32        C      tau(  32) = (   1.0004501   0.8683160   4.8838407  )
        33        C      tau(  33) = (   1.0004501   0.2909658   4.8839693  )
        34        C      tau(  34) = (   1.2504501   0.4353033   4.8838407  )
        35        C      tau(  35) = (   1.2504501   0.7239785   4.8839693  )
        36        C      tau(  36) = (   1.5004501   0.8683160   4.8838427  )

     --------------------------------------------
     DFT-D3 Dispersion Correction (no 3-body):
     --------------------------------------------
       Reference C6 values for interpolation: 

         atom   Coordination number   C6
         C          0.000            98.23
         C          0.987            86.49
         C          1.998            58.72
         C          2.999            51.56
         C          3.984            36.41
         Ag         0.000           853.49
         Ag         0.968           537.23

       Values used:

         atom   Coordination number  R0_AB[au]  C6      C8
         Ag         9.095            3.147    537.23  47741.54
         Ag         9.095            3.147    537.23  47741.54
         Ag         9.097            3.147    537.23  47741.54
         Ag         6.766            3.147    537.23  47741.54
         Ag         9.095            3.147    537.23  47741.54
         Ag         9.096            3.147    537.23  47741.54
         Ag         6.764            3.147    537.23  47741.54
         Ag         6.766            3.147    537.23  47741.54
         Ag         6.778            3.147    537.23  47741.54
         Ag         9.097            3.147    537.23  47741.54
         Ag         6.766            3.147    537.23  47741.54
         Ag         6.764            3.147    537.23  47741.54
         C          3.274            2.750     49.03   1418.01
         C          3.274            2.750     49.03   1417.91
         C          3.274            2.750     49.03   1417.99
         C          3.274            2.750     49.03   1417.91
         C          3.274            2.750     49.03   1417.99
         C          3.274            2.750     49.03   1417.91
         C          3.274            2.750     49.03   1417.99
         C          3.274            2.750     49.03   1417.93
         C          3.280            2.750     48.93   1415.01
         C          3.280            2.750     48.93   1415.18
         C          3.280            2.750     48.93   1415.01
         C          3.280            2.750     48.93   1415.18
         C          3.280            2.750     48.93   1415.01
         C          3.280            2.750     48.93   1415.18
         C          3.280            2.750     48.93   1415.01
         C          3.280            2.750     48.93   1415.18
         C          3.274            2.750     49.03   1417.95
         C          3.274            2.750     49.02   1417.87
         C          3.274            2.750     49.03   1417.96
         C          3.274            2.750     49.02   1417.87
         C          3.274            2.750     49.03   1417.96
         C          3.274            2.750     49.02   1417.87
         C          3.274            2.750     49.03   1417.96
         C          3.274            2.750     49.02   1417.86

         Molecular C6 ( Ry / a.u.^6 ) =    198712.15


     number of k points=    41  Marzari-Vanderbilt smearing, width (Ry)=  0.0100
                       cart. coord. in units 2pi/alat
        k(    1) = (   0.0000000   0.0000000   0.0000000), wk =   0.0246914
        k(    2) = (   0.0000000   0.1283001   0.0000000), wk =   0.0493827
        k(    3) = (   0.0000000   0.2566001   0.0000000), wk =   0.0493827
        k(    4) = (   0.0000000   0.3849002   0.0000000), wk =   0.0493827
        k(    5) = (   0.0000000   0.5132002   0.0000000), wk =   0.0493827
        k(    6) = (   0.1111111  -0.0641500   0.0000000), wk =   0.0493827
        k(    7) = (   0.1111111   0.0641500   0.0000000), wk =   0.0493827
        k(    8) = (   0.1111111   0.1924501   0.0000000), wk =   0.0493827
        k(    9) = (   0.1111111   0.3207501   0.0000000), wk =   0.0493827
        k(   10) = (   0.1111111   0.4490502   0.0000000), wk =   0.0493827
        k(   11) = (   0.1111111  -0.5773503   0.0000000), wk =   0.0493827
        k(   12) = (   0.1111111  -0.4490502   0.0000000), wk =   0.0493827
        k(   13) = (   0.1111111  -0.3207501   0.0000000), wk =   0.0493827
        k(   14) = (   0.1111111  -0.1924501   0.0000000), wk =   0.0493827
        k(   15) = (   0.2222222  -0.1283001   0.0000000), wk =   0.0493827
        k(   16) = (   0.2222222   0.0000000   0.0000000), wk =   0.0493827
        k(   17) = (   0.2222222   0.1283001   0.0000000), wk =   0.0493827
        k(   18) = (   0.2222222   0.2566001   0.0000000), wk =   0.0493827
        k(   19) = (   0.2222222   0.3849002   0.0000000), wk =   0.0493827
        k(   20) = (   0.2222222  -0.6415003   0.0000000), wk =   0.0493827
        k(   21) = (   0.2222222  -0.5132002   0.0000000), wk =   0.0493827
        k(   22) = (   0.2222222  -0.3849002   0.0000000), wk =   0.0493827
        k(   23) = (   0.2222222  -0.2566001   0.0000000), wk =   0.0493827
        k(   24) = (   0.3333333  -0.1924501   0.0000000), wk =   0.0493827
        k(   25) = (   0.3333333  -0.0641500   0.0000000), wk =   0.0493827
        k(   26) = (   0.3333333   0.0641500   0.0000000), wk =   0.0493827
        k(   27) = (   0.3333333   0.1924501   0.0000000), wk =   0.0493827
        k(   28) = (   0.3333333   0.3207501   0.0000000), wk =   0.0493827
        k(   29) = (   0.3333333  -0.7056503   0.0000000), wk =   0.0493827
        k(   30) = (   0.3333333  -0.5773503   0.0000000), wk =   0.0493827
        k(   31) = (   0.3333333  -0.4490502   0.0000000), wk =   0.0493827
        k(   32) = (   0.3333333  -0.3207501   0.0000000), wk =   0.0493827
        k(   33) = (   0.4444444  -0.2566001   0.0000000), wk =   0.0493827
        k(   34) = (   0.4444444  -0.1283001   0.0000000), wk =   0.0493827
        k(   35) = (   0.4444444   0.0000000   0.0000000), wk =   0.0493827
        k(   36) = (   0.4444444   0.1283001   0.0000000), wk =   0.0493827
        k(   37) = (   0.4444444   0.2566001   0.0000000), wk =   0.0493827
        k(   38) = (   0.4444444  -0.7698004   0.0000000), wk =   0.0493827
        k(   39) = (   0.4444444  -0.6415003   0.0000000), wk =   0.0493827
        k(   40) = (   0.4444444  -0.5132002   0.0000000), wk =   0.0493827
        k(   41) = (   0.4444444  -0.3849002   0.0000000), wk =   0.0493827

     Dense  grid:  1013709 G-vectors     FFT dimensions: (  72,  72, 480)

     Smooth grid:   256635 G-vectors     FFT dimensions: (  45,  45, 320)

     Estimated max dynamical RAM per process >       2.73 GB

     Check: negative core charge=   -0.000002

     Initial potential from superposition of free atoms

     starting charge     323.9955, renormalised to     324.0000

     negative rho (up, down):  4.632E-05 0.000E+00
 
     Adding external electric field

     Computed dipole along edir(3) : 
        Dipole               -0.0107 Ry au,         -0.0271 Debye
        Dipole field         -0.0000 Ry au, 
 
        Potential amp.        0.0034 Ry
        Total length         63.9630 bohr
 
     Starting wfcs are  216 randomized atomic wfcs
     Checking if some PAW data can be deallocated... 

     total cpu time spent up to now is       50.3 secs

     Self-consistent Calculation

     iteration #  1     ecut=    52.00 Ry     beta= 0.30
     Davidson diagonalization with overlap
     ethr =  1.00E-02,  avg # of iterations =  7.9

     negative rho (up, down):  3.234E-08 0.000E+00
 
     Adding external electric field

     Computed dipole along edir(3) : 
        Dipole               -0.0298 Ry au,         -0.0759 Debye
        Dipole field         -0.0001 Ry au, 
 
        Potential amp.        0.0095 Ry
        Total length         63.9630 bohr
 

     total cpu time spent up to now is      226.4 secs

     total energy              =   -3891.66974449 Ry
     estimated scf accuracy    <       6.67237465 Ry

     iteration #  2     ecut=    52.00 Ry     beta= 0.30
     Davidson diagonalization with overlap
     ethr =  2.06E-03,  avg # of iterations =  1.6
 
     Adding external electric field

     Computed dipole along edir(3) : 
        Dipole               -0.0562 Ry au,         -0.1429 Debye
        Dipole field         -0.0001 Ry au, 
 
        Potential amp.        0.0179 Ry
        Total length         63.9630 bohr
 

     total cpu time spent up to now is      336.4 secs

     total energy              =   -3891.13598430 Ry
     estimated scf accuracy    <       2.75088741 Ry

     iteration #  3     ecut=    52.00 Ry     beta= 0.30
     Davidson diagonalization with overlap
     ethr =  8.49E-04,  avg # of iterations =  4.8
 
     Adding external electric field

     Computed dipole along edir(3) : 
        Dipole               -0.0761 Ry au,         -0.1933 Debye
        Dipole field         -0.0002 Ry au, 
 
        Potential amp.        0.0242 Ry
        Total length         63.9630 bohr
 

     total cpu time spent up to now is      468.0 secs

     total energy              =   -3891.01026886 Ry
     estimated scf accuracy    <       0.54704299 Ry

     iteration #  4     ecut=    52.00 Ry     beta= 0.30
     Davidson diagonalization with overlap
     ethr =  1.69E-04,  avg # of iterations = 12.7
 
     Adding external electric field

     Computed dipole along edir(3) : 
        Dipole               -0.0773 Ry au,         -0.1965 Debye
        Dipole field         -0.0002 Ry au, 
 
        Potential amp.        0.0246 Ry
        Total length         63.9630 bohr
 

     total cpu time spent up to now is      663.3 secs

     total energy              =   -3891.06315716 Ry
     estimated scf accuracy    <       0.10334183 Ry

     iteration #  5     ecut=    52.00 Ry     beta= 0.30
     Davidson diagonalization with overlap
     c_bands:  3 eigenvalues not converged
     ethr =  3.19E-05,  avg # of iterations =  3.8
 
     Adding external electric field

     Computed dipole along edir(3) : 
        Dipole               -0.0674 Ry au,         -0.1713 Debye
        Dipole field         -0.0002 Ry au, 
 
        Potential amp.        0.0214 Ry
        Total length         63.9630 bohr
 

     total cpu time spent up to now is      790.3 secs

     total energy              =   -3891.04302467 Ry
     estimated scf accuracy    <       0.08100079 Ry

     iteration #  6     ecut=    52.00 Ry     beta= 0.30
     Davidson diagonalization with overlap
     c_bands:  1 eigenvalues not converged
     c_bands:  2 eigenvalues not converged
     ethr =  2.50E-05,  avg # of iterations =  9.7
 
     Adding external electric field

     Computed dipole along edir(3) : 
        Dipole               -0.0552 Ry au,         -0.1403 Debye
        Dipole field         -0.0001 Ry au, 
 
        Potential amp.        0.0175 Ry
        Total length         63.9630 bohr
 

     total cpu time spent up to now is      954.4 secs

     total energy              =   -3891.04488480 Ry
     estimated scf accuracy    <       0.03230611 Ry

     iteration #  7     ecut=    52.00 Ry     beta= 0.30
     Davidson diagonalization with overlap
     c_bands:  1 eigenvalues not converged
     ethr =  9.97E-06,  avg # of iterations =  6.7
 
     Adding external electric field

     Computed dipole along edir(3) : 
        Dipole                0.0003 Ry au,          0.0007 Debye
        Dipole field          0.0000 Ry au, 
 
        Potential amp.       -0.0001 Ry
        Total length         63.9630 bohr
 

     total cpu time spent up to now is     1095.4 secs

     total energy              =   -3891.04088380 Ry
     estimated scf accuracy    <       0.02193899 Ry

     iteration #  8     ecut=    52.00 Ry     beta= 0.30
     Davidson diagonalization with overlap
     ethr =  6.77E-06,  avg # of iterations =  8.6
 
     Adding external electric field

     Computed dipole along edir(3) : 
        Dipole                0.0074 Ry au,          0.0187 Debye
        Dipole field          0.0000 Ry au, 
 
        Potential amp.       -0.0023 Ry
        Total length         63.9630 bohr
 

     total cpu time spent up to now is     1251.0 secs

     total energy              =   -3891.04136052 Ry
     estimated scf accuracy    <       0.05310102 Ry

     iteration #  9     ecut=    52.00 Ry     beta= 0.30
     Davidson diagonalization with overlap
     ethr =  6.77E-06,  avg # of iterations =  1.2

     negative rho (up, down):  3.561E-08 0.000E+00
 
     Adding external electric field

     Computed dipole along edir(3) : 
        Dipole                0.0581 Ry au,          0.1477 Debye
        Dipole field          0.0001 Ry au, 
 
        Potential amp.       -0.0185 Ry
        Total length         63.9630 bohr
 

     total cpu time spent up to now is     1358.5 secs

     total energy              =   -3891.04136012 Ry
     estimated scf accuracy    <       0.04941950 Ry

     iteration # 10     ecut=    52.00 Ry     beta= 0.30
     Davidson diagonalization with overlap
     ethr =  6.77E-06,  avg # of iterations =  6.3

     negative rho (up, down):  4.644E-03 0.000E+00
 
     Adding external electric field

     Computed dipole along edir(3) : 
        Dipole                0.0610 Ry au,          0.1550 Debye
        Dipole field          0.0002 Ry au, 
 
        Potential amp.       -0.0194 Ry
        Total length         63.9630 bohr
 

     total cpu time spent up to now is     1501.1 secs

     total energy              =   -3891.04123342 Ry
     estimated scf accuracy    <       0.04153429 Ry

     iteration # 11     ecut=    52.00 Ry     beta= 0.30
     Davidson diagonalization with overlap
     ethr =  6.77E-06,  avg # of iterations =  4.9

     negative rho (up, down):  2.255E-04 0.000E+00
 
     Adding external electric field

     Computed dipole along edir(3) : 
        Dipole                0.0323 Ry au,          0.0821 Debye
        Dipole field          0.0001 Ry au, 
 
        Potential amp.       -0.0103 Ry
        Total length         63.9630 bohr
 

     total cpu time spent up to now is     1634.7 secs

     total energy              =   -3891.04080226 Ry
     estimated scf accuracy    <       0.02273207 Ry

     iteration # 12     ecut=    52.00 Ry     beta= 0.30
     Davidson diagonalization with overlap
     ethr =  6.77E-06,  avg # of iterations =  7.2

     negative rho (up, down):  7.639E-04 0.000E+00
 
     Adding external electric field

     Computed dipole along edir(3) : 
        Dipole                0.0337 Ry au,          0.0856 Debye
        Dipole field          0.0001 Ry au, 
 
        Potential amp.       -0.0107 Ry
        Total length         63.9630 bohr
 

     total cpu time spent up to now is     1779.1 secs

     total energy              =   -3891.04099087 Ry
     estimated scf accuracy    <       0.00074911 Ry

     iteration # 13     ecut=    52.00 Ry     beta= 0.30
     Davidson diagonalization with overlap
     c_bands:  1 eigenvalues not converged
     c_bands:  2 eigenvalues not converged
     c_bands:  1 eigenvalues not converged
     ethr =  2.31E-07,  avg # of iterations =  7.1

     negative rho (up, down):  7.928E-04 0.000E+00
 
     Adding external electric field

     Computed dipole along edir(3) : 
        Dipole                0.0241 Ry au,          0.0614 Debye
        Dipole field          0.0001 Ry au, 
 
        Potential amp.       -0.0077 Ry
        Total length         63.9630 bohr
 

     total cpu time spent up to now is     1925.3 secs

     total energy              =   -3891.04096635 Ry
     estimated scf accuracy    <       0.00205879 Ry

     iteration # 14     ecut=    52.00 Ry     beta= 0.30
     Davidson diagonalization with overlap
     c_bands:  1 eigenvalues not converged
     ethr =  2.31E-07,  avg # of iterations =  5.6

     negative rho (up, down):  8.365E-04 0.000E+00
 
     Adding external electric field

     Computed dipole along edir(3) : 
        Dipole                0.0201 Ry au,          0.0510 Debye
        Dipole field          0.0000 Ry au, 
 
        Potential amp.       -0.0064 Ry
        Total length         63.9630 bohr
 

     total cpu time spent up to now is     2061.1 secs

     total energy              =   -3891.04099256 Ry
     estimated scf accuracy    <       0.00044477 Ry

     iteration # 15     ecut=    52.00 Ry     beta= 0.30
     Davidson diagonalization with overlap
     c_bands:  2 eigenvalues not converged
     ethr =  1.37E-07,  avg # of iterations =  8.6

     negative rho (up, down):  1.759E-03 0.000E+00
 
     Adding external electric field

     Computed dipole along edir(3) : 
        Dipole                0.0223 Ry au,          0.0566 Debye
        Dipole field          0.0001 Ry au, 
 
        Potential amp.       -0.0071 Ry
        Total length         63.9630 bohr
 

     total cpu time spent up to now is     2215.2 secs

     total energy              =   -3891.04101934 Ry
     estimated scf accuracy    <       0.00004307 Ry

     iteration # 16     ecut=    52.00 Ry     beta= 0.30
     Davidson diagonalization with overlap
     c_bands:  1 eigenvalues not converged
     ethr =  1.33E-08,  avg # of iterations =  4.5

     negative rho (up, down):  1.669E-03 0.000E+00
 
     Adding external electric field

     Computed dipole along edir(3) : 
        Dipole                0.0232 Ry au,          0.0589 Debye
        Dipole field          0.0001 Ry au, 
 
        Potential amp.       -0.0074 Ry
        Total length         63.9630 bohr
 

     total cpu time spent up to now is     2350.8 secs

     total energy              =   -3891.04102054 Ry
     estimated scf accuracy    <       0.00002391 Ry

     iteration # 17     ecut=    52.00 Ry     beta= 0.30
     Davidson diagonalization with overlap
     ethr =  7.38E-09,  avg # of iterations =  1.2

     negative rho (up, down):  7.135E-04 0.000E+00
 
     Adding external electric field

     Computed dipole along edir(3) : 
        Dipole                0.0244 Ry au,          0.0621 Debye
        Dipole field          0.0001 Ry au, 
 
        Potential amp.       -0.0078 Ry
        Total length         63.9630 bohr
 

     total cpu time spent up to now is     2456.9 secs

     total energy              =   -3891.04100608 Ry
     estimated scf accuracy    <       0.00001707 Ry

     iteration # 18     ecut=    52.00 Ry     beta= 0.30
     Davidson diagonalization with overlap
     ethr =  5.27E-09,  avg # of iterations =  2.9

     negative rho (up, down):  5.456E-04 0.000E+00
 
     Adding external electric field

     Computed dipole along edir(3) : 
        Dipole                0.0244 Ry au,          0.0621 Debye
        Dipole field          0.0001 Ry au, 
 
        Potential amp.       -0.0078 Ry
        Total length         63.9630 bohr
 

     total cpu time spent up to now is     2580.0 secs

     total energy              =   -3891.04100525 Ry
     estimated scf accuracy    <       0.00000183 Ry

     iteration # 19     ecut=    52.00 Ry     beta= 0.30
     Davidson diagonalization with overlap
     ethr =  5.64E-10,  avg # of iterations =  2.0

     negative rho (up, down):  2.180E-04 0.000E+00
 
     Adding external electric field

     Computed dipole along edir(3) : 
        Dipole                0.0245 Ry au,          0.0622 Debye
        Dipole field          0.0001 Ry au, 
 
        Potential amp.       -0.0078 Ry
        Total length         63.9630 bohr
 

     total cpu time spent up to now is     2698.0 secs

     total energy              =   -3891.04100431 Ry
     estimated scf accuracy    <       0.00000072 Ry

     iteration # 20     ecut=    52.00 Ry     beta= 0.30
     Davidson diagonalization with overlap
     ethr =  2.22E-10,  avg # of iterations =  2.0

     negative rho (up, down):  1.578E-04 0.000E+00
 
     Adding external electric field

     Computed dipole along edir(3) : 
        Dipole                0.0245 Ry au,          0.0622 Debye
        Dipole field          0.0001 Ry au, 
 
        Potential amp.       -0.0078 Ry
        Total length         63.9630 bohr
 

     total cpu time spent up to now is     2820.6 secs

     total energy              =   -3891.04100457 Ry
     estimated scf accuracy    <       0.00000019 Ry

     iteration # 21     ecut=    52.00 Ry     beta= 0.30
     Davidson diagonalization with overlap
     ethr =  5.74E-11,  avg # of iterations =  2.0

     negative rho (up, down):  1.173E-04 0.000E+00
 
     Adding external electric field

     Computed dipole along edir(3) : 
        Dipole                0.0244 Ry au,          0.0621 Debye
        Dipole field          0.0001 Ry au, 
 
        Potential amp.       -0.0078 Ry
        Total length         63.9630 bohr
 

     total cpu time spent up to now is     2937.3 secs

     total energy              =   -3891.04100478 Ry
     estimated scf accuracy    <       0.00000017 Ry

     iteration # 22     ecut=    52.00 Ry     beta= 0.30
     Davidson diagonalization with overlap
     ethr =  5.16E-11,  avg # of iterations =  2.0

     negative rho (up, down):  8.215E-05 0.000E+00
 
     Adding external electric field

     Computed dipole along edir(3) : 
        Dipole                0.0244 Ry au,          0.0619 Debye
        Dipole field          0.0001 Ry au, 
 
        Potential amp.       -0.0077 Ry
        Total length         63.9630 bohr
 

     total cpu time spent up to now is     3054.2 secs

     total energy              =   -3891.04100494 Ry
     estimated scf accuracy    <       0.00000018 Ry

     iteration # 23     ecut=    52.00 Ry     beta= 0.30
     Davidson diagonalization with overlap
     ethr =  5.16E-11,  avg # of iterations =  2.0

     negative rho (up, down):  7.696E-05 0.000E+00
 
     Adding external electric field

     Computed dipole along edir(3) : 
        Dipole                0.0244 Ry au,          0.0620 Debye
        Dipole field          0.0001 Ry au, 
 
        Potential amp.       -0.0077 Ry
        Total length         63.9630 bohr
 

     total cpu time spent up to now is     3170.8 secs

     total energy              =   -3891.04100495 Ry
     estimated scf accuracy    <       0.00000018 Ry

     iteration # 24     ecut=    52.00 Ry     beta= 0.30
     Davidson diagonalization with overlap
     ethr =  5.16E-11,  avg # of iterations =  1.0

     negative rho (up, down):  7.744E-05 0.000E+00
 
     Adding external electric field

     Computed dipole along edir(3) : 
        Dipole                0.0244 Ry au,          0.0620 Debye
        Dipole field          0.0001 Ry au, 
 
        Potential amp.       -0.0078 Ry
        Total length         63.9630 bohr
 

     total cpu time spent up to now is     3275.1 secs

     total energy              =   -3891.04100495 Ry
     estimated scf accuracy    <       0.00000011 Ry

     iteration # 25     ecut=    52.00 Ry     beta= 0.30
     Davidson diagonalization with overlap
     ethr =  3.49E-11,  avg # of iterations =  1.0

     negative rho (up, down):  7.860E-05 0.000E+00
 
     Adding external electric field

     Computed dipole along edir(3) : 
        Dipole                0.0244 Ry au,          0.0621 Debye
        Dipole field          0.0001 Ry au, 
 
        Potential amp.       -0.0078 Ry
        Total length         63.9630 bohr
 

     total cpu time spent up to now is     3380.2 secs

     total energy              =   -3891.04100495 Ry
     estimated scf accuracy    <       0.00000011 Ry

     iteration # 26     ecut=    52.00 Ry     beta= 0.30
     Davidson diagonalization with overlap
     ethr =  3.41E-11,  avg # of iterations =  1.0

     negative rho (up, down):  7.671E-05 0.000E+00
 
     Adding external electric field

     Computed dipole along edir(3) : 
        Dipole                0.0244 Ry au,          0.0621 Debye
        Dipole field          0.0001 Ry au, 
 
        Potential amp.       -0.0078 Ry
        Total length         63.9630 bohr
 

     total cpu time spent up to now is     3485.3 secs

     total energy              =   -3891.04100495 Ry
     estimated scf accuracy    <       0.00000008 Ry

     iteration # 27     ecut=    52.00 Ry     beta= 0.30
     Davidson diagonalization with overlap
     ethr =  2.58E-11,  avg # of iterations =  1.0

     negative rho (up, down):  7.830E-05 0.000E+00
 
     Adding external electric field

     Computed dipole along edir(3) : 
        Dipole                0.0244 Ry au,          0.0621 Debye
        Dipole field          0.0001 Ry au, 
 
        Potential amp.       -0.0078 Ry
        Total length         63.9630 bohr
 

     total cpu time spent up to now is     3590.7 secs

     total energy              =   -3891.04100494 Ry
     estimated scf accuracy    <       0.00000007 Ry

     iteration # 28     ecut=    52.00 Ry     beta= 0.30
     Davidson diagonalization with overlap
     ethr =  2.30E-11,  avg # of iterations =  1.3

     negative rho (up, down):  8.439E-05 0.000E+00
 
     Adding external electric field

     Computed dipole along edir(3) : 
        Dipole                0.0244 Ry au,          0.0621 Debye
        Dipole field          0.0001 Ry au, 
 
        Potential amp.       -0.0078 Ry
        Total length         63.9630 bohr
 

     total cpu time spent up to now is     3697.0 secs

     total energy              =   -3891.04100493 Ry
     estimated scf accuracy    <       0.00000004 Ry

     iteration # 29     ecut=    52.00 Ry     beta= 0.30
     Davidson diagonalization with overlap
     ethr =  1.17E-11,  avg # of iterations =  1.5

     negative rho (up, down):  7.431E-05 0.000E+00
 
     Adding external electric field

     Computed dipole along edir(3) : 
        Dipole                0.0244 Ry au,          0.0621 Debye
        Dipole field          0.0001 Ry au, 
 
        Potential amp.       -0.0078 Ry
        Total length         63.9630 bohr
 

     total cpu time spent up to now is     3808.1 secs

     total energy              =   -3891.04100495 Ry
     estimated scf accuracy    <       0.00000005 Ry

     iteration # 30     ecut=    52.00 Ry     beta= 0.30
     Davidson diagonalization with overlap
     ethr =  1.17E-11,  avg # of iterations =  1.5

     negative rho (up, down):  7.442E-05 0.000E+00
 
     Adding external electric field

     Computed dipole along edir(3) : 
        Dipole                0.0245 Ry au,          0.0622 Debye
        Dipole field          0.0001 Ry au, 
 
        Potential amp.       -0.0078 Ry
        Total length         63.9630 bohr
 

     total cpu time spent up to now is     3917.3 secs

     total energy              =   -3891.04100495 Ry
     estimated scf accuracy    <       0.00000005 Ry

     iteration # 31     ecut=    52.00 Ry     beta= 0.30
     Davidson diagonalization with overlap
     ethr =  1.17E-11,  avg # of iterations =  1.0

     negative rho (up, down):  9.183E-05 0.000E+00
 
     Adding external electric field

     Computed dipole along edir(3) : 
        Dipole                0.0244 Ry au,          0.0621 Debye
        Dipole field          0.0001 Ry au, 
 
        Potential amp.       -0.0078 Ry
        Total length         63.9630 bohr
 

     total cpu time spent up to now is     4022.1 secs

     total energy              =   -3891.04100489 Ry
     estimated scf accuracy    <       0.00000002 Ry

     iteration # 32     ecut=    52.00 Ry     beta= 0.30
     Davidson diagonalization with overlap
     ethr =  4.79E-12,  avg # of iterations =  2.0

     negative rho (up, down):  8.806E-05 0.000E+00
 
     Adding external electric field

     Computed dipole along edir(3) : 
        Dipole                0.0244 Ry au,          0.0620 Debye
        Dipole field          0.0001 Ry au, 
 
        Potential amp.       -0.0077 Ry
        Total length         63.9630 bohr
 

     total cpu time spent up to now is     4139.9 secs

     total energy              =   -3891.04100491 Ry
     estimated scf accuracy    <       0.00000006 Ry

     iteration # 33     ecut=    52.00 Ry     beta= 0.30
     Davidson diagonalization with overlap
     ethr =  4.79E-12,  avg # of iterations =  1.4

     negative rho (up, down):  8.675E-05 0.000E+00
 
     Adding external electric field

     Computed dipole along edir(3) : 
        Dipole                0.0234 Ry au,          0.0595 Debye
        Dipole field          0.0001 Ry au, 
 
        Potential amp.       -0.0074 Ry
        Total length         63.9630 bohr
 

     total cpu time spent up to now is     4248.1 secs

     End of self-consistent calculation

          k = 0.0000 0.0000 0.0000 ( 32011 PWs)   bands (ev):

   -87.2622 -87.2527 -87.2439 -87.2439 -87.2436 -87.2436 -86.9986 -86.9978
   -86.9857 -86.9844 -86.9842 -86.9839 -50.7620 -50.7476 -50.7476 -50.7467
   -50.7465 -50.7464 -50.7462 -50.7222 -50.7222 -50.6859 -50.6857 -50.6851
   -50.6850 -50.6757 -50.6492 -50.6490 -50.6357 -50.6354 -50.4862 -50.4859
   -50.4851 -50.4851 -50.4834 -50.4834 -50.4832 -50.4831 -50.4121 -50.4101
   -50.3996 -50.3981 -50.3979 -50.3976 -50.3955 -50.3951 -50.3950 -50.3945
   -14.3810 -14.2860 -14.1878  -9.2270  -9.2270  -9.2270  -9.1895  -9.1895
    -9.1894  -9.1545  -9.1545  -9.1545  -8.0822  -8.0822  -8.0822  -8.0590
    -8.0590  -8.0590  -8.0270  -8.0270  -8.0270  -3.0471  -2.5973  -2.4331
    -1.7476  -1.6999  -1.4068  -1.3707  -1.3707  -1.3707  -1.3547  -1.3547
    -1.3547  -1.3343  -1.3343  -1.3343  -1.2363  -0.7983  -0.7982  -0.7709
    -0.7701  -0.7671  -0.7665  -0.4155  -0.4152  -0.4130  -0.4126  -0.2399
    -0.2386  -0.2140  -0.2120   0.0234   0.0537   0.0547   0.1012   0.1029
     0.1982   0.1998   0.2009   0.2025   0.2286   0.3637   0.3647   0.4175
     0.4198   0.5520   0.5523   0.5535   0.5535   0.5717   0.5718   0.5718
     0.5720   0.9512   0.9518   1.0787   1.0835   1.1312   1.1322   1.1329
     1.1338   1.2459   1.2621   1.5074   1.5630   1.5633   1.6096   1.6156
     1.7325   1.7329   1.7563   1.7575   1.7580   1.7592   1.8348   1.8419
     1.9211   1.9211   1.9260   1.9260   1.9347   1.9347   2.4100   2.4100
     2.4106   2.6780   2.6780   2.6781   2.8771   2.8775   2.8775   3.9359
     5.1434   6.4759   6.4759   6.4760   6.6290   6.6290   6.6291   6.9288
     6.9295   6.9295   8.2850   8.2859   8.4813   8.4817   8.4827   8.4829
     8.5126   8.6066   9.2324   9.2899   9.2917   9.2923   9.2932   9.4690
     9.6886   9.6892  10.5603  10.7724  10.9622  10.9636  10.9668  10.9683
    11.2245  11.2247

          k = 0.0000 0.1283 0.0000 ( 32037 PWs)   bands (ev):

   -87.2616 -87.2522 -87.2448 -87.2445 -87.2434 -87.2433 -86.9981 -86.9973
   -86.9860 -86.9846 -86.9845 -86.9842 -50.7607 -50.7604 -50.7574 -50.7528
   -50.7513 -50.7335 -50.7312 -50.7142 -50.7137 -50.6902 -50.6885 -50.6819
   -50.6804 -50.6769 -50.6529 -50.6508 -50.6408 -50.6366 -50.4979 -50.4973
   -50.4959 -50.4951 -50.4700 -50.4695 -50.4688 -50.4681 -50.4116 -50.4097
   -50.4006 -50.3999 -50.3998 -50.3983 -50.3982 -50.3978 -50.3964 -50.3961
   -14.3090 -14.2144 -14.1167  -9.9648  -9.8987  -9.8300  -9.4451  -9.4450
    -9.3891  -9.3891  -9.3319  -9.3319  -7.7869  -7.7869  -7.7423  -7.7423
    -7.6928  -7.6928  -7.2944  -7.2432  -7.1884  -2.9606  -2.4841  -2.3482
    -1.6649  -1.5998  -1.5928  -1.5927  -1.5747  -1.5747  -1.5523  -1.5523
    -1.3246  -1.3001  -1.2842  -1.2639  -1.1499  -0.9807  -0.9103  -0.8454
    -0.7980  -0.6760  -0.6361  -0.5462  -0.4967  -0.4950  -0.4382  -0.2694
    -0.2388  -0.2278  -0.1759  -0.0126   0.0107   0.0310   0.1135   0.1456
     0.1489   0.1578   0.2325   0.2391   0.2759   0.3316   0.3846   0.3917
     0.4175   0.4337   0.4741   0.4772   0.5227   0.6595   0.7319   0.7794
     0.8472   0.8739   0.9170   0.9622   1.0510   1.1032   1.1345   1.1782
     1.1818   1.2534   1.2541   1.5007   1.5032   1.5611   1.5705   1.6027
     1.6244   1.6313   1.6424   1.7197   1.7284   1.7685   1.7739   1.7747
     1.7851   1.7959   1.8371   1.8554   1.8793   1.8941   2.0200   2.2675
     2.3147   2.3152   2.6292   2.6292   2.6390   2.8927   2.8930   4.1035
     5.3874   6.5679   6.5681   6.5903   6.7521   6.7521   6.8932   7.0600
     7.0604   7.1484   7.3613   7.4986   7.5225   7.6306   8.2845   8.6093
     8.7015   8.7141   8.8604   9.3154   9.4694   9.5304   9.5665   9.9094
    10.3495  10.4527  10.5068  10.6505  10.7306  10.8530  10.9962  11.5018
    11.6029  11.9730

          k = 0.0000 0.2566 0.0000 ( 32015 PWs)   bands (ev):

   -87.2600 -87.2511 -87.2464 -87.2455 -87.2435 -87.2434 -86.9968 -86.9960
   -86.9866 -86.9855 -86.9850 -86.9848 -50.7716 -50.7629 -50.7600 -50.7568
   -50.7547 -50.7222 -50.7138 -50.7044 -50.7000 -50.6927 -50.6852 -50.6831
   -50.6795 -50.6757 -50.6610 -50.6587 -50.6519 -50.6405 -50.5087 -50.5082
   -50.4989 -50.4982 -50.4550 -50.4545 -50.4516 -50.4509 -50.4150 -50.4143
   -50.4100 -50.4084 -50.4005 -50.4003 -50.4000 -50.3991 -50.3987 -50.3985
   -14.0935 -14.0002 -13.9037 -10.9435 -10.8690 -10.7916  -9.7706  -9.7706
    -9.7058  -9.7058  -9.6383  -9.6383  -7.1326  -7.1326  -7.0832  -7.0832
    -7.0302  -7.0302  -6.0057  -5.9578  -5.9063  -2.7017  -2.1861  -2.1861
    -2.1632  -2.1632  -2.1615  -2.1362  -2.1362  -2.0945  -1.4179  -1.3326
    -1.1575  -1.0972  -1.0909  -1.0753  -1.0553  -0.9940  -0.9742  -0.9622
    -0.9234  -0.9110  -0.7166  -0.6470  -0.4891  -0.4540  -0.4499  -0.3691
    -0.3251  -0.3011  -0.2578  -0.1951  -0.0877  -0.0058   0.0642   0.1412
     0.2201   0.2236   0.2679   0.2718   0.3144   0.3176   0.3518   0.4359
     0.4424   0.4840   0.5214   0.5806   0.6399   0.6477   0.6903   0.7382
     0.8115   0.8236   0.8400   0.8753   0.9226   0.9242   0.9894   1.0687
     1.0901   1.1570   1.1710   1.2188   1.2225   1.3308   1.3329   1.3638
     1.3727   1.3825   1.3860   1.4072   1.4733   1.5518   1.5785   1.6454
     1.7606   1.7737   1.8116   1.8226   1.9059   1.9194   1.9457   2.0125
     2.1270   2.1276   2.4407   2.5143   2.5144   2.8854   2.8859   4.5373
     4.9400   5.7963   6.0254   6.4204   6.8371   6.8373   6.8604   7.0653
     7.0654   7.2531   7.3671   7.3676   7.4195   7.8664   8.0236   8.3266
     8.6798   8.8993   8.9855   9.2267   9.3651   9.5641   9.8603  10.0171
    10.7385  10.8107  10.9212  10.9468  11.1001  11.4292  11.7767  12.0909
    12.2071  12.3203

          k = 0.0000 0.3849 0.0000 ( 32055 PWs)   bands (ev):

   -87.2575 -87.2495 -87.2487 -87.2463 -87.2444 -87.2436 -86.9948 -86.9939
   -86.9879 -86.9870 -86.9856 -86.9855 -50.7797 -50.7708 -50.7548 -50.7513
   -50.7500 -50.7177 -50.7040 -50.6984 -50.6982 -50.6885 -50.6858 -50.6790
   -50.6786 -50.6739 -50.6710 -50.6663 -50.6596 -50.6471 -50.5164 -50.5160
   -50.4929 -50.4922 -50.4406 -50.4401 -50.4375 -50.4365 -50.4351 -50.4347
   -50.4081 -50.4070 -50.4067 -50.4064 -50.4015 -50.4005 -50.3993 -50.3991
   -13.7354 -13.6443 -13.5499 -11.8331 -11.7531 -11.6700 -10.0163 -10.0163
    -9.9482  -9.9482  -9.8772  -9.8771  -6.3550  -6.3550  -6.3097  -6.3097
    -6.2611  -6.2611  -4.6053  -4.5638  -4.5188  -2.9795  -2.9794  -2.9524
    -2.9523  -2.9212  -2.9212  -2.2734  -1.6892  -1.6753  -1.3241  -1.2267
    -1.2198  -1.0103  -0.9960  -0.9388  -0.9166  -0.8713  -0.8193  -0.7541
    -0.7515  -0.7365  -0.7170  -0.7033  -0.6741  -0.5593  -0.5035  -0.3757
    -0.3530  -0.3467  -0.3449  -0.3340  -0.3109  -0.2420  -0.1813  -0.1731
    -0.0812  -0.0529   0.0408   0.0521   0.1112   0.1362   0.2145   0.2547
     0.2668   0.3448   0.4609   0.4693   0.4815   0.5127   0.5812   0.6018
     0.6183   0.6584   0.6902   0.8011   0.8196   0.8272   0.8308   0.8465
     0.8573   0.8854   1.0624   1.0777   1.0831   1.1430   1.2189   1.2603
     1.2935   1.3169   1.3528   1.5131   1.5400   1.6039   1.6592   1.6684
     1.7731   1.7948   1.8020   1.8660   1.8919   1.9355   1.9591   1.9597
     1.9783   2.0197   2.3963   2.3964   2.8443   2.8450   2.9591   3.5139
     4.2536   5.1398   5.5921   5.7640   6.2268   6.7650   6.9094   7.0894
     7.1962   7.1966   7.4305   7.4305   7.6886   7.6890   7.9068   9.0963
     9.3817   9.4565   9.4735   9.7254   9.7523   9.9817  10.0638  10.3033
    10.3528  10.5303  11.3696  11.5263  11.7278  11.9331  11.9641  12.2196
    12.2958  12.3330

          k = 0.0000 0.5132 0.0000 ( 32102 PWs)   bands (ev):

   -87.2546 -87.2515 -87.2476 -87.2467 -87.2458 -87.2437 -86.9927 -86.9915
   -86.9895 -86.9891 -86.9860 -86.9858 -50.7839 -50.7751 -50.7468 -50.7463
   -50.7371 -50.7184 -50.7146 -50.7051 -50.7004 -50.6878 -50.6807 -50.6787
   -50.6749 -50.6697 -50.6684 -50.6660 -50.6650 -50.6559 -50.5205 -50.5200
   -50.4786 -50.4778 -50.4581 -50.4574 -50.4290 -50.4283 -50.4274 -50.4269
   -50.4160 -50.4156 -50.4061 -50.4046 -50.4028 -50.4024 -50.3998 -50.3994
   -13.2369 -13.1486 -13.0573 -12.6010 -12.5165 -12.4288 -10.1441 -10.1440
   -10.0746 -10.0746 -10.0023 -10.0023  -5.6483  -5.6482  -5.6164  -5.6164
    -5.5821  -5.5821  -3.6992  -3.6992  -3.6771  -3.6770  -3.6502  -3.6502
    -3.1561  -3.1220  -3.0842  -1.7133  -1.6912  -1.6767  -1.6564  -1.4621
    -1.3709  -1.3088  -1.2006  -1.0964  -1.0203  -0.9345  -0.9312  -0.8709
    -0.8551  -0.7625  -0.6970  -0.6968  -0.6050  -0.5972  -0.5268  -0.4698
    -0.4494  -0.4429  -0.3701  -0.3569  -0.3489  -0.2983  -0.2841  -0.2654
    -0.1049  -0.0605  -0.0391  -0.0169   0.0353   0.0396   0.1412   0.1481
     0.2000   0.2220   0.2409   0.2508   0.2539   0.2714   0.2998   0.3195
     0.4087   0.4974   0.5486   0.5701   0.6553   0.7567   0.8206   0.8297
     0.8519   1.0063   1.0156   1.0796   1.1511   1.2363   1.3315   1.4055
     1.4101   1.4747   1.5310   1.6173   1.6455   1.6858   1.7018   1.7612
     1.7671   1.8386   1.8459   1.8645   1.8652   1.8880   1.9599   2.0561
     2.1331   2.1385   2.3252   2.3252   2.3895   2.8095   2.8103   2.9643
     3.6243   4.5411   5.0548   5.8456   5.8799   6.3931   6.6079   6.7863
     7.4676   7.4679   7.6783   7.6783   7.8806   7.8810   7.9489   8.9895
     9.0966   9.5868  10.0546  10.1124  10.3225  10.5788  10.8901  10.9098
    11.0423  11.0647  11.2434  11.3924  11.5117  11.5219  11.9199  11.9673
    12.1349  12.5200

          k = 0.1111-0.0642 0.0000 ( 32037 PWs)   bands (ev):

   -87.2616 -87.2523 -87.2447 -87.2446 -87.2434 -87.2433 -86.9981 -86.9973
   -86.9860 -86.9846 -86.9845 -86.9842 -50.7607 -50.7601 -50.7576 -50.7528
   -50.7516 -50.7330 -50.7314 -50.7141 -50.7140 -50.6900 -50.6888 -50.6815
   -50.6807 -50.6770 -50.6531 -50.6506 -50.6407 -50.6367 -50.4980 -50.4972
   -50.4957 -50.4952 -50.4702 -50.4694 -50.4686 -50.4682 -50.4116 -50.4097
   -50.4003 -50.4000 -50.3998 -50.3983 -50.3982 -50.3979 -50.3967 -50.3959
   -14.3090 -14.2144 -14.1167  -9.9648  -9.8987  -9.8300  -9.4451  -9.4450
    -9.3891  -9.3891  -9.3319  -9.3319  -7.7869  -7.7869  -7.7423  -7.7423
    -7.6928  -7.6928  -7.2944  -7.2432  -7.1884  -2.9606  -2.4841  -2.3482
    -1.6649  -1.5997  -1.5928  -1.5927  -1.5747  -1.5746  -1.5523  -1.5523
    -1.3246  -1.3001  -1.2842  -1.2639  -1.1499  -0.9799  -0.9116  -0.8460
    -0.7969  -0.6773  -0.6345  -0.5472  -0.4955  -0.4950  -0.4393  -0.2699
    -0.2380  -0.2290  -0.1739  -0.0120   0.0102   0.0304   0.1136   0.1453
     0.1486   0.1580   0.2342   0.2378   0.2766   0.3310   0.3844   0.3916
     0.4180   0.4336   0.4741   0.4765   0.5230   0.6587   0.7315   0.7795
     0.8472   0.8771   0.9156   0.9649   1.0476   1.1063   1.1358   1.1783
     1.1819   1.2508   1.2522   1.4997   1.5030   1.5597   1.5714   1.6040
     1.6244   1.6313   1.6424   1.7181   1.7295   1.7685   1.7747   1.7748
     1.7851   1.7969   1.8359   1.8555   1.8793   1.8928   2.0217   2.2675
     2.3147   2.3152   2.6292   2.6292   2.6390   2.8927   2.8930   4.1035
     5.3875   6.5680   6.5681   6.5902   6.7521   6.7521   6.8932   7.0600
     7.0604   7.1484   7.3595   7.4986   7.5219   7.6335   8.2840   8.6093
     8.7015   8.7175   8.8605   9.3154   9.4669   9.5326   9.5665   9.9032
    10.3503  10.4545  10.5074  10.6505  10.7298  10.8530  10.9962  11.4998
    11.6013  11.9197

          k = 0.1111 0.0642 0.0000 ( 32037 PWs)   bands (ev):

   -87.2616 -87.2523 -87.2447 -87.2446 -87.2434 -87.2433 -86.9981 -86.9973
   -86.9860 -86.9846 -86.9845 -86.9842 -50.7607 -50.7603 -50.7574 -50.7528
   -50.7515 -50.7333 -50.7312 -50.7141 -50.7141 -50.6897 -50.6889 -50.6813
   -50.6810 -50.6770 -50.6529 -50.6507 -50.6405 -50.6369 -50.4981 -50.4975
   -50.4956 -50.4949 -50.4702 -50.4697 -50.4686 -50.4679 -50.4116 -50.4097
   -50.4003 -50.3998 -50.3997 -50.3983 -50.3982 -50.3979 -50.3967 -50.3963
   -14.3090 -14.2144 -14.1167  -9.9648  -9.8987  -9.8300  -9.4451  -9.4450
    -9.3891  -9.3891  -9.3319  -9.3319  -7.7869  -7.7869  -7.7423  -7.7423
    -7.6928  -7.6928  -7.2944  -7.2432  -7.1884  -2.9606  -2.4841  -2.3482
    -1.6649  -1.5997  -1.5928  -1.5927  -1.5747  -1.5747  -1.5523  -1.5523
    -1.3248  -1.3001  -1.2842  -1.2639  -1.1502  -0.9813  -0.9117  -0.8433
    -0.7956  -0.6781  -0.6350  -0.5472  -0.4959  -0.4954  -0.4405  -0.2691
    -0.2391  -0.2279  -0.1733  -0.0110   0.0098   0.0310   0.1139   0.1447
     0.1475   0.1588   0.2338   0.2412   0.2776   0.3304   0.3843   0.3893
     0.4189   0.4336   0.4714   0.4754   0.5252   0.6574   0.7299   0.7795
     0.8453   0.8799   0.9153   0.9702   1.0482   1.1049   1.1372   1.1767
     1.1815   1.2446   1.2525   1.5002   1.5026   1.5549   1.5725   1.6083
     1.6244   1.6313   1.6424   1.7207   1.7286   1.7685   1.7729   1.7747
     1.7851   1.7954   1.8414   1.8546   1.8793   1.8955   2.0194   2.2675
     2.3147   2.3152   2.6292   2.6292   2.6390   2.8927   2.8930   4.1031
     5.3871   6.5679   6.5681   6.5907   6.7521   6.7521   6.8932   7.0600
     7.0604   7.1484   7.3587   7.4986   7.5219   7.6349   8.2802   8.6093
     8.7015   8.7119   8.8634   9.3154   9.4687   9.5321   9.5665   9.9087
    10.3509  10.4531  10.5101  10.6506  10.7271  10.8530  10.9958  11.4986
    11.6039  11.9723

          k = 0.1111 0.1925 0.0000 ( 31991 PWs)   bands (ev):

   -87.2605 -87.2515 -87.2456 -87.2455 -87.2434 -87.2433 -86.9972 -86.9964
   -86.9864 -86.9851 -86.9849 -86.9847 -50.7648 -50.7648 -50.7580 -50.7574
   -50.7573 -50.7214 -50.7212 -50.7055 -50.7050 -50.6897 -50.6895 -50.6807
   -50.6787 -50.6780 -50.6593 -50.6536 -50.6505 -50.6389 -50.5028 -50.5025
   -50.5022 -50.5020 -50.4576 -50.4572 -50.4569 -50.4567 -50.4110 -50.4102
   -50.4097 -50.4084 -50.4002 -50.3990 -50.3988 -50.3987 -50.3986 -50.3983
   -14.1652 -14.0715 -13.9746 -10.4110 -10.4110 -10.3404 -10.3404 -10.2669
   -10.2668  -9.0406  -9.0038  -8.9694  -7.9069  -7.8849  -7.8543  -6.6323
    -6.6322  -6.5823  -6.5823  -6.5289  -6.5288  -2.7879  -2.2668  -2.2600
    -2.2368  -2.2095  -2.1789  -1.5000  -1.4508  -1.4508  -1.4330  -1.4330
    -1.4182  -1.4109  -1.4109  -1.1717  -1.0528  -1.0522  -0.9949  -0.8943
    -0.8933  -0.7995  -0.7992  -0.5656  -0.5644  -0.4327  -0.4281  -0.3516
    -0.3507  -0.2438  -0.2411  -0.1449  -0.0503   0.0136   0.1251   0.1293
     0.2241   0.2320   0.2530   0.2750   0.2759   0.3038   0.3686   0.3702
     0.3780   0.5040   0.5076   0.5128   0.5806   0.7318   0.8044   0.8079
     0.9118   0.9142   0.9957   0.9990   1.0123   1.0365   1.0991   1.1061
     1.1169   1.2193   1.2206   1.2598   1.3088   1.3107   1.3533   1.4668
     1.4719   1.4778   1.4780   1.4819   1.4854   1.4877   1.4895   1.6098
     1.7481   1.7483   1.8497   1.8504   1.8510   1.9221   1.9221   1.9720
     1.9733   2.3125   2.3764   2.3768   2.6702   2.9373   3.1338   4.4005
     5.7626   5.7632   5.8242   6.4370   6.5475   6.6250   6.6262   6.7872
     7.3825   7.3829   7.6681   7.6681   7.9326   7.9376   8.0156   8.0159
     8.7748   8.7784   8.8026   8.8909   9.4811   9.7622   9.8229   9.8277
    10.4131  10.4179  10.8312  11.0169  11.3330  11.3351  11.4865  11.4886
    12.2732  12.3433

          k = 0.1111 0.3208 0.0000 ( 32047 PWs)   bands (ev):

   -87.2585 -87.2501 -87.2474 -87.2464 -87.2438 -87.2436 -86.9955 -86.9947
   -86.9872 -86.9862 -86.9855 -86.9854 -50.7731 -50.7649 -50.7624 -50.7566
   -50.7534 -50.7154 -50.7085 -50.7000 -50.6964 -50.6926 -50.6847 -50.6803
   -50.6766 -50.6735 -50.6698 -50.6647 -50.6583 -50.6434 -50.5102 -50.5097
   -50.5007 -50.5000 -50.4442 -50.4437 -50.4424 -50.4417 -50.4281 -50.4274
   -50.4088 -50.4074 -50.4038 -50.4035 -50.4010 -50.3998 -50.3992 -50.3990
   -13.8785 -13.7865 -13.6913 -11.3512 -11.2742 -11.1941 -10.7419 -10.6687
   -10.5925  -9.0673  -9.0135  -8.9583  -7.4589  -7.4177  -7.3716  -5.8730
    -5.8272  -5.7781  -5.2849  -5.2406  -5.1929  -3.1434  -3.1149  -3.0824
    -2.4442  -1.9656  -1.9436  -1.9174  -1.8747  -1.8424  -1.2071  -1.1726
    -1.1717  -1.1545  -1.1432  -1.1330  -1.1008  -1.0903  -1.0545  -0.9640
    -0.9260  -0.8885  -0.7571  -0.7410  -0.6055  -0.5484  -0.5007  -0.4107
    -0.3759  -0.3078  -0.2415  -0.2163  -0.1476  -0.0895   0.1057   0.1158
     0.1618   0.1744   0.1909   0.2062   0.2373   0.2653   0.2927   0.3422
     0.3722   0.3985   0.4543   0.4885   0.4887   0.5132   0.5487   0.5517
     0.7073   0.7837   0.7853   0.9092   0.9273   0.9397   0.9480   0.9609
     0.9956   0.9986   1.0002   1.0370   1.1438   1.1653   1.1716   1.2301
     1.2751   1.2822   1.3408   1.3950   1.4102   1.5252   1.5281   1.5505
     1.6033   1.6090   1.6452   1.7768   1.7801   1.8459   1.8959   1.9125
     2.0201   2.0241   2.1522   2.7536   2.8213   3.1359   3.3991   4.2067
     4.9074   5.0045   5.0230   5.8063   6.4217   6.4758   6.5421   6.5724
     6.7499   7.0620   7.9381   8.0952   8.2105   8.5105   8.5125   8.7022
     8.9902   9.1890   9.2684   9.3118   9.4081   9.8136  10.0289  10.1555
    10.2893  10.8965  10.9153  11.1919  11.3540  11.5642  12.2812  12.4666
    12.5772  12.6073

          k = 0.1111 0.4491 0.0000 ( 32079 PWs)   bands (ev):

   -87.2558 -87.2499 -87.2483 -87.2471 -87.2449 -87.2439 -86.9935 -86.9925
   -86.9886 -86.9879 -86.9862 -86.9860 -50.7787 -50.7703 -50.7531 -50.7483
   -50.7482 -50.7152 -50.7119 -50.7067 -50.6912 -50.6906 -50.6859 -50.6785
   -50.6759 -50.6687 -50.6681 -50.6678 -50.6651 -50.6504 -50.5155 -50.5150
   -50.4902 -50.4895 -50.4503 -50.4495 -50.4316 -50.4311 -50.4310 -50.4304
   -50.4110 -50.4107 -50.4068 -50.4055 -50.4021 -50.4014 -50.3999 -50.3996
   -13.4502 -13.3607 -13.2680 -12.1809 -12.0988 -12.0137 -10.9439 -10.8693
   -10.7917  -9.1965  -9.1354  -9.0716  -6.7351  -6.6939  -6.6496  -5.1040
    -5.0668  -5.0264  -4.0461  -4.0169  -3.9834  -3.8676  -3.8306  -3.7900
    -2.6433  -2.6196  -2.5916  -1.9337  -1.4182  -1.3741  -1.3433  -1.2952
    -1.2460  -1.0603  -1.0397  -1.0147  -0.9947  -0.9790  -0.9414  -0.9382
    -0.9083  -0.7807  -0.7788  -0.7662  -0.7501  -0.7295  -0.6878  -0.6142
    -0.5725  -0.5649  -0.4469  -0.4171  -0.4108  -0.3813  -0.2385  -0.2175
    -0.1055  -0.1027   0.0389   0.0688   0.1026   0.1654   0.1882   0.2384
     0.2411   0.3338   0.3354   0.3459   0.3606   0.3624   0.3933   0.5358
     0.5377   0.6924   0.7039   0.7266   0.7370   0.7466   0.8040   0.8285
     0.9303   0.9385   0.9422   0.9691   1.0988   1.1074   1.1541   1.2875
     1.3134   1.3657   1.4141   1.4443   1.4683   1.5101   1.5472   1.6742
     1.7229   1.7508   1.7517   1.8057   1.8230   1.8558   1.8597   1.9166
     1.9799   2.0036   2.0677   2.8438   2.9009   3.2261   3.3185   3.5758
     3.5967   4.4219   5.1379   5.1817   5.5618   6.4201   6.4582   6.6424
     6.8506   7.3518   7.5175   7.5836   8.4138   8.6406   8.8673   9.2109
     9.7479   9.7670   9.8096   9.8316  10.1955  10.3198  10.4422  10.6078
    10.7113  10.7470  11.4773  11.5099  11.7259  11.8524  11.8762  11.9550
    12.0220  12.5039

          k = 0.1111-0.5774 0.0000 ( 32048 PWs)   bands (ev):

   -87.2528 -87.2528 -87.2474 -87.2465 -87.2465 -87.2439 -86.9920 -86.9902
   -86.9901 -86.9898 -86.9864 -86.9862 -50.7806 -50.7722 -50.7461 -50.7460
   -50.7326 -50.7325 -50.7092 -50.7091 -50.7070 -50.6846 -50.6803 -50.6755
   -50.6754 -50.6707 -50.6705 -50.6640 -50.6592 -50.6591 -50.5173 -50.5168
   -50.4732 -50.4718 -50.4716 -50.4713 -50.4270 -50.4262 -50.4211 -50.4200
   -50.4198 -50.4195 -50.4056 -50.4035 -50.4034 -50.4030 -50.4002 -50.3998
   -12.8830 -12.8829 -12.7968 -12.7968 -12.7075 -12.7075 -11.0117 -10.9367
   -10.8586  -9.2485  -9.1858  -9.1203  -6.2744  -6.2483  -6.2206  -4.6591
    -4.6376  -4.6139  -4.5355  -4.5197  -4.4985  -3.0461  -3.0317  -3.0122
    -2.4365  -2.4365  -2.4074  -2.4074  -2.3745  -2.3744  -1.4507  -1.3700
    -1.2847  -1.2635  -1.2631  -1.0921  -1.0912  -1.0155  -0.8990  -0.8980
    -0.8657  -0.8516  -0.8511  -0.6894  -0.6894  -0.5892  -0.5888  -0.5848
    -0.4195  -0.4168  -0.3308  -0.3292  -0.2535  -0.2535  -0.2389  -0.2389
    -0.2199  -0.2199  -0.1063  -0.1056  -0.0562  -0.0558  -0.0503   0.0139
     0.0154   0.0211   0.2041   0.2781   0.2801   0.2984   0.3058   0.4782
     0.4798   0.6358   0.6374   0.7524   0.7562   0.7849   0.8046   0.8730
     0.8740   0.9023   1.0096   1.0131   1.1176   1.1797   1.1815   1.4076
     1.4125   1.4607   1.4635   1.5077   1.5084   1.5833   1.6325   1.6335
     1.7605   1.8135   1.8139   1.8282   1.8393   1.9384   1.9440   1.9447
     1.9518   2.1028   2.1198   2.4453   2.4459   2.8410   3.2488   3.6634
     4.0836   4.0845   4.1582   4.9326   6.1743   6.3637   6.3653   6.4889
     6.7003   6.9064   7.3935   8.5924   8.5955   8.6148   8.8087   8.9886
     9.1528   9.7386  10.5101  10.5327  10.5330  10.5763  10.5770  11.0054
    11.0075  11.5260  11.5272  11.7313  11.7316  11.8379  11.8786  11.8798
    12.1054  12.1070

          k = 0.1111-0.4491 0.0000 ( 32079 PWs)   bands (ev):

   -87.2558 -87.2499 -87.2483 -87.2471 -87.2449 -87.2438 -86.9935 -86.9925
   -86.9886 -86.9879 -86.9862 -86.9860 -50.7787 -50.7704 -50.7530 -50.7484
   -50.7481 -50.7151 -50.7121 -50.7066 -50.6913 -50.6906 -50.6858 -50.6785
   -50.6762 -50.6688 -50.6680 -50.6678 -50.6650 -50.6502 -50.5155 -50.5150
   -50.4901 -50.4893 -50.4504 -50.4497 -50.4317 -50.4313 -50.4310 -50.4303
   -50.4109 -50.4104 -50.4068 -50.4055 -50.4021 -50.4013 -50.3999 -50.3996
   -13.4502 -13.3607 -13.2680 -12.1809 -12.0988 -12.0137 -10.9439 -10.8693
   -10.7917  -9.1965  -9.1354  -9.0716  -6.7351  -6.6939  -6.6496  -5.1040
    -5.0668  -5.0264  -4.0461  -4.0169  -3.9834  -3.8676  -3.8306  -3.7900
    -2.6433  -2.6196  -2.5916  -1.9337  -1.4177  -1.3740  -1.3433  -1.2954
    -1.2461  -1.0603  -1.0397  -1.0147  -0.9954  -0.9782  -0.9407  -0.9379
    -0.9090  -0.7793  -0.7789  -0.7662  -0.7501  -0.7295  -0.6878  -0.6136
    -0.5703  -0.5652  -0.4469  -0.4198  -0.4131  -0.3821  -0.2381  -0.2185
    -0.1064  -0.1055   0.0425   0.0700   0.1026   0.1660   0.1867   0.2342
     0.2369   0.3338   0.3368   0.3459   0.3617   0.3624   0.3946   0.5387
     0.5420   0.7019   0.7039   0.7263   0.7313   0.7496   0.8009   0.8282
     0.9304   0.9378   0.9415   0.9691   1.0971   1.1042   1.1549   1.2911
     1.3135   1.3668   1.4153   1.4402   1.4683   1.5114   1.5479   1.6718
     1.7224   1.7516   1.7527   1.8062   1.8282   1.8536   1.8581   1.9157
     1.9792   2.0036   2.0646   2.8438   2.9009   3.2261   3.3181   3.5760
     3.5967   4.4220   5.1392   5.1817   5.5631   6.4202   6.4582   6.6424
     6.8506   7.3511   7.5194   7.5839   8.4138   8.6406   8.8673   9.2109
     9.7447   9.7671   9.8094   9.8316  10.1955  10.3198  10.4422  10.6078
    10.7113  10.7471  11.4770  11.5097  11.7259  11.8519  11.8761  11.9554
    12.0216  12.5024

          k = 0.1111-0.3208 0.0000 ( 32047 PWs)   bands (ev):

   -87.2585 -87.2501 -87.2474 -87.2464 -87.2438 -87.2436 -86.9955 -86.9947
   -86.9872 -86.9862 -86.9855 -86.9854 -50.7731 -50.7650 -50.7622 -50.7567
   -50.7534 -50.7154 -50.7083 -50.7001 -50.6962 -50.6927 -50.6851 -50.6808
   -50.6761 -50.6735 -50.6698 -50.6649 -50.6582 -50.6432 -50.5102 -50.5098
   -50.5007 -50.4999 -50.4443 -50.4439 -50.4424 -50.4416 -50.4282 -50.4277
   -50.4088 -50.4074 -50.4038 -50.4032 -50.4010 -50.3997 -50.3993 -50.3990
   -13.8785 -13.7865 -13.6913 -11.3512 -11.2742 -11.1941 -10.7419 -10.6687
   -10.5925  -9.0673  -9.0135  -8.9583  -7.4589  -7.4177  -7.3716  -5.8730
    -5.8272  -5.7781  -5.2849  -5.2406  -5.1929  -3.1434  -3.1149  -3.0824
    -2.4442  -1.9656  -1.9436  -1.9174  -1.8744  -1.8424  -1.2071  -1.1726
    -1.1717  -1.1545  -1.1431  -1.1330  -1.1018  -1.0899  -1.0534  -0.9652
    -0.9245  -0.8889  -0.7546  -0.7399  -0.6048  -0.5492  -0.5016  -0.4131
    -0.3758  -0.3111  -0.2431  -0.2165  -0.1493  -0.0891   0.1052   0.1191
     0.1618   0.1744   0.1909   0.2038   0.2363   0.2637   0.2869   0.3426
     0.3700   0.4030   0.4545   0.4885   0.4885   0.5139   0.5579   0.5588
     0.7065   0.7829   0.7852   0.9054   0.9278   0.9397   0.9480   0.9609
     0.9936   0.9979   1.0002   1.0388   1.1409   1.1653   1.1718   1.2262
     1.2803   1.2889   1.3437   1.3956   1.4047   1.5261   1.5310   1.5505
     1.6017   1.6058   1.6452   1.7771   1.7824   1.8429   1.8956   1.9126
     2.0194   2.0209   2.1522   2.7536   2.8213   3.1359   3.3991   4.2068
     4.9086   5.0048   5.0230   5.8064   6.4217   6.4779   6.5421   6.5739
     6.7499   7.0620   7.9381   8.0956   8.2105   8.5119   8.5125   8.7022
     8.9902   9.1890   9.2684   9.3118   9.4079   9.8136  10.0287  10.1556
    10.2852  10.8966  10.9105  11.1919  11.3539  11.5653  12.2825  12.4666
    12.5769  12.6071

          k = 0.1111-0.1925 0.0000 ( 31991 PWs)   bands (ev):

   -87.2605 -87.2515 -87.2456 -87.2455 -87.2434 -87.2434 -86.9972 -86.9964
   -86.9864 -86.9851 -86.9849 -86.9847 -50.7649 -50.7646 -50.7580 -50.7575
   -50.7574 -50.7215 -50.7211 -50.7052 -50.7050 -50.6899 -50.6898 -50.6808
   -50.6784 -50.6780 -50.6593 -50.6535 -50.6508 -50.6387 -50.5028 -50.5025
   -50.5021 -50.5020 -50.4576 -50.4572 -50.4569 -50.4567 -50.4111 -50.4104
   -50.4098 -50.4084 -50.4002 -50.3990 -50.3988 -50.3986 -50.3984 -50.3983
   -14.1652 -14.0715 -13.9746 -10.4110 -10.4110 -10.3404 -10.3404 -10.2669
   -10.2668  -9.0406  -9.0038  -8.9694  -7.9069  -7.8849  -7.8543  -6.6323
    -6.6322  -6.5823  -6.5823  -6.5289  -6.5288  -2.7879  -2.2667  -2.2600
    -2.2368  -2.2095  -2.1789  -1.5000  -1.4508  -1.4508  -1.4330  -1.4330
    -1.4182  -1.4109  -1.4109  -1.1709  -1.0524  -1.0515  -0.9940  -0.8959
    -0.8946  -0.7998  -0.7992  -0.5638  -0.5636  -0.4324  -0.4294  -0.3518
    -0.3509  -0.2442  -0.2422  -0.1475  -0.0505   0.0139   0.1261   0.1279
     0.2243   0.2318   0.2515   0.2731   0.2745   0.3029   0.3673   0.3678
     0.3827   0.5113   0.5117   0.5128   0.5793   0.7281   0.8068   0.8090
     0.9120   0.9138   0.9959   0.9974   1.0144   1.0316   1.0991   1.1061
     1.1169   1.2204   1.2212   1.2681   1.3087   1.3105   1.3530   1.4668
     1.4719   1.4778   1.4780   1.4819   1.4838   1.4852   1.4939   1.6065
     1.7480   1.7490   1.8452   1.8508   1.8517   1.9221   1.9221   1.9704
     1.9716   2.3133   2.3764   2.3768   2.6702   2.9373   3.1338   4.4015
     5.7627   5.7630   5.8252   6.4370   6.5475   6.6252   6.6264   6.7872
     7.3825   7.3829   7.6681   7.6681   7.9364   7.9373   8.0156   8.0159
     8.7787   8.7811   8.8026   8.8909   9.4811   9.7622   9.8183   9.8222
    10.4125  10.4143  10.8312  11.0168  11.3335  11.3362  11.4867  11.4883
    12.3424  12.3441

          k = 0.2222-0.1283 0.0000 ( 32015 PWs)   bands (ev):

   -87.2600 -87.2511 -87.2464 -87.2455 -87.2436 -87.2434 -86.9968 -86.9960
   -86.9866 -86.9855 -86.9850 -86.9848 -50.7713 -50.7629 -50.7602 -50.7568
   -50.7550 -50.7216 -50.7139 -50.7049 -50.7000 -50.6927 -50.6852 -50.6832
   -50.6791 -50.6759 -50.6610 -50.6585 -50.6517 -50.6405 -50.5089 -50.5081
   -50.4987 -50.4983 -50.4552 -50.4544 -50.4514 -50.4510 -50.4147 -50.4144
   -50.4100 -50.4084 -50.4006 -50.4004 -50.3998 -50.3991 -50.3986 -50.3985
   -14.0935 -14.0002 -13.9037 -10.9435 -10.8690 -10.7916  -9.7706  -9.7706
    -9.7058  -9.7058  -9.6383  -9.6383  -7.1326  -7.1326  -7.0832  -7.0832
    -7.0302  -7.0302  -6.0057  -5.9578  -5.9063  -2.7017  -2.1861  -2.1861
    -2.1632  -2.1632  -2.1614  -2.1362  -2.1362  -2.0945  -1.4179  -1.3320
    -1.1571  -1.0976  -1.0909  -1.0753  -1.0553  -0.9937  -0.9744  -0.9632
    -0.9236  -0.9121  -0.7155  -0.6466  -0.4901  -0.4554  -0.4498  -0.3656
    -0.3254  -0.3001  -0.2595  -0.1950  -0.0879  -0.0071   0.0638   0.1422
     0.2219   0.2228   0.2660   0.2725   0.3157   0.3167   0.3529   0.4354
     0.4437   0.4828   0.5228   0.5810   0.6396   0.6467   0.6915   0.7378
     0.8115   0.8236   0.8400   0.8746   0.9226   0.9257   0.9871   1.0704
     1.0903   1.1578   1.1693   1.2187   1.2237   1.3311   1.3324   1.3638
     1.3727   1.3815   1.3860   1.4072   1.4718   1.5496   1.5800   1.6464
     1.7612   1.7724   1.8117   1.8213   1.9072   1.9194   1.9460   2.0110
     2.1270   2.1276   2.4425   2.5143   2.5144   2.8854   2.8859   4.5374
     4.9399   5.7958   6.0256   6.4173   6.8371   6.8373   6.8657   7.0653
     7.0654   7.2536   7.3671   7.3676   7.4185   7.8702   8.0236   8.3266
     8.6798   8.8993   8.9855   9.2263   9.3582   9.5641   9.8604  10.0179
    10.7416  10.8084  10.9212  10.9415  11.1000  11.4288  11.7782  12.0909
    12.2071  12.3203

          k = 0.2222 0.0000 0.0000 ( 31991 PWs)   bands (ev):

   -87.2605 -87.2515 -87.2456 -87.2456 -87.2434 -87.2434 -86.9972 -86.9964
   -86.9864 -86.9851 -86.9849 -86.9847 -50.7648 -50.7645 -50.7580 -50.7576
   -50.7575 -50.7212 -50.7210 -50.7056 -50.7054 -50.6896 -50.6895 -50.6808
   -50.6785 -50.6781 -50.6594 -50.6534 -50.6505 -50.6390 -50.5028 -50.5025
   -50.5022 -50.5019 -50.4575 -50.4573 -50.4570 -50.4566 -50.4109 -50.4102
   -50.4097 -50.4084 -50.4002 -50.3993 -50.3988 -50.3986 -50.3986 -50.3983
   -14.1652 -14.0715 -13.9746 -10.4110 -10.4110 -10.3404 -10.3404 -10.2669
   -10.2668  -9.0406  -9.0038  -8.9694  -7.9069  -7.8849  -7.8543  -6.6323
    -6.6322  -6.5823  -6.5823  -6.5289  -6.5288  -2.7879  -2.2667  -2.2600
    -2.2368  -2.2095  -2.1789  -1.5000  -1.4508  -1.4508  -1.4330  -1.4330
    -1.4177  -1.4109  -1.4109  -1.1719  -1.0532  -1.0517  -0.9951  -0.8941
    -0.8935  -0.7997  -0.7993  -0.5669  -0.5659  -0.4301  -0.4284  -0.3516
    -0.3509  -0.2427  -0.2417  -0.1457  -0.0509   0.0143   0.1255   0.1296
     0.2239   0.2320   0.2529   0.2760   0.2772   0.3044   0.3678   0.3690
     0.3777   0.5034   0.5066   0.5133   0.5808   0.7337   0.8052   0.8071
     0.9127   0.9152   0.9968   0.9992   1.0133   1.0350   1.0991   1.1061
     1.1169   1.2191   1.2204   1.2582   1.3084   1.3087   1.3535   1.4668
     1.4719   1.4778   1.4780   1.4819   1.4860   1.4868   1.4880   1.6110
     1.7480   1.7492   1.8488   1.8508   1.8512   1.9221   1.9221   1.9707
     1.9731   2.3144   2.3764   2.3768   2.6702   2.9373   3.1338   4.4005
     5.7627   5.7630   5.8244   6.4370   6.5475   6.6257   6.6260   6.7872
     7.3825   7.3829   7.6681   7.6681   7.9329   7.9378   8.0156   8.0159
     8.7750   8.7810   8.8026   8.8909   9.4811   9.7622   9.8189   9.8277
    10.4132  10.4179  10.8312  11.0169  11.3315  11.3321  11.4876  11.4883
    12.2732  12.3427

          k = 0.2222 0.1283 0.0000 ( 32015 PWs)   bands (ev):

   -87.2600 -87.2511 -87.2463 -87.2456 -87.2436 -87.2433 -86.9968 -86.9960
   -86.9866 -86.9855 -86.9850 -86.9848 -50.7716 -50.7629 -50.7600 -50.7568
   -50.7548 -50.7219 -50.7137 -50.7053 -50.6999 -50.6925 -50.6851 -50.6832
   -50.6788 -50.6763 -50.6610 -50.6585 -50.6517 -50.6408 -50.5089 -50.5084
   -50.4987 -50.4980 -50.4553 -50.4547 -50.4513 -50.4507 -50.4147 -50.4141
   -50.4100 -50.4084 -50.4007 -50.4004 -50.4002 -50.3991 -50.3987 -50.3985
   -14.0935 -14.0002 -13.9037 -10.9435 -10.8690 -10.7916  -9.7706  -9.7706
    -9.7058  -9.7058  -9.6383  -9.6383  -7.1326  -7.1326  -7.0832  -7.0832
    -7.0302  -7.0302  -6.0057  -5.9578  -5.9063  -2.7017  -2.1861  -2.1861
    -2.1632  -2.1632  -2.1615  -2.1362  -2.1362  -2.0945  -1.4179  -1.3321
    -1.1581  -1.0985  -1.0909  -1.0753  -1.0553  -0.9933  -0.9740  -0.9629
    -0.9245  -0.9097  -0.7155  -0.6453  -0.4917  -0.4554  -0.4504  -0.3645
    -0.3257  -0.3005  -0.2593  -0.1932  -0.0883  -0.0062   0.0608   0.1433
     0.2223   0.2235   0.2642   0.2703   0.3147   0.3210   0.3503   0.4367
     0.4492   0.4776   0.5265   0.5830   0.6383   0.6433   0.6942   0.7362
     0.8115   0.8236   0.8400   0.8736   0.9226   0.9229   0.9896   1.0679
     1.0898   1.1594   1.1640   1.2185   1.2278   1.3297   1.3305   1.3638
     1.3727   1.3818   1.3860   1.4072   1.4720   1.5445   1.5843   1.6484
     1.7599   1.7739   1.8099   1.8264   1.9072   1.9194   1.9456   2.0141
     2.1270   2.1276   2.4414   2.5143   2.5144   2.8854   2.8859   4.5362
     4.9403   5.7959   6.0245   6.4185   6.8371   6.8373   6.8704   7.0653
     7.0654   7.2546   7.3671   7.3676   7.4094   7.8564   8.0236   8.3266
     8.6798   8.8993   8.9855   9.2264   9.3706   9.5641   9.8603  10.0238
    10.7421  10.8064  10.9212  10.9426  11.1001  11.4272  11.7779  12.0909
    12.2071  12.3203

          k = 0.2222 0.2566 0.0000 ( 32047 PWs)   bands (ev):

   -87.2585 -87.2501 -87.2474 -87.2465 -87.2439 -87.2435 -86.9955 -86.9947
   -86.9872 -86.9862 -86.9855 -86.9855 -50.7731 -50.7649 -50.7624 -50.7566
   -50.7534 -50.7149 -50.7091 -50.7003 -50.6960 -50.6926 -50.6848 -50.6802
   -50.6758 -50.6742 -50.6697 -50.6647 -50.6583 -50.6435 -50.5105 -50.5099
   -50.5004 -50.4999 -50.4445 -50.4439 -50.4421 -50.4414 -50.4280 -50.4273
   -50.4088 -50.4074 -50.4039 -50.4036 -50.4010 -50.3997 -50.3993 -50.3991
   -13.8785 -13.7865 -13.6913 -11.3512 -11.2742 -11.1941 -10.7419 -10.6687
   -10.5925  -9.0673  -9.0135  -8.9583  -7.4589  -7.4177  -7.3716  -5.8730
    -5.8272  -5.7781  -5.2849  -5.2406  -5.1929  -3.1434  -3.1149  -3.0824
    -2.4442  -1.9656  -1.9436  -1.9174  -1.8747  -1.8424  -1.2075  -1.1726
    -1.1717  -1.1545  -1.1430  -1.1330  -1.1010  -1.0901  -1.0539  -0.9643
    -0.9269  -0.8885  -0.7572  -0.7383  -0.6078  -0.5475  -0.5007  -0.4083
    -0.3748  -0.3073  -0.2468  -0.2148  -0.1481  -0.0898   0.0999   0.1168
     0.1618   0.1744   0.1909   0.2065   0.2389   0.2631   0.2865   0.3412
     0.3755   0.4024   0.4568   0.4885   0.4912   0.5204   0.5487   0.5534
     0.7040   0.7811   0.7818   0.9116   0.9280   0.9397   0.9480   0.9609
     0.9917   0.9984   1.0002   1.0379   1.1388   1.1653   1.1722   1.2283
     1.2756   1.2856   1.3446   1.3942   1.4076   1.5272   1.5306   1.5505
     1.6047   1.6054   1.6452   1.7756   1.7800   1.8470   1.8944   1.9146
     2.0218   2.0231   2.1522   2.7536   2.8213   3.1359   3.3991   4.2071
     4.9068   5.0039   5.0227   5.8086   6.4217   6.4784   6.5421   6.5720
     6.7499   7.0542   7.9381   8.0901   8.2105   8.5102   8.5125   8.7022
     8.9902   9.1890   9.2684   9.3118   9.4152   9.8136  10.0352  10.1555
    10.2872  10.8916  10.9093  11.1920  11.3540  11.5695  12.3111  12.4666
    12.5768  12.6072

          k = 0.2222 0.3849 0.0000 ( 32067 PWs)   bands (ev):

   -87.2562 -87.2486 -87.2484 -87.2483 -87.2443 -87.2442 -86.9938 -86.9929
   -86.9880 -86.9868 -86.9867 -86.9864 -50.7667 -50.7666 -50.7602 -50.7601
   -50.7490 -50.7116 -50.7109 -50.7104 -50.6903 -50.6903 -50.6873 -50.6763
   -50.6760 -50.6694 -50.6690 -50.6683 -50.6645 -50.6475 -50.5044 -50.5039
   -50.5036 -50.5034 -50.4481 -50.4472 -50.4326 -50.4321 -50.4318 -50.4316
   -50.4087 -50.4084 -50.4071 -50.4058 -50.4017 -50.4004 -50.4003 -50.3999
   -13.5214 -13.4315 -13.3384 -11.6264 -11.6264 -11.5477 -11.5476 -11.4659
   -11.4658  -8.4828  -8.4481  -8.4154  -7.4536  -7.4389  -7.4163  -4.5210
    -4.5210  -4.4827  -4.4827  -4.4410  -4.4410  -4.1531  -4.1218  -4.0864
    -2.0181  -1.6016  -1.6016  -1.5814  -1.5814  -1.5569  -1.5569  -1.5127
    -1.4257  -1.1962  -1.1954  -1.1560  -1.1553  -1.1096  -1.1087  -1.0410
    -0.8222  -0.7854  -0.7825  -0.7688  -0.7280  -0.7156  -0.7014  -0.6198
    -0.6008  -0.5989  -0.4855  -0.4854  -0.4319  -0.2125  -0.1519  -0.1363
    -0.1289   0.1383   0.1389   0.1882   0.1915   0.1919   0.2579   0.2652
     0.2772   0.2851   0.2917   0.3465   0.3895   0.4576   0.4653   0.5013
     0.6410   0.6446   0.6553   0.6695   0.7200   0.7200   0.8080   0.8469
     0.9891   1.0005   1.0038   1.0362   1.1379   1.1399   1.1632   1.2931
     1.2934   1.3094   1.3227   1.3251   1.3705   1.3726   1.4642   1.4646
     1.5702   1.5721   1.5966   1.6731   1.7859   1.7874   1.8705   1.8753
     1.8776   1.9961   1.9982   3.2058   3.4426   3.5525   3.5528   3.7095
     3.8939   4.3072   4.3083   5.4492   5.8246   5.8289   6.1123   6.1479
     6.1708   7.3644   7.9231   7.9237   9.3223   9.3228   9.5666   9.5668
     9.6713   9.7378   9.8222   9.8225   9.9580   9.9614  10.2334  10.5134
    10.5202  10.6480  11.2515  11.2561  11.6417  11.7882  12.2439  12.2446
    12.2863  12.2919

          k = 0.2222-0.6415 0.0000 ( 32050 PWs)   bands (ev):

   -87.2535 -87.2508 -87.2488 -87.2469 -87.2454 -87.2445 -86.9920 -86.9907
   -86.9890 -86.9886 -86.9872 -86.9872 -50.7693 -50.7626 -50.7535 -50.7497
   -50.7467 -50.7316 -50.7133 -50.7107 -50.7051 -50.6829 -50.6804 -50.6766
   -50.6728 -50.6722 -50.6702 -50.6625 -50.6608 -50.6535 -50.5064 -50.5057
   -50.4902 -50.4894 -50.4701 -50.4692 -50.4252 -50.4244 -50.4230 -50.4224
   -50.4150 -50.4147 -50.4056 -50.4039 -50.4024 -50.4020 -50.4009 -50.4006
   -13.0244 -12.9374 -12.8473 -12.3909 -12.3076 -12.2212 -11.7649 -11.6853
   -11.6026  -8.3332  -8.2832  -8.2315  -7.0665  -7.0371  -7.0046  -4.9602
    -4.9386  -4.9118  -3.8668  -3.8412  -3.8126  -3.1548  -3.1256  -3.0928
    -2.1114  -2.0943  -2.0726  -1.8558  -1.8369  -1.8144  -1.4287  -1.3436
    -1.2951  -1.2595  -1.1809  -1.1795  -1.1449  -1.0994  -1.0823  -1.0771
    -1.0608  -1.0178  -0.9262  -0.8790  -0.8502  -0.7681  -0.7659  -0.6954
    -0.6861  -0.5836  -0.5243  -0.5085  -0.4676  -0.4557  -0.4391  -0.4108
    -0.3062  -0.2108  -0.1279  -0.0393  -0.0319   0.0006   0.0412   0.1059
     0.1589   0.2075   0.2558   0.3081   0.3131   0.3219   0.3645   0.4850
     0.5774   0.6377   0.6463   0.6988   0.7809   0.8278   0.9168   0.9414
     0.9696   1.0206   1.0434   1.0469   1.1615   1.1674   1.2079   1.2317
     1.2975   1.3689   1.3801   1.4012   1.4439   1.5317   1.5564   1.6137
     1.6199   1.6644   1.6675   1.7052   1.7281   1.8183   1.8656   1.8899
     1.8978   1.9873   2.0779   2.3411   3.0027   3.0541   3.7765   3.8255
     3.8296   4.0989   4.3670   4.6882   5.4386   5.6730   5.8279   6.0308
     6.1360   6.9780   7.5961   8.3190   9.3700   9.7287   9.7805   9.9189
    10.1002  10.3214  10.3430  10.3900  10.7594  10.8309  10.9566  11.0883
    11.1570  11.1898  11.2213  11.3314  11.5680  11.8012  12.0547  12.0916
    12.1486  12.2472

          k = 0.2222-0.5132 0.0000 ( 32050 PWs)   bands (ev):

   -87.2535 -87.2508 -87.2488 -87.2469 -87.2454 -87.2445 -86.9920 -86.9907
   -86.9890 -86.9886 -86.9872 -86.9872 -50.7694 -50.7626 -50.7533 -50.7498
   -50.7466 -50.7318 -50.7130 -50.7107 -50.7054 -50.6830 -50.6805 -50.6766
   -50.6730 -50.6721 -50.6700 -50.6624 -50.6609 -50.6533 -50.5064 -50.5057
   -50.4901 -50.4892 -50.4702 -50.4695 -50.4252 -50.4244 -50.4230 -50.4227
   -50.4149 -50.4144 -50.4056 -50.4039 -50.4024 -50.4019 -50.4009 -50.4006
   -13.0244 -12.9374 -12.8473 -12.3909 -12.3076 -12.2212 -11.7649 -11.6853
   -11.6026  -8.3332  -8.2832  -8.2315  -7.0665  -7.0371  -7.0046  -4.9602
    -4.9386  -4.9118  -3.8668  -3.8412  -3.8126  -3.1548  -3.1256  -3.0928
    -2.1114  -2.0943  -2.0726  -1.8558  -1.8369  -1.8144  -1.4287  -1.3435
    -1.2952  -1.2585  -1.1819  -1.1796  -1.1457  -1.0994  -1.0823  -1.0762
    -1.0608  -1.0166  -0.9258  -0.8785  -0.8502  -0.7689  -0.7662  -0.6951
    -0.6861  -0.5865  -0.5217  -0.5088  -0.4676  -0.4557  -0.4391  -0.4116
    -0.3070  -0.2108  -0.1279  -0.0429  -0.0303  -0.0014   0.0412   0.1097
     0.1591   0.2148   0.2542   0.3011   0.3113   0.3190   0.3683   0.4850
     0.5774   0.6409   0.6432   0.7048   0.7820   0.8293   0.9144   0.9424
     0.9686   1.0186   1.0413   1.0467   1.1615   1.1684   1.2080   1.2342
     1.2983   1.3687   1.3787   1.4038   1.4453   1.5317   1.5540   1.6129
     1.6166   1.6639   1.6675   1.7056   1.7321   1.8171   1.8646   1.8897
     1.8970   1.9850   2.0789   2.3411   3.0030   3.0543   3.7765   3.8247
     3.8296   4.0989   4.3670   4.6903   5.4389   5.6730   5.8279   6.0308
     6.1382   6.9764   7.5964   8.3230   9.3647   9.7287   9.7805   9.9189
    10.1002  10.3214  10.3430  10.3901  10.7594  10.8310  10.9566  11.0883
    11.1571  11.1892  11.2212  11.3319  11.5675  11.8005  12.0547  12.0916
    12.1486  12.2450

          k = 0.2222-0.3849 0.0000 ( 32067 PWs)   bands (ev):

   -87.2562 -87.2486 -87.2483 -87.2483 -87.2443 -87.2442 -86.9938 -86.9929
   -86.9880 -86.9868 -86.9867 -86.9864 -50.7667 -50.7664 -50.7603 -50.7602
   -50.7490 -50.7114 -50.7109 -50.7106 -50.6904 -50.6903 -50.6875 -50.6766
   -50.6764 -50.6691 -50.6690 -50.6683 -50.6644 -50.6473 -50.5043 -50.5039
   -50.5035 -50.5033 -50.4481 -50.4475 -50.4326 -50.4321 -50.4319 -50.4317
   -50.4086 -50.4080 -50.4071 -50.4058 -50.4017 -50.4004 -50.4003 -50.3999
   -13.5214 -13.4315 -13.3384 -11.6264 -11.6264 -11.5477 -11.5476 -11.4659
   -11.4658  -8.4828  -8.4481  -8.4154  -7.4536  -7.4389  -7.4163  -4.5210
    -4.5210  -4.4827  -4.4827  -4.4410  -4.4410  -4.1531  -4.1218  -4.0864
    -2.0181  -1.6016  -1.6016  -1.5814  -1.5814  -1.5569  -1.5569  -1.5121
    -1.4257  -1.1963  -1.1955  -1.1568  -1.1560  -1.1090  -1.1084  -1.0402
    -0.8197  -0.7842  -0.7832  -0.7688  -0.7280  -0.7156  -0.7014  -0.6169
    -0.6017  -0.6012  -0.4870  -0.4865  -0.4342  -0.2136  -0.1534  -0.1347
    -0.1333   0.1444   0.1451   0.1847   0.1915   0.1919   0.2579   0.2652
     0.2772   0.2826   0.2848   0.3435   0.3921   0.4608   0.4631   0.5022
     0.6491   0.6495   0.6574   0.6692   0.7200   0.7200   0.8087   0.8420
     0.9894   0.9998   1.0014   1.0339   1.1379   1.1391   1.1636   1.2931
     1.2934   1.3130   1.3276   1.3284   1.3715   1.3722   1.4617   1.4626
     1.5675   1.5692   1.5949   1.6769   1.7885   1.7888   1.8673   1.8754
     1.8765   1.9936   1.9945   3.2058   3.4426   3.5523   3.5528   3.7095
     3.8939   4.3072   4.3088   5.4514   5.8282   5.8296   6.1123   6.1479
     6.1708   7.3674   7.9239   7.9250   9.3223   9.3228   9.5666   9.5668
     9.6713   9.7378   9.8222   9.8225   9.9553   9.9580  10.2334  10.5130
    10.5152  10.6482  11.2518  11.2560  11.6417  11.7881  12.2437  12.2441
    12.2860  12.2866

          k = 0.2222-0.2566 0.0000 ( 32047 PWs)   bands (ev):

   -87.2585 -87.2501 -87.2474 -87.2465 -87.2439 -87.2436 -86.9955 -86.9947
   -86.9872 -86.9862 -86.9855 -86.9855 -50.7728 -50.7650 -50.7625 -50.7568
   -50.7534 -50.7148 -50.7089 -50.7002 -50.6960 -50.6928 -50.6852 -50.6807
   -50.6758 -50.6738 -50.6698 -50.6649 -50.6581 -50.6433 -50.5104 -50.5097
   -50.5005 -50.5000 -50.4445 -50.4437 -50.4421 -50.4418 -50.4281 -50.4277
   -50.4088 -50.4074 -50.4039 -50.4032 -50.4010 -50.3998 -50.3992 -50.3991
   -13.8785 -13.7865 -13.6913 -11.3512 -11.2742 -11.1941 -10.7419 -10.6687
   -10.5925  -9.0673  -9.0135  -8.9583  -7.4589  -7.4177  -7.3716  -5.8730
    -5.8272  -5.7781  -5.2849  -5.2406  -5.1929  -3.1434  -3.1149  -3.0824
    -2.4442  -1.9656  -1.9436  -1.9174  -1.8744  -1.8424  -1.2069  -1.1726
    -1.1717  -1.1545  -1.1428  -1.1330  -1.1019  -1.0898  -1.0542  -0.9658
    -0.9249  -0.8885  -0.7545  -0.7391  -0.6053  -0.5489  -0.5021  -0.4115
    -0.3753  -0.3109  -0.2446  -0.2162  -0.1493  -0.0898   0.1055   0.1194
     0.1618   0.1744   0.1909   0.2032   0.2369   0.2633   0.2856   0.3432
     0.3698   0.4041   0.4547   0.4885   0.4894   0.5152   0.5577   0.5592
     0.7057   0.7825   0.7842   0.9049   0.9278   0.9397   0.9480   0.9609
     0.9938   0.9975   1.0002   1.0390   1.1400   1.1653   1.1720   1.2258
     1.2808   1.2896   1.3445   1.3956   1.4039   1.5250   1.5323   1.5505
     1.6028   1.6046   1.6452   1.7776   1.7816   1.8423   1.8945   1.9138
     2.0181   2.0219   2.1522   2.7543   2.8213   3.1359   3.3991   4.2069
     4.9086   5.0039   5.0223   5.8084   6.4217   6.4786   6.5421   6.5740
     6.7499   7.0614   7.9381   8.0991   8.2105   8.5112   8.5125   8.7022
     8.9902   9.1890   9.2684   9.3118   9.4024   9.8135  10.0290  10.1556
    10.2872  10.8913  10.9101  11.1919  11.3539  11.5688  12.2842  12.4666
    12.5767  12.6073

          k = 0.3333-0.1925 0.0000 ( 32055 PWs)   bands (ev):

   -87.2575 -87.2495 -87.2487 -87.2464 -87.2444 -87.2435 -86.9948 -86.9939
   -86.9878 -86.9870 -86.9856 -86.9855 -50.7794 -50.7708 -50.7549 -50.7513
   -50.7503 -50.7171 -50.7046 -50.6985 -50.6984 -50.6886 -50.6858 -50.6786
   -50.6785 -50.6738 -50.6712 -50.6663 -50.6594 -50.6471 -50.5166 -50.5159
   -50.4927 -50.4923 -50.4408 -50.4400 -50.4373 -50.4366 -50.4349 -50.4348
   -50.4080 -50.4072 -50.4070 -50.4061 -50.4015 -50.4006 -50.3993 -50.3991
   -13.7354 -13.6443 -13.5499 -11.8331 -11.7531 -11.6700 -10.0163 -10.0163
    -9.9482  -9.9482  -9.8772  -9.8771  -6.3550  -6.3550  -6.3097  -6.3097
    -6.2611  -6.2611  -4.6053  -4.5638  -4.5188  -2.9795  -2.9794  -2.9524
    -2.9523  -2.9212  -2.9212  -2.2734  -1.6890  -1.6753  -1.3242  -1.2271
    -1.2197  -1.0103  -0.9948  -0.9397  -0.9181  -0.8708  -0.8207  -0.7528
    -0.7515  -0.7365  -0.7170  -0.7028  -0.6744  -0.5591  -0.5041  -0.3751
    -0.3530  -0.3458  -0.3443  -0.3340  -0.3109  -0.2421  -0.1836  -0.1714
    -0.0823  -0.0529   0.0400   0.0538   0.1107   0.1373   0.2140   0.2529
     0.2700   0.3430   0.4638   0.4686   0.4815   0.5131   0.5813   0.6018
     0.6176   0.6585   0.6935   0.8000   0.8196   0.8248   0.8308   0.8465
     0.8568   0.8849   1.0624   1.0779   1.0823   1.1424   1.2179   1.2598
     1.2947   1.3167   1.3532   1.5145   1.5413   1.6037   1.6577   1.6675
     1.7732   1.7951   1.8008   1.8659   1.8933   1.9345   1.9591   1.9597
     1.9766   2.0203   2.3963   2.3964   2.8443   2.8450   2.9607   3.5139
     4.2532   5.1399   5.5885   5.7647   6.2338   6.7628   6.9097   7.0934
     7.1962   7.1966   7.4305   7.4305   7.6886   7.6890   7.9069   9.0892
     9.3817   9.4565   9.4735   9.7262   9.7523   9.9816  10.0638  10.3043
    10.3529  10.5242  11.3696  11.5261  11.7307  11.9332  11.9638  12.2178
    12.2949  12.3358

          k = 0.3333-0.0642 0.0000 ( 32047 PWs)   bands (ev):

   -87.2585 -87.2501 -87.2474 -87.2465 -87.2439 -87.2436 -86.9955 -86.9947
   -86.9872 -86.9862 -86.9855 -86.9855 -50.7728 -50.7650 -50.7625 -50.7568
   -50.7533 -50.7148 -50.7085 -50.7006 -50.6967 -50.6928 -50.6845 -50.6801
   -50.6765 -50.6737 -50.6698 -50.6647 -50.6581 -50.6435 -50.5104 -50.5096
   -50.5006 -50.5001 -50.4444 -50.4436 -50.4422 -50.4418 -50.4279 -50.4276
   -50.4088 -50.4075 -50.4041 -50.4033 -50.4010 -50.3998 -50.3992 -50.3991
   -13.8785 -13.7865 -13.6913 -11.3512 -11.2742 -11.1941 -10.7419 -10.6687
   -10.5925  -9.0673  -9.0135  -8.9583  -7.4589  -7.4177  -7.3716  -5.8730
    -5.8272  -5.7781  -5.2849  -5.2406  -5.1929  -3.1434  -3.1149  -3.0824
    -2.4442  -1.9656  -1.9436  -1.9174  -1.8745  -1.8424  -1.2069  -1.1726
    -1.1717  -1.1545  -1.1418  -1.1330  -1.1006  -1.0909  -1.0549  -0.9646
    -0.9270  -0.8884  -0.7579  -0.7409  -0.6071  -0.5479  -0.5007  -0.4089
    -0.3750  -0.3084  -0.2435  -0.2167  -0.1472  -0.0898   0.1067   0.1181
     0.1618   0.1744   0.1909   0.2055   0.2394   0.2652   0.2907   0.3432
     0.3708   0.3996   0.4548   0.4885   0.4898   0.5152   0.5483   0.5504
     0.7071   0.7834   0.7845   0.9080   0.9278   0.9397   0.9480   0.9609
     0.9968   0.9992   1.0002   1.0372   1.1433   1.1653   1.1720   1.2305
     1.2749   1.2798   1.3403   1.3945   1.4109   1.5242   1.5274   1.5505
     1.6042   1.6093   1.6452   1.7772   1.7802   1.8445   1.8956   1.9137
     2.0186   2.0239   2.1522   2.7557   2.8213   3.1359   3.3991   4.2067
     4.9074   5.0042   5.0223   5.8081   6.4217   6.4762   6.5421   6.5729
     6.7499   7.0616   7.9381   8.0989   8.2105   8.5107   8.5125   8.7022
     8.9902   9.1890   9.2684   9.3118   9.4025   9.8135  10.0292  10.1556
    10.2893  10.8911  10.9153  11.1920  11.3539  11.5646  12.2829  12.4666
    12.5777  12.6072

          k = 0.3333 0.0642 0.0000 ( 32047 PWs)   bands (ev):

   -87.2585 -87.2501 -87.2474 -87.2465 -87.2439 -87.2436 -86.9955 -86.9947
   -86.9872 -86.9862 -86.9855 -86.9855 -50.7731 -50.7650 -50.7622 -50.7568
   -50.7534 -50.7149 -50.7086 -50.7007 -50.6965 -50.6928 -50.6846 -50.6801
   -50.6760 -50.6741 -50.6697 -50.6647 -50.6581 -50.6435 -50.5104 -50.5099
   -50.5005 -50.4998 -50.4444 -50.4440 -50.4421 -50.4414 -50.4279 -50.4274
   -50.4088 -50.4074 -50.4041 -50.4035 -50.4010 -50.3997 -50.3993 -50.3991
   -13.8785 -13.7865 -13.6913 -11.3512 -11.2742 -11.1941 -10.7419 -10.6687
   -10.5925  -9.0673  -9.0135  -8.9583  -7.4589  -7.4177  -7.3716  -5.8730
    -5.8272  -5.7781  -5.2849  -5.2406  -5.1929  -3.1434  -3.1149  -3.0824
    -2.4442  -1.9656  -1.9436  -1.9174  -1.8745  -1.8424  -1.2074  -1.1726
    -1.1717  -1.1545  -1.1419  -1.1330  -1.1006  -1.0908  -1.0534  -0.9642
    -0.9276  -0.8889  -0.7582  -0.7391  -0.6089  -0.5473  -0.5001  -0.4079
    -0.3744  -0.3080  -0.2472  -0.2156  -0.1476  -0.0894   0.1006   0.1188
     0.1618   0.1744   0.1909   0.2064   0.2403   0.2633   0.2859   0.3418
     0.3743   0.4022   0.4571   0.4885   0.4915   0.5211   0.5484   0.5519
     0.7046   0.7810   0.7818   0.9108   0.9284   0.9397   0.9480   0.9609
     0.9927   0.9994   1.0002   1.0379   1.1393   1.1653   1.1723   1.2291
     1.2748   1.2826   1.3433   1.3937   1.4091   1.5276   1.5282   1.5505
     1.6047   1.6068   1.6452   1.7755   1.7810   1.8462   1.8951   1.9145
     2.0215   2.0219   2.1522   2.7550   2.8213   3.1359   3.3991   4.2070
     4.9068   5.0045   5.0227   5.8083   6.4217   6.4782   6.5421   6.5723
     6.7499   7.0544   7.9381   8.0904   8.2105   8.5111   8.5125   8.7022
     8.9902   9.1890   9.2684   9.3118   9.4151   9.8136  10.0352  10.1556
    10.2852  10.8915  10.9098  11.1920  11.3540  11.5664  12.3111  12.4666
    12.5768  12.6072

          k = 0.3333 0.1925 0.0000 ( 32055 PWs)   bands (ev):

   -87.2575 -87.2495 -87.2487 -87.2464 -87.2444 -87.2435 -86.9948 -86.9939
   -86.9878 -86.9870 -86.9856 -86.9855 -50.7797 -50.7708 -50.7548 -50.7513
   -50.7501 -50.7172 -50.7050 -50.6984 -50.6983 -50.6885 -50.6857 -50.6783
   -50.6782 -50.6737 -50.6716 -50.6662 -50.6595 -50.6474 -50.5166 -50.5161
   -50.4927 -50.4920 -50.4408 -50.4403 -50.4373 -50.4363 -50.4348 -50.4345
   -50.4081 -50.4072 -50.4068 -50.4067 -50.4015 -50.4005 -50.3993 -50.3992
   -13.7354 -13.6443 -13.5499 -11.8331 -11.7531 -11.6700 -10.0163 -10.0163
    -9.9482  -9.9482  -9.8772  -9.8771  -6.3550  -6.3550  -6.3097  -6.3097
    -6.2611  -6.2611  -4.6053  -4.5638  -4.5188  -2.9795  -2.9794  -2.9524
    -2.9523  -2.9212  -2.9212  -2.2734  -1.6893  -1.6753  -1.3239  -1.2268
    -1.2205  -1.0103  -0.9951  -0.9387  -0.9163  -0.8694  -0.8225  -0.7533
    -0.7515  -0.7365  -0.7170  -0.7012  -0.6759  -0.5574  -0.5059  -0.3744
    -0.3530  -0.3456  -0.3421  -0.3340  -0.3109  -0.2423  -0.1884  -0.1690
    -0.0831  -0.0529   0.0351   0.0503   0.1115   0.1367   0.2143   0.2517
     0.2718   0.3484   0.4588   0.4728   0.4815   0.5114   0.5846   0.6019
     0.6185   0.6592   0.7010   0.7938   0.8163   0.8196   0.8308   0.8465
     0.8565   0.8906   1.0624   1.0759   1.0801   1.1441   1.2144   1.2596
     1.2935   1.3150   1.3543   1.5224   1.5456   1.6018   1.6545   1.6673
     1.7710   1.7947   1.8047   1.8642   1.8948   1.9341   1.9591   1.9597
     1.9805   2.0212   2.3963   2.3964   2.8443   2.8450   2.9593   3.5141
     4.2534   5.1382   5.5923   5.7646   6.2417   6.7490   6.9080   7.0751
     7.1962   7.1966   7.4305   7.4305   7.6886   7.6890   7.9053   9.1043
     9.3817   9.4565   9.4735   9.7338   9.7523   9.9817  10.0638  10.3009
    10.3528  10.5248  11.3697  11.5263  11.7565  11.9329  11.9636  12.2177
    12.2954  12.3371

          k = 0.3333 0.3208 0.0000 ( 32079 PWs)   bands (ev):

   -87.2558 -87.2499 -87.2483 -87.2472 -87.2450 -87.2438 -86.9935 -86.9925
   -86.9886 -86.9879 -86.9862 -86.9860 -50.7787 -50.7703 -50.7532 -50.7484
   -50.7481 -50.7146 -50.7120 -50.7076 -50.6910 -50.6905 -50.6858 -50.6779
   -50.6760 -50.6687 -50.6684 -50.6679 -50.6651 -50.6505 -50.5157 -50.5151
   -50.4899 -50.4893 -50.4502 -50.4494 -50.4319 -50.4313 -50.4307 -50.4302
   -50.4111 -50.4108 -50.4068 -50.4055 -50.4021 -50.4013 -50.3999 -50.3997
   -13.4502 -13.3607 -13.2680 -12.1809 -12.0988 -12.0137 -10.9439 -10.8693
   -10.7917  -9.1965  -9.1354  -9.0716  -6.7351  -6.6939  -6.6496  -5.1040
    -5.0668  -5.0264  -4.0461  -4.0169  -3.9834  -3.8676  -3.8306  -3.7900
    -2.6433  -2.6196  -2.5916  -1.9337  -1.4181  -1.3734  -1.3433  -1.2955
    -1.2471  -1.0603  -1.0397  -1.0147  -0.9940  -0.9790  -0.9414  -0.9360
    -0.9084  -0.7824  -0.7765  -0.7663  -0.7501  -0.7295  -0.6878  -0.6172
    -0.5711  -0.5629  -0.4469  -0.4150  -0.4117  -0.3821  -0.2381  -0.2184
    -0.1120  -0.1002   0.0365   0.0641   0.1026   0.1670   0.1855   0.2358
     0.2420   0.3338   0.3380   0.3459   0.3624   0.3681   0.3922   0.5353
     0.5380   0.7023   0.7039   0.7315   0.7423   0.7428   0.7951   0.8270
     0.9251   0.9394   0.9422   0.9691   1.0899   1.1057   1.1583   1.2885
     1.3136   1.3645   1.4132   1.4441   1.4683   1.5171   1.5519   1.6720
     1.7248   1.7490   1.7515   1.8091   1.8227   1.8544   1.8576   1.9191
     1.9795   2.0036   2.0669   2.8438   2.9009   3.2261   3.3179   3.5754
     3.5967   4.4222   5.1393   5.1853   5.5608   6.4097   6.4582   6.6424
     6.8506   7.3498   7.5166   7.5781   8.4138   8.6406   8.8673   9.2187
     9.7444   9.7670   9.8171   9.8317  10.1955  10.3198  10.4422  10.6022
    10.7113  10.7470  11.4772  11.5096  11.7259  11.8513  11.8762  11.9890
    12.0230  12.5021

          k = 0.3333-0.7057 0.0000 ( 32050 PWs)   bands (ev):

   -87.2535 -87.2507 -87.2489 -87.2469 -87.2454 -87.2444 -86.9920 -86.9907
   -86.9890 -86.9886 -86.9872 -86.9872 -50.7693 -50.7626 -50.7536 -50.7497
   -50.7467 -50.7316 -50.7127 -50.7115 -50.7050 -50.6829 -50.6804 -50.6762
   -50.6730 -50.6723 -50.6701 -50.6622 -50.6611 -50.6536 -50.5066 -50.5059
   -50.4899 -50.4892 -50.4701 -50.4692 -50.4249 -50.4242 -50.4233 -50.4226
   -50.4150 -50.4148 -50.4056 -50.4039 -50.4024 -50.4019 -50.4010 -50.4006
   -13.0244 -12.9374 -12.8473 -12.3909 -12.3076 -12.2212 -11.7649 -11.6853
   -11.6026  -8.3332  -8.2832  -8.2315  -7.0665  -7.0371  -7.0046  -4.9602
    -4.9386  -4.9118  -3.8668  -3.8412  -3.8126  -3.1548  -3.1256  -3.0928
    -2.1114  -2.0943  -2.0726  -1.8558  -1.8369  -1.8144  -1.4287  -1.3427
    -1.2955  -1.2594  -1.1811  -1.1803  -1.1451  -1.0994  -1.0823  -1.0772
    -1.0608  -1.0175  -0.9239  -0.8791  -0.8502  -0.7709  -0.7633  -0.6959
    -0.6861  -0.5858  -0.5238  -0.5071  -0.4676  -0.4557  -0.4391  -0.4102
    -0.3057  -0.2108  -0.1279  -0.0469  -0.0251   0.0015   0.0412   0.1002
     0.1580   0.2090   0.2545   0.3062   0.3069   0.3278   0.3690   0.4850
     0.5774   0.6426   0.6494   0.6944   0.7847   0.8254   0.9162   0.9401
     0.9720   1.0128   1.0427   1.0468   1.1615   1.1653   1.2082   1.2343
     1.3007   1.3673   1.3771   1.4053   1.4451   1.5322   1.5567   1.6130
     1.6183   1.6665   1.6690   1.7046   1.7289   1.8164   1.8675   1.8918
     1.8972   1.9865   2.0772   2.3410   3.0017   3.0543   3.7765   3.8251
     3.8312   4.0989   4.3670   4.6908   5.4332   5.6730   5.8279   6.0308
     6.1356   6.9756   7.5964   8.3187   9.3656   9.7287   9.7848   9.9189
    10.1002  10.3277  10.3430  10.3900  10.7594  10.8309  10.9566  11.0841
    11.1571  11.1894  11.2211  11.3314  11.5670  11.8020  12.0561  12.0976
    12.1485  12.2447

          k = 0.3333-0.5774 0.0000 ( 32121 PWs)   bands (ev):

   -87.2511 -87.2511 -87.2510 -87.2456 -87.2456 -87.2455 -86.9913 -86.9889
   -86.9887 -86.9887 -86.9885 -86.9884 -50.7540 -50.7539 -50.7536 -50.7507
   -50.7505 -50.7505 -50.7128 -50.7125 -50.7123 -50.6768 -50.6767 -50.6766
   -50.6739 -50.6738 -50.6736 -50.6575 -50.6575 -50.6573 -50.4908 -50.4906
   -50.4898 -50.4896 -50.4895 -50.4891 -50.4202 -50.4200 -50.4193 -50.4191
   -50.4189 -50.4188 -50.4050 -50.4024 -50.4023 -50.4022 -50.4018 -50.4017
   -12.4611 -12.4610 -12.4610 -12.3774 -12.3774 -12.3774 -12.2907 -12.2906
   -12.2906  -7.5881  -7.5278  -7.5271  -7.5233  -7.5217  -7.4655  -5.3500
    -5.3457  -5.3446  -2.7653  -2.7653  -2.7653  -2.7488  -2.7488  -2.7487
    -2.7293  -2.7293  -2.7293  -1.3592  -1.3592  -1.3592  -1.3484  -1.3484
    -1.3484  -1.3328  -1.3327  -1.3327  -1.2669  -1.2661  -1.2657  -1.2268
    -1.2260  -1.2257  -1.0407  -1.0406  -1.0394  -0.8413  -0.8408  -0.8395
    -0.7666  -0.7661  -0.7661  -0.6737  -0.6733  -0.6707  -0.4063  -0.4059
    -0.4053  -0.2052  -0.2052  -0.2052   0.0099   0.0142   0.0148   0.2118
     0.2195   0.2205   0.3000   0.3020   0.3030   0.4112   0.4113   0.4118
     0.4362   0.4380   0.4427   0.8225   0.8242   0.8279   0.8733   0.8778
     0.8789   1.1926   1.1931   1.1941   1.2498   1.2512   1.2517   1.4512
     1.4518   1.4543   1.4788   1.4793   1.4796   1.5773   1.5775   1.5781
     1.6786   1.6788   1.6792   1.7121   1.7129   1.7132   1.9071   1.9080
     1.9088   1.9385   1.9392   1.9396   2.7206   2.7225   2.7229   4.5189
     4.5208   4.5225   4.5388   4.9584   4.9659   4.9718   4.9813   5.4288
     6.8428   6.8436   6.8455   9.2305   9.2326   9.2374  10.9970  10.9974
    10.9980  11.0832  11.0836  11.0848  11.1154  11.1176  11.1184  11.1610
    11.1622  11.1644  11.3110  11.3123  11.3131  11.4652  11.4665  11.4674
    11.7255  11.7265

          k = 0.3333-0.4491 0.0000 ( 32050 PWs)   bands (ev):

   -87.2535 -87.2507 -87.2489 -87.2469 -87.2454 -87.2445 -86.9920 -86.9907
   -86.9890 -86.9886 -86.9872 -86.9872 -50.7691 -50.7626 -50.7536 -50.7498
   -50.7466 -50.7318 -50.7127 -50.7111 -50.7053 -50.6830 -50.6804 -50.6764
   -50.6731 -50.6722 -50.6699 -50.6624 -50.6610 -50.6533 -50.5065 -50.5056
   -50.4899 -50.4893 -50.4702 -50.4695 -50.4249 -50.4246 -50.4232 -50.4225
   -50.4150 -50.4144 -50.4056 -50.4039 -50.4024 -50.4019 -50.4009 -50.4006
   -13.0244 -12.9374 -12.8473 -12.3909 -12.3076 -12.2212 -11.7649 -11.6853
   -11.6026  -8.3332  -8.2832  -8.2315  -7.0665  -7.0371  -7.0046  -4.9602
    -4.9386  -4.9118  -3.8668  -3.8412  -3.8126  -3.1548  -3.1256  -3.0928
    -2.1114  -2.0943  -2.0726  -1.8558  -1.8369  -1.8144  -1.4287  -1.3438
    -1.2961  -1.2585  -1.1811  -1.1792  -1.1448  -1.0994  -1.0823  -1.0761
    -1.0608  -1.0180  -0.9252  -0.8788  -0.8502  -0.7698  -0.7656  -0.6953
    -0.6861  -0.5868  -0.5215  -0.5088  -0.4676  -0.4557  -0.4391  -0.4108
    -0.3065  -0.2108  -0.1279  -0.0427  -0.0304  -0.0021   0.0412   0.1085
     0.1585   0.2169   0.2523   0.3044   0.3097   0.3207   0.3678   0.4850
     0.5774   0.6423   0.6444   0.7034   0.7828   0.8284   0.9137   0.9421
     0.9693   1.0173   1.0403   1.0466   1.1615   1.1673   1.2085   1.2342
     1.2995   1.3685   1.3782   1.4042   1.4455   1.5319   1.5540   1.6127
     1.6155   1.6645   1.6684   1.7059   1.7318   1.8173   1.8643   1.8887
     1.8967   1.9856   2.0790   2.3414   3.0016   3.0534   3.7765   3.8249
     3.8319   4.0989   4.3670   4.6917   5.4377   5.6730   5.8279   6.0308
     6.1383   6.9763   7.5975   8.3230   9.3663   9.7287   9.7773   9.9189
    10.1002  10.3219  10.3430  10.3901  10.7594  10.8310  10.9566  11.0840
    11.1570  11.1895  11.2211  11.3319  11.5670  11.8019  12.0547  12.0918
    12.1486  12.2446

          k = 0.3333-0.3208 0.0000 ( 32079 PWs)   bands (ev):

   -87.2558 -87.2499 -87.2483 -87.2472 -87.2450 -87.2438 -86.9935 -86.9925
   -86.9886 -86.9879 -86.9862 -86.9860 -50.7784 -50.7703 -50.7532 -50.7485
   -50.7481 -50.7146 -50.7122 -50.7072 -50.6912 -50.6906 -50.6857 -50.6782
   -50.6763 -50.6688 -50.6680 -50.6679 -50.6649 -50.6503 -50.5157 -50.5149
   -50.4899 -50.4894 -50.4503 -50.4498 -50.4319 -50.4311 -50.4308 -50.4305
   -50.4110 -50.4104 -50.4068 -50.4055 -50.4021 -50.4014 -50.3999 -50.3996
   -13.4502 -13.3607 -13.2680 -12.1809 -12.0988 -12.0137 -10.9439 -10.8693
   -10.7917  -9.1965  -9.1354  -9.0716  -6.7351  -6.6939  -6.6496  -5.1040
    -5.0668  -5.0264  -4.0461  -4.0169  -3.9834  -3.8676  -3.8306  -3.7900
    -2.6433  -2.6196  -2.5916  -1.9337  -1.4176  -1.3742  -1.3433  -1.2960
    -1.2459  -1.0603  -1.0397  -1.0147  -0.9951  -0.9795  -0.9405  -0.9372
    -0.9086  -0.7803  -0.7785  -0.7663  -0.7501  -0.7295  -0.6878  -0.6144
    -0.5696  -0.5650  -0.4469  -0.4182  -0.4125  -0.3826  -0.2385  -0.2188
    -0.1077  -0.1043   0.0429   0.0703   0.1026   0.1645   0.1870   0.2350
     0.2365   0.3338   0.3363   0.3459   0.3621   0.3624   0.3966   0.5394
     0.5413   0.7037   0.7039   0.7266   0.7331   0.7491   0.7986   0.8278
     0.9285   0.9382   0.9407   0.9691   1.0954   1.1030   1.1562   1.2910
     1.3138   1.3667   1.4153   1.4403   1.4683   1.5122   1.5491   1.6712
     1.7234   1.7513   1.7521   1.8074   1.8274   1.8528   1.8580   1.9145
     1.9790   2.0036   2.0651   2.8438   2.9010   3.2261   3.3189   3.5753
     3.5967   4.4205   5.1402   5.1849   5.5632   6.4193   6.4582   6.6424
     6.8506   7.3511   7.5196   7.5876   8.4138   8.6406   8.8673   9.2048
     9.7460   9.7671   9.8099   9.8316  10.1955  10.3197  10.4422  10.6019
    10.7113  10.7471  11.4772  11.5097  11.7259  11.8514  11.8760  11.9573
    12.0226  12.5021

          k = 0.4444-0.2566 0.0000 ( 32102 PWs)   bands (ev):

   -87.2546 -87.2515 -87.2476 -87.2468 -87.2458 -87.2437 -86.9927 -86.9915
   -86.9895 -86.9891 -86.9860 -86.9858 -50.7836 -50.7751 -50.7469 -50.7463
   -50.7374 -50.7187 -50.7142 -50.7057 -50.7002 -50.6879 -50.6803 -50.6787
   -50.6749 -50.6697 -50.6683 -50.6660 -50.6651 -50.6559 -50.5206 -50.5199
   -50.4784 -50.4779 -50.4579 -50.4575 -50.4287 -50.4285 -50.4276 -50.4268
   -50.4162 -50.4155 -50.4061 -50.4046 -50.4028 -50.4025 -50.3998 -50.3994
   -13.2369 -13.1486 -13.0573 -12.6010 -12.5165 -12.4288 -10.1441 -10.1440
   -10.0746 -10.0746 -10.0023 -10.0023  -5.6483  -5.6482  -5.6164  -5.6164
    -5.5822  -5.5821  -3.6992  -3.6992  -3.6771  -3.6770  -3.6502  -3.6502
    -3.1561  -3.1220  -3.0842  -1.7133  -1.6912  -1.6767  -1.6564  -1.4623
    -1.3715  -1.3088  -1.2002  -1.0964  -1.0197  -0.9345  -0.9315  -0.8703
    -0.8569  -0.7647  -0.6956  -0.6949  -0.6045  -0.5969  -0.5260  -0.4710
    -0.4494  -0.4439  -0.3701  -0.3566  -0.3484  -0.2983  -0.2841  -0.2654
    -0.1025  -0.0635  -0.0377  -0.0147   0.0352   0.0399   0.1415   0.1473
     0.1984   0.2220   0.2409   0.2508   0.2539   0.2714   0.2994   0.3196
     0.4093   0.4995   0.5479   0.5710   0.6553   0.7571   0.8189   0.8337
     0.8497   1.0052   1.0141   1.0786   1.1482   1.2353   1.3328   1.4051
     1.4113   1.4763   1.5303   1.6180   1.6456   1.6873   1.7011   1.7600
     1.7669   1.8373   1.8467   1.8645   1.8652   1.8877   1.9592   2.0556
     2.1334   2.1384   2.3252   2.3252   2.3895   2.8095   2.8103   2.9640
     3.6256   4.5420   5.0510   5.8534   5.8800   6.3899   6.6123   6.7865
     7.4676   7.4679   7.6783   7.6783   7.8806   7.8810   7.9494   8.9823
     9.0973   9.5876  10.0547  10.1124  10.3161  10.5787  10.8901  10.9098
    11.0423  11.0647  11.2434  11.3923  11.5117  11.5249  11.9200  11.9673
    12.1347  12.5200

          k = 0.4444-0.1283 0.0000 ( 32079 PWs)   bands (ev):

   -87.2558 -87.2499 -87.2484 -87.2472 -87.2449 -87.2438 -86.9935 -86.9925
   -86.9886 -86.9879 -86.9862 -86.9860 -50.7784 -50.7703 -50.7531 -50.7486
   -50.7481 -50.7148 -50.7122 -50.7071 -50.6911 -50.6907 -50.6861 -50.6781
   -50.6758 -50.6687 -50.6681 -50.6680 -50.6650 -50.6504 -50.5156 -50.5149
   -50.4901 -50.4895 -50.4501 -50.4496 -50.4317 -50.4310 -50.4308 -50.4305
   -50.4112 -50.4105 -50.4068 -50.4055 -50.4021 -50.4014 -50.3999 -50.3996
   -13.4502 -13.3607 -13.2680 -12.1809 -12.0988 -12.0137 -10.9439 -10.8693
   -10.7917  -9.1965  -9.1354  -9.0716  -6.7351  -6.6939  -6.6496  -5.1040
    -5.0668  -5.0264  -4.0461  -4.0169  -3.9834  -3.8676  -3.8306  -3.7900
    -2.6433  -2.6196  -2.5916  -1.9337  -1.4176  -1.3742  -1.3433  -1.2956
    -1.2462  -1.0603  -1.0397  -1.0147  -0.9952  -0.9792  -0.9397  -0.9378
    -0.9084  -0.7834  -0.7783  -0.7663  -0.7501  -0.7295  -0.6878  -0.6158
    -0.5740  -0.5645  -0.4469  -0.4150  -0.4089  -0.3809  -0.2390  -0.2175
    -0.1059  -0.1053   0.0415   0.0686   0.1026   0.1648   0.1915   0.2367
     0.2442   0.3338   0.3354   0.3459   0.3602   0.3624   0.3930   0.5355
     0.5380   0.6920   0.7039   0.7273   0.7405   0.7453   0.8019   0.8284
     0.9293   0.9388   0.9412   0.9691   1.0977   1.1068   1.1550   1.2861
     1.3132   1.3651   1.4141   1.4455   1.4683   1.5104   1.5485   1.6734
     1.7238   1.7492   1.7513   1.8072   1.8237   1.8546   1.8590   1.9151
     1.9799   2.0036   2.0674   2.8438   2.9008   3.2261   3.3204   3.5757
     3.5967   4.4205   5.1384   5.1848   5.5619   6.4192   6.4582   6.6424
     6.8506   7.3520   7.5182   7.5874   8.4138   8.6406   8.8673   9.2049
     9.7483   9.7671   9.8101   9.8316  10.1955  10.3197  10.4422  10.6019
    10.7113  10.7471  11.4774  11.5098  11.7259  11.8525  11.8759  11.9569
    12.0216  12.5040

          k = 0.4444 0.0000 0.0000 ( 32067 PWs)   bands (ev):

   -87.2562 -87.2486 -87.2484 -87.2483 -87.2442 -87.2442 -86.9938 -86.9929
   -86.9880 -86.9868 -86.9867 -86.9864 -50.7667 -50.7664 -50.7603 -50.7603
   -50.7489 -50.7113 -50.7111 -50.7107 -50.6906 -50.6905 -50.6873 -50.6760
   -50.6759 -50.6695 -50.6691 -50.6683 -50.6643 -50.6476 -50.5044 -50.5039
   -50.5036 -50.5033 -50.4478 -50.4473 -50.4324 -50.4321 -50.4320 -50.4316
   -50.4089 -50.4082 -50.4071 -50.4058 -50.4017 -50.4004 -50.4003 -50.3999
   -13.5214 -13.4315 -13.3384 -11.6264 -11.6264 -11.5477 -11.5476 -11.4659
   -11.4658  -8.4828  -8.4481  -8.4154  -7.4536  -7.4389  -7.4163  -4.5210
    -4.5210  -4.4827  -4.4827  -4.4410  -4.4410  -4.1531  -4.1218  -4.0864
    -2.0181  -1.6016  -1.6016  -1.5814  -1.5814  -1.5569  -1.5569  -1.5121
    -1.4257  -1.1961  -1.1952  -1.1560  -1.1554  -1.1103  -1.1090  -1.0393
    -0.8243  -0.7853  -0.7833  -0.7688  -0.7280  -0.7156  -0.7014  -0.6218
    -0.6002  -0.5988  -0.4854  -0.4848  -0.4303  -0.2128  -0.1520  -0.1376
    -0.1314   0.1415   0.1427   0.1879   0.1915   0.1919   0.2579   0.2652
     0.2772   0.2844   0.2894   0.3492   0.3916   0.4597   0.4653   0.4989
     0.6402   0.6434   0.6553   0.6687   0.7200   0.7200   0.8080   0.8463
     0.9890   1.0017   1.0051   1.0367   1.1379   1.1399   1.1631   1.2931
     1.2934   1.3090   1.3206   1.3228   1.3709   1.3724   1.4640   1.4651
     1.5716   1.5729   1.5979   1.6709   1.7856   1.7873   1.8693   1.8763
     1.8778   1.9948   1.9977   3.2077   3.4426   3.5523   3.5526   3.7095
     3.8939   4.3082   4.3087   5.4492   5.8249   5.8283   6.1123   6.1479
     6.1708   7.3651   7.9236   7.9245   9.3223   9.3228   9.5666   9.5668
     9.6713   9.7378   9.8222   9.8225   9.9552   9.9614  10.2334  10.5138
    10.5202  10.6481  11.2510  11.2528  11.6417  11.7880  12.2439  12.2446
    12.2865  12.2919

          k = 0.4444 0.1283 0.0000 ( 32079 PWs)   bands (ev):

   -87.2558 -87.2499 -87.2484 -87.2472 -87.2450 -87.2438 -86.9935 -86.9925
   -86.9886 -86.9879 -86.9862 -86.9860 -50.7787 -50.7703 -50.7530 -50.7485
   -50.7481 -50.7146 -50.7122 -50.7074 -50.6909 -50.6906 -50.6861 -50.6779
   -50.6757 -50.6687 -50.6684 -50.6679 -50.6651 -50.6506 -50.5157 -50.5151
   -50.4900 -50.4892 -50.4501 -50.4495 -50.4318 -50.4314 -50.4308 -50.4301
   -50.4112 -50.4107 -50.4068 -50.4055 -50.4021 -50.4013 -50.3999 -50.3997
   -13.4502 -13.3607 -13.2680 -12.1809 -12.0988 -12.0137 -10.9439 -10.8693
   -10.7917  -9.1965  -9.1354  -9.0716  -6.7351  -6.6939  -6.6496  -5.1040
    -5.0668  -5.0264  -4.0461  -4.0169  -3.9834  -3.8676  -3.8306  -3.7900
    -2.6433  -2.6196  -2.5916  -1.9337  -1.4176  -1.3733  -1.3433  -1.2953
    -1.2474  -1.0603  -1.0397  -1.0147  -0.9948  -0.9780  -0.9399  -0.9362
    -0.9089  -0.7840  -0.7765  -0.7663  -0.7501  -0.7295  -0.6878  -0.6180
    -0.5733  -0.5627  -0.4469  -0.4146  -0.4104  -0.3813  -0.2381  -0.2182
    -0.1135  -0.1016   0.0385   0.0636   0.1026   0.1678   0.1885   0.2359
     0.2431   0.3338   0.3385   0.3459   0.3624   0.3672   0.3900   0.5356
     0.5378   0.6998   0.7039   0.7320   0.7419   0.7443   0.7954   0.8274
     0.9258   0.9393   0.9421   0.9691   1.0906   1.1064   1.1579   1.2871
     1.3131   1.3640   1.4133   1.4452   1.4683   1.5166   1.5521   1.6719
     1.7248   1.7487   1.7506   1.8093   1.8242   1.8539   1.8570   1.9188
     1.9797   2.0036   2.0661   2.8438   2.9009   3.2261   3.3190   3.5760
     3.5967   4.4223   5.1389   5.1851   5.5608   6.4098   6.4582   6.6424
     6.8506   7.3500   7.5171   7.5782   8.4138   8.6406   8.8673   9.2186
     9.7435   9.7671   9.8171   9.8316  10.1955  10.3198  10.4421  10.6022
    10.7113  10.7470  11.4770  11.5097  11.7259  11.8517  11.8761  11.9890
    12.0218  12.5024

          k = 0.4444 0.2566 0.0000 ( 32102 PWs)   bands (ev):

   -87.2546 -87.2515 -87.2476 -87.2468 -87.2458 -87.2436 -86.9927 -86.9915
   -86.9895 -86.9891 -86.9860 -86.9858 -50.7839 -50.7751 -50.7469 -50.7463
   -50.7372 -50.7185 -50.7141 -50.7061 -50.7000 -50.6877 -50.6800 -50.6787
   -50.6747 -50.6695 -50.6684 -50.6658 -50.6656 -50.6563 -50.5207 -50.5202
   -50.4783 -50.4776 -50.4579 -50.4572 -50.4287 -50.4281 -50.4277 -50.4271
   -50.4162 -50.4158 -50.4061 -50.4046 -50.4028 -50.4024 -50.3998 -50.3995
   -13.2369 -13.1486 -13.0573 -12.6010 -12.5165 -12.4288 -10.1441 -10.1440
   -10.0746 -10.0746 -10.0023 -10.0023  -5.6483  -5.6482  -5.6164  -5.6164
    -5.5822  -5.5821  -3.6992  -3.6992  -3.6771  -3.6770  -3.6502  -3.6502
    -3.1561  -3.1220  -3.0842  -1.7133  -1.6912  -1.6767  -1.6564  -1.4613
    -1.3712  -1.3100  -1.2001  -1.0964  -1.0184  -0.9345  -0.9300  -0.8683
    -0.8559  -0.7651  -0.6965  -0.6956  -0.6022  -0.5982  -0.5271  -0.4727
    -0.4494  -0.4446  -0.3701  -0.3570  -0.3486  -0.2983  -0.2841  -0.2654
    -0.0987  -0.0717  -0.0369  -0.0202   0.0349   0.0386   0.1416   0.1444
     0.1998   0.2249   0.2409   0.2508   0.2539   0.2714   0.3023   0.3174
     0.4125   0.4944   0.5547   0.5706   0.6629   0.7609   0.8080   0.8386
     0.8428   1.0070   1.0134   1.0802   1.1396   1.2354   1.3355   1.4037
     1.4138   1.4801   1.5284   1.6270   1.6450   1.6900   1.6983   1.7640
     1.7661   1.8416   1.8455   1.8645   1.8652   1.8849   1.9575   2.0548
     2.1341   2.1385   2.3252   2.3252   2.3894   2.8095   2.8103   2.9643
     3.6241   4.5411   5.0570   5.8634   5.8780   6.3734   6.5915   6.7845
     7.4676   7.4679   7.6783   7.6783   7.8806   7.8810   7.9471   8.9980
     9.0945   9.5960  10.0546  10.1124  10.3164  10.5788  10.8901  10.9098
    11.0422  11.0647  11.2434  11.3923  11.5117  11.5545  11.9197  11.9673
    12.1349  12.5200

          k = 0.4444-0.7698 0.0000 ( 32048 PWs)   bands (ev):

   -87.2528 -87.2528 -87.2475 -87.2465 -87.2465 -87.2438 -86.9920 -86.9902
   -86.9901 -86.9898 -86.9864 -86.9862 -50.7806 -50.7722 -50.7461 -50.7460
   -50.7327 -50.7326 -50.7088 -50.7087 -50.7079 -50.6845 -50.6796 -50.6755
   -50.6753 -50.6707 -50.6705 -50.6638 -50.6596 -50.6595 -50.5175 -50.5169
   -50.4729 -50.4716 -50.4715 -50.4712 -50.4267 -50.4260 -50.4214 -50.4202
   -50.4200 -50.4197 -50.4056 -50.4034 -50.4033 -50.4029 -50.4002 -50.3998
   -12.8830 -12.8829 -12.7968 -12.7968 -12.7075 -12.7075 -11.0117 -10.9367
   -10.8586  -9.2485  -9.1858  -9.1203  -6.2744  -6.2483  -6.2206  -4.6591
    -4.6376  -4.6139  -4.5355  -4.5197  -4.4985  -3.0461  -3.0317  -3.0122
    -2.4365  -2.4365  -2.4074  -2.4074  -2.3745  -2.3744  -1.4499  -1.3703
    -1.2860  -1.2635  -1.2631  -1.0915  -1.0903  -1.0135  -0.8991  -0.8983
    -0.8631  -0.8533  -0.8514  -0.6894  -0.6894  -0.5920  -0.5916  -0.5821
    -0.4160  -0.4146  -0.3311  -0.3295  -0.2535  -0.2535  -0.2389  -0.2389
    -0.2199  -0.2199  -0.1092  -0.1087  -0.0584  -0.0562  -0.0558   0.0137
     0.0183   0.0199   0.2047   0.2781   0.2796   0.3047   0.3055   0.4777
     0.4793   0.6381   0.6389   0.7493   0.7513   0.7911   0.8160   0.8673
     0.8690   0.9023   1.0115   1.0133   1.1061   1.1780   1.1792   1.4076
     1.4106   1.4649   1.4659   1.5125   1.5127   1.5917   1.6299   1.6307
     1.7597   1.8160   1.8165   1.8288   1.8360   1.9362   1.9438   1.9442
     1.9518   2.1032   2.1201   2.4447   2.4456   2.8410   3.2488   3.6634
     4.0837   4.0846   4.1590   4.9368   6.1628   6.3619   6.3634   6.4889
     6.7003   6.9064   7.3878   8.5911   8.5928   8.6148   8.8087   8.9886
     9.1607   9.7466  10.5043  10.5327  10.5330  10.5762  10.5770  11.0053
    11.0075  11.5259  11.5272  11.7313  11.7316  11.8730  11.8786  11.8798
    12.1054  12.1070

          k = 0.4444-0.6415 0.0000 ( 32050 PWs)   bands (ev):

   -87.2535 -87.2508 -87.2489 -87.2470 -87.2454 -87.2444 -86.9920 -86.9907
   -86.9890 -86.9886 -86.9872 -86.9872 -50.7693 -50.7626 -50.7533 -50.7499
   -50.7466 -50.7318 -50.7128 -50.7114 -50.7050 -50.6830 -50.6806 -50.6762
   -50.6728 -50.6721 -50.6701 -50.6622 -50.6611 -50.6536 -50.5066 -50.5059
   -50.4900 -50.4891 -50.4699 -50.4693 -50.4249 -50.4242 -50.4231 -50.4227
   -50.4152 -50.4146 -50.4055 -50.4039 -50.4024 -50.4019 -50.4010 -50.4006
   -13.0244 -12.9374 -12.8473 -12.3909 -12.3076 -12.2212 -11.7649 -11.6853
   -11.6026  -8.3332  -8.2832  -8.2315  -7.0665  -7.0371  -7.0046  -4.9602
    -4.9386  -4.9118  -3.8668  -3.8412  -3.8126  -3.1548  -3.1256  -3.0928
    -2.1114  -2.0943  -2.0726  -1.8558  -1.8369  -1.8144  -1.4287  -1.3426
    -1.2955  -1.2582  -1.1817  -1.1807  -1.1458  -1.0994  -1.0823  -1.0761
    -1.0608  -1.0166  -0.9241  -0.8816  -0.8502  -0.7707  -0.7632  -0.6963
    -0.6861  -0.5854  -0.5233  -0.5069  -0.4676  -0.4557  -0.4391  -0.4104
    -0.3053  -0.2108  -0.1279  -0.0485  -0.0268   0.0001   0.0412   0.1025
     0.1581   0.2116   0.2546   0.3065   0.3079   0.3260   0.3715   0.4850
     0.5774   0.6410   0.6488   0.6944   0.7847   0.8244   0.9171   0.9400
     0.9722   1.0134   1.0436   1.0466   1.1615   1.1658   1.2079   1.2336
     1.3001   1.3673   1.3770   1.4042   1.4447   1.5320   1.5575   1.6143
     1.6194   1.6667   1.6688   1.7038   1.7291   1.8160   1.8666   1.8919
     1.8975   1.9859   2.0754   2.3408   3.0031   3.0544   3.7765   3.8266
     3.8312   4.0989   4.3670   4.6897   5.4333   5.6730   5.8279   6.0308
     6.1355   6.9758   7.5965   8.3196   9.3642   9.7287   9.7848   9.9189
    10.1002  10.3277  10.3430  10.3900  10.7594  10.8308  10.9566  11.0841
    11.1570  11.1893  11.2213  11.3316  11.5674  11.8006  12.0561  12.0976
    12.1486  12.2450

          k = 0.4444-0.5132 0.0000 ( 32050 PWs)   bands (ev):

   -87.2535 -87.2508 -87.2489 -87.2470 -87.2454 -87.2445 -86.9920 -86.9907
   -86.9890 -86.9886 -86.9872 -86.9872 -50.7691 -50.7627 -50.7536 -50.7498
   -50.7466 -50.7319 -50.7131 -50.7110 -50.7050 -50.6831 -50.6806 -50.6763
   -50.6727 -50.6721 -50.6701 -50.6625 -50.6609 -50.6535 -50.5065 -50.5056
   -50.4901 -50.4895 -50.4699 -50.4694 -50.4249 -50.4246 -50.4230 -50.4223
   -50.4152 -50.4146 -50.4055 -50.4039 -50.4024 -50.4020 -50.4009 -50.4006
   -13.0244 -12.9374 -12.8473 -12.3909 -12.3076 -12.2212 -11.7649 -11.6853
   -11.6026  -8.3332  -8.2832  -8.2315  -7.0665  -7.0371  -7.0046  -4.9602
    -4.9386  -4.9118  -3.8668  -3.8412  -3.8126  -3.1548  -3.1256  -3.0928
    -2.1114  -2.0943  -2.0726  -1.8558  -1.8369  -1.8144  -1.4287  -1.3438
    -1.2960  -1.2583  -1.1808  -1.1792  -1.1448  -1.0994  -1.0823  -1.0759
    -1.0608  -1.0183  -0.9257  -0.8818  -0.8502  -0.7688  -0.7653  -0.6960
    -0.6861  -0.5834  -0.5236  -0.5084  -0.4676  -0.4557  -0.4391  -0.4102
    -0.3053  -0.2108  -0.1279  -0.0408  -0.0337  -0.0014   0.0412   0.1072
     0.1583   0.2119   0.2539   0.3117   0.3130   0.3217   0.3662   0.4850
     0.5774   0.6402   0.6443   0.6974   0.7817   0.8258   0.9170   0.9410
     0.9704   1.0198   1.0434   1.0465   1.1615   1.1670   1.2080   1.2311
     1.2981   1.3687   1.3794   1.4004   1.4438   1.5317   1.5572   1.6148
     1.6198   1.6652   1.6683   1.7046   1.7280   1.8180   1.8644   1.8891
     1.8978   1.9873   2.0762   2.3412   3.0028   3.0533   3.7765   3.8273
     3.8319   4.0989   4.3670   4.6885   5.4375   5.6730   5.8279   6.0308
     6.1360   6.9781   7.5973   8.3201   9.3701   9.7287   9.7773   9.9189
    10.1002  10.3218  10.3430  10.3900  10.7594  10.8308  10.9566  11.0841
    11.1571  11.1897  11.2213  11.3316  11.5681  11.8011  12.0548  12.0918
    12.1484  12.2472

          k = 0.4444-0.3849 0.0000 ( 32048 PWs)   bands (ev):

   -87.2528 -87.2528 -87.2474 -87.2465 -87.2465 -87.2439 -86.9920 -86.9902
   -86.9901 -86.9898 -86.9864 -86.9862 -50.7804 -50.7722 -50.7461 -50.7460
   -50.7328 -50.7327 -50.7090 -50.7088 -50.7076 -50.6847 -50.6799 -50.6755
   -50.6752 -50.6708 -50.6704 -50.6640 -50.6593 -50.6592 -50.5175 -50.5167
   -50.4729 -50.4718 -50.4717 -50.4712 -50.4267 -50.4264 -50.4213 -50.4199
   -50.4197 -50.4197 -50.4056 -50.4035 -50.4034 -50.4029 -50.4002 -50.3997
   -12.8830 -12.8829 -12.7968 -12.7968 -12.7075 -12.7075 -11.0117 -10.9367
   -10.8586  -9.2485  -9.1858  -9.1203  -6.2744  -6.2483  -6.2206  -4.6591
    -4.6376  -4.6139  -4.5355  -4.5197  -4.4985  -3.0460  -3.0317  -3.0122
    -2.4365  -2.4365  -2.4074  -2.4074  -2.3745  -2.3744  -1.4509  -1.3707
    -1.2847  -1.2635  -1.2631  -1.0914  -1.0909  -1.0149  -0.8979  -0.8976
    -0.8651  -0.8540  -0.8523  -0.6894  -0.6894  -0.5905  -0.5897  -0.5843
    -0.4174  -0.4145  -0.3313  -0.3294  -0.2535  -0.2535  -0.2389  -0.2389
    -0.2199  -0.2199  -0.1069  -0.1059  -0.0562  -0.0558  -0.0513   0.0143
     0.0157   0.0212   0.2024   0.2783   0.2811   0.3005   0.3082   0.4767
     0.4792   0.6361   0.6377   0.7514   0.7554   0.7851   0.8090   0.8718
     0.8737   0.9023   1.0081   1.0129   1.1147   1.1780   1.1806   1.4076
     1.4121   1.4612   1.4649   1.5091   1.5100   1.5839   1.6315   1.6331
     1.7602   1.8124   1.8129   1.8294   1.8387   1.9379   1.9441   1.9447
     1.9518   2.1029   2.1199   2.4448   2.4457   2.8410   3.2488   3.6634
     4.0844   4.0860   4.1563   4.9364   6.1733   6.3637   6.3656   6.4889
     6.7003   6.9064   7.3972   8.5933   8.5958   8.6148   8.8087   8.9886
     9.1466   9.7391  10.5040  10.5328  10.5330  10.5762  10.5770  11.0053
    11.0075  11.5261  11.5274  11.7313  11.7316  11.8399  11.8786  11.8798
    12.1054  12.1070

     the Fermi energy is     4.9865 ev

!    total energy              =   -3891.04100491 Ry
     estimated scf accuracy    <          6.1E-09 Ry
     smearing contrib. (-TS)   =      -0.00187960 Ry
     internal energy E=F+TS    =   -3891.03912531 Ry

     The total energy is F=E-TS. E is the sum of the following terms:
     one-electron contribution =  -27249.98691312 Ry
     hartree contribution      =   13672.67822117 Ry
     xc contribution           =    -435.95830269 Ry
     ewald contribution        =   10270.83959436 Ry
     DFT-D3 Dispersion         =      -0.63027257 Ry
     electric field correction =       0.00000136 Ry
     one-center paw contrib.   =    -147.98145382 Ry

     convergence has been achieved in  33 iterations

     negative rho (up, down):  8.675E-05 0.000E+00

     Forces acting on atoms (cartesian axes, Ry/au):

     atom    1 type  1   force =    -0.00014150    0.00039918    0.00201239
     atom    2 type  1   force =    -0.00017171    0.00037816    0.00201036
     atom    3 type  1   force =     0.00045039   -0.00011244   -0.00205364
     atom    4 type  1   force =     0.00001041   -0.00033303   -0.00359805
     atom    5 type  1   force =    -0.00017790    0.00040738    0.00201049
     atom    6 type  1   force =     0.00034754   -0.00004987   -0.00216480
     atom    7 type  1   force =    -0.00024552    0.00004014    0.00349443
     atom    8 type  1   force =     0.00000953   -0.00033325   -0.00360041
     atom    9 type  1   force =    -0.00027689    0.00003258    0.00410733
     atom   10 type  1   force =     0.00045598    0.00000708   -0.00207741
     atom   11 type  1   force =     0.00001023   -0.00033399   -0.00359792
     atom   12 type  1   force =    -0.00025023    0.00000211    0.00349727
     atom   13 type  2   force =    -0.00000168   -0.00000271    0.00188426
     atom   14 type  2   force =    -0.00000421   -0.00000834   -0.00061778
     atom   15 type  2   force =    -0.00000749    0.00000059   -0.00040756
     atom   16 type  2   force =    -0.00000002   -0.00000086   -0.00061369
     atom   17 type  2   force =    -0.00000170   -0.00000941   -0.00040494
     atom   18 type  2   force =     0.00000424   -0.00000831   -0.00061409
     atom   19 type  2   force =     0.00000400    0.00000056   -0.00040921
     atom   20 type  2   force =     0.00000005   -0.00000571    0.00159780
     atom   21 type  2   force =    -0.00000131   -0.00000263   -0.00027537
     atom   22 type  2   force =     0.00000003   -0.00000599    0.00010627
     atom   23 type  2   force =    -0.00000178   -0.00000328   -0.00027522
     atom   24 type  2   force =     0.00000484   -0.00000881    0.00012436
     atom   25 type  2   force =    -0.00000215   -0.00000260   -0.00027529
     atom   26 type  2   force =     0.00000000   -0.00000043    0.00012428
     atom   27 type  2   force =    -0.00000173   -0.00000282   -0.00026889
     atom   28 type  2   force =    -0.00000479   -0.00000879    0.00012446
     atom   29 type  2   force =    -0.00000163   -0.00000265   -0.00010945
     atom   30 type  2   force =     0.00000017   -0.00000586    0.00015225
     atom   31 type  2   force =    -0.00000173   -0.00000260   -0.00011157
     atom   32 type  2   force =    -0.00000001   -0.00000615    0.00015224
     atom   33 type  2   force =    -0.00000167   -0.00000272   -0.00011151
     atom   34 type  2   force =    -0.00000016   -0.00000588    0.00015221
     atom   35 type  2   force =    -0.00000160   -0.00000262   -0.00011155
     atom   36 type  2   force =     0.00000002   -0.00000603    0.00014798

     Total force =     0.010742     Total SCF correction =     0.000468

     Writing all to output data dir ./tmp/AGC_N3_top_fcc_G4_k9_far.save/ :
     XML data file, charge density, pseudopotentials, collected wavefunctions
 
     init_run     :     48.07s CPU     50.13s WALL (       1 calls)
     electrons    :   4117.42s CPU   4197.83s WALL (       1 calls)
     forces       :     27.14s CPU     27.97s WALL (       1 calls)
     force_dftd3  :      0.02s CPU      0.02s WALL (       1 calls)

     Called by init_run:
     wfcinit      :     40.40s CPU     42.28s WALL (       1 calls)
     potinit      :      6.71s CPU      6.75s WALL (       1 calls)
     hinit0       :      0.44s CPU      0.48s WALL (       1 calls)

     Called by electrons:
     c_bands      :   3271.48s CPU   3330.70s WALL (      33 calls)
     sum_band     :    656.15s CPU    675.40s WALL (      33 calls)
     v_of_rho     :      5.83s CPU      6.40s WALL (      34 calls)
     newd         :      5.02s CPU      5.04s WALL (      34 calls)
                                        5.04s GPU  (      34 calls)
     PAW_pot      :    133.99s CPU    134.02s WALL (      34 calls)
     mix_rho      :     47.98s CPU     49.04s WALL (      33 calls)
     energy_dftd3 :      0.00s CPU      0.00s WALL (       1 calls)

     Called by c_bands:
     init_us_2    :    158.75s CPU    159.20s WALL (    2788 calls)
     cegterg      :   3046.67s CPU   3048.43s WALL (    1353 calls)

     Called by *egterg:
     cdiaghg      :    180.44s CPU    180.88s WALL (    6605 calls)
                                      175.13s GPU  (    6605 calls)
     h_psi        :   1594.07s CPU   1603.20s WALL (    6646 calls)
                                     1599.29s GPU  (    6646 calls)
     s_psi        :    166.94s CPU    167.08s WALL (    6646 calls)
     g_psi        :      0.02s CPU      6.29s WALL (    5252 calls)
                                        2.02s GPU  (    5252 calls)

     Called by h_psi:
     h_psi:calbec :      0.41s CPU    312.27s WALL (    6646 calls)
                                      308.84s GPU  (    6646 calls)
     vloc_psi     :    931.91s CPU    935.96s WALL (    6646 calls)
                                      932.38s GPU  (    6646 calls)
     add_vuspsi   :    107.91s CPU    330.38s WALL (    6646 calls)
                                      326.96s GPU  (    6646 calls)

     General routines
     calbec       :      0.47s CPU      0.48s WALL (    8163 calls)
     fft          :      2.09s CPU      2.90s WALL (     451 calls)
                                        0.45s GPU  (     417 calls)
     ffts         :      0.69s CPU      3.57s WALL (    3593 calls)
                                        1.23s GPU  (    3559 calls)
     fftw         :      1.75s CPU    560.12s WALL (   98273 calls)
                                      496.61s GPU  (   98273 calls)
     interpolate  :      2.88s CPU      3.14s WALL (      34 calls)
     davcio       :      3.18s CPU     80.21s WALL (    4748 calls)
 
     Parallel routines
 
     PWSCF        :      1h 9m CPU      1h11m WALL

 
   This run was terminated on:   3:58:41   5Oct2026            

=------------------------------------------------------------------------------=
   JOB DONE.
=------------------------------------------------------------------------------=
