227
Lattice="18.27244493766502 0.0 0.0 -3.626393305660581 10.92590571040498 0.0 0.0 -0.0 30.260930213804105" Properties=species:S:1:pos:R:3 charge=0 spin=0 pbc="T T T"
Li      16.67711797       2.50288202      12.07137868
Ni       7.54089550       2.50288202      12.07137868
O       12.20542874       2.53488524      12.00000000
O        2.87636225       2.47087880      12.14275737
Li       4.79768745       1.59238988      12.07137868
Ni      13.93390992       1.59238988      12.07137868
O        0.32599823       1.62439309      12.00000000
O        9.26937667       1.56038666      12.14275737
Li      11.19070187       0.68189773      12.07137868
Ni       2.05447940       0.68189773      12.07137868
O        6.71901265       0.71390095      12.00000000
O       15.66239110       0.64989452      12.14275737
Li       0.21786968       1.58850439      14.11076963
Ni       9.35409215       1.58850439      14.11076963
O       14.01862539       1.62050760      14.03939095
O        4.68955891       1.55650117      14.18214832
Li       6.61088410       0.67801224      14.11076963
Ni      15.74710657       0.67801224      14.11076963
O        2.13919488       0.71001546      14.03939095
O       11.08257333       0.64600903      14.18214832
Li      12.09730020       2.49899653      14.11076963
Ni       2.96107773       2.49899653      14.11076963
O        7.62561097       2.53099975      14.03939095
O       16.56898942       2.46699331      14.18214832
Li       2.02128416       0.67087659      16.19474839
Ni      11.18282016       0.67928162      16.23002335
O       15.86168355       0.71586472      16.21795807
O        6.49496981       0.63946706      16.21017910
Li       7.50527508       2.49105092      16.19193649
Ni      16.67048750       2.50067898      16.23213489
O        3.07512464       2.53691080      16.22310437
O       11.97606144       2.45870159      16.21727009
Li      13.89484715       1.57945338      16.19437318
Ni       4.79210175       1.59053237      16.22588743
O        9.46873688       1.62661074      16.21723621
O        0.10516751       1.55127420      16.20811073
Li       2.88927291       2.47491582      18.26368679
Ni      12.11979679       2.50531159      18.29191531
O       16.82889191       2.55680287      18.31926187
O        7.35639734       2.45609446      18.41395110
Li       9.30189147       1.57323739      18.29728781
Ni       0.24234579       1.59664542      18.28159567
O        4.93854246       1.64512513      18.32344269
O       13.76928514       1.53450428      18.36533575
Li      15.68277972       0.65403656      18.26511869
Ni       6.62708559       0.68715773      18.29486791
O       11.34139270       0.73314863      18.33206935
O        1.89059587       0.62706504      18.34971609
Li      15.77051964       5.23435845      12.07137868
Ni       6.63429717       5.23435845      12.07137868
O       11.29883042       5.26636166      12.00000000
O        1.96976393       5.20235523      12.14275737
Li       3.89108912       4.32386630      12.07137868
Ni      13.02731159       4.32386630      12.07137868
O       -0.58060010       4.35586952      12.00000000
O        8.36277835       4.29186309      12.14275737
Li      10.28410354       3.41337416      12.07137868
Ni       1.14788108       3.41337416      12.07137868
O        5.81241432       3.44537738      12.00000000
O       14.75579277       3.38137094      12.14275737
Li      -0.68872865       4.31998081      14.11076963
Ni       8.44749382       4.31998081      14.11076963
O       13.11202707       4.35198403      14.03939095
O        3.78296058       4.28797760      14.18214832
Li       5.70428578       3.40948867      14.11076963
Ni      14.84050824       3.40948867      14.11076963
O        1.23259655       3.44149189      14.03939095
O       10.17597500       3.37748545      14.18214832
Li      11.19070187       5.23047296      14.11076963
Ni       2.05447940       5.23047296      14.11076963
O        6.71901265       5.26247617      14.03939095
O       15.66239109       5.19846974      14.18214832
Li       1.11468583       3.40235302      16.19474839
Ni      10.27622183       3.41075805      16.23002335
O       14.95508522       3.44734114      16.21795807
O        5.58837149       3.37094349      16.21017910
Li       6.59867675       5.22252735      16.19193649
Ni      15.76388917       5.23215541      16.23213489
O        2.16852631       5.26838723      16.22310437
O       11.06946311       5.19017802      16.21727009
Li      12.98824883       4.31092980      16.19437318
Ni       3.88550342       4.32200880      16.22588743
O        8.56213855       4.35808717      16.21723621
O       -0.80143081       4.28275062      16.20811073
Li       1.98843727       5.20612191      18.26587313
Ni      11.21962616       5.23997296      18.27855432
O       15.92399537       5.28875701      18.31985563
O        6.44560581       5.17802500      18.33557581
Li       8.41443876       4.34087426      18.38561568
Ni      -0.66290479       4.32856808      18.28165542
O        4.02745758       4.37983785      18.31380585
O       12.86735628       4.26748118      18.36043613
Li      14.77576774       3.38625336      18.26007863
Ni       5.70736749       3.41912672      18.27081872
O       10.43818815       3.46944434      18.32737224
O        0.98439458       3.35773622      18.34964944
Li      14.86392131       7.96583487      12.07137868
Ni       5.72769884       7.96583487      12.07137868
O       10.39223209       7.99783809      12.00000000
O        1.06316560       7.93383166      12.14275737
Li       2.98449080       7.05534273      12.07137868
Ni      12.12071327       7.05534273      12.07137868
O       -1.48719843       7.08734595      12.00000000
O        7.45618002       7.02333952      12.14275737
Li       9.37750522       6.14485059      12.07137868
Ni       0.24128275       6.14485059      12.07137868
O        4.90581599       6.17685381      12.00000000
O       13.84919444       6.11284737      12.14275737
Li      -1.59532697       7.05145724      14.11076963
Ni       7.54089550       7.05145724      14.11076963
O       12.20542874       7.08346046      14.03939095
O        2.87636225       7.01945403      14.18214832
Li       4.79768745       6.14096510      14.11076963
Ni      13.93390992       6.14096510      14.11076963
O        0.32599823       6.17296832      14.03939095
O        9.26937667       6.10896188      14.18214832
Li      10.28410354       7.96194938      14.11076963
Ni       1.14788108       7.96194938      14.11076963
O        5.81241432       7.99395260      14.03939095
O       14.75579277       7.92994617      14.18214832
Li       0.20808750       6.13382945      16.19474839
Ni       9.36962350       6.14223448      16.23002335
O       14.04848689       6.17881757      16.21795807
O        4.68177316       6.10241992      16.21017910
Li       5.69207843       7.95400378      16.19193649
Ni      14.85729085       7.96363183      16.23213489
O        1.26192799       7.99986365      16.22310437
O       10.16286479       7.92165445      16.21727009
Li      12.08165050       7.04240623      16.19437318
Ni       2.97890510       7.05348523      16.22588743
O        7.65554023       7.08956360      16.21723621
O       -1.70802914       7.01422705      16.20811073
Li       1.08539018       7.93864596      18.26613360
Ni      10.30551147       7.96972142      18.28974327
O       15.01743915       8.01894570      18.31924019
O        5.56078006       7.91311021      18.34712353
Li       7.47958948       7.04289834      18.30589203
Ni      -1.56835798       7.06036310      18.28161157
O        3.13142056       7.11302135      18.31882265
O       11.95820872       7.00405741      18.35241289
Li      13.87030879       6.12338801      18.26160797
Ni       4.81007552       6.15272679      18.28274540
O        9.53190776       6.19713794      18.30228024
O        0.07952226       6.08995120      18.34964301
Li      13.95732299      10.69731130      12.07137868
Ni       4.82110052      10.69731130      12.07137868
O        9.48563376      10.72931452      12.00000000
O        0.15656727      10.66530809      12.14275737
Li       2.07789247       9.78681916      12.07137868
Ni      11.21411494       9.78681916      12.07137868
O       -2.39379675       9.81882238      12.00000000
O        6.54958169       9.75481594      12.14275737
Li       8.47090689       8.87632702      12.07137868
Ni      -0.66531558       8.87632702      12.07137868
O        3.99921767       8.90833023      12.00000000
O       12.94259612       8.84432380      12.14275737
Li      -2.50192530       9.78293367      14.11076963
Ni       6.63429717       9.78293367      14.11076963
O       11.29883042       9.81493689      14.03939095
O        1.96976393       9.75093045      14.18214832
Li       3.89108912       8.87244153      14.11076963
Ni      13.02731159       8.87244153      14.11076963
O       -0.58060010       8.90444474      14.03939095
O        8.36277835       8.84043831      14.18214832
Li       9.37750522      10.69342581      14.11076963
Ni       0.24128275      10.69342581      14.11076963
O        4.90581599      10.72542903      14.03939095
O       13.84919444      10.66142260      14.18214832
Li      -0.69851082       8.86530587      16.19474839
Ni       8.46302518       8.87371091      16.23002335
O       13.14188857       8.91029400      16.21795807
O        3.77517484       8.83389634      16.21017910
Li       4.78548010      10.68548021      16.19193649
Ni      13.95069252      10.69510826      16.23213489
O        0.35532966      10.73134008      16.22310437
O        9.25626646      10.65313087      16.21727009
Li      11.17505217       9.77388266      16.19437318
Ni       2.07230677       9.78496165      16.22588743
O        6.74894190       9.82104002      16.21723621
O       -2.61462747       9.74570348      16.20811073
Li       0.17312904      10.67134122      18.26359789
Ni       9.39876259      10.70114291      18.28772344
O       14.10901215      10.75051384      18.31907417
O        4.65484056      10.64686814      18.37411477
Li       6.56596169       9.75703554      18.25145581
Ni      -2.47654782       9.79120851      18.28165876
O        2.22606941       9.84020050      18.31974811
O       11.04730985       9.73220101      18.35468535
Li      12.95867831       8.85117242      18.26300900
Ni       3.91239393       8.88356892      18.28701885
O        8.61874514       8.93035249      18.31301636
O       -0.82754566       8.82229929      18.34987109
C        8.30628670       5.29565598      24.63756569
C        8.70646123       4.62110247      23.31426166
S        7.80016235       5.44122105      21.96411417
O        8.50488180       6.63378763      21.56712335
O        6.39543194       5.47627202      22.29869684
O        7.99496160       4.37091373      20.75608430
C       10.23221214       4.63664503      23.09607997
C       10.75829942       3.79673891      21.92440208
O       10.33379156       2.42279026      21.95653013
C       11.04780160       1.58367813      22.86311812
C       10.08807224       0.76739741      23.72444592
C        8.99035462       0.09940550      22.90147482
O        8.09263357      -0.69148056      23.73942869
C        7.69075503       0.01442532      24.83214322
C        6.59598978      -0.30165384      25.60661205
S        6.40797239       0.82140202      26.88487244
C        7.78773159       1.72770701      26.42813858
C        8.38899969       1.17640179      25.31721983
O        9.50390226       1.68491135      24.71732717
H        8.80354809       4.75175571      25.45680587
H        7.21852819       5.24467407      24.78257397
H        8.62775598       6.34791428      24.66287530
H        8.33146685       3.58782915      23.28526501
H        7.15695064       3.87551884      20.62442267
H       10.66577539       4.26570667      24.04120262
H       10.57084531       5.67492814      22.95012561
H       10.37918325       4.17731875      20.96731584
H       11.86145228       3.87300364      21.90368179
H       11.71023272       2.15247577      23.54242908
H       11.67720566       0.87600411      22.29118798
H       10.66490306      -0.00492049      24.26955870
H        8.41594621       0.85862618      22.34200572
H        9.42307229      -0.60972210      22.18492396
H        5.91728218      -1.14279664      25.48173943
H        8.06898406       2.63621466      26.96035448
