630
Lattice="10.055095635733188 0.0 0.0 0.0 30.165286907199565 0.0 0.0 0.0 45.386164" Properties=species:S:1:pos:R:3 source=db/raw/wad_sese_4L_2026_09_25/li_outer_relaxed_final_coords.txt source_sha256=7e0b1daea3467b1f25e72d9689ca41f76646907ed74cbad1ad628507f66fcce5 charge=0 spin=0 pbc="T T F"
P        4.93424100       2.06296700       1.74074200
P       -0.09333100       7.09049800       1.74071000
P       -0.05861700       2.33843100       6.89456800
P        4.96889700       7.36598800       6.89456200
S        6.38173700       3.19542700       2.78569800
S        1.35412000       8.22300600       2.78566700
S        3.83039100       1.04514300       3.23778100
S        8.85793400       6.07265700       3.23775200
S        3.84486600       3.45948300       0.75102400
S        8.87236800       8.48697800       0.75097000
S        8.62861300       3.38523600       5.71638800
S        3.60106300       8.41278800       5.71634600
S        5.60408800       0.60552800       0.50001100
S        0.57656300       5.63307200       0.50000000
S        1.03570200       1.05818900       5.72973400
S        6.06321400       6.08567100       5.72979100
Li       8.23494000       1.96179800       3.79093200
Li       3.20730400       6.98939200       3.79092400
Li       1.83837300       4.03990700       1.90374300
Li       6.86586600      -0.98772200       1.90370600
Li       7.75457500       9.72559000       6.55907100
Li       2.72689300       4.69817800       6.55912000
Li       3.65770800       9.31565900       1.47235200
Li       8.68530100       4.28804100       1.47233100
Li       2.72110000       2.53970500       4.76521300
Li       7.74854800       7.56717200       4.76513500
Li      -0.43616800      -0.15905500       2.66847300
Li       4.59146800       4.86851500       2.66852900
Li       5.74171100       1.76388000       4.74593000
Li       0.71410500       6.79142300       4.74589500
Li       0.13204700       4.11372600       4.04707500
Li       5.15955100       9.14132200       4.04705600
Cl       9.40184600       7.51199100       6.73780500
Cl       4.95905700       7.42875800       2.28647400
Cl       9.98661400       2.40119300       2.28648900
S        7.40517200       9.86201100       4.20074200
S        2.37761500       4.83450900       4.20077300
P        4.94105115       2.70056598      11.69605281
P       -0.08557161       7.73039504      11.69378632
P       -0.07394118       2.94605444      16.62241418
P        4.94851000       7.97213239      16.62549794
S        6.02782925       3.93990364      12.90507729
S        1.00308709       8.97343754      12.89698792
S        0.99185400       3.69462600       7.99757100
S        6.01939100       8.72221400       7.99750400
S        3.54579850       1.65995932      12.83249882
S        8.57634596       6.69095428      12.83395707
S        8.85032600       1.16298100       8.18404200
S        3.82273400       6.19059600       8.18406300
S        3.83243916       3.89444518      10.41379939
S        8.85901817       8.92258017      10.41175267
S        8.88001364       3.98540546      15.16257214
S        3.84992240       9.00992098      15.16296145
S        5.98846714       1.35980268      10.58739645
S        0.96213541       6.39025556      10.58491805
S        1.35977192       1.80613318      15.60035589
S        6.38496753       6.83237999      15.60504006
Li       2.71711700       2.28922400       9.03005800
Li       7.74449400       7.31678800       9.03015300
Li       7.75606524       2.46746295      13.72645488
Li       2.72679569       7.49703698      13.72152845
Li       8.12815900       5.29686000       7.13461800
Li       3.10049600       0.26926500       7.13458800
Li       2.71928843       5.39160619      11.94774489
Li       7.74926042       0.36401710      11.94880820
Li       6.86830972      11.05345453      16.51416848
Li       1.84425048       6.03094495      16.51096024
Li       3.05770236       9.77337824      11.50133735
Li       8.08662695       4.73950186      11.52105203
Li       3.20872947       3.06569830      14.73194403
Li       8.23183961       8.09210499      14.73395674
Li       7.75105998       2.74693659       9.60842624
Li       2.72019726       7.77917956       9.60012200
Li       0.29998735       0.84392293      10.33899470
Li       5.32956691       5.86918283      10.34586914
Li       5.17164674       0.93608568      14.40964088
Li       0.14354560       5.96411849      14.41078354
Li       0.77310353       3.27824887      13.67360053
Li       5.79678432       8.30412958      13.67520798
Li       5.34231600       4.22634500       8.23440600
Li       0.31469700       9.25359700       8.23472000
Cl       9.98127718       7.63384370      16.22320809
Cl       4.37430000       2.48446500       6.73783600
Cl       4.34857432       7.57664167      11.79718563
Cl       9.37725474       2.54502299      11.80053207
S        2.26630071      10.06253351       9.31662655
S        7.30188200       5.02751300       9.34307300
S        7.40509196      10.23751707      14.27505586
S        2.38129952       5.21299244      14.27342507
S        0.62668774       4.38826800      17.85091565
S        5.64381533       9.41505005      17.85603658
S        8.88579715       1.56960866      17.61995857
S        3.85380150       6.59455887      17.62223703
Li       8.70035884       5.72201831      16.92506905
Li       3.68310265       0.68710740      16.93005763
Li       4.60140163       5.17425373      15.67526738
Li      -0.42608383      10.19835825      15.67182750
Cl       4.95482514       2.60087523      16.22569140
P        4.93424100      12.11806264       1.74074200
P       -0.09333100      17.14559364       1.74071000
P       -0.05861700      12.39352664       6.89456800
P        4.96889700      17.42108364       6.89456200
S        6.38173700      13.25052264       2.78569800
S        1.35412000      18.27810164       2.78566700
S        3.83039100      11.10023864       3.23778100
S        8.85793400      16.12775264       3.23775200
S        3.84486600      13.51457864       0.75102400
S        8.87236800      18.54207364       0.75097000
S        8.62861300      13.44033164       5.71638800
S        3.60106300      18.46788364       5.71634600
S        5.60408800      10.66062364       0.50001100
S        0.57656300      15.68816764       0.50000000
S        1.03570200      11.11328464       5.72973400
S        6.06321400      16.14076664       5.72979100
Li       8.23494000      12.01689364       3.79093200
Li       3.20730400      17.04448764       3.79092400
Li       1.83837300      14.09500264       1.90374300
Li       6.86586600       9.06737364       1.90370600
Li       7.75457500      19.78068564       6.55907100
Li       2.72689300      14.75327364       6.55912000
Li       3.65770800      19.37075464       1.47235200
Li       8.68530100      14.34313664       1.47233100
Li       2.72110000      12.59480064       4.76521300
Li       7.74854800      17.62226764       4.76513500
Li      -0.43616800       9.89604064       2.66847300
Li       4.59146800      14.92361064       2.66852900
Li       5.74171100      11.81897564       4.74593000
Li       0.71410500      16.84651864       4.74589500
Li       0.13204700      14.16882164       4.04707500
Li       5.15955100      19.19641764       4.04705600
Cl       9.40184600      17.56708664       6.73780500
Cl       4.95905700      17.48385364       2.28647400
Cl       9.98661400      12.45628864       2.28648900
S        7.40517200      19.91710664       4.20074200
S        2.37761500      14.88960464       4.20077300
P        4.93978037      12.75568492      11.69577416
P       -0.08556062      17.78568233      11.69303929
P       -0.07761496      12.99560325      16.62310079
P        4.95207564      18.02725928      16.61915536
S        6.02664292      13.99500858      12.90477747
S        1.00346452      19.02801080      12.89676854
S        0.99185400      13.74972164       7.99757100
S        6.01939100      18.77730964       7.99750400
S        3.54376402      11.71527014      12.83152804
S        8.57621168      16.74619733      12.83305555
S        8.85032600      11.21807664       8.18404200
S        3.82273400      16.24569164       8.18406300
S        3.83204276      13.94962788      10.41299056
S        8.85881796      18.97843947      10.41180808
S        8.87820378      14.03510323      15.16200752
S        3.85305780      19.06574737      15.15790998
S        5.98740027      11.41472977      10.58756505
S        0.96162667      16.44609262      10.58312361
S        1.35777365      11.85685122      15.60082835
S        6.38724540      16.88735002      15.59750044
Li       2.71711700      12.34431964       9.03005800
Li       7.74449400      17.37188364       9.03015300
Li       7.75275055      12.51978862      13.72546959
Li       2.72635131      17.55055714      13.72159719
Li       8.12815900      15.35195564       7.13461800
Li       3.10049600      10.32436064       7.13458800
Li       2.71651958      15.44517496      11.94617360
Li       7.74543344      10.41530947      11.94958075
Li       6.87440498      21.11305169      16.51133132
Li       1.84319120      16.07960156      16.51147172
Li       3.05716076      19.82864591      11.50171092
Li       8.08598570      14.79417196      11.52115563
Li       3.20519464      13.11968723      14.73147985
Li       8.23525611      18.14928052      14.73236050
Li       7.75069986      12.80164467       9.60878879
Li       2.72154384      17.83464552       9.60079440
Li       0.29957803      10.89811693      10.33990847
Li       5.32935639      15.92402528      10.34572290
Li       5.16784176      10.99051071      14.40987164
Li       0.14188151      16.01623656      14.40974082
Li       0.77133487      13.32973656      13.67297713
Li       5.80080077      18.36053408      13.66921014
Li       5.34231600      14.28144064       8.23440600
Li       0.31469700      19.30869264       8.23472000
Cl       9.98261357      17.68530575      16.22217758
Cl       4.37430000      12.53956064       6.73783600
Cl       4.34785578      17.63126377      11.79535791
Cl       9.37563815      12.59888085      11.80061556
S        2.26650714      20.11783540       9.31663499
S        7.30188200      15.08260864       9.34307300
S        7.40999860      20.29543903      14.27379305
S        2.37869670      15.26580564      14.27166937
S        0.62013456      14.43742237      17.85266465
S        5.64979247      19.47118320      17.84668247
S        8.88288156      11.61731266      17.61907984
S        3.85696574      16.64917084      17.61482992
Li       8.69784487      15.77471679      16.91863885
Li       3.66634874      10.74902026      16.92181760
Li       4.60323658      15.22848043      15.66675959
Li      -0.42237475      20.25783123      15.66949934
Cl       4.95145652      12.65873427      16.22306052
P        4.93424100      22.17315827       1.74074200
P       -0.09333100      27.20068927       1.74071000
P       -0.05861700      22.44862227       6.89456800
P        4.96889700      27.47617927       6.89456200
S        6.38173700      23.30561827       2.78569800
S        1.35412000      28.33319727       2.78566700
S        3.83039100      21.15533427       3.23778100
S        8.85793400      26.18284827       3.23775200
S        3.84486600      23.56967427       0.75102400
S        8.87236800      28.59716927       0.75097000
S        8.62861300      23.49542727       5.71638800
S        3.60106300      28.52297927       5.71634600
S        5.60408800      20.71571927       0.50001100
S        0.57656300      25.74326327       0.50000000
S        1.03570200      21.16838027       5.72973400
S        6.06321400      26.19586227       5.72979100
Li       8.23494000      22.07198927       3.79093200
Li       3.20730400      27.09958327       3.79092400
Li       1.83837300      24.15009827       1.90374300
Li       6.86586600      19.12246927       1.90370600
Li       7.75457500      29.83578127       6.55907100
Li       2.72689300      24.80836927       6.55912000
Li       3.65770800      29.42585027       1.47235200
Li       8.68530100      24.39823227       1.47233100
Li       2.72110000      22.64989627       4.76521300
Li       7.74854800      27.67736327       4.76513500
Li      -0.43616800      19.95113627       2.66847300
Li       4.59146800      24.97870627       2.66852900
Li       5.74171100      21.87407127       4.74593000
Li       0.71410500      26.90161427       4.74589500
Li       0.13204700      24.22391727       4.04707500
Li       5.15955100      29.25151327       4.04705600
Cl       9.40184600      27.62218227       6.73780500
Cl       4.95905700      27.53894927       2.28647400
Cl       9.98661400      22.51138427       2.28648900
S        7.40517200      29.97220227       4.20074200
S        2.37761500      24.94470027       4.20077300
P        4.94176859      22.81117167      11.69488230
P       -0.08313932      27.84058227      11.69293731
P       -0.06934545      23.05550549      16.62326440
P        4.96054264      28.07705575      16.62160214
S        6.02870665      24.05077344      12.90377638
S        1.00559483      29.08331221      12.89659414
S        0.99185400      23.80481727       7.99757100
S        6.01939100      28.83240527       7.99750400
S        3.54628303      21.77065227      12.83096998
S        8.57972098      26.80079170      12.83357685
S        8.85032600      21.27317227       8.18404200
S        3.82273400      26.30078727       8.18406300
S        3.83298941      24.00513280      10.41299515
S        8.86016756      29.03296407      10.41206851
S        8.88564610      24.09499291      15.16305209
S        3.85721723      29.12004199      15.16613683
S        5.98915578      21.47031950      10.58649751
S        0.96399702      26.50125186      10.58271523
S        1.36359655      21.91472235      15.59955784
S        6.39188091      26.93857573      15.59407193
Li       2.71711700      22.39941527       9.03005800
Li       7.74449400      27.42697927       9.03015300
Li       7.75692830      22.57890690      13.72748611
Li       2.73067069      27.60886436      13.72333190
Li       8.12815900      25.40705127       7.13461800
Li       3.10049600      20.37945627       7.13458800
Li       2.72033460      25.50361372      11.94642329
Li       7.74970410      20.47566135      11.94889207
Li       6.87474364      31.16428531      16.51206076
Li       1.85072574      26.13949553      16.51136887
Li       3.05810206      29.88443349      11.50125306
Li       8.08751978      24.85001127      11.52061139
Li       3.21005039      23.17714252      14.72885453
Li       8.23846651      28.20457238      14.73193613
Li       7.75156888      22.85740281       9.60805559
Li       2.72200139      27.89046400       9.59970963
Li       0.29995136      20.95380355      10.33906537
Li       5.33004727      25.97953158      10.34598504
Li       5.17207499      21.04617929      14.40815300
Li       0.14720059      26.07551557      14.41108881
Li       0.77570945      23.38862001      13.67206692
Li       5.80242488      28.41620013      13.67095876
Li       5.34231600      24.33653627       8.23440600
Li       0.31469700      29.36378827       8.23472000
Cl       9.98594998      27.74439618      16.22388746
Cl       4.37430000      22.59465627       6.73783600
Cl       4.35020541      27.68813688      11.79670240
Cl       9.37797382      22.65542398      11.80056346
S        2.26657272      30.17323188       9.31648625
S        7.30188200      25.13770427       9.34307300
S        7.40970182      30.34965332      14.27389224
S        2.38360194      25.32391053      14.27177522
S        0.63090161      24.49787029      17.85169106
S        5.66585970      29.51435666      17.85312173
S        8.88913419      21.67869921      17.61876423
S        3.86615371      26.69875975      17.61764747
Li       8.70286519      25.83266688      16.92213607
Li       3.66815123      20.80574517      16.91613307
Li       4.60760934      25.28114753      15.66739361
Li      -0.42330988      30.31339024      15.67353479
Cl       4.95587705      22.71541075      16.22089076
C        8.68510759       5.76992795      21.12778635
C        9.94221076       6.48688071      21.12854355
C        9.94188785       7.92519636      21.12203081
C        8.68512439       8.64230797      21.12547317
C        8.68590896      10.08047047      21.13102387
C        9.94209884      10.79720995      21.13160733
C        9.94266123      12.23505113      21.14269205
C        8.68568765      12.95118481      21.14081306
C        8.68600642      14.38854100      21.14305047
C        9.94246989      15.10557619      21.15285592
C        9.94215145      16.54349516      21.14118109
C        8.68486254      17.26062251      21.13585236
C        8.68421955      18.69906020      21.13811381
C        9.94131748      19.41557459      21.13488005
C        9.94064479      20.85325833      21.14276589
C        8.68403403      21.56953143      21.14725057
C        8.68482740      23.00760060      21.14635668
C        9.94007069      23.72371436      21.14992647
C        9.94074064      25.16175851      21.14330386
C        8.68419884      25.87875247      21.13015022
C        8.68316924      27.31779243      21.12608742
C        9.94085402      28.03428470      21.12559867
C        9.94044946      29.47228648      21.12964418
C        8.68360835      30.18869123      21.13995727
C        8.68443353      31.62664595      21.14843278
C        9.94053439      32.34356648      21.14996736
C        9.94184587      33.78024603      21.15394641
C        8.68541199      34.49651689      21.13915006
C       11.19933548       5.77021133      21.14140142
C       12.45605869       6.48689882      21.13724125
C       12.45678934       7.92512061      21.12872691
C       11.19951561       8.64147988      21.12211129
C       11.19834690      10.07998656      21.12394504
C       12.45614621      10.79607140      21.12359726
C       12.45527104      12.23534005      21.13169987
C       11.19833376      12.95140263      21.14666972
C       11.19965684      14.38920296      21.15637748
C       12.45564856      15.10574407      21.14834407
C       12.45642811      16.54417535      21.14732190
C       11.19932206      17.26028260      21.13934465
C       11.19835088      18.69851380      21.13364884
C       12.45571438      19.41419869      21.13662583
C       12.45440055      20.85322069      21.13204224
C       11.19706386      21.57017862      21.13767048
C       11.19713312      23.00768791      21.14377971
C       12.45367524      23.72421483      21.13557192
C       12.45479423      25.16238104      21.13804710
C       11.19728309      25.87866011      21.13797445
C       11.19776388      27.31717897      21.12983845
C       12.45474717      28.03313462      21.13494531
C       12.45453992      29.47152665      21.13109083
C       11.19749319      30.18858835      21.12918605
C       11.19696700      31.62711283      21.13812020
C       12.45428269      32.34353529      21.13467111
C       12.45487002      33.78183801      21.14371097
C       11.19822645      34.49738207      21.15335382
C       13.71300650       5.77089604      21.14025528
C       14.96918801       6.48781160      21.13939154
C       14.97037341       7.92501528      21.14309085
C       13.71346121       8.64109991      21.13266898
C       13.71342348      10.07914500      21.12763418
C       14.97032612      10.79628962      21.13404288
C       14.96980817      12.23456281      21.12751050
C       13.71275223      12.95164180      21.12871328
C       13.71287105      14.38989921      21.13668550
C       14.96941976      15.10653686      21.13680335
C       14.96919589      16.54428105      21.14996929
C       13.71250402      17.26054179      21.15218831
C       13.71311520      18.69798515      21.15174030
C       14.96891401      19.41441708      21.15846622
C       14.96903341      20.85237934      21.14327349
C       13.71188522      21.56959094      21.13123437
C       13.71083574      23.00835490      21.12823442
C       14.96841496      23.72483705      21.12550107
C       14.96772992      25.16272386      21.13064156
C       13.71095174      25.87901848      21.13870176
C       13.71175751      27.31725927      21.14461950
C       14.96726627      28.03367631      21.14854132
C       14.96839321      29.47092623      21.15226552
C       13.71219136      30.18761358      21.13833199
C       13.71152494      31.62663827      21.13106684
C       14.96892230      32.34333874      21.13125687
C       14.96873502      33.78141884      21.12937076
C       13.71199630      34.49818782      21.13597398
C       16.22531680       5.77075808      21.13141616
C       17.48295970       6.48702871      21.12692202
C       17.48278413       7.92590917      21.13311978
C       16.22625463       8.64150475      21.14517515
C       16.22749823      10.07980050      21.14323045
C       17.48372593      10.79655376      21.13680221
C       17.48447375      12.23493529      21.13463716
C       16.22730870      12.95104644      21.12911172
C       16.22613224      14.38935766      21.13070609
C       17.48380986      15.10508893      21.13413395
C       17.48255425      16.54432395      21.13792124
C       16.22531076      17.26097645      21.14965143
C       16.22611665      18.69821064      21.15873687
C       17.48224800      19.41465956      21.14843901
C       17.48317584      20.85302959      21.14539750
C       16.22581954      21.56924755      21.13774484
C       16.22546994      23.00771865      21.12801947
C       17.48255468      23.72363487      21.13195677
C       17.48161011      25.16232197      21.12643740
C       16.22442752      25.87943595      21.12769652
C       16.22407526      27.31767184      21.13653196
C       17.48103338      28.03416526      21.13275739
C       17.48204077      29.47216972      21.14282077
C       16.22488483      30.18811618      21.15038567
C       16.22583177      31.62632448      21.14044821
C       17.48279827      32.34256854      21.14193720
C       17.48329382      33.78074794      21.13440780
C       16.22617834      34.49749570      21.12855261
C        9.94232524       6.48086307      24.73053344
C        8.68543975       7.19734500      24.73008226
C        8.68539179       8.63559272      24.73004612
C        9.94231715       9.35204203      24.72986925
C        9.94228903      10.79026017      24.73074687
C        8.68541850      11.50666321      24.73154243
C        8.68546236      12.94485737      24.73234466
C        9.94231717      13.66130629      24.73291550
C        9.94233560      15.09950408      24.73340985
C        8.68547605      15.81594159      24.73308723
C        8.68540404      17.25421647      24.73335035
C        9.94233561      17.97066220      24.73333558
C        9.94229374      19.40891024      24.73319698
C        8.68540426      20.12537174      24.73356995
C        8.68545376      21.56356455      24.73332566
C        9.94228887      22.28001704      24.73290341
C        9.94235317      23.71819156      24.73242350
C        8.68548770      24.43458739      24.73157535
C        8.68545608      25.87284047      24.73086168
C        9.94235013      26.58928501      24.73096243
C        9.94231096      28.02752708      24.73090510
C        8.68541287      28.74401867      24.73142052
C        8.68540421      30.18225132      24.73219367
C        9.94227818      30.89868656      24.73213953
C        9.94229809      32.33689745      24.73265489
C        8.68544368      33.05325165      24.73248500
C        8.68546849      34.49148460      24.73172638
C        9.94234662      35.20790468      24.73162110
C       12.45610904       6.48088280      24.73128545
C       11.19923296       7.19729347      24.73044451
C       11.19920311       8.63554215      24.72977180
C       12.45612851       9.35195868      24.73001078
C       12.45607020      10.79022342      24.73016068
C       11.19917635      11.50671087      24.73094927
C       11.19917749      12.94491984      24.73227138
C       12.45604394      13.66134415      24.73244165
C       12.45608429      15.09956478      24.73358868
C       11.19920310      15.81592836      24.73376466
C       11.19922678      17.25417550      24.73373077
C       12.45612880      17.97057862      24.73396821
C       12.45613175      19.40884466      24.73324986
C       11.19920079      20.12534180      24.73285195
C       11.19918049      21.56359059      24.73260252
C       12.45607847      22.28001882      24.73210839
C       12.45607912      23.71825083      24.73195465
C       11.19917403      24.43462850      24.73213369
C       11.19924023      25.87283208      24.73161606
C       12.45610698      26.58928232      24.73169121
C       12.45613739      28.02750069      24.73153126
C       11.19922816      28.74395424      24.73114399
C       11.19917732      30.18221238      24.73149339
C       12.45609842      30.89863190      24.73165360
C       12.45604212      32.33691319      24.73195967
C       11.19914565      33.05334013      24.73251158
C       11.19919691      34.49153240      24.73234074
C       12.45604207      35.20795746      24.73185962
C       14.96984701       6.48093822      24.73114812
C       13.71297775       7.19731333      24.73117403
C       13.71302242       8.63551476      24.73069633
C       14.96988198       9.35195671      24.73086570
C       14.96988723      10.79017401      24.73064367
C       13.71300589      11.50664095      24.73048366
C       13.71294367      12.94490428      24.73134825
C       14.96986442      13.66134383      24.73166635
C       14.96983338      15.09959632      24.73288107
C       13.71294594      15.81600957      24.73382666
C       13.71300609      17.25421857      24.73446118
C       14.96984276      17.97066466      24.73452284
C       14.96989165      19.40884643      24.73421382
C       13.71303675      20.12525697      24.73320595
C       13.71298482      21.56353077      24.73217560
C       14.96990979      22.27996676      24.73188909
C       14.96984734      23.71822887      24.73113841
C       13.71296389      24.43470266      24.73140898
C       13.71298341      25.87290683      24.73166556
C       14.96984027      26.58935695      24.73161824
C       14.96986568      28.02753593      24.73216513
C       13.71301492      28.74391688      24.73191678
C       13.71300363      30.18216009      24.73178356
C       14.96990034      30.89858663      24.73205951
C       14.96985802      32.33684436      24.73169454
C       13.71296433      33.05333024      24.73165481
C       13.71293653      34.49157504      24.73161371
C       14.96983900      35.20801654      24.73112511
C       17.48360362       6.48093285      24.73041929
C       16.22670471       7.19739238      24.73082287
C       16.22674904       8.63557587      24.73099487
C       17.48358469       9.35200662      24.73070689
C       17.48365074      10.79021395      24.73117190
C       16.22676451      11.50660836      24.73104060
C       16.22676698      12.94485649      24.73138481
C       17.48367596      13.66126062      24.73209212
C       17.48363887      15.09952877      24.73260803
C       16.22672840      15.81602088      24.73312391
C       16.22671232      17.25426137      24.73403331
C       17.48360792      17.97069215      24.73388476
C       17.48361907      19.40890659      24.73408225
C       16.22674362      20.12527134      24.73394489
C       16.22677814      21.56350220      24.73289756
C       17.48368624      22.27992965      24.73270247
C       17.48368686      23.71817136      24.73157932
C       16.22678257      24.43465327      24.73093676
C       16.22671492      25.87289722      24.73096745
C       17.48364727      26.58933361      24.73094238
C       17.48360388      28.02758212      24.73156975
C       16.22671314      28.74398640      24.73231845
C       16.22675498      30.18218341      24.73257945
C       17.48362023      30.89861979      24.73261238
C       17.48366570      32.33684554      24.73243755
C       16.22678034      33.05325910      24.73171201
C       16.22673691      34.49152899      24.73107277
C       17.48366065      35.20793791      24.73093062
C        8.68536377       5.77042364      28.35530286
C        9.94225961       6.48683262      28.35542974
C        9.94224887       7.92508852      28.35512474
C        8.68537388       8.64149030      28.35530256
C        8.68535788      10.07975743      28.35516248
C        9.94226150      10.79615107      28.35541289
C        9.94224641      12.23442002      28.35542907
C        8.68537641      12.95081727      28.35573921
C        8.68536236      14.38907576      28.35578936
C        9.94226644      15.10548520      28.35609733
C        9.94224524      16.54373908      28.35605797
C        8.68537471      17.26014052      28.35628196
C        8.68536366      18.69841362      28.35608682
C        9.94226590      19.41480806      28.35623213
C        9.94224404      20.85307037      28.35589634
C        8.68537925      21.56947859      28.35601122
C        8.68536121      23.00772902      28.35563635
C        9.94226216      23.72414785      28.35574550
C        9.94225043      25.16238962      28.35544612
C        8.68537956      25.87880481      28.35559880
C        8.68535853      27.31706440      28.35541496
C        9.94226237      28.03345780      28.35563928
C        9.94225080      29.47173479      28.35551547
C        8.68537175      30.18812342      28.35575688
C        8.68536691      31.62638763      28.35560759
C        9.94225903      32.34279287      28.35578820
C        9.94225228      33.78104640      28.35553229
C        8.68537320      34.49745862      28.35564683
C       11.19913822       5.77042103      28.35532418
C       12.45603345       6.48683376      28.35544064
C       12.45602525       7.92508559      28.35514239
C       11.19914697       8.64149460      28.35529877
C       11.19913495      10.07975581      28.35514627
C       12.45603355      10.79615414      28.35540062
C       12.45602141      12.23441908      28.35540614
C       11.19914884      12.95081492      28.35573568
C       11.19913215      14.38907876      28.35579869
C       12.45603648      15.10548814      28.35609896
C       12.45602170      16.54373599      28.35607229
C       11.19915319      17.26014793      28.35629650
C       11.19913141      18.69840808      28.35608245
C       12.45604029      19.41480708      28.35623227
C       12.45602513      20.85307587      28.35588071
C       11.19915264      21.56947727      28.35598794
C       11.19913872      23.00773305      28.35562244
C       12.45603080      23.72414024      28.35572765
C       12.45602701      25.16239281      28.35543975
C       11.19914319      25.87880665      28.35561141
C       11.19913851      27.31705948      28.35542525
C       12.45603238      28.03346164      28.35564948
C       12.45602332      29.47172889      28.35552212
C       11.19914686      30.18811973      28.35574238
C       11.19913587      31.62639107      28.35558950
C       12.45603834      32.34279217      28.35577068
C       12.45602161      33.78104672      28.35551619
C       11.19914733      34.49745806      28.35565861
C       13.71290892       5.77042480      28.35531566
C       14.96980929       6.48683089      28.35543463
C       14.96979699       7.92508925      28.35515714
C       13.71292155       8.64149541      28.35531889
C       13.71291214      10.07975214      28.35516229
C       14.96980707      10.79615424      28.35541942
C       14.96980037      12.23441418      28.35540703
C       13.71291967      12.95081963      28.35571866
C       13.71290939      14.38907474      28.35577598
C       14.96980575      15.10548969      28.35608017
C       14.96979989      16.54373938      28.35606465
C       13.71292459      17.26014862      28.35630970
C       13.71291392      18.69840905      28.35610769
C       14.96980502      19.41480178      28.35625971
C       14.96980448      20.85308084      28.35590898
C       13.71291937      21.56946711      28.35598574
C       13.71291331      23.00773849      28.35560355
C       14.96980834      23.72414629      28.35571886
C       14.96979478      25.16238875      28.35542415
C       13.71291822      25.87880483      28.35560532
C       13.71291530      27.31706293      28.35543874
C       14.96980684      28.03345972      28.35565909
C       14.96979927      29.47172674      28.35554713
C       13.71292269      30.18812607      28.35575709
C       13.71290775      31.62638901      28.35558619
C       14.96980975      32.34279244      28.35577446
C       14.96979702      33.78104801      28.35549555
C       13.71292206      34.49745672      28.35563974
C       16.22668285       5.77042566      28.35529525
C       17.48358367       6.48683029      28.35541658
C       17.48356894       7.92509172      28.35513720
C       16.22669535       8.64148927      28.35532413
C       16.22668420      10.07975671      28.35517977
C       17.48358244      10.79614710      28.35542627
C       17.48357087      12.23442032      28.35542794
C       16.22669386      12.95082090      28.35572367
C       16.22668846      14.38907361      28.35576583
C       17.48358106      15.10548650      28.35607193
C       17.48357656      16.54374057      28.35604478
C       16.22669057      17.26014242      28.35629535
C       16.22669213      18.69841488      28.35611382
C       17.48357804      19.41480514      28.35625104
C       17.48357131      20.85307183      28.35591851
C       16.22669296      21.56947137      28.35600963
C       16.22668306      23.00773032      28.35561512
C       17.48358882      23.72415336      28.35573125
C       17.48356728      25.16238457      28.35542453
C       16.22669948      25.87881075      28.35559262
C       16.22668159      27.31706091      28.35542696
C       17.48358515      28.03346029      28.35564381
C       17.48357140      29.47172712      28.35553834
C       16.22669436      30.18812779      28.35577004
C       16.22668674      31.62638532      28.35560429
C       17.48357890      32.34279350      28.35578755
C       17.48357529      33.78104777      28.35551070
C       16.22669458      34.49745819      28.35562676
