
     Program PWSCF v.7.4.1 starts on 30Sep2026 at 15:56:54 

     This program is part of the open-source Quantum ESPRESSO suite
     for quantum simulation of materials; please cite
         "P. Giannozzi et al., J. Phys.:Condens. Matter 21 395502 (2009);
         "P. Giannozzi et al., J. Phys.:Condens. Matter 29 465901 (2017);
         "P. Giannozzi et al., J. Chem. Phys. 152 154105 (2020);
          URL http://www.quantum-espresso.org", 
     in publications or presentations arising from this work. More details at
     http://www.quantum-espresso.org/quote

     Parallel version (MPI & OpenMP), running on      16 processor cores
     Number of MPI processes:                 1
     Threads/MPI process:                    16

     MPI processes distributed on     1 nodes
     93856 MiB available memory on the printing compute node when the environment starts
 
     Reading input from pw.in

     Current dimensions of program PWSCF are:
     Max number of different atomic species (ntypx) = 10
     Max number of k-points (npk) =  40000
     Max angular momentum in pseudopotentials (lmaxx) =  4
     Presently no symmetry can be used with electric field

     file C.pbe-n-kjpaw_psl.1.0.0.UPF: wavefunction(s)  2S 2P renormalized
 
     Subspace diagonalization in iterative solution of the eigenvalue problem:
     a serial algorithm will be used

 
     G-vector sticks info
     --------------------
     sticks:   dense  smooth     PW     G-vecs:    dense   smooth      PW
     Sum         769     313    109               244635    62135   12655
 
     Using Slab Decomposition
 


     bravais-lattice index     =            0
     lattice parameter (alat)  =       4.6601  a.u.
     unit-cell volume          =    1222.6043 (a.u.)^3
     number of atoms/cell      =           12
     number of atomic types    =            1
     number of electrons       =        48.00
     number of Kohn-Sham states=           29
     kinetic-energy cutoff     =      52.0000  Ry
     charge density cutoff     =     520.0000  Ry
     scf convergence threshold =      1.0E-08
     mixing beta               =       0.3000
     number of iterations used =            8  local-TF  mixing
     Exchange-correlation= SLA  PW   PBX  PBC
                           (   1   4   3   4   0   0   0)

     GPU acceleration is ACTIVE.  1 visible GPUs per MPI rank


     celldm(1)=   4.660140  celldm(2)=   0.000000  celldm(3)=   0.000000
     celldm(4)=   0.000000  celldm(5)=   0.000000  celldm(6)=   0.000000

     crystal axes: (cart. coord. in units of alat)
               a(1) = (   1.000000   0.000000   0.000000 )  
               a(2) = (   0.500000   0.866025   0.000000 )  
               a(3) = (   0.000000   0.000000  13.949490 )  

     reciprocal axes: (cart. coord. in units 2 pi/alat)
               b(1) = (  1.000000 -0.577350  0.000000 )  
               b(2) = (  0.000000  1.154701  0.000000 )  
               b(3) = (  0.000000  0.000000  0.071687 )  


     PseudoPot. # 1 for C  read from file:
     /home/ubuntu/wad4l/pseudo_kgy/C.pbe-n-kjpaw_psl.1.0.0.UPF
     MD5 check sum: 5d2aebdfa2cae82b50a7e79e9516da0f
     Pseudo is Projector augmented-wave + core cor, Zval =  4.0
     Generated using "atomic" code by A. Dal Corso  v.5.1
     Shape of augmentation charge: PSQ
     Using radial grid of 1073 points,  4 beta functions with: 
                l(1) =   0
                l(2) =   0
                l(3) =   1
                l(4) =   1
     Q(r) pseudized with 0 coefficients 


     atomic species   valence    mass     pseudopotential
     C                 4.00    12.01100     C ( 1.00)

     No symmetry found



   Cartesian axes

     site n.     atom                  positions (alat units)
         1        C      tau(   1) = (   0.0000000   0.0000000   0.2027542  )
         2        C      tau(   2) = (   0.5000000   0.2886751   0.2027542  )
         3        C      tau(   3) = (   0.5000000   0.2886751   1.5612074  )
         4        C      tau(   4) = (   1.0000000   0.5773503   1.5612074  )
         5        C      tau(   5) = (   0.0000000   0.0000000   2.9196607  )
         6        C      tau(   6) = (   0.5000000   0.2886751   2.9196607  )
         7        C      tau(   7) = (   0.5000000   0.2886751   4.1564614  )
         8        C      tau(   8) = (   1.0000000   0.5773503   4.1564614  )
         9        C      tau(   9) = (   0.0000000   0.0000000   5.5149146  )
        10        C      tau(  10) = (   0.5000000   0.2886751   5.5149146  )
        11        C      tau(  11) = (   0.5000000   0.2886751   6.8733678  )
        12        C      tau(  12) = (   1.0000000   0.5773503   6.8733678  )

     --------------------------------------------
     DFT-D3 Dispersion Correction (no 3-body):
     --------------------------------------------
       Reference C6 values for interpolation: 

         atom   Coordination number   C6
         C          0.000            98.23
         C          0.987            86.49
         C          1.998            58.72
         C          2.999            51.56
         C          3.984            36.41

       Values used:

         atom   Coordination number  R0_AB[au]  C6      C8
         C          3.314            2.750     48.28   1396.34
         C          3.315            2.750     48.28   1396.22
         C          3.322            2.750     48.12   1391.80
         C          3.322            2.750     48.13   1392.05
         C          3.327            2.750     48.00   1388.38
         C          3.329            2.750     47.98   1387.67
         C          3.329            2.750     47.98   1387.67
         C          3.327            2.750     48.00   1388.38
         C          3.322            2.750     48.13   1392.05
         C          3.322            2.750     48.12   1391.80
         C          3.315            2.750     48.28   1396.22
         C          3.314            2.750     48.28   1396.34

         Molecular C6 ( Ry / a.u.^6 ) =      6931.06


     number of k points=   164  Marzari-Vanderbilt smearing, width (Ry)=  0.0100

     Number of k-points >= 100: set verbosity='high' to print them.

     Dense  grid:   244635 G-vectors     FFT dimensions: (  36,  36, 480)

     Smooth grid:    62135 G-vectors     FFT dimensions: (  24,  24, 300)

     Estimated max dynamical RAM per process >     447.64 MB

     Check: negative core charge=   -0.000002

     Initial potential from superposition of free atoms

     starting charge      47.9995, renormalised to      48.0000

     negative rho (up, down):  9.659E-05 0.000E+00
 
     Adding external electric field

     Computed dipole along edir(3) : 
        Dipole               -0.0000 Ry au,         -0.0000 Debye
        Dipole field         -0.0000 Ry au, 
 
        Potential amp.        0.0000 Ry
        Total length         63.1168 bohr
 
     Starting wfcs are   48 randomized atomic wfcs
     Checking if some PAW data can be deallocated... 

     total cpu time spent up to now is       98.8 secs

     Self-consistent Calculation

     iteration #  1     ecut=    52.00 Ry     beta= 0.30
     Davidson diagonalization with overlap
     ethr =  1.00E-02,  avg # of iterations =  2.1

     negative rho (up, down):  2.137E-07 0.000E+00
 
     Adding external electric field

     Computed dipole along edir(3) : 
        Dipole               -0.0319 Ry au,         -0.0810 Debye
        Dipole field         -0.0003 Ry au, 
 
        Potential amp.        0.0413 Ry
        Total length         63.1168 bohr
 

     total cpu time spent up to now is      331.7 secs

     total energy              =    -221.74564312 Ry
     estimated scf accuracy    <       1.06345203 Ry

     iteration #  2     ecut=    52.00 Ry     beta= 0.30
     Davidson diagonalization with overlap
     ethr =  2.22E-03,  avg # of iterations =  1.1

     negative rho (up, down):  3.159E-07 0.000E+00
 
     Adding external electric field

     Computed dipole along edir(3) : 
        Dipole               -0.1899 Ry au,         -0.4826 Debye
        Dipole field         -0.0020 Ry au, 
 
        Potential amp.        0.2463 Ry
        Total length         63.1168 bohr
 

     total cpu time spent up to now is      510.3 secs

     total energy              =    -221.32434580 Ry
     estimated scf accuracy    <       0.72464371 Ry

     iteration #  3     ecut=    52.00 Ry     beta= 0.30
     Davidson diagonalization with overlap
     ethr =  1.51E-03,  avg # of iterations =  2.8
 
     Adding external electric field

     Computed dipole along edir(3) : 
        Dipole               -0.1830 Ry au,         -0.4651 Debye
        Dipole field         -0.0019 Ry au, 
 
        Potential amp.        0.2374 Ry
        Total length         63.1168 bohr
 

     total cpu time spent up to now is      764.2 secs

     total energy              =    -221.44816621 Ry
     estimated scf accuracy    <       0.09626113 Ry

     iteration #  4     ecut=    52.00 Ry     beta= 0.30
     Davidson diagonalization with overlap
     ethr =  2.01E-04,  avg # of iterations =  3.2
 
     Adding external electric field

     Computed dipole along edir(3) : 
        Dipole               -0.3835 Ry au,         -0.9748 Debye
        Dipole field         -0.0039 Ry au, 
 
        Potential amp.        0.4976 Ry
        Total length         63.1168 bohr
 

     total cpu time spent up to now is     1019.5 secs

     total energy              =    -221.45159649 Ry
     estimated scf accuracy    <       0.07184021 Ry

     iteration #  5     ecut=    52.00 Ry     beta= 0.30
     Davidson diagonalization with overlap
     ethr =  1.50E-04,  avg # of iterations =  6.8
 
     Adding external electric field

     Computed dipole along edir(3) : 
        Dipole               -0.3285 Ry au,         -0.8349 Debye
        Dipole field         -0.0034 Ry au, 
 
        Potential amp.        0.4262 Ry
        Total length         63.1168 bohr
 

     total cpu time spent up to now is     1395.5 secs

     total energy              =    -221.45024581 Ry
     estimated scf accuracy    <       0.56693124 Ry

     iteration #  6     ecut=    52.00 Ry     beta= 0.30
     Davidson diagonalization with overlap
     ethr =  1.50E-04,  avg # of iterations =  1.1
 
     Adding external electric field

     Computed dipole along edir(3) : 
        Dipole               -0.3148 Ry au,         -0.8000 Debye
        Dipole field         -0.0032 Ry au, 
 
        Potential amp.        0.4084 Ry
        Total length         63.1168 bohr
 

     total cpu time spent up to now is     1574.3 secs

     total energy              =    -221.45262643 Ry
     estimated scf accuracy    <       0.34975942 Ry

     iteration #  7     ecut=    52.00 Ry     beta= 0.30
     Davidson diagonalization with overlap
     ethr =  1.50E-04,  avg # of iterations =  1.0
 
     Adding external electric field

     Computed dipole along edir(3) : 
        Dipole               -0.3379 Ry au,         -0.8588 Debye
        Dipole field         -0.0035 Ry au, 
 
        Potential amp.        0.4384 Ry
        Total length         63.1168 bohr
 

     total cpu time spent up to now is     1749.6 secs

     total energy              =    -221.45066552 Ry
     estimated scf accuracy    <       0.34587309 Ry

     iteration #  8     ecut=    52.00 Ry     beta= 0.30
     Davidson diagonalization with overlap
     ethr =  1.50E-04,  avg # of iterations =  1.0
     Minimization algorithm failed to find Fermi energy: reverting to bisection
     Possible cause: smearing is larger than the electronic band-gap.

     negative rho (up, down):  1.064E-06 0.000E+00
 
     Adding external electric field

     Computed dipole along edir(3) : 
        Dipole               -0.2841 Ry au,         -0.7222 Debye
        Dipole field         -0.0029 Ry au, 
 
        Potential amp.        0.3687 Ry
        Total length         63.1168 bohr
 

     total cpu time spent up to now is     1924.7 secs

     total energy              =    -221.44478439 Ry
     estimated scf accuracy    <       0.33177521 Ry

     iteration #  9     ecut=    52.00 Ry     beta= 0.30
     Davidson diagonalization with overlap
     ethr =  1.50E-04,  avg # of iterations =  1.9

     negative rho (up, down):  1.363E-03 0.000E+00
 
     Adding external electric field

     Computed dipole along edir(3) : 
        Dipole               -0.2150 Ry au,         -0.5464 Debye
        Dipole field         -0.0022 Ry au, 
 
        Potential amp.        0.2789 Ry
        Total length         63.1168 bohr
 

     total cpu time spent up to now is     2133.7 secs

     total energy              =    -221.43741762 Ry
     estimated scf accuracy    <       0.07614336 Ry

     iteration # 10     ecut=    52.00 Ry     beta= 0.30
     Davidson diagonalization with overlap
     ethr =  1.50E-04,  avg # of iterations =  3.1

     negative rho (up, down):  2.289E-03 0.000E+00
 
     Adding external electric field

     Computed dipole along edir(3) : 
        Dipole               -0.2062 Ry au,         -0.5241 Debye
        Dipole field         -0.0021 Ry au, 
 
        Potential amp.        0.2676 Ry
        Total length         63.1168 bohr
 

     total cpu time spent up to now is     2383.0 secs

     total energy              =    -221.44192838 Ry
     estimated scf accuracy    <       0.00829433 Ry

     iteration # 11     ecut=    52.00 Ry     beta= 0.30
     Davidson diagonalization with overlap
     c_bands:  1 eigenvalues not converged
     c_bands:  1 eigenvalues not converged
     c_bands:  2 eigenvalues not converged
     c_bands:  2 eigenvalues not converged
     c_bands:  2 eigenvalues not converged
     c_bands:  1 eigenvalues not converged
     c_bands:  1 eigenvalues not converged
     c_bands:  2 eigenvalues not converged
     c_bands:  1 eigenvalues not converged
     ethr =  1.73E-05,  avg # of iterations =  9.1

     negative rho (up, down):  1.404E-04 0.000E+00
 
     Adding external electric field

     Computed dipole along edir(3) : 
        Dipole               -0.1525 Ry au,         -0.3877 Debye
        Dipole field         -0.0016 Ry au, 
 
        Potential amp.        0.1979 Ry
        Total length         63.1168 bohr
 

     total cpu time spent up to now is     2838.9 secs

     total energy              =    -221.44067232 Ry
     estimated scf accuracy    <       0.01117299 Ry

     iteration # 12     ecut=    52.00 Ry     beta= 0.30
     Davidson diagonalization with overlap
     c_bands:  2 eigenvalues not converged
     c_bands:  2 eigenvalues not converged
     c_bands:  2 eigenvalues not converged
     ethr =  1.73E-05,  avg # of iterations =  4.4

     negative rho (up, down):  1.376E-06 0.000E+00
 
     Adding external electric field

     Computed dipole along edir(3) : 
        Dipole               -0.1033 Ry au,         -0.2626 Debye
        Dipole field         -0.0011 Ry au, 
 
        Potential amp.        0.1340 Ry
        Total length         63.1168 bohr
 

     total cpu time spent up to now is     3129.9 secs

     total energy              =    -221.44128760 Ry
     estimated scf accuracy    <       0.01441791 Ry

     iteration # 13     ecut=    52.00 Ry     beta= 0.30
     Davidson diagonalization with overlap
     ethr =  1.73E-05,  avg # of iterations =  6.7
 
     Adding external electric field

     Computed dipole along edir(3) : 
        Dipole               -0.1361 Ry au,         -0.3459 Debye
        Dipole field         -0.0014 Ry au, 
 
        Potential amp.        0.1766 Ry
        Total length         63.1168 bohr
 

     total cpu time spent up to now is     3495.6 secs

     total energy              =    -221.44018152 Ry
     estimated scf accuracy    <       0.02908007 Ry

     iteration # 14     ecut=    52.00 Ry     beta= 0.30
     Davidson diagonalization with overlap
     ethr =  1.73E-05,  avg # of iterations =  3.0
 
     Adding external electric field

     Computed dipole along edir(3) : 
        Dipole               -0.1504 Ry au,         -0.3822 Debye
        Dipole field         -0.0015 Ry au, 
 
        Potential amp.        0.1951 Ry
        Total length         63.1168 bohr
 

     total cpu time spent up to now is     3736.2 secs

     total energy              =    -221.43944848 Ry
     estimated scf accuracy    <       0.01074848 Ry

     iteration # 15     ecut=    52.00 Ry     beta= 0.30
     Davidson diagonalization with overlap
     ethr =  1.73E-05,  avg # of iterations =  3.4
 
     Adding external electric field

     Computed dipole along edir(3) : 
        Dipole               -0.1531 Ry au,         -0.3891 Debye
        Dipole field         -0.0016 Ry au, 
 
        Potential amp.        0.1986 Ry
        Total length         63.1168 bohr
 

     total cpu time spent up to now is     3989.8 secs

     total energy              =    -221.43958205 Ry
     estimated scf accuracy    <       0.00558425 Ry

     iteration # 16     ecut=    52.00 Ry     beta= 0.30
     Davidson diagonalization with overlap
     ethr =  1.16E-05,  avg # of iterations =  1.2

     negative rho (up, down):  2.347E-07 0.000E+00
 
     Adding external electric field

     Computed dipole along edir(3) : 
        Dipole               -0.1145 Ry au,         -0.2911 Debye
        Dipole field         -0.0012 Ry au, 
 
        Potential amp.        0.1486 Ry
        Total length         63.1168 bohr
 

     total cpu time spent up to now is     4171.4 secs

     total energy              =    -221.43954270 Ry
     estimated scf accuracy    <       0.00510854 Ry

     iteration # 17     ecut=    52.00 Ry     beta= 0.30
     Davidson diagonalization with overlap
     ethr =  1.06E-05,  avg # of iterations =  2.9

     negative rho (up, down):  2.013E-06 0.000E+00
 
     Adding external electric field

     Computed dipole along edir(3) : 
        Dipole               -0.1181 Ry au,         -0.3001 Debye
        Dipole field         -0.0012 Ry au, 
 
        Potential amp.        0.1532 Ry
        Total length         63.1168 bohr
 

     total cpu time spent up to now is     4412.1 secs

     total energy              =    -221.43922247 Ry
     estimated scf accuracy    <       0.00664170 Ry

     iteration # 18     ecut=    52.00 Ry     beta= 0.30
     Davidson diagonalization with overlap
     ethr =  1.06E-05,  avg # of iterations =  1.6

     negative rho (up, down):  7.156E-07 0.000E+00
 
     Adding external electric field

     Computed dipole along edir(3) : 
        Dipole               -0.1393 Ry au,         -0.3541 Debye
        Dipole field         -0.0014 Ry au, 
 
        Potential amp.        0.1807 Ry
        Total length         63.1168 bohr
 

     total cpu time spent up to now is     4608.5 secs

     total energy              =    -221.43897059 Ry
     estimated scf accuracy    <       0.00462065 Ry

     iteration # 19     ecut=    52.00 Ry     beta= 0.30
     Davidson diagonalization with overlap
     c_bands:  1 eigenvalues not converged
     c_bands:  1 eigenvalues not converged
     ethr =  9.63E-06,  avg # of iterations =  3.8

     negative rho (up, down):  2.277E-05 0.000E+00
 
     Adding external electric field

     Computed dipole along edir(3) : 
        Dipole               -0.1144 Ry au,         -0.2908 Debye
        Dipole field         -0.0012 Ry au, 
 
        Potential amp.        0.1484 Ry
        Total length         63.1168 bohr
 

     total cpu time spent up to now is     4879.2 secs

     total energy              =    -221.43902710 Ry
     estimated scf accuracy    <       0.00440537 Ry

     iteration # 20     ecut=    52.00 Ry     beta= 0.30
     Davidson diagonalization with overlap
     ethr =  9.18E-06,  avg # of iterations =  2.3

     negative rho (up, down):  2.340E-06 0.000E+00
 
     Adding external electric field

     Computed dipole along edir(3) : 
        Dipole               -0.1086 Ry au,         -0.2761 Debye
        Dipole field         -0.0011 Ry au, 
 
        Potential amp.        0.1409 Ry
        Total length         63.1168 bohr
 

     total cpu time spent up to now is     5099.3 secs

     total energy              =    -221.43939685 Ry
     estimated scf accuracy    <       0.00390516 Ry

     iteration # 21     ecut=    52.00 Ry     beta= 0.30
     Davidson diagonalization with overlap
     ethr =  8.14E-06,  avg # of iterations =  1.5

     negative rho (up, down):  2.183E-03 0.000E+00
 
     Adding external electric field

     Computed dipole along edir(3) : 
        Dipole               -0.0786 Ry au,         -0.1997 Debye
        Dipole field         -0.0008 Ry au, 
 
        Potential amp.        0.1019 Ry
        Total length         63.1168 bohr
 

     total cpu time spent up to now is     5294.3 secs

     total energy              =    -221.43930207 Ry
     estimated scf accuracy    <       0.00411193 Ry

     iteration # 22     ecut=    52.00 Ry     beta= 0.30
     Davidson diagonalization with overlap
     ethr =  8.14E-06,  avg # of iterations =  3.4

     negative rho (up, down):  1.336E-03 0.000E+00
 
     Adding external electric field

     Computed dipole along edir(3) : 
        Dipole               -0.1145 Ry au,         -0.2912 Debye
        Dipole field         -0.0012 Ry au, 
 
        Potential amp.        0.1486 Ry
        Total length         63.1168 bohr
 

     total cpu time spent up to now is     5553.9 secs

     total energy              =    -221.43928773 Ry
     estimated scf accuracy    <       0.00443848 Ry

     iteration # 23     ecut=    52.00 Ry     beta= 0.30
     Davidson diagonalization with overlap
     ethr =  8.14E-06,  avg # of iterations =  3.4

     negative rho (up, down):  1.829E-03 0.000E+00
 
     Adding external electric field

     Computed dipole along edir(3) : 
        Dipole               -0.1278 Ry au,         -0.3248 Debye
        Dipole field         -0.0013 Ry au, 
 
        Potential amp.        0.1658 Ry
        Total length         63.1168 bohr
 

     total cpu time spent up to now is     5814.8 secs

     total energy              =    -221.43934282 Ry
     estimated scf accuracy    <       0.00475913 Ry

     iteration # 24     ecut=    52.00 Ry     beta= 0.30
     Davidson diagonalization with overlap
     ethr =  8.14E-06,  avg # of iterations =  1.3

     negative rho (up, down):  1.072E-03 0.000E+00
 
     Adding external electric field

     Computed dipole along edir(3) : 
        Dipole               -0.1239 Ry au,         -0.3148 Debye
        Dipole field         -0.0013 Ry au, 
 
        Potential amp.        0.1607 Ry
        Total length         63.1168 bohr
 

     total cpu time spent up to now is     6004.8 secs

     total energy              =    -221.43935981 Ry
     estimated scf accuracy    <       0.00422451 Ry

     iteration # 25     ecut=    52.00 Ry     beta= 0.30
     Davidson diagonalization with overlap
     ethr =  8.14E-06,  avg # of iterations =  1.1

     negative rho (up, down):  4.477E-04 0.000E+00
 
     Adding external electric field

     Computed dipole along edir(3) : 
        Dipole               -0.1102 Ry au,         -0.2800 Debye
        Dipole field         -0.0011 Ry au, 
 
        Potential amp.        0.1429 Ry
        Total length         63.1168 bohr
 

     total cpu time spent up to now is     6185.6 secs

     total energy              =    -221.43960769 Ry
     estimated scf accuracy    <       0.00410607 Ry

     iteration # 26     ecut=    52.00 Ry     beta= 0.30
     Davidson diagonalization with overlap
     ethr =  8.14E-06,  avg # of iterations =  1.3

     negative rho (up, down):  1.524E-03 0.000E+00
 
     Adding external electric field

     Computed dipole along edir(3) : 
        Dipole               -0.1265 Ry au,         -0.3215 Debye
        Dipole field         -0.0013 Ry au, 
 
        Potential amp.        0.1641 Ry
        Total length         63.1168 bohr
 

     total cpu time spent up to now is     6374.8 secs

     total energy              =    -221.43912820 Ry
     estimated scf accuracy    <       0.00507482 Ry

     iteration # 27     ecut=    52.00 Ry     beta= 0.30
     Davidson diagonalization with overlap
     ethr =  8.14E-06,  avg # of iterations =  2.0

     negative rho (up, down):  5.854E-04 0.000E+00
 
     Adding external electric field

     Computed dipole along edir(3) : 
        Dipole               -0.0984 Ry au,         -0.2502 Debye
        Dipole field         -0.0010 Ry au, 
 
        Potential amp.        0.1277 Ry
        Total length         63.1168 bohr
 

     total cpu time spent up to now is     6586.4 secs

     total energy              =    -221.43939467 Ry
     estimated scf accuracy    <       0.00448981 Ry

     iteration # 28     ecut=    52.00 Ry     beta= 0.30
     Davidson diagonalization with overlap
     ethr =  8.14E-06,  avg # of iterations =  2.6

     negative rho (up, down):  2.029E-03 0.000E+00
 
     Adding external electric field

     Computed dipole along edir(3) : 
        Dipole               -0.1111 Ry au,         -0.2824 Debye
        Dipole field         -0.0011 Ry au, 
 
        Potential amp.        0.1441 Ry
        Total length         63.1168 bohr
 

     total cpu time spent up to now is     6818.1 secs

     total energy              =    -221.43941676 Ry
     estimated scf accuracy    <       0.00896949 Ry

     iteration # 29     ecut=    52.00 Ry     beta= 0.30
     Davidson diagonalization with overlap
     ethr =  8.14E-06,  avg # of iterations =  1.8

     negative rho (up, down):  3.671E-03 0.000E+00
 
     Adding external electric field

     Computed dipole along edir(3) : 
        Dipole               -0.0018 Ry au,         -0.0046 Debye
        Dipole field         -0.0000 Ry au, 
 
        Potential amp.        0.0024 Ry
        Total length         63.1168 bohr
 

     total cpu time spent up to now is     7023.5 secs

     total energy              =    -221.43979711 Ry
     estimated scf accuracy    <       0.00894226 Ry

     iteration # 30     ecut=    52.00 Ry     beta= 0.30
     Davidson diagonalization with overlap
     ethr =  8.14E-06,  avg # of iterations =  7.2

     negative rho (up, down):  1.112E-03 0.000E+00
 
     Adding external electric field

     Computed dipole along edir(3) : 
        Dipole                0.0195 Ry au,          0.0495 Debye
        Dipole field          0.0002 Ry au, 
 
        Potential amp.       -0.0253 Ry
        Total length         63.1168 bohr
 

     total cpu time spent up to now is     7413.2 secs

     total energy              =    -221.44040089 Ry
     estimated scf accuracy    <       0.02555081 Ry

     iteration # 31     ecut=    52.00 Ry     beta= 0.30
     Davidson diagonalization with overlap
     ethr =  8.14E-06,  avg # of iterations =  2.6

     negative rho (up, down):  2.363E-03 0.000E+00
 
     Adding external electric field

     Computed dipole along edir(3) : 
        Dipole                0.0182 Ry au,          0.0463 Debye
        Dipole field          0.0002 Ry au, 
 
        Potential amp.       -0.0236 Ry
        Total length         63.1168 bohr
 

     total cpu time spent up to now is     7645.2 secs

     total energy              =    -221.44148396 Ry
     estimated scf accuracy    <       0.03829346 Ry

     iteration # 32     ecut=    52.00 Ry     beta= 0.30
     Davidson diagonalization with overlap
     ethr =  8.14E-06,  avg # of iterations =  2.6

     negative rho (up, down):  2.875E-03 0.000E+00
 
     Adding external electric field

     Computed dipole along edir(3) : 
        Dipole                0.0374 Ry au,          0.0952 Debye
        Dipole field          0.0004 Ry au, 
 
        Potential amp.       -0.0486 Ry
        Total length         63.1168 bohr
 

     total cpu time spent up to now is     7876.7 secs

     total energy              =    -221.44376749 Ry
     estimated scf accuracy    <       0.15010556 Ry

     iteration # 33     ecut=    52.00 Ry     beta= 0.30
     Davidson diagonalization with overlap
     ethr =  8.14E-06,  avg # of iterations =  3.2

     negative rho (up, down):  3.066E-03 0.000E+00
 
     Adding external electric field

     Computed dipole along edir(3) : 
        Dipole                0.0137 Ry au,          0.0349 Debye
        Dipole field          0.0001 Ry au, 
 
        Potential amp.       -0.0178 Ry
        Total length         63.1168 bohr
 

     total cpu time spent up to now is     8128.0 secs

     total energy              =    -221.44198264 Ry
     estimated scf accuracy    <       0.19739842 Ry

     iteration # 34     ecut=    52.00 Ry     beta= 0.30
     Davidson diagonalization with overlap
     ethr =  8.14E-06,  avg # of iterations =  2.3

     negative rho (up, down):  1.541E-03 0.000E+00
 
     Adding external electric field

     Computed dipole along edir(3) : 
        Dipole                0.0755 Ry au,          0.1918 Debye
        Dipole field          0.0008 Ry au, 
 
        Potential amp.       -0.0979 Ry
        Total length         63.1168 bohr
 

     total cpu time spent up to now is     8351.8 secs

     total energy              =    -221.44436061 Ry
     estimated scf accuracy    <       0.15354638 Ry

     iteration # 35     ecut=    52.00 Ry     beta= 0.30
     Davidson diagonalization with overlap
     ethr =  8.14E-06,  avg # of iterations =  3.4

     negative rho (up, down):  1.516E-04 0.000E+00
 
     Adding external electric field

     Computed dipole along edir(3) : 
        Dipole                0.0467 Ry au,          0.1188 Debye
        Dipole field          0.0005 Ry au, 
 
        Potential amp.       -0.0606 Ry
        Total length         63.1168 bohr
 

     total cpu time spent up to now is     8389.3 secs

     total energy              =    -221.43971349 Ry
     estimated scf accuracy    <       0.24229452 Ry

     iteration # 36     ecut=    52.00 Ry     beta= 0.30
     Davidson diagonalization with overlap
     ethr =  8.14E-06,  avg # of iterations =  3.0

     negative rho (up, down):  1.493E-03 0.000E+00
 
     Adding external electric field

     Computed dipole along edir(3) : 
        Dipole                0.0125 Ry au,          0.0319 Debye
        Dipole field          0.0001 Ry au, 
 
        Potential amp.       -0.0163 Ry
        Total length         63.1168 bohr
 

     total cpu time spent up to now is     8394.6 secs

     total energy              =    -221.43874937 Ry
     estimated scf accuracy    <       0.05611324 Ry

     iteration # 37     ecut=    52.00 Ry     beta= 0.30
     Davidson diagonalization with overlap
     ethr =  8.14E-06,  avg # of iterations =  3.8

     negative rho (up, down):  2.037E-03 0.000E+00
 
     Adding external electric field

     Computed dipole along edir(3) : 
        Dipole                0.0052 Ry au,          0.0131 Debye
        Dipole field          0.0001 Ry au, 
 
        Potential amp.       -0.0067 Ry
        Total length         63.1168 bohr
 

     total cpu time spent up to now is     8400.1 secs

     total energy              =    -221.43905144 Ry
     estimated scf accuracy    <       0.01844507 Ry

     iteration # 38     ecut=    52.00 Ry     beta= 0.30
     Davidson diagonalization with overlap
     ethr =  8.14E-06,  avg # of iterations =  1.7

     negative rho (up, down):  4.796E-03 0.000E+00
 
     Adding external electric field

     Computed dipole along edir(3) : 
        Dipole                0.0247 Ry au,          0.0628 Debye
        Dipole field          0.0003 Ry au, 
 
        Potential amp.       -0.0321 Ry
        Total length         63.1168 bohr
 

     total cpu time spent up to now is     8404.8 secs

     total energy              =    -221.43867403 Ry
     estimated scf accuracy    <       0.01272477 Ry

     iteration # 39     ecut=    52.00 Ry     beta= 0.30
     Davidson diagonalization with overlap
     ethr =  8.14E-06,  avg # of iterations =  3.6

     negative rho (up, down):  4.186E-03 0.000E+00
 
     Adding external electric field

     Computed dipole along edir(3) : 
        Dipole                0.0232 Ry au,          0.0589 Debye
        Dipole field          0.0002 Ry au, 
 
        Potential amp.       -0.0301 Ry
        Total length         63.1168 bohr
 

     total cpu time spent up to now is     8410.3 secs

     total energy              =    -221.43877359 Ry
     estimated scf accuracy    <       0.00518666 Ry

     iteration # 40     ecut=    52.00 Ry     beta= 0.30
     Davidson diagonalization with overlap
     ethr =  8.14E-06,  avg # of iterations =  1.0

     negative rho (up, down):  3.702E-03 0.000E+00
 
     Adding external electric field

     Computed dipole along edir(3) : 
        Dipole                0.0213 Ry au,          0.0540 Debye
        Dipole field          0.0002 Ry au, 
 
        Potential amp.       -0.0276 Ry
        Total length         63.1168 bohr
 

     total cpu time spent up to now is     8414.7 secs

     total energy              =    -221.43875268 Ry
     estimated scf accuracy    <       0.00594150 Ry

     iteration # 41     ecut=    52.00 Ry     beta= 0.30
     Davidson diagonalization with overlap
     ethr =  8.14E-06,  avg # of iterations =  1.1

     negative rho (up, down):  3.535E-03 0.000E+00
 
     Adding external electric field

     Computed dipole along edir(3) : 
        Dipole                0.0152 Ry au,          0.0387 Debye
        Dipole field          0.0002 Ry au, 
 
        Potential amp.       -0.0198 Ry
        Total length         63.1168 bohr
 

     total cpu time spent up to now is     8419.1 secs

     total energy              =    -221.43857708 Ry
     estimated scf accuracy    <       0.00586208 Ry

     iteration # 42     ecut=    52.00 Ry     beta= 0.30
     Davidson diagonalization with overlap
     ethr =  8.14E-06,  avg # of iterations =  3.2

     negative rho (up, down):  3.578E-03 0.000E+00
 
     Adding external electric field

     Computed dipole along edir(3) : 
        Dipole                0.0243 Ry au,          0.0617 Debye
        Dipole field          0.0002 Ry au, 
 
        Potential amp.       -0.0315 Ry
        Total length         63.1168 bohr
 

     total cpu time spent up to now is     8424.3 secs

     total energy              =    -221.43857841 Ry
     estimated scf accuracy    <       0.00579060 Ry

     iteration # 43     ecut=    52.00 Ry     beta= 0.30
     Davidson diagonalization with overlap
     ethr =  8.14E-06,  avg # of iterations =  1.0

     negative rho (up, down):  3.663E-03 0.000E+00
 
     Adding external electric field

     Computed dipole along edir(3) : 
        Dipole                0.0185 Ry au,          0.0470 Debye
        Dipole field          0.0002 Ry au, 
 
        Potential amp.       -0.0240 Ry
        Total length         63.1168 bohr
 

     total cpu time spent up to now is     8428.7 secs

     total energy              =    -221.43861151 Ry
     estimated scf accuracy    <       0.00535424 Ry

     iteration # 44     ecut=    52.00 Ry     beta= 0.30
     Davidson diagonalization with overlap
     ethr =  8.14E-06,  avg # of iterations =  1.0

     negative rho (up, down):  3.883E-03 0.000E+00
 
     Adding external electric field

     Computed dipole along edir(3) : 
        Dipole                0.0211 Ry au,          0.0536 Debye
        Dipole field          0.0002 Ry au, 
 
        Potential amp.       -0.0273 Ry
        Total length         63.1168 bohr
 

     total cpu time spent up to now is     8433.1 secs

     total energy              =    -221.43857535 Ry
     estimated scf accuracy    <       0.00584004 Ry

     iteration # 45     ecut=    52.00 Ry     beta= 0.30
     Davidson diagonalization with overlap
     ethr =  8.14E-06,  avg # of iterations =  1.0

     negative rho (up, down):  2.862E-03 0.000E+00
 
     Adding external electric field

     Computed dipole along edir(3) : 
        Dipole                0.0259 Ry au,          0.0658 Debye
        Dipole field          0.0003 Ry au, 
 
        Potential amp.       -0.0336 Ry
        Total length         63.1168 bohr
 

     total cpu time spent up to now is     8437.4 secs

     total energy              =    -221.43837184 Ry
     estimated scf accuracy    <       0.00536726 Ry

     iteration # 46     ecut=    52.00 Ry     beta= 0.30
     Davidson diagonalization with overlap
     ethr =  8.14E-06,  avg # of iterations =  2.6

     negative rho (up, down):  3.247E-03 0.000E+00
 
     Adding external electric field

     Computed dipole along edir(3) : 
        Dipole                0.0290 Ry au,          0.0738 Debye
        Dipole field          0.0003 Ry au, 
 
        Potential amp.       -0.0377 Ry
        Total length         63.1168 bohr
 

     total cpu time spent up to now is     8442.5 secs

     total energy              =    -221.43843913 Ry
     estimated scf accuracy    <       0.00340987 Ry

     iteration # 47     ecut=    52.00 Ry     beta= 0.30
     Davidson diagonalization with overlap
     ethr =  7.10E-06,  avg # of iterations =  2.7

     negative rho (up, down):  2.684E-03 0.000E+00
 
     Adding external electric field

     Computed dipole along edir(3) : 
        Dipole                0.0183 Ry au,          0.0465 Debye
        Dipole field          0.0002 Ry au, 
 
        Potential amp.       -0.0238 Ry
        Total length         63.1168 bohr
 

     total cpu time spent up to now is     8447.5 secs

     total energy              =    -221.43850397 Ry
     estimated scf accuracy    <       0.00382416 Ry

     iteration # 48     ecut=    52.00 Ry     beta= 0.30
     Davidson diagonalization with overlap
     ethr =  7.10E-06,  avg # of iterations =  2.5

     negative rho (up, down):  1.765E-03 0.000E+00
 
     Adding external electric field

     Computed dipole along edir(3) : 
        Dipole                0.0158 Ry au,          0.0403 Debye
        Dipole field          0.0002 Ry au, 
 
        Potential amp.       -0.0205 Ry
        Total length         63.1168 bohr
 

     total cpu time spent up to now is     8452.4 secs

     total energy              =    -221.43820295 Ry
     estimated scf accuracy    <       0.00493549 Ry

     iteration # 49     ecut=    52.00 Ry     beta= 0.30
     Davidson diagonalization with overlap
     ethr =  7.10E-06,  avg # of iterations =  6.8

     negative rho (up, down):  5.933E-04 0.000E+00
 
     Adding external electric field

     Computed dipole along edir(3) : 
        Dipole                0.0079 Ry au,          0.0201 Debye
        Dipole field          0.0001 Ry au, 
 
        Potential amp.       -0.0103 Ry
        Total length         63.1168 bohr
 

     total cpu time spent up to now is     8459.1 secs

     total energy              =    -221.43795593 Ry
     estimated scf accuracy    <       0.00399962 Ry

     iteration # 50     ecut=    52.00 Ry     beta= 0.30
     Davidson diagonalization with overlap
     ethr =  7.10E-06,  avg # of iterations =  4.9

     negative rho (up, down):  7.067E-04 0.000E+00
 
     Adding external electric field

     Computed dipole along edir(3) : 
        Dipole                0.0095 Ry au,          0.0242 Debye
        Dipole field          0.0001 Ry au, 
 
        Potential amp.       -0.0124 Ry
        Total length         63.1168 bohr
 

     total cpu time spent up to now is     8465.0 secs

     total energy              =    -221.43804850 Ry
     estimated scf accuracy    <       0.00093240 Ry

     iteration # 51     ecut=    52.00 Ry     beta= 0.30
     Davidson diagonalization with overlap
     c_bands:  1 eigenvalues not converged
     c_bands:  1 eigenvalues not converged
     c_bands:  1 eigenvalues not converged
     c_bands:  1 eigenvalues not converged
     c_bands:  1 eigenvalues not converged
     c_bands:  1 eigenvalues not converged
     ethr =  1.94E-06,  avg # of iterations =  6.0

     negative rho (up, down):  3.927E-04 0.000E+00
 
     Adding external electric field

     Computed dipole along edir(3) : 
        Dipole               -0.0063 Ry au,         -0.0159 Debye
        Dipole field         -0.0001 Ry au, 
 
        Potential amp.        0.0081 Ry
        Total length         63.1168 bohr
 

     total cpu time spent up to now is     8471.2 secs

     total energy              =    -221.43798373 Ry
     estimated scf accuracy    <       0.00123869 Ry

     iteration # 52     ecut=    52.00 Ry     beta= 0.30
     Davidson diagonalization with overlap
     ethr =  1.94E-06,  avg # of iterations =  7.6

     negative rho (up, down):  1.678E-03 0.000E+00
 
     Adding external electric field

     Computed dipole along edir(3) : 
        Dipole                0.0088 Ry au,          0.0222 Debye
        Dipole field          0.0001 Ry au, 
 
        Potential amp.       -0.0114 Ry
        Total length         63.1168 bohr
 

     total cpu time spent up to now is     8478.3 secs

     total energy              =    -221.43789479 Ry
     estimated scf accuracy    <       0.00059174 Ry

     iteration # 53     ecut=    52.00 Ry     beta= 0.30
     Davidson diagonalization with overlap
     ethr =  1.23E-06,  avg # of iterations =  9.1

     negative rho (up, down):  1.634E-03 0.000E+00
 
     Adding external electric field

     Computed dipole along edir(3) : 
        Dipole                0.0079 Ry au,          0.0200 Debye
        Dipole field          0.0001 Ry au, 
 
        Potential amp.       -0.0102 Ry
        Total length         63.1168 bohr
 

     total cpu time spent up to now is     8486.1 secs

     total energy              =    -221.43804438 Ry
     estimated scf accuracy    <       0.00135243 Ry

     iteration # 54     ecut=    52.00 Ry     beta= 0.30
     Davidson diagonalization with overlap
     ethr =  1.23E-06,  avg # of iterations =  1.4

     negative rho (up, down):  1.115E-03 0.000E+00
 
     Adding external electric field

     Computed dipole along edir(3) : 
        Dipole                0.0093 Ry au,          0.0237 Debye
        Dipole field          0.0001 Ry au, 
 
        Potential amp.       -0.0121 Ry
        Total length         63.1168 bohr
 

     total cpu time spent up to now is     8490.6 secs

     total energy              =    -221.43799858 Ry
     estimated scf accuracy    <       0.00091485 Ry

     iteration # 55     ecut=    52.00 Ry     beta= 0.30
     Davidson diagonalization with overlap
     ethr =  1.23E-06,  avg # of iterations =  5.3

     negative rho (up, down):  6.239E-04 0.000E+00
 
     Adding external electric field

     Computed dipole along edir(3) : 
        Dipole                0.0060 Ry au,          0.0154 Debye
        Dipole field          0.0001 Ry au, 
 
        Potential amp.       -0.0078 Ry
        Total length         63.1168 bohr
 

     total cpu time spent up to now is     8496.7 secs

     total energy              =    -221.43795735 Ry
     estimated scf accuracy    <       0.00043575 Ry

     iteration # 56     ecut=    52.00 Ry     beta= 0.30
     Davidson diagonalization with overlap
     ethr =  9.08E-07,  avg # of iterations =  5.5

     negative rho (up, down):  3.257E-04 0.000E+00
 
     Adding external electric field

     Computed dipole along edir(3) : 
        Dipole                0.0041 Ry au,          0.0104 Debye
        Dipole field          0.0000 Ry au, 
 
        Potential amp.       -0.0053 Ry
        Total length         63.1168 bohr
 

     total cpu time spent up to now is     8503.0 secs

     total energy              =    -221.43795909 Ry
     estimated scf accuracy    <       0.00002598 Ry

     iteration # 57     ecut=    52.00 Ry     beta= 0.30
     Davidson diagonalization with overlap
     ethr =  5.41E-08,  avg # of iterations =  3.8

     negative rho (up, down):  1.012E-04 0.000E+00
 
     Adding external electric field

     Computed dipole along edir(3) : 
        Dipole               -0.0002 Ry au,         -0.0004 Debye
        Dipole field         -0.0000 Ry au, 
 
        Potential amp.        0.0002 Ry
        Total length         63.1168 bohr
 

     total cpu time spent up to now is     8508.6 secs

     total energy              =    -221.43795544 Ry
     estimated scf accuracy    <       0.00008528 Ry

     iteration # 58     ecut=    52.00 Ry     beta= 0.30
     Davidson diagonalization with overlap
     ethr =  5.41E-08,  avg # of iterations =  3.0

     negative rho (up, down):  8.186E-05 0.000E+00
 
     Adding external electric field

     Computed dipole along edir(3) : 
        Dipole               -0.0014 Ry au,         -0.0036 Debye
        Dipole field         -0.0000 Ry au, 
 
        Potential amp.        0.0019 Ry
        Total length         63.1168 bohr
 

     total cpu time spent up to now is     8513.8 secs

     total energy              =    -221.43795766 Ry
     estimated scf accuracy    <       0.00001083 Ry

     iteration # 59     ecut=    52.00 Ry     beta= 0.30
     Davidson diagonalization with overlap
     ethr =  2.26E-08,  avg # of iterations =  1.0

     negative rho (up, down):  4.229E-05 0.000E+00
 
     Adding external electric field

     Computed dipole along edir(3) : 
        Dipole               -0.0025 Ry au,         -0.0063 Debye
        Dipole field         -0.0000 Ry au, 
 
        Potential amp.        0.0032 Ry
        Total length         63.1168 bohr
 

     total cpu time spent up to now is     8518.2 secs

     total energy              =    -221.43795845 Ry
     estimated scf accuracy    <       0.00000410 Ry

     iteration # 60     ecut=    52.00 Ry     beta= 0.30
     Davidson diagonalization with overlap
     ethr =  8.53E-09,  avg # of iterations =  1.1

     negative rho (up, down):  4.120E-05 0.000E+00
 
     Adding external electric field

     Computed dipole along edir(3) : 
        Dipole               -0.0027 Ry au,         -0.0069 Debye
        Dipole field         -0.0000 Ry au, 
 
        Potential amp.        0.0035 Ry
        Total length         63.1168 bohr
 

     total cpu time spent up to now is     8522.5 secs

     total energy              =    -221.43795854 Ry
     estimated scf accuracy    <       0.00000151 Ry

     iteration # 61     ecut=    52.00 Ry     beta= 0.30
     Davidson diagonalization with overlap
     ethr =  3.14E-09,  avg # of iterations =  1.1

     negative rho (up, down):  9.239E-05 0.000E+00
 
     Adding external electric field

     Computed dipole along edir(3) : 
        Dipole               -0.0004 Ry au,         -0.0010 Debye
        Dipole field         -0.0000 Ry au, 
 
        Potential amp.        0.0005 Ry
        Total length         63.1168 bohr
 

     total cpu time spent up to now is     8526.9 secs

     total energy              =    -221.43795822 Ry
     estimated scf accuracy    <       0.00000102 Ry

     iteration # 62     ecut=    52.00 Ry     beta= 0.30
     Davidson diagonalization with overlap
     ethr =  2.13E-09,  avg # of iterations =  2.1

     negative rho (up, down):  9.901E-05 0.000E+00
 
     Adding external electric field

     Computed dipole along edir(3) : 
        Dipole               -0.0009 Ry au,         -0.0022 Debye
        Dipole field         -0.0000 Ry au, 
 
        Potential amp.        0.0011 Ry
        Total length         63.1168 bohr
 

     total cpu time spent up to now is     8531.8 secs

     total energy              =    -221.43795789 Ry
     estimated scf accuracy    <       0.00001151 Ry

     iteration # 63     ecut=    52.00 Ry     beta= 0.30
     Davidson diagonalization with overlap
     ethr =  2.13E-09,  avg # of iterations =  2.0

     negative rho (up, down):  1.079E-04 0.000E+00
 
     Adding external electric field

     Computed dipole along edir(3) : 
        Dipole               -0.0006 Ry au,         -0.0015 Debye
        Dipole field         -0.0000 Ry au, 
 
        Potential amp.        0.0007 Ry
        Total length         63.1168 bohr
 

     total cpu time spent up to now is     8536.4 secs

     total energy              =    -221.43795829 Ry
     estimated scf accuracy    <       0.00000041 Ry

     iteration # 64     ecut=    52.00 Ry     beta= 0.30
     Davidson diagonalization with overlap
     ethr =  8.64E-10,  avg # of iterations =  1.2

     negative rho (up, down):  1.395E-04 0.000E+00
 
     Adding external electric field

     Computed dipole along edir(3) : 
        Dipole               -0.0001 Ry au,         -0.0001 Debye
        Dipole field         -0.0000 Ry au, 
 
        Potential amp.        0.0001 Ry
        Total length         63.1168 bohr
 

     total cpu time spent up to now is     8540.8 secs

     total energy              =    -221.43795820 Ry
     estimated scf accuracy    <       0.00000109 Ry

     iteration # 65     ecut=    52.00 Ry     beta= 0.30
     Davidson diagonalization with overlap
     ethr =  8.64E-10,  avg # of iterations =  1.0

     negative rho (up, down):  1.413E-04 0.000E+00
 
     Adding external electric field

     Computed dipole along edir(3) : 
        Dipole                0.0001 Ry au,          0.0002 Debye
        Dipole field          0.0000 Ry au, 
 
        Potential amp.       -0.0001 Ry
        Total length         63.1168 bohr
 

     total cpu time spent up to now is     8545.2 secs

     total energy              =    -221.43795819 Ry
     estimated scf accuracy    <       0.00000009 Ry

     iteration # 66     ecut=    52.00 Ry     beta= 0.30
     Davidson diagonalization with overlap
     ethr =  1.83E-10,  avg # of iterations =  1.3

     negative rho (up, down):  1.288E-04 0.000E+00
 
     Adding external electric field

     Computed dipole along edir(3) : 
        Dipole               -0.0000 Ry au,         -0.0000 Debye
        Dipole field         -0.0000 Ry au, 
 
        Potential amp.        0.0000 Ry
        Total length         63.1168 bohr
 

     total cpu time spent up to now is     8549.6 secs

     total energy              =    -221.43795820 Ry
     estimated scf accuracy    <       0.00000005 Ry

     iteration # 67     ecut=    52.00 Ry     beta= 0.30
     Davidson diagonalization with overlap
     ethr =  1.05E-10,  avg # of iterations =  2.0

     negative rho (up, down):  1.283E-04 0.000E+00
 
     Adding external electric field

     Computed dipole along edir(3) : 
        Dipole               -0.0000 Ry au,         -0.0001 Debye
        Dipole field         -0.0000 Ry au, 
 
        Potential amp.        0.0000 Ry
        Total length         63.1168 bohr
 

     total cpu time spent up to now is     8554.3 secs

     total energy              =    -221.43795820 Ry
     estimated scf accuracy    <       0.00000003 Ry

     iteration # 68     ecut=    52.00 Ry     beta= 0.30
     Davidson diagonalization with overlap
     ethr =  5.77E-11,  avg # of iterations =  1.0

     negative rho (up, down):  1.260E-04 0.000E+00
 
     Adding external electric field

     Computed dipole along edir(3) : 
        Dipole                0.0001 Ry au,          0.0002 Debye
        Dipole field          0.0000 Ry au, 
 
        Potential amp.       -0.0001 Ry
        Total length         63.1168 bohr
 

     total cpu time spent up to now is     8558.6 secs

     End of self-consistent calculation

     Number of k-points >= 100: set verbosity='high' to print the bands.

     the Fermi energy is     2.3307 ev

!    total energy              =    -221.43795820 Ry
     total all-electron energy =      -914.607132 Ry
     estimated scf accuracy    <          5.8E-09 Ry
     smearing contrib. (-TS)   =      -0.00009967 Ry
     internal energy E=F+TS    =    -221.43785853 Ry

     The total energy is F=E-TS. E is the sum of the following terms:
     one-electron contribution =   -3193.45793199 Ry
     hartree contribution      =    1613.65743041 Ry
     xc contribution           =     -55.68888753 Ry
     ewald contribution        =    1488.18437673 Ry
     DFT-D3 Dispersion         =      -0.12963503 Ry
     electric field correction =       0.00000000 Ry
     one-center paw contrib.   =     -74.00321113 Ry

     convergence has been achieved in  68 iterations

     negative rho (up, down):  1.260E-04 0.000E+00

     Forces acting on atoms (cartesian axes, Ry/au):

     atom    1 type  1   force =     0.00000000   -0.00000002   -0.00058166
     atom    2 type  1   force =     0.00000001   -0.00000001    0.00011812
     atom    3 type  1   force =     0.00000000   -0.00000000   -0.00003393
     atom    4 type  1   force =     0.00000001   -0.00000001    0.00016903
     atom    5 type  1   force =    -0.00000001   -0.00000000   -0.00439178
     atom    6 type  1   force =    -0.00000003    0.00000001   -0.00314130
     atom    7 type  1   force =    -0.00000000   -0.00000000    0.00312975
     atom    8 type  1   force =    -0.00000001    0.00000000    0.00438093
     atom    9 type  1   force =     0.00000003    0.00000002   -0.00015365
     atom   10 type  1   force =     0.00000002    0.00000001    0.00004686
     atom   11 type  1   force =    -0.00000001    0.00000000   -0.00012182
     atom   12 type  1   force =    -0.00000001    0.00000001    0.00057944

     Total force =     0.007675     Total SCF correction =     0.000194

     Writing all to output data dir ./tmp/CC_S33_AB_Ed_m03.save/ :
     XML data file, charge density, pseudopotentials, collected wavefunctions
 
     init_run     :    100.02s CPU     98.60s WALL (       1 calls)
     electrons    :   8504.15s CPU   8459.82s WALL (       1 calls)
     forces       :      0.71s CPU      0.73s WALL (       1 calls)
     force_dftd3  :      0.04s CPU      0.03s WALL (       1 calls)

     Called by init_run:
     wfcinit      :     85.65s CPU     86.01s WALL (       1 calls)
     potinit      :     12.90s CPU     11.16s WALL (       1 calls)
     hinit0       :      0.73s CPU      0.67s WALL (       1 calls)

     Called by electrons:
     c_bands      :   6247.71s CPU   6274.01s WALL (      68 calls)
     sum_band     :   1562.91s CPU   1571.36s WALL (      68 calls)
     v_of_rho     :     17.33s CPU     14.13s WALL (      69 calls)
     newd         :     12.63s CPU     12.72s WALL (      69 calls)
                                       12.72s GPU  (      69 calls)
     PAW_pot      :    479.61s CPU    401.55s WALL (      69 calls)
     mix_rho      :    194.52s CPU    194.91s WALL (      68 calls)
     energy_dftd3 :      0.00s CPU      0.00s WALL (       1 calls)

     Called by c_bands:
     init_us_2    :    859.93s CPU    867.95s WALL (   22632 calls)
     cegterg      :   5276.15s CPU   5281.04s WALL (   11152 calls)

     Called by *egterg:
     cdiaghg      :    293.30s CPU    294.28s WALL (   43602 calls)
                                      243.45s GPU  (   43602 calls)
     h_psi        :   2618.05s CPU   2672.69s WALL (   43766 calls)
                                     2622.05s GPU  (   43766 calls)
     s_psi        :   1285.28s CPU   1285.84s WALL (   43766 calls)
     g_psi        :      0.18s CPU     38.61s WALL (   32450 calls)
                                        0.74s GPU  (   32450 calls)

     Called by h_psi:
     h_psi:calbec :      1.49s CPU     54.34s WALL (   43766 calls)
                                        3.07s GPU  (   43766 calls)
     vloc_psi     :   1529.39s CPU   1583.04s WALL (   43766 calls)
                                     1531.76s GPU  (   43766 calls)
     add_vuspsi   :    776.07s CPU    829.29s WALL (   43766 calls)
                                      777.95s GPU  (   43766 calls)

     General routines
     calbec       :      1.76s CPU      1.83s WALL (   55574 calls)
     fft          :      0.98s CPU      2.04s WALL (     906 calls)
                                        0.12s GPU  (     837 calls)
     ffts         :      0.33s CPU      8.83s WALL (    7744 calls)
                                        0.29s GPU  (    7675 calls)
     fftw         :      2.27s CPU    236.01s WALL (  155754 calls)
                                       52.71s GPU  (  155754 calls)
     interpolate  :      1.37s CPU      1.38s WALL (      69 calls)
     davcio       :     22.52s CPU     32.53s WALL (   35214 calls)
 
     Parallel routines
 
     PWSCF        :      2h23m CPU      2h22m WALL

 
   This run was terminated on:  18:19:39  30Sep2026            

=------------------------------------------------------------------------------=
   JOB DONE.
=------------------------------------------------------------------------------=
