120
Lattice="14.00411431 0.00000000 0.00000000 0.00000000 14.00411431 0.00000000 0.00000000 0.00000000 14.00411431" Properties=species:S:1:pos:R:3 pbc="T T T" t_ps=40.0
P 1.06009653 10.65133516 -14.57105837
S -0.38660563 11.28807132 -15.95477830
S 0.99296321 8.67114629 -13.93582136
S 0.81023812 11.87163999 -12.90521775
S 2.96824430 10.96247467 -15.29034746
P 17.48747037 22.71574971 -10.46942024
S 15.52807553 22.90216251 -10.04797811
S 18.26650691 23.85320991 -11.94423457
S 17.65784698 20.67879893 -11.04376361
S 18.56376323 23.15881683 -8.77434572
P -9.62670069 14.92915144 13.26648358
S -8.92646459 13.99842117 11.54878656
S -9.10586040 13.77127455 15.06172053
S -11.70553935 14.90942821 13.13509755
S -8.64802817 16.73028237 13.53969469
P 0.51096300 2.79738621 3.97539066
S 1.48744273 1.63258445 2.55234374
S 0.34280020 4.65156727 3.16128376
S 1.59686826 2.78426689 5.69167590
S -1.37734959 2.00240789 4.27249358
P 20.72133733 24.81748976 9.19509383
S 19.08501909 26.03182454 9.01773401
S 20.46382948 23.70096761 10.93133995
S 22.43223768 26.02325015 9.26081976
S 20.79670463 23.69168996 7.47202936
P 5.20975441 14.65198151 19.87183531
S 5.26278710 15.98134956 18.22547968
S 7.11565226 13.92895648 20.20415489
S 3.90679916 13.10337559 19.33603824
S 4.50032544 15.72542119 21.40093145
P -15.61148791 3.76319406 -4.99247866
S -15.66198777 5.12965885 -6.57352378
S -16.57447841 2.02423826 -5.57077631
S -16.66553873 4.76158821 -3.44175861
S -13.60224631 3.40457969 -4.43043104
P -4.26324083 -6.45517580 -14.69301899
S -5.39836466 -5.67483406 -13.12249868
S -5.36272280 -7.94489143 -15.58745954
S -2.59141538 -7.21050564 -13.73027428
S -3.79633533 -5.03016795 -16.15228626
P 11.60487315 29.57443225 13.40298038
S 13.14721155 29.22576006 12.08835818
S 11.58180695 28.08769845 14.87019970
S 9.75252130 29.73433347 12.42687915
S 12.00129169 31.33431420 14.39378868
P 28.43332927 -1.76276209 22.13150779
S 29.45513828 -3.58606677 22.50687424
S 26.40721182 -1.86248828 22.71764093
S 28.51587643 -1.54712929 20.10182985
S 29.34034376 -0.25636472 23.08421404
P 10.39653140 -3.02970963 32.05605295
S 8.34056143 -3.24381812 31.45449705
S 10.83851499 -1.05341847 32.32391834
S 11.38237653 -3.78849011 30.35343136
S 10.98167974 -4.16742083 33.67778759
P -5.38293581 -8.49961738 4.12392064
S -6.60763611 -9.17298199 2.68032426
S -5.45156854 -9.86536917 5.58584246
S -5.88692947 -6.56841025 4.80916534
S -3.38721900 -8.09456692 3.69979327
Cl 22.04317705 -1.81046763 -0.55303904
Cl 1.71686345 -21.21713730 6.93872903
Cl 7.23759792 33.76033656 -4.86100088
Cl -12.49737860 18.59992108 13.01890734
Cl 18.54583372 -24.00801841 24.42479830
Cl 21.53523467 -11.89191005 9.56864471
Cl 18.86688479 6.71040832 13.16645024
Cl -10.43360277 -6.19859349 -32.37613410
Cl 41.61491324 -6.42281209 -3.73563801
Cl -3.94668452 8.03001029 22.28893627
Cl 18.89179723 -8.41560614 -7.49198078
Cl 22.20381094 15.18948750 58.24004844
Li -19.67420195 41.25324771 -38.28549811
Li 36.55971894 -31.10547971 39.53110413
Li -38.70381139 50.38809159 56.07901886
Li -15.33637169 -5.63583560 -15.25035849
Li -0.53352392 -28.61740885 -126.39685808
Li 44.72267000 12.99124255 25.36789510
Li 5.25273842 6.35508359 -31.25323927
Li -50.08323262 68.02132886 54.61967650
Li 24.50601378 7.94977823 16.24682550
Li 1.71756335 38.18058846 6.00638482
Li 1.37448517 7.82704394 -5.16196886
Li 48.12058334 72.20216505 -58.67353005
Li -8.50914297 33.97824226 4.16939645
Li -1.99635576 -10.07879562 16.80240746
Li 9.25193926 -59.98555400 -48.55950432
Li -28.49426596 24.25660376 52.06023417
Li -7.54438406 65.34210396 3.75268284
Li -3.63148860 21.26301156 89.86363552
Li 97.85018046 47.02131200 11.21829873
Li 47.65824176 25.88963760 6.70984113
Li -0.18602139 37.85903134 2.11566454
Li 17.83554192 -23.41202949 96.60320040
Li -7.07466138 28.00312376 -19.41033003
Li 59.77008652 24.09016674 -3.65020032
Li 20.18070850 43.68041123 -26.31806409
Li 6.84813909 20.40691978 -13.81867666
Li -10.10214886 59.61074363 -22.35897412
Li -27.20897829 -9.45636257 7.29426184
Li 0.73657740 -24.49529038 0.89369465
Li 66.56969645 4.56561599 40.96010123
Li -39.64786776 0.40088099 6.67233728
Li 35.69044578 16.55673284 -10.01586410
Li 23.14967264 10.61751728 29.08084468
Li -46.77545194 -69.81335019 -13.55284853
Li 49.42511148 20.14518215 -21.24342817
Li 27.10778691 0.30682358 58.76842143
Li -4.29397483 -39.40619236 -31.93394451
Li -2.26069686 -21.10745418 37.07095592
Li 25.34853900 -10.58427759 -49.72936338
Li -10.84179495 -15.76946711 -13.09586000
Li 40.87313017 14.53833155 -4.46519742
Li -12.54434168 30.63951348 11.79135443
Li -7.99002335 45.65942837 36.48122318
Li -12.21246920 34.30817166 -51.51718357
Li 36.46801714 21.59866773 24.49033545
Li 88.16045745 -48.49767989 21.15872772
Li -66.48653114 -41.44029426 -10.72693791
Li 26.26853187 11.65525558 -21.66559750
