120
Lattice="13.99299189 0.00000000 0.00000000 0.00000000 13.99299189 0.00000000 0.00000000 0.00000000 13.99299189" Properties=species:S:1:pos:R:3 pbc="T T T" t_ps=17.0
P 1.12047721 10.44773390 -14.47110008
S -0.49016352 10.85343494 -15.69459353
S 0.89421206 8.49805092 -13.71399128
S 0.89204931 11.79130323 -12.95465252
S 2.94293843 10.62671738 -15.41643287
P 17.41919464 22.81135698 -10.27282624
S 15.24787774 22.88683501 -10.17840997
S 18.35979748 24.01145153 -11.65097266
S 17.84793381 20.80909430 -10.76360617
S 18.24747758 23.18457952 -8.43192068
P -9.79110677 14.77737678 13.26053450
S -9.17262232 14.05198716 11.45874182
S -9.18174870 13.43943501 14.78820197
S -11.72871784 15.35336745 13.33578595
S -8.59634576 16.41353221 13.67145057
P 0.19242859 3.00359136 3.89374654
S 0.75152044 1.45102927 2.61744602
S 0.44881891 4.74660519 2.78547885
S 1.44973356 3.05195987 5.53579845
S -1.84669761 2.71893821 4.34174990
P 20.67930899 25.01491791 9.37668800
S 19.51604239 26.48886258 8.73877253
S 20.14261033 24.29629568 11.22825276
S 22.62206812 25.51033809 9.39281322
S 20.47998338 23.38528253 8.15509293
P 5.33054220 14.87883368 19.50972836
S 5.07711983 16.22688173 17.94362100
S 7.36030199 14.56651698 19.66461893
S 4.20892626 13.23248307 18.98754971
S 4.74444903 15.69329619 21.36523179
P -15.40096851 3.89771494 -4.91042300
S -15.61939774 5.29400651 -6.39491772
S -16.45148429 2.15515326 -5.36497736
S -16.67534909 4.53622526 -3.28095721
S -13.34502512 3.76125015 -4.72122003
P -4.35762898 -6.85286644 -14.88266208
S -5.38465798 -5.63787773 -13.50308537
S -5.52998277 -8.59524552 -15.25693959
S -2.49043768 -7.22450649 -14.10745451
S -4.26281234 -5.91247284 -16.65350327
P 11.75338526 29.45313683 13.31301162
S 13.12635703 29.11900548 11.91313520
S 11.68529919 27.81825461 14.55000001
S 9.81216251 29.76069955 12.52266319
S 12.13858317 31.23380077 14.37932014
P 28.84968588 -1.76743983 21.87694296
S 30.13264332 -3.27241723 22.51736052
S 26.99411390 -1.93195652 22.77345224
S 28.63066217 -1.92703665 19.83836227
S 29.65365285 0.08940412 22.40496358
P 10.48296483 -2.83322966 32.14567556
S 8.62459998 -2.82984351 31.44426135
S 11.20211380 -0.97946204 32.32593912
S 11.56231558 -3.85849356 30.60967623
S 10.71605862 -3.69190313 34.00267483
P -5.21721009 -8.17615112 4.24169190
S -6.20866824 -8.84123193 2.62094072
S -5.15722477 -9.61076627 5.70932866
S -6.16258423 -6.58478839 5.07362872
S -3.25507440 -7.56226531 3.91730095
Cl 22.06360763 -2.21444092 -0.29096082
Cl 1.72642860 -21.27100216 6.80067080
Cl 6.81015602 33.86655302 -4.61423820
Cl -12.80316351 18.80358289 12.81227251
Cl 18.10020535 -24.09965559 24.68359250
Cl 21.68462642 -11.59536847 9.53636800
Cl 18.55505048 6.57795478 13.32477041
Cl -10.74280395 -6.62207785 -32.28667397
Cl 41.53390855 -6.15772828 -3.63783688
Cl -4.26158039 7.35365805 21.97695908
Cl 19.03779214 -8.69871644 -7.60472692
Cl 22.21795094 15.12375305 58.18055969
Li -19.25874022 41.64813343 -38.00638929
Li 36.45426979 -31.56365838 39.83034277
Li -38.76011714 49.71972341 56.92588680
Li -14.83221688 -5.81841824 -15.26233145
Li -0.48171142 -28.85998372 -126.65950022
Li 45.20608181 12.48753565 23.67312438
Li 5.02108688 6.12912754 -31.06350955
Li -50.19211927 68.06626847 54.59345590
Li 24.46559695 7.99526218 16.14369565
Li 1.60885301 37.43627963 6.09224390
Li 0.98371463 6.67720625 -4.79854967
Li 47.83067497 71.91492589 -58.90048160
Li -8.27031155 34.04476141 4.42962051
Li -1.96362350 -9.36122161 16.78112222
Li 8.88203113 -60.45282076 -47.97137588
Li -27.77401833 24.23467520 52.13857972
Li -7.51306261 65.13052689 3.88761252
Li -3.73833470 21.96069725 89.74119880
Li 96.79916334 46.85065286 12.61636463
Li 46.99229487 25.56149874 6.62507238
Li -0.06558834 37.91287531 2.24033129
Li 17.58044383 -23.80682325 96.85239310
Li -7.02655399 28.59454163 -19.88307865
Li 60.03852560 23.08038026 -3.23751044
Li 19.97969134 43.29010301 -26.25883556
Li 6.81256344 20.64585486 -13.82902717
Li -10.03905221 59.41913453 -22.31792893
Li -27.31959058 -9.11067260 6.92714516
Li 0.61389156 -24.83603484 0.63244085
Li 65.98533126 4.00840255 41.65466473
Li -39.81477161 0.35026423 6.08638642
Li 35.62094949 16.72839660 -10.07867052
Li 23.50611281 10.84509265 29.35108923
Li -46.73818180 -69.97627481 -13.70622042
Li 49.97455834 20.04403995 -20.54282703
Li 26.37176802 0.78420329 58.60262681
Li -4.08618501 -39.78731681 -31.77595275
Li -2.54023839 -21.08059044 37.40049097
Li 25.12884010 -10.28647991 -49.68151062
Li -10.81057810 -16.52496613 -13.24508155
Li 41.15175489 14.42522879 -4.83063589
Li -12.71680754 30.78545795 11.25841642
Li -8.04720533 45.70188154 36.43287655
Li -12.32933777 34.37396027 -52.08360885
Li 36.77749664 19.92731430 24.36258296
Li 88.16329732 -48.72648003 21.31590504
Li -66.75670272 -41.44385502 -11.68380478
Li 26.32957227 12.08956776 -21.64297288
