120
Lattice="13.98458456 0.00000000 0.00000000 0.00000000 13.98458456 0.00000000 0.00000000 0.00000000 13.98458456" Properties=species:S:1:pos:R:3 pbc="T T T" t_ps=21.0
P 0.94607893 10.41486794 -14.51167930
S -0.70795793 10.71755161 -15.66875918
S 1.05327559 8.47623046 -13.93365742
S 0.97579679 11.65638043 -12.94802522
S 2.71118118 10.83725042 -15.73204475
P 17.21737357 22.79551658 -10.51794664
S 15.17519905 22.97496274 -10.11323602
S 18.19001066 23.83437309 -11.89588937
S 17.56285538 20.76033061 -11.05399824
S 18.39110162 22.95818507 -8.70017046
P -9.61635454 14.94994782 13.28805278
S -9.03732493 13.97517359 11.52818963
S -9.12954866 13.76585713 14.87535292
S -11.71799191 15.08998828 13.04194305
S -8.60656030 16.71153117 13.63256412
P 0.29853767 2.93355943 3.82158948
S 1.00164647 1.27030877 2.66610919
S 0.53506783 4.70670924 2.77420591
S 1.16734336 2.91162891 5.69119778
S -1.69464223 2.60745577 4.14632538
P 20.73213481 25.16586944 8.96297773
S 19.48884254 26.71335148 8.82740815
S 20.40012356 23.86630806 10.48329751
S 22.56465108 26.01641079 9.35729148
S 20.85380780 24.02551191 7.26517473
P 5.20079161 14.55390130 19.58679418
S 4.97748593 15.85188532 17.85008303
S 7.24988260 14.46682198 19.94324356
S 4.40121246 12.84631812 18.94073806
S 4.35484402 15.38934984 21.20751884
P -15.40390688 3.81972066 -4.95556689
S -15.81492057 5.21779276 -6.50507829
S -16.08983282 1.98407433 -5.54524521
S -16.44835392 4.54881804 -3.28499897
S -13.38850024 3.80670774 -4.53096558
P -4.39080859 -6.67810582 -14.60823292
S -5.54821409 -5.79420761 -13.11067641
S -5.49538162 -8.40579123 -15.07816631
S -2.55073741 -7.21567763 -13.80280134
S -4.06004668 -5.53843279 -16.28010502
P 11.59620796 29.34048524 13.42465587
S 12.99550222 28.81476187 12.04328651
S 11.33910534 27.88095398 14.76812746
S 9.74174413 29.72175175 12.48902798
S 12.27139423 31.04642135 14.40562364
P 28.75961391 -1.70484685 22.04140241
S 30.01058567 -3.26520939 22.56897884
S 26.85030456 -2.28338870 22.42580257
S 29.07098860 -1.25992440 20.07971952
S 29.32181796 -0.09420711 23.22344639
P 10.45202514 -2.96980713 32.00891251
S 8.46517004 -2.90500525 31.53573259
S 11.15564449 -0.98629226 32.45350716
S 11.32236784 -3.72349194 30.28014947
S 10.85094600 -4.02822229 33.73660984
P -5.35138033 -8.35184667 4.42608917
S -6.67188739 -8.80063724 2.96225997
S -5.33066370 -9.96087465 5.65049970
S -6.02975169 -6.59563318 5.33064085
S -3.40159443 -7.81113846 3.99925414
Cl 21.85164229 -2.09491852 -0.24490325
Cl 1.47577206 -21.06810866 6.72628633
Cl 6.98098131 33.83824707 -4.80218994
Cl -12.55170561 18.60107835 12.67631717
Cl 18.04315618 -24.37057854 24.44410726
Cl 21.98069152 -11.83906497 9.63038715
Cl 18.90750025 7.04733654 12.82059558
Cl -10.48790821 -6.66788282 -32.53448708
Cl 41.43752568 -6.27386321 -3.83492630
Cl -3.97724950 8.31656044 22.27736574
Cl 18.89939647 -9.10465899 -7.55269954
Cl 22.46675992 15.57252791 58.44697035
Li -19.11503668 41.53236791 -37.79333508
Li 36.45723845 -31.19134436 39.42872579
Li -38.53734653 49.82409906 56.50440523
Li -15.14354465 -5.87006753 -15.24191289
Li -0.73210752 -29.35542973 -126.06347186
Li 44.66643138 13.20252552 25.37515582
Li 4.64034084 5.09813720 -33.12640611
Li -49.92717608 67.56959822 54.36768745
Li 24.43253946 7.95179340 16.26090881
Li 1.82203161 37.36742640 6.39090319
Li 1.37798581 6.28887482 -4.34719078
Li 48.09750791 72.10759712 -58.68708780
Li -8.18507999 34.59811521 4.17697006
Li -2.16750679 -9.54423976 16.70633448
Li 9.19696916 -59.54369278 -48.42010702
Li -27.91790455 24.13011451 51.95779248
Li -7.65884331 67.05688490 5.21139475
Li -3.83188981 21.71207435 89.81860951
Li 97.03706689 45.68397623 12.28997470
Li 45.58482647 26.21411532 7.46249602
Li -0.14164696 38.02100018 2.16658287
Li 17.69152235 -23.23502630 96.38399910
Li -6.63798278 28.18512104 -19.68671207
Li 59.96281247 22.64993843 -2.82406493
Li 20.26339705 43.44369620 -25.98441112
Li 7.21398123 20.19707889 -13.20978910
Li -10.40438891 59.00543996 -22.44667326
Li -27.52616846 -9.10756485 6.79672280
Li 1.18390874 -25.02738670 0.90947297
Li 66.38473852 4.25615809 40.88027773
Li -40.03381838 0.93472532 7.09068697
Li 35.07495331 16.74118376 -9.65125338
Li 22.94185348 10.44550385 29.29845168
Li -46.97062621 -69.66800168 -13.44374661
Li 49.89341131 21.29909695 -20.12725410
Li 26.42479340 0.46709473 58.89607517
Li -3.63148379 -39.78192075 -31.71204618
Li -2.57187050 -21.09457028 37.37605957
Li 25.20946789 -10.63172603 -49.78153640
Li -10.59646488 -16.05842510 -13.49665297
Li 40.91450721 13.89175905 -4.41231113
Li -11.77571146 30.51579223 11.08912459
Li -6.48421130 45.93515196 35.73446703
Li -12.41039584 34.46302808 -51.83642273
Li 35.62378639 21.13072701 25.04874581
Li 87.53735362 -48.89842468 20.96506430
Li -66.57640339 -41.68415442 -10.97073235
Li 26.35319982 12.13768668 -21.71875764
