120
Lattice="14.00382250 0.00000000 0.00000000 0.00000000 14.00382250 0.00000000 0.00000000 0.00000000 14.00382250" Properties=species:S:1:pos:R:3 pbc="T T T" t_ps=4.0
P 1.29554316 10.47417940 -14.56094256
S -0.36098911 10.78878130 -15.80418395
S 1.01023094 8.51171906 -14.01978045
S 0.97019494 11.72094336 -12.99498898
S 3.06719330 10.96083633 -15.35307412
P 17.57852179 22.66115707 -10.34147733
S 15.63573423 22.91826585 -9.93099966
S 18.43256239 23.64635194 -11.89499070
S 17.73361727 20.61245948 -10.71171968
S 18.69946381 23.25377105 -8.49312314
P -9.99295604 14.83381287 13.59367285
S -9.17084354 13.99513770 11.90354043
S -9.51061185 13.78465250 15.34175239
S -11.99365712 14.90902159 13.13679210
S -8.99464672 16.60079908 13.74475143
P 0.14879789 2.73263614 3.95500468
S 0.93853344 1.20388401 2.87706336
S 0.32969262 4.46455044 2.94668041
S 1.23108433 2.85719779 5.63859618
S -1.81858479 2.27763429 4.13591056
P 20.80722683 25.12332018 9.26454467
S 19.11029202 26.39537221 8.86126955
S 20.55415609 24.25368273 11.11617373
S 22.68540451 25.97955045 9.26419866
S 20.80361996 23.80894094 7.72944168
P 5.23433609 15.04907622 19.82501259
S 5.09965938 16.44459918 18.19024445
S 7.29450755 14.72285355 20.14193095
S 4.31192143 13.34963485 19.06954948
S 4.23463405 15.80575151 21.40868224
P -15.83355056 3.73864884 -5.21406066
S -15.73749549 4.97028448 -6.79086976
S -16.91000309 2.02864032 -5.74559808
S -16.72987363 4.83784180 -3.67521342
S -13.88608643 3.22219526 -4.60162684
P -4.24728355 -6.35178830 -14.83854895
S -5.42365921 -5.49435569 -13.23837453
S -5.27840681 -7.88004650 -15.76716556
S -2.53839090 -7.29168720 -14.10887371
S -3.81700747 -4.87037286 -16.14863926
P 11.51572684 29.30540232 13.33174399
S 12.61091894 28.58381453 11.71089560
S 11.40811941 27.75097476 14.65447100
S 9.65503170 30.00635686 12.93428753
S 12.63282790 30.87348869 14.06439367
P 28.59684992 -1.88626380 22.28140466
S 29.64895479 -3.65509298 22.73912607
S 26.60112858 -2.05527659 22.73855684
S 28.89943774 -1.52984494 20.32829514
S 29.50830634 -0.25741333 23.32563688
P 10.64804778 -3.15754354 31.94020928
S 8.66096643 -2.99185362 31.42321822
S 11.02639288 -1.12981838 32.35453979
S 11.62443654 -3.85595318 30.24314763
S 11.11809060 -4.17535579 33.68782751
P -5.23604157 -8.31318972 4.19184088
S -6.45642510 -9.05732684 2.67619187
S -5.20846494 -9.63196498 5.86439880
S -5.83861157 -6.47057674 4.90386750
S -3.30144869 -8.00554559 3.59775530
Cl 22.07376244 -1.65981717 -0.29817370
Cl 1.59841116 -21.48159200 6.56510480
Cl 6.87251500 34.29093321 -4.75463488
Cl -12.67331067 18.49217995 12.65732585
Cl 18.31458891 -23.87521903 24.28263811
Cl 21.39290019 -11.78256376 9.68063064
Cl 19.07148558 6.37730612 13.42654790
Cl -10.18365792 -6.03128522 -32.56685102
Cl 41.76009450 -6.52310836 -3.92329196
Cl -3.88371573 7.89610025 22.24441312
Cl 19.05831612 -8.67730492 -7.43869554
Cl 21.93750083 15.11837742 58.40792992
Li -19.53268243 41.33080525 -38.15697805
Li 36.65189667 -31.09462624 39.78532540
Li -38.39406353 49.62577378 56.66852726
Li -14.99607923 -5.66153603 -15.61385487
Li -0.69411434 -29.21117124 -126.64528844
Li 44.57944070 13.10322625 25.48041490
Li 5.05879877 6.28203587 -31.58821598
Li -49.84935735 68.32352534 54.49163622
Li 24.26405397 8.05908485 16.45493923
Li 2.23379299 38.07984626 6.17884105
Li 1.70098533 7.73283861 -5.57471004
Li 47.79668477 72.25424577 -58.65007285
Li -8.28198095 33.12369290 4.10238376
Li -1.92681430 -9.74716273 16.57679012
Li 9.22303802 -60.02257403 -48.50966639
Li -28.32252359 24.01934200 51.98120360
Li -7.52008744 65.63467777 3.75496021
Li -3.31436006 21.53809994 89.68693752
Li 97.75050626 47.14111450 10.84497213
Li 47.34670701 25.59987515 6.19874738
Li 0.15947499 37.77744794 2.37571610
Li 17.72632472 -23.58488171 96.72851714
Li -6.70999372 27.86499590 -19.06943967
Li 59.85969394 24.17394726 -4.22614671
Li 19.69106761 43.62370676 -26.13422993
Li 7.21699191 20.62983156 -13.46709439
Li -10.37577558 59.57738928 -22.12527809
Li -27.48283023 -9.54329224 7.24066970
Li 0.85298678 -25.50581608 0.68216995
Li 66.84828096 4.38841152 41.05402032
Li -39.84172566 0.59216892 6.79870687
Li 35.68807260 16.36232421 -9.60046323
Li 23.41704129 10.88323627 28.95513991
Li -47.11857696 -69.62561872 -13.56750918
Li 50.25589364 20.58274003 -20.74922197
Li 26.68448625 0.20234349 58.89938778
Li -4.22234072 -39.58043767 -31.80389170
Li -2.08819433 -21.31494468 36.99490674
Li 25.07094125 -10.61599669 -49.98610888
Li -10.55825537 -16.29874375 -13.04183963
Li 41.20911120 14.47763907 -4.81190370
Li -13.44721139 30.51701973 11.83453118
Li -8.11510538 46.00256872 36.59672236
Li -12.44017989 34.23624844 -51.98255598
Li 36.24052010 21.98125784 24.39567939
Li 88.76103416 -48.56838731 21.17423342
Li -66.60760942 -40.97386048 -10.82490125
Li 26.35848586 12.09670440 -21.76538448
