120
Lattice="13.99358543 0.00000000 0.00000000 0.00000000 13.99358543 0.00000000 0.00000000 0.00000000 13.99358543" Properties=species:S:1:pos:R:3 pbc="T T T" t_ps=22.0
P 1.34536313 10.44181885 -14.62517422
S -0.31276540 10.94670504 -15.83183208
S 1.03292699 8.55749507 -13.72916165
S 1.23394211 11.74028434 -13.06376643
S 3.19094525 10.60895880 -15.49410823
P 17.34833666 23.03164600 -10.12631877
S 15.26637906 23.15362927 -9.94209519
S 18.50731127 23.86372562 -11.69720505
S 17.42368377 21.05142528 -10.59147490
S 18.06336666 23.30734531 -8.30886194
P -9.68078144 14.87145113 13.40330656
S -8.99007813 13.99591452 11.65197084
S -9.05957620 13.72389598 15.00430551
S -11.69352012 15.20747268 13.22643610
S -8.50513496 16.55789643 13.55293281
P 0.15410034 2.86289772 3.98686244
S 0.82784070 1.33813130 2.78664351
S 0.21600718 4.60179044 2.93071033
S 1.25629581 2.95785914 5.71323047
S -1.82834491 2.41480340 4.47180435
P 20.85928295 25.23687547 8.98896271
S 19.38107381 26.55079093 8.73594285
S 20.49220783 24.12887510 10.68650420
S 22.67265899 26.13906170 9.31381296
S 21.05024771 24.04051388 7.34323869
P 5.47134753 14.54564980 19.31464634
S 5.09963839 16.06908096 17.93133692
S 7.45954032 14.52559026 19.82981305
S 4.97823667 12.78619794 18.44989009
S 4.25197404 14.95522141 20.87740536
P -15.64013844 3.68151537 -5.03017626
S -15.80190885 5.17419283 -6.43883267
S -16.40502351 1.85387500 -5.82683405
S -16.95580127 4.27881771 -3.50421986
S -13.65644871 3.69934528 -4.21293969
P -4.39171988 -6.49933775 -14.61072890
S -5.63663742 -5.56721173 -13.27344213
S -5.51572810 -8.05836469 -15.45626858
S -2.57792478 -7.09946349 -13.71926189
S -3.86384576 -5.29990605 -16.18469762
P 11.57555456 29.37044402 13.28633742
S 13.13085328 29.26007354 11.98323377
S 11.55724334 27.84575472 14.60315239
S 9.65019117 29.57827314 12.45451299
S 11.95096105 31.16345021 14.33399908
P 28.87364642 -1.81724240 21.93214444
S 29.97907062 -3.33158483 22.62031031
S 26.85231224 -2.13514485 22.38267262
S 29.19997731 -1.50453433 19.88085825
S 29.44257506 -0.13634061 22.79107159
P 10.75033615 -2.91787424 31.89289590
S 8.71841817 -2.71709809 31.65486236
S 11.52008228 -0.98969992 32.12274791
S 11.42260134 -3.92966956 30.24534553
S 11.38443837 -4.04728478 33.58898961
P -5.59676618 -8.43734997 4.47130861
S -6.69617936 -8.97451905 2.72564229
S -5.47875245 -10.01656708 5.78814015
S -6.61965911 -6.69282632 5.25516597
S -3.65113878 -7.85358043 4.20022594
Cl 22.48275629 -1.82675028 -0.69192260
Cl 1.35166144 -21.51907429 6.73543794
Cl 7.06229487 34.11053574 -4.73358145
Cl -12.76935138 18.55369609 12.95791642
Cl 17.96717451 -24.43025274 24.40347539
Cl 21.69994790 -11.62238834 9.15940103
Cl 18.60286919 6.53929127 13.71161461
Cl -10.84091170 -6.85226905 -31.80728596
Cl 41.51359940 -6.15139767 -3.78939363
Cl -4.10526274 8.07461778 22.03616803
Cl 18.71175739 -9.17722326 -7.11568291
Cl 22.52038816 15.55050268 58.32518030
Li -18.82521456 41.80196358 -38.02763199
Li 36.76993518 -31.35364291 39.44297344
Li -38.49423025 49.87655409 57.11961753
Li -15.08652827 -5.54698513 -15.43279816
Li 0.08481845 -28.55445021 -126.44981553
Li 45.11641004 12.31732819 24.29203620
Li 4.63811910 5.63877511 -32.38992982
Li -49.67134996 67.93616775 54.32295449
Li 24.45096101 7.69323389 16.22162774
Li 1.60423133 37.86098957 6.34085655
Li 1.15587323 6.18018646 -3.97282241
Li 48.03179404 72.21787561 -58.80140420
Li -8.27553390 34.30064688 4.02438256
Li -2.26585843 -9.64526093 16.79418590
Li 9.74917066 -59.60099659 -48.20039447
Li -28.37615449 24.08863694 51.94712049
Li -7.54784622 66.95467022 5.19747525
Li -4.41529536 22.25315366 89.57429233
Li 97.05151407 45.89665264 12.05348917
Li 45.81429795 26.01313016 6.50705436
Li -0.00957212 37.87200114 2.02203618
Li 17.52790281 -23.93251503 96.79612296
Li -6.74179710 28.13920934 -19.53110971
Li 59.78647446 22.12875567 -1.92948076
Li 20.40552184 43.55645659 -26.23754802
Li 6.76372899 20.60901100 -13.63424065
Li -10.20479487 58.89639826 -22.30395364
Li -27.58065410 -9.54200768 7.27142002
Li 0.63704810 -24.78123826 0.98562291
Li 65.99291344 4.18448797 41.26269593
Li -40.72775491 0.81543368 6.54946937
Li 35.48685280 16.69330300 -9.83289944
Li 23.44409115 10.75703269 29.08843997
Li -47.00560920 -69.72210698 -13.72694203
Li 49.33125700 21.57908762 -20.32398509
Li 26.02503503 0.84969674 58.59123904
Li -4.26770152 -39.82628597 -31.89832711
Li -2.32764287 -21.19794722 37.28855947
Li 24.95347186 -10.35060265 -49.77303880
Li -10.41283474 -16.26630616 -13.39934602
Li 40.91285649 14.01067411 -4.28818472
Li -11.96354074 30.16975831 11.00961285
Li -7.02107105 46.09095724 35.81017973
Li -13.08748457 34.71411738 -51.60913930
Li 36.12625489 21.44170268 24.65237349
Li 87.49721862 -49.15304999 20.48618559
Li -66.59771932 -41.42305907 -10.90802671
Li 26.70345843 12.31800730 -21.99027707
