120
Lattice="13.98266699 0.00000000 0.00000000 0.00000000 13.98266699 0.00000000 0.00000000 0.00000000 13.98266699" Properties=species:S:1:pos:R:3 pbc="T T T" t_ps=49.0
P 1.31746393 10.51429461 -14.67793305
S -0.37048415 10.86555593 -15.96572129
S 1.13336522 8.63178698 -13.97274391
S 1.07963024 11.89101972 -13.20550642
S 3.20906003 10.73252155 -15.66365058
P 17.39397672 22.74241332 -10.23636658
S 15.42866285 23.33283362 -10.08237356
S 18.60575653 23.71262393 -11.74373339
S 17.68955849 20.79308927 -10.70433988
S 18.35815083 23.05583410 -8.51068907
P -9.64634359 14.83258775 13.19243723
S -8.97712265 14.02403046 11.43830331
S -9.08096724 13.54739166 14.85976840
S -11.68898298 14.93318404 13.11697251
S -8.81816912 16.65515686 13.58014358
P 0.33085496 2.67431762 3.98517862
S 0.93001142 1.20952975 2.70649882
S 0.27308216 4.53248296 3.05839076
S 1.35052601 2.59629632 5.64724268
S -1.66155064 2.39572528 4.31556252
P 20.82026659 25.37327337 8.99704190
S 19.34215711 26.69278434 8.58521951
S 20.34481964 24.30718887 10.76604354
S 22.74674556 26.36006545 9.31006347
S 21.11755519 24.20069261 7.33108382
P 5.22820452 14.94273547 19.52597543
S 5.09571188 16.30518818 17.96230981
S 7.25558235 14.51766203 19.99611756
S 4.19327366 13.19911407 18.95383925
S 4.43011258 15.77589372 21.17540821
P -15.66295927 3.80632907 -4.95694560
S -15.87968253 5.06206153 -6.54133040
S -16.61688780 2.02718634 -5.46836829
S -16.75307571 4.63621207 -3.32865930
S -13.71356309 3.55199282 -4.48129308
P -4.26213348 -6.69928788 -14.74553994
S -5.37211081 -5.64775294 -13.31230472
S -5.39906415 -8.43924328 -15.18408584
S -2.45419702 -7.36018435 -13.90305112
S -4.00077348 -5.65385954 -16.46524865
P 11.85005530 29.31024444 13.49093999
S 13.21323970 28.86906498 12.00517352
S 11.67406476 27.68151398 14.68068928
S 9.87331801 29.72350944 12.82897031
S 12.43113793 31.07669502 14.29287923
P 28.63595508 -1.68423787 22.03235462
S 29.61151813 -3.47357163 22.36840636
S 26.71142753 -2.08014475 22.69947711
S 28.59972434 -1.37535486 20.03508443
S 29.43889912 -0.07007045 23.04899893
P 10.34133492 -3.08170529 32.03046389
S 8.41590947 -3.06565714 31.48598457
S 10.80310805 -1.08626776 32.63037481
S 11.51547062 -3.80509672 30.37295407
S 11.04168965 -4.13208197 33.69653456
P -5.42932380 -8.26928502 4.26420774
S -6.75732148 -8.86018578 2.78165839
S -5.37030736 -9.88665107 5.62348766
S -6.24267118 -6.53282776 5.10026815
S -3.53497400 -7.88503070 3.74945125
Cl 22.24231303 -2.18120506 -0.45078574
Cl 1.39427025 -21.53140530 6.48784547
Cl 7.13749229 34.33853399 -4.44389690
Cl -12.64796741 18.40561838 12.82837070
Cl 17.75910336 -24.00916786 24.30318643
Cl 21.34091482 -11.29755745 9.84988218
Cl 18.80187801 6.64932961 13.15357296
Cl -10.49372522 -6.57931307 -32.26094452
Cl 41.69516116 -6.57965322 -3.80557479
Cl -3.94206561 7.90378576 22.16801907
Cl 18.66567267 -8.64986788 -7.04908467
Cl 22.35342529 14.98212593 58.31283481
Li -19.45223448 41.41035948 -37.67873335
Li 36.75777391 -31.26549906 39.31814392
Li -38.64814146 49.74026551 56.62424560
Li -14.84727082 -5.64813708 -15.56603456
Li -0.73968549 -29.11610185 -126.57556089
Li 44.74794716 12.86300276 25.28454268
Li 5.48479128 7.17236841 -30.96753152
Li -49.91702916 67.99015571 54.38589950
Li 24.76612366 7.85669958 15.98491656
Li 1.75785352 38.32758450 6.10314479
Li 1.84073330 6.01227983 -3.76624636
Li 47.35863038 72.44329727 -58.83828940
Li -8.45817801 34.31093977 4.83517768
Li -2.12103230 -9.79257734 16.60897220
Li 9.42095194 -59.49080348 -48.34567639
Li -28.12725397 23.75696553 51.66040687
Li -7.24834836 65.13949397 3.61428381
Li -3.85110268 21.80021763 89.52175122
Li 97.25542239 46.03889726 11.77694265
Li 47.75432647 25.90061778 6.18332916
Li -0.01197905 38.16728854 2.00853741
Li 17.74624473 -23.49550094 96.77189506
Li -7.04312866 28.38110645 -19.01441956
Li 59.21501024 23.71352674 -3.95600700
Li 20.01465328 43.30852858 -26.34129030
Li 7.21194829 20.32811244 -13.49179744
Li -10.29338873 59.40777355 -22.29890663
Li -27.52768317 -9.63794624 6.90236135
Li 0.80724462 -25.27780314 0.86375417
Li 66.52549449 4.08954270 41.16843988
Li -39.76160868 0.50399549 6.72686181
Li 35.40622089 16.83030623 -9.97004680
Li 23.43644975 10.59302478 29.11233895
Li -46.89712486 -70.09521951 -13.69385540
Li 49.88826111 21.42286088 -20.33319365
Li 26.33862975 0.38713853 58.90739370
Li -4.35676382 -39.27961248 -31.44614015
Li -2.27632106 -21.47425159 37.26890799
Li 24.95429199 -10.84826849 -49.56464681
Li -10.52070581 -16.24120415 -12.71968423
Li 40.50876122 14.30928115 -4.40816560
Li -12.12495560 30.38327812 11.28086303
Li -8.02625398 46.07264478 36.27586250
Li -12.33413592 34.74385254 -51.60784237
Li 37.23210725 20.24565362 24.47282628
Li 87.21332765 -48.75479336 21.38973704
Li -66.62492268 -41.14218029 -10.64529239
Li 26.04852497 12.01317288 -21.72454811
