
     Program PWSCF v.7.4.1 starts on  5Oct2026 at 22:48:12 

     This program is part of the open-source Quantum ESPRESSO suite
     for quantum simulation of materials; please cite
         "P. Giannozzi et al., J. Phys.:Condens. Matter 21 395502 (2009);
         "P. Giannozzi et al., J. Phys.:Condens. Matter 29 465901 (2017);
         "P. Giannozzi et al., J. Chem. Phys. 152 154105 (2020);
          URL http://www.quantum-espresso.org", 
     in publications or presentations arising from this work. More details at
     http://www.quantum-espresso.org/quote

     Parallel version (MPI & OpenMP), running on       1 processor cores
     Number of MPI processes:                 1
     Threads/MPI process:                     1

     MPI processes distributed on     1 nodes
     13569 MiB available memory on the printing compute node when the environment starts
 
     Reading input from pw.in

     Current dimensions of program PWSCF are:
     Max number of different atomic species (ntypx) = 10
     Max number of k-points (npk) =  40000
     Max angular momentum in pseudopotentials (lmaxx) =  4
     Presently no symmetry can be used with electric field

     file C.pbe-n-kjpaw_psl.1.0.0.UPF: wavefunction(s)  2S 2P renormalized
 
     Subspace diagonalization in iterative solution of the eigenvalue problem:
     a serial algorithm will be used

 
     G-vector sticks info
     --------------------
     sticks:   dense  smooth     PW     G-vecs:    dense   smooth      PW
     Sum        3193    1273    367              1013735   256635   40609
 
     Using Slab Decomposition
 


     bravais-lattice index     =            0
     lattice parameter (alat)  =       9.4208  a.u.
     unit-cell volume          =    5061.5831 (a.u.)^3
     number of atoms/cell      =           36
     number of atomic types    =            2
     number of electrons       =       324.00
     number of Kohn-Sham states=          194
     kinetic-energy cutoff     =      52.0000  Ry
     charge density cutoff     =     520.0000  Ry
     scf convergence threshold =      1.0E-08
     mixing beta               =       0.3000
     number of iterations used =            8  local-TF  mixing
     Exchange-correlation= SLA  PW   PBX  PBC
                           (   1   4   3   4   0   0   0)

     GPU acceleration is ACTIVE.  1 visible GPUs per MPI rank


     celldm(1)=   9.420781  celldm(2)=   0.000000  celldm(3)=   0.000000
     celldm(4)=   0.000000  celldm(5)=   0.000000  celldm(6)=   0.000000

     crystal axes: (cart. coord. in units of alat)
               a(1) = (   1.000000  -0.000000   0.000000 )  
               a(2) = (   0.500000   0.866025   0.000000 )  
               a(3) = (   0.000000   0.000000   6.990287 )  

     reciprocal axes: (cart. coord. in units 2 pi/alat)
               b(1) = (  1.000000 -0.577350  0.000000 )  
               b(2) = (  0.000000  1.154701 -0.000000 )  
               b(3) = ( -0.000000  0.000000  0.143056 )  


     PseudoPot. # 1 for Ag read from file:
     /home/kgy/work/pseudo/Ag_ONCV_PBE-1.0.oncvpsp.upf
     MD5 check sum: 94f47bd0669c641108e45594df92fabc
     Pseudo is Norm-conserving, Zval = 19.0
     Generated using ONCVPSP code by D. R. Hamann
     Using radial grid of 1398 points,  6 beta functions with: 
                l(1) =   0
                l(2) =   0
                l(3) =   1
                l(4) =   1
                l(5) =   2
                l(6) =   2

     PseudoPot. # 2 for C  read from file:
     /home/kgy/work/pseudo/C.pbe-n-kjpaw_psl.1.0.0.UPF
     MD5 check sum: 5d2aebdfa2cae82b50a7e79e9516da0f
     Pseudo is Projector augmented-wave + core cor, Zval =  4.0
     Generated using "atomic" code by A. Dal Corso  v.5.1
     Shape of augmentation charge: PSQ
     Using radial grid of 1073 points,  4 beta functions with: 
                l(1) =   0
                l(2) =   0
                l(3) =   1
                l(4) =   1
     Q(r) pseudized with 0 coefficients 


     atomic species   valence    mass     pseudopotential
     Ag               19.00   107.86820     Ag( 1.00)
     C                 4.00    12.01100     C ( 1.00)

     No symmetry found



   Cartesian axes

     site n.     atom                  positions (alat units)
         1        Ag     tau(   1) = (   0.3337695   0.5765948   0.5717001  )
         2        Ag     tau(   2) = (   0.8337695   0.8652699   0.5717001  )
         3        Ag     tau(   3) = (   0.1663185   0.2882478   1.0405417  )
         4        Ag     tau(   4) = (   0.5004501   0.2909658   0.1002956  )
         5        Ag     tau(   5) = (   0.8337695   0.2879196   0.5717001  )
         6        Ag     tau(   6) = (   0.6664614   0.5767881   1.0404887  )
         7        Ag     tau(   7) = (   0.5009586   0.2880692   1.5115050  )
         8        Ag     tau(   8) = (   1.0004501   0.5796409   0.1002956  )
         9        Ag     tau(   9) = (   1.0010397   0.5767297   1.5120025  )
        10        Ag     tau(  10) = (   0.6663110  -0.0006627   1.0404277  )
        11        Ag     tau(  11) = (   1.0004501   0.0022906   0.1002956  )
        12        Ag     tau(  12) = (   1.0009702  -0.0005926   1.5115108  )
        13        C      tau(  13) = (   0.6671168   0.7720910   2.1589990  )
        14        C      tau(  14) = (   0.9171168   0.9164286   2.1592665  )
        15        C      tau(  15) = (   0.9171168   1.2051037   2.1586547  )
        16        C      tau(  16) = (   1.1671168   1.3494413   2.1592779  )
        17        C      tau(  17) = (   1.1671168   0.7720910   2.1591760  )
        18        C      tau(  18) = (   1.4171168   0.9164286   2.1587951  )
        19        C      tau(  19) = (   1.4171168   1.2051037   2.1591576  )
        20        C      tau(  20) = (   1.6671168   1.3494413   2.1590830  )
        21        C      tau(  21) = (   0.9171168   0.9164286   2.8435088  )
        22        C      tau(  22) = (   1.1671168   1.0607661   2.8434428  )
        23        C      tau(  23) = (   1.1671168   1.3494413   2.8435077  )
        24        C      tau(  24) = (   1.4171168   1.4937788   2.8434496  )
        25        C      tau(  25) = (   1.4171168   0.9164286   2.8435044  )
        26        C      tau(  26) = (   1.6671168   1.0607661   2.8434387  )
        27        C      tau(  27) = (   1.6671168   1.3494413   2.8435064  )
        28        C      tau(  28) = (   1.9171168   1.4937788   2.8434382  )
        29        C      tau(  29) = (   0.6671168   0.7720910   3.5248180  )
        30        C      tau(  30) = (   0.9171168   0.9164286   3.5246960  )
        31        C      tau(  31) = (   0.9171168   1.2051037   3.5248171  )
        32        C      tau(  32) = (   1.1671168   1.3494413   3.5246959  )
        33        C      tau(  33) = (   1.1671168   0.7720910   3.5248185  )
        34        C      tau(  34) = (   1.4171168   0.9164286   3.5246977  )
        35        C      tau(  35) = (   1.4171168   1.2051037   3.5248184  )
        36        C      tau(  36) = (   1.6671168   1.3494413   3.5246966  )

     --------------------------------------------
     DFT-D3 Dispersion Correction (no 3-body):
     --------------------------------------------
       Reference C6 values for interpolation: 

         atom   Coordination number   C6
         C          0.000            98.23
         C          0.987            86.49
         C          1.998            58.72
         C          2.999            51.56
         C          3.984            36.41
         Ag         0.000           853.49
         Ag         0.968           537.23

       Values used:

         atom   Coordination number  R0_AB[au]  C6      C8
         Ag         9.097            3.147    537.23  47741.54
         Ag         9.097            3.147    537.23  47741.54
         Ag         9.103            3.147    537.23  47741.54
         Ag         6.767            3.147    537.23  47741.54
         Ag         9.097            3.147    537.23  47741.54
         Ag         9.102            3.147    537.23  47741.54
         Ag         6.859            3.147    537.23  47741.54
         Ag         6.767            3.147    537.23  47741.54
         Ag         6.850            3.147    537.23  47741.54
         Ag         9.103            3.147    537.23  47741.54
         Ag         6.767            3.147    537.23  47741.54
         Ag         6.860            3.147    537.23  47741.54
         C          3.307            2.750     48.42   1400.48
         C          3.305            2.750     48.47   1401.97
         C          3.313            2.750     48.31   1397.19
         C          3.305            2.750     48.48   1402.04
         C          3.304            2.750     48.48   1402.08
         C          3.313            2.750     48.31   1397.13
         C          3.305            2.750     48.48   1402.01
         C          3.308            2.750     48.42   1400.33
         C          3.281            2.750     48.91   1414.57
         C          3.281            2.750     48.92   1414.74
         C          3.281            2.750     48.91   1414.57
         C          3.281            2.750     48.92   1414.74
         C          3.281            2.750     48.91   1414.57
         C          3.281            2.750     48.92   1414.74
         C          3.281            2.750     48.91   1414.57
         C          3.281            2.750     48.92   1414.75
         C          3.274            2.750     49.03   1417.92
         C          3.275            2.750     49.02   1417.83
         C          3.274            2.750     49.03   1417.92
         C          3.275            2.750     49.02   1417.83
         C          3.274            2.750     49.03   1417.92
         C          3.275            2.750     49.02   1417.83
         C          3.274            2.750     49.03   1417.92
         C          3.275            2.750     49.02   1417.83

         Molecular C6 ( Ry / a.u.^6 ) =    198485.06


     number of k points=    41  Marzari-Vanderbilt smearing, width (Ry)=  0.0100
                       cart. coord. in units 2pi/alat
        k(    1) = (   0.0000000   0.0000000   0.0000000), wk =   0.0246914
        k(    2) = (   0.0000000   0.1283001   0.0000000), wk =   0.0493827
        k(    3) = (   0.0000000   0.2566001   0.0000000), wk =   0.0493827
        k(    4) = (   0.0000000   0.3849002   0.0000000), wk =   0.0493827
        k(    5) = (   0.0000000   0.5132002   0.0000000), wk =   0.0493827
        k(    6) = (   0.1111111  -0.0641500   0.0000000), wk =   0.0493827
        k(    7) = (   0.1111111   0.0641500   0.0000000), wk =   0.0493827
        k(    8) = (   0.1111111   0.1924501   0.0000000), wk =   0.0493827
        k(    9) = (   0.1111111   0.3207501   0.0000000), wk =   0.0493827
        k(   10) = (   0.1111111   0.4490502   0.0000000), wk =   0.0493827
        k(   11) = (   0.1111111  -0.5773503   0.0000000), wk =   0.0493827
        k(   12) = (   0.1111111  -0.4490502   0.0000000), wk =   0.0493827
        k(   13) = (   0.1111111  -0.3207501   0.0000000), wk =   0.0493827
        k(   14) = (   0.1111111  -0.1924501   0.0000000), wk =   0.0493827
        k(   15) = (   0.2222222  -0.1283001   0.0000000), wk =   0.0493827
        k(   16) = (   0.2222222   0.0000000   0.0000000), wk =   0.0493827
        k(   17) = (   0.2222222   0.1283001   0.0000000), wk =   0.0493827
        k(   18) = (   0.2222222   0.2566001   0.0000000), wk =   0.0493827
        k(   19) = (   0.2222222   0.3849002   0.0000000), wk =   0.0493827
        k(   20) = (   0.2222222  -0.6415003   0.0000000), wk =   0.0493827
        k(   21) = (   0.2222222  -0.5132002   0.0000000), wk =   0.0493827
        k(   22) = (   0.2222222  -0.3849002   0.0000000), wk =   0.0493827
        k(   23) = (   0.2222222  -0.2566001   0.0000000), wk =   0.0493827
        k(   24) = (   0.3333333  -0.1924501   0.0000000), wk =   0.0493827
        k(   25) = (   0.3333333  -0.0641500   0.0000000), wk =   0.0493827
        k(   26) = (   0.3333333   0.0641500   0.0000000), wk =   0.0493827
        k(   27) = (   0.3333333   0.1924501   0.0000000), wk =   0.0493827
        k(   28) = (   0.3333333   0.3207501   0.0000000), wk =   0.0493827
        k(   29) = (   0.3333333  -0.7056503   0.0000000), wk =   0.0493827
        k(   30) = (   0.3333333  -0.5773503   0.0000000), wk =   0.0493827
        k(   31) = (   0.3333333  -0.4490502   0.0000000), wk =   0.0493827
        k(   32) = (   0.3333333  -0.3207501   0.0000000), wk =   0.0493827
        k(   33) = (   0.4444444  -0.2566001   0.0000000), wk =   0.0493827
        k(   34) = (   0.4444444  -0.1283001   0.0000000), wk =   0.0493827
        k(   35) = (   0.4444444   0.0000000   0.0000000), wk =   0.0493827
        k(   36) = (   0.4444444   0.1283001   0.0000000), wk =   0.0493827
        k(   37) = (   0.4444444   0.2566001   0.0000000), wk =   0.0493827
        k(   38) = (   0.4444444  -0.7698004   0.0000000), wk =   0.0493827
        k(   39) = (   0.4444444  -0.6415003   0.0000000), wk =   0.0493827
        k(   40) = (   0.4444444  -0.5132002   0.0000000), wk =   0.0493827
        k(   41) = (   0.4444444  -0.3849002   0.0000000), wk =   0.0493827

     Dense  grid:  1013735 G-vectors     FFT dimensions: (  72,  72, 480)

     Smooth grid:   256635 G-vectors     FFT dimensions: (  45,  45, 320)

     Estimated max dynamical RAM per process >       2.73 GB

     Check: negative core charge=   -0.000002

     Initial potential from superposition of free atoms

     starting charge     323.9955, renormalised to     324.0000

     negative rho (up, down):  2.437E-04 0.000E+00
 
     Adding external electric field

     Computed dipole along edir(3) : 
        Dipole               -0.0064 Ry au,         -0.0164 Debye
        Dipole field         -0.0000 Ry au, 
 
        Potential amp.        0.0020 Ry
        Total length         63.9640 bohr
 
     Starting wfcs are  216 randomized atomic wfcs
     Checking if some PAW data can be deallocated... 

     total cpu time spent up to now is       65.2 secs

     Self-consistent Calculation

     iteration #  1     ecut=    52.00 Ry     beta= 0.30
     Davidson diagonalization with overlap
     ethr =  1.00E-02,  avg # of iterations =  7.9

     negative rho (up, down):  1.194E-07 0.000E+00
 
     Adding external electric field

     Computed dipole along edir(3) : 
        Dipole               -0.1512 Ry au,         -0.3842 Debye
        Dipole field         -0.0004 Ry au, 
 
        Potential amp.        0.0480 Ry
        Total length         63.9640 bohr
 

     total cpu time spent up to now is      297.3 secs

     total energy              =   -3891.65735584 Ry
     estimated scf accuracy    <       4.67678346 Ry

     iteration #  2     ecut=    52.00 Ry     beta= 0.30
     Davidson diagonalization with overlap
     ethr =  1.44E-03,  avg # of iterations =  1.9

     negative rho (up, down):  1.709E-08 0.000E+00
 
     Adding external electric field

     Computed dipole along edir(3) : 
        Dipole               -0.3730 Ry au,         -0.9481 Debye
        Dipole field         -0.0009 Ry au, 
 
        Potential amp.        0.1185 Ry
        Total length         63.9640 bohr
 

     total cpu time spent up to now is      445.0 secs

     total energy              =   -3891.28334346 Ry
     estimated scf accuracy    <       1.79045660 Ry

     iteration #  3     ecut=    52.00 Ry     beta= 0.30
     Davidson diagonalization with overlap
     c_bands:  1 eigenvalues not converged
     ethr =  5.53E-04,  avg # of iterations =  7.2

     negative rho (up, down):  6.172E-08 0.000E+00
 
     Adding external electric field

     Computed dipole along edir(3) : 
        Dipole               -0.7217 Ry au,         -1.8344 Debye
        Dipole field         -0.0018 Ry au, 
 
        Potential amp.        0.2292 Ry
        Total length         63.9640 bohr
 

     total cpu time spent up to now is      634.4 secs

     total energy              =   -3891.07406804 Ry
     estimated scf accuracy    <       0.71536908 Ry

     iteration #  4     ecut=    52.00 Ry     beta= 0.30
     Davidson diagonalization with overlap
     c_bands:  2 eigenvalues not converged
     ethr =  2.21E-04,  avg # of iterations = 10.4

     negative rho (up, down):  5.717E-08 0.000E+00
 
     Adding external electric field

     Computed dipole along edir(3) : 
        Dipole               -0.9726 Ry au,         -2.4721 Debye
        Dipole field         -0.0024 Ry au, 
 
        Potential amp.        0.3089 Ry
        Total length         63.9640 bohr
 

     total cpu time spent up to now is      865.7 secs

     total energy              =   -3891.12094007 Ry
     estimated scf accuracy    <       0.75010888 Ry

     iteration #  5     ecut=    52.00 Ry     beta= 0.30
     Davidson diagonalization with overlap
     c_bands:  1 eigenvalues not converged
     ethr =  2.21E-04,  avg # of iterations =  1.7

     negative rho (up, down):  4.072E-08 0.000E+00
 
     Adding external electric field

     Computed dipole along edir(3) : 
        Dipole               -0.9763 Ry au,         -2.4815 Debye
        Dipole field         -0.0024 Ry au, 
 
        Potential amp.        0.3101 Ry
        Total length         63.9640 bohr
 

     total cpu time spent up to now is     1009.2 secs

     total energy              =   -3891.12706571 Ry
     estimated scf accuracy    <       1.16280594 Ry

     iteration #  6     ecut=    52.00 Ry     beta= 0.30
     Davidson diagonalization with overlap
     ethr =  2.21E-04,  avg # of iterations =  1.0

     negative rho (up, down):  2.406E-08 0.000E+00
 
     Adding external electric field

     Computed dipole along edir(3) : 
        Dipole               -0.9402 Ry au,         -2.3897 Debye
        Dipole field         -0.0023 Ry au, 
 
        Potential amp.        0.2986 Ry
        Total length         63.9640 bohr
 

     total cpu time spent up to now is     1144.9 secs

     total energy              =   -3891.12637037 Ry
     estimated scf accuracy    <       1.16201303 Ry

     iteration #  7     ecut=    52.00 Ry     beta= 0.30
     Davidson diagonalization with overlap
     ethr =  2.21E-04,  avg # of iterations =  1.2

     negative rho (up, down):  1.852E-03 0.000E+00
 
     Adding external electric field

     Computed dipole along edir(3) : 
        Dipole               -1.1030 Ry au,         -2.8035 Debye
        Dipole field         -0.0027 Ry au, 
 
        Potential amp.        0.3503 Ry
        Total length         63.9640 bohr
 

     total cpu time spent up to now is     1283.5 secs

     total energy              =   -3891.10705624 Ry
     estimated scf accuracy    <       1.10523866 Ry

     iteration #  8     ecut=    52.00 Ry     beta= 0.30
     Davidson diagonalization with overlap
     ethr =  2.21E-04,  avg # of iterations =  1.9

     negative rho (up, down):  1.543E-04 0.000E+00
 
     Adding external electric field

     Computed dipole along edir(3) : 
        Dipole               -1.1584 Ry au,         -2.9443 Debye
        Dipole field         -0.0029 Ry au, 
 
        Potential amp.        0.3679 Ry
        Total length         63.9640 bohr
 

     total cpu time spent up to now is     1428.6 secs

     total energy              =   -3891.11202908 Ry
     estimated scf accuracy    <       0.26370640 Ry

     iteration #  9     ecut=    52.00 Ry     beta= 0.30
     Davidson diagonalization with overlap
     c_bands:  2 eigenvalues not converged
     c_bands:  1 eigenvalues not converged
     ethr =  8.14E-05,  avg # of iterations =  3.6

     negative rho (up, down):  3.948E-08 0.000E+00
 
     Adding external electric field

     Computed dipole along edir(3) : 
        Dipole               -1.0457 Ry au,         -2.6580 Debye
        Dipole field         -0.0026 Ry au, 
 
        Potential amp.        0.3321 Ry
        Total length         63.9640 bohr
 

     total cpu time spent up to now is     1585.8 secs

     total energy              =   -3891.08925742 Ry
     estimated scf accuracy    <       0.18885570 Ry

     iteration # 10     ecut=    52.00 Ry     beta= 0.30
     Davidson diagonalization with overlap
     ethr =  5.83E-05,  avg # of iterations =  3.5

     negative rho (up, down):  5.892E-06 0.000E+00
 
     Adding external electric field

     Computed dipole along edir(3) : 
        Dipole               -0.9234 Ry au,         -2.3471 Debye
        Dipole field         -0.0023 Ry au, 
 
        Potential amp.        0.2933 Ry
        Total length         63.9640 bohr
 

     total cpu time spent up to now is     1753.4 secs

     total energy              =   -3891.10059762 Ry
     estimated scf accuracy    <       0.13286153 Ry

     iteration # 11     ecut=    52.00 Ry     beta= 0.30
     Davidson diagonalization with overlap
     ethr =  4.10E-05,  avg # of iterations =  3.7

     negative rho (up, down):  3.066E-06 0.000E+00
 
     Adding external electric field

     Computed dipole along edir(3) : 
        Dipole               -0.7861 Ry au,         -1.9980 Debye
        Dipole field         -0.0020 Ry au, 
 
        Potential amp.        0.2497 Ry
        Total length         63.9640 bohr
 

     total cpu time spent up to now is     1915.4 secs

     total energy              =   -3891.09797326 Ry
     estimated scf accuracy    <       0.05671673 Ry

     iteration # 12     ecut=    52.00 Ry     beta= 0.30
     Davidson diagonalization with overlap
     c_bands:  1 eigenvalues not converged
     c_bands:  1 eigenvalues not converged
     ethr =  1.75E-05,  avg # of iterations =  9.2

     negative rho (up, down):  2.653E-06 0.000E+00
 
     Adding external electric field

     Computed dipole along edir(3) : 
        Dipole               -0.7306 Ry au,         -1.8569 Debye
        Dipole field         -0.0018 Ry au, 
 
        Potential amp.        0.2320 Ry
        Total length         63.9640 bohr
 

     total cpu time spent up to now is     2121.5 secs

     total energy              =   -3891.09738825 Ry
     estimated scf accuracy    <       0.04605531 Ry

     iteration # 13     ecut=    52.00 Ry     beta= 0.30
     Davidson diagonalization with overlap
     ethr =  1.42E-05,  avg # of iterations =  2.0

     negative rho (up, down):  3.056E-06 0.000E+00
 
     Adding external electric field

     Computed dipole along edir(3) : 
        Dipole               -0.7303 Ry au,         -1.8563 Debye
        Dipole field         -0.0018 Ry au, 
 
        Potential amp.        0.2319 Ry
        Total length         63.9640 bohr
 

     total cpu time spent up to now is     2270.3 secs

     total energy              =   -3891.09774471 Ry
     estimated scf accuracy    <       0.03409210 Ry

     iteration # 14     ecut=    52.00 Ry     beta= 0.30
     Davidson diagonalization with overlap
     ethr =  1.05E-05,  avg # of iterations =  1.0

     negative rho (up, down):  3.662E-06 0.000E+00
 
     Adding external electric field

     Computed dipole along edir(3) : 
        Dipole               -0.5205 Ry au,         -1.3230 Debye
        Dipole field         -0.0013 Ry au, 
 
        Potential amp.        0.1653 Ry
        Total length         63.9640 bohr
 

     total cpu time spent up to now is     2406.7 secs

     total energy              =   -3891.08996505 Ry
     estimated scf accuracy    <       0.03577845 Ry

     iteration # 15     ecut=    52.00 Ry     beta= 0.30
     Davidson diagonalization with overlap
     ethr =  1.05E-05,  avg # of iterations = 11.0

     negative rho (up, down):  9.208E-03 0.000E+00
 
     Adding external electric field

     Computed dipole along edir(3) : 
        Dipole               -0.2757 Ry au,         -0.7008 Debye
        Dipole field         -0.0007 Ry au, 
 
        Potential amp.        0.0876 Ry
        Total length         63.9640 bohr
 

     total cpu time spent up to now is     2652.1 secs

     total energy              =   -3891.09058962 Ry
     estimated scf accuracy    <       0.01769993 Ry

     iteration # 16     ecut=    52.00 Ry     beta= 0.30
     Davidson diagonalization with overlap
     c_bands:  1 eigenvalues not converged
     c_bands:  1 eigenvalues not converged
     c_bands:  1 eigenvalues not converged
     ethr =  5.46E-06,  avg # of iterations = 11.6

     negative rho (up, down):  4.894E-03 0.000E+00
 
     Adding external electric field

     Computed dipole along edir(3) : 
        Dipole               -0.3003 Ry au,         -0.7633 Debye
        Dipole field         -0.0007 Ry au, 
 
        Potential amp.        0.0954 Ry
        Total length         63.9640 bohr
 

     total cpu time spent up to now is     2881.9 secs

     total energy              =   -3891.09110461 Ry
     estimated scf accuracy    <       0.02987700 Ry

     iteration # 17     ecut=    52.00 Ry     beta= 0.30
     Davidson diagonalization with overlap
     ethr =  5.46E-06,  avg # of iterations =  4.3

     negative rho (up, down):  3.568E-03 0.000E+00
 
     Adding external electric field

     Computed dipole along edir(3) : 
        Dipole               -0.2228 Ry au,         -0.5664 Debye
        Dipole field         -0.0006 Ry au, 
 
        Potential amp.        0.0708 Ry
        Total length         63.9640 bohr
 

     total cpu time spent up to now is     3049.6 secs

     total energy              =   -3891.09092821 Ry
     estimated scf accuracy    <       0.01118466 Ry

     iteration # 18     ecut=    52.00 Ry     beta= 0.30
     Davidson diagonalization with overlap
     c_bands:  1 eigenvalues not converged
     c_bands:  1 eigenvalues not converged
     c_bands:  1 eigenvalues not converged
     ethr =  3.45E-06,  avg # of iterations =  9.8

     negative rho (up, down):  5.612E-03 0.000E+00
 
     Adding external electric field

     Computed dipole along edir(3) : 
        Dipole               -0.0864 Ry au,         -0.2196 Debye
        Dipole field         -0.0002 Ry au, 
 
        Potential amp.        0.0274 Ry
        Total length         63.9640 bohr
 

     total cpu time spent up to now is     3264.5 secs

     total energy              =   -3891.09062643 Ry
     estimated scf accuracy    <       0.01340443 Ry

     iteration # 19     ecut=    52.00 Ry     beta= 0.30
     Davidson diagonalization with overlap
     ethr =  3.45E-06,  avg # of iterations =  9.7

     negative rho (up, down):  3.425E-03 0.000E+00
 
     Adding external electric field

     Computed dipole along edir(3) : 
        Dipole               -0.1262 Ry au,         -0.3209 Debye
        Dipole field         -0.0003 Ry au, 
 
        Potential amp.        0.0401 Ry
        Total length         63.9640 bohr
 

     total cpu time spent up to now is     3476.6 secs

     total energy              =   -3891.09054288 Ry
     estimated scf accuracy    <       0.01503390 Ry

     iteration # 20     ecut=    52.00 Ry     beta= 0.30
     Davidson diagonalization with overlap
     c_bands:  1 eigenvalues not converged
     c_bands:  1 eigenvalues not converged
     c_bands:  1 eigenvalues not converged
     c_bands:  1 eigenvalues not converged
     ethr =  3.45E-06,  avg # of iterations =  9.3

     negative rho (up, down):  3.841E-03 0.000E+00
 
     Adding external electric field

     Computed dipole along edir(3) : 
        Dipole               -0.0637 Ry au,         -0.1618 Debye
        Dipole field         -0.0002 Ry au, 
 
        Potential amp.        0.0202 Ry
        Total length         63.9640 bohr
 

     total cpu time spent up to now is     3686.2 secs

     total energy              =   -3891.09033482 Ry
     estimated scf accuracy    <       0.01114738 Ry

     iteration # 21     ecut=    52.00 Ry     beta= 0.30
     Davidson diagonalization with overlap
     ethr =  3.44E-06,  avg # of iterations =  5.6

     negative rho (up, down):  3.342E-03 0.000E+00
 
     Adding external electric field

     Computed dipole along edir(3) : 
        Dipole               -0.0655 Ry au,         -0.1665 Debye
        Dipole field         -0.0002 Ry au, 
 
        Potential amp.        0.0208 Ry
        Total length         63.9640 bohr
 

     total cpu time spent up to now is     3866.0 secs

     total energy              =   -3891.09034732 Ry
     estimated scf accuracy    <       0.00734412 Ry

     iteration # 22     ecut=    52.00 Ry     beta= 0.30
     Davidson diagonalization with overlap
     ethr =  2.27E-06,  avg # of iterations =  1.2

     negative rho (up, down):  2.527E-03 0.000E+00
 
     Adding external electric field

     Computed dipole along edir(3) : 
        Dipole               -0.0720 Ry au,         -0.1830 Debye
        Dipole field         -0.0002 Ry au, 
 
        Potential amp.        0.0229 Ry
        Total length         63.9640 bohr
 

     total cpu time spent up to now is     4005.9 secs

     total energy              =   -3891.09025060 Ry
     estimated scf accuracy    <       0.00643565 Ry

     iteration # 23     ecut=    52.00 Ry     beta= 0.30
     Davidson diagonalization with overlap
     ethr =  1.99E-06,  avg # of iterations =  6.5

     negative rho (up, down):  1.831E-03 0.000E+00
 
     Adding external electric field

     Computed dipole along edir(3) : 
        Dipole               -0.0759 Ry au,         -0.1930 Debye
        Dipole field         -0.0002 Ry au, 
 
        Potential amp.        0.0241 Ry
        Total length         63.9640 bohr
 

     total cpu time spent up to now is     4193.0 secs

     total energy              =   -3891.09015679 Ry
     estimated scf accuracy    <       0.00550285 Ry

     iteration # 24     ecut=    52.00 Ry     beta= 0.30
     Davidson diagonalization with overlap
     c_bands:  1 eigenvalues not converged
     c_bands:  1 eigenvalues not converged
     c_bands:  1 eigenvalues not converged
     ethr =  1.70E-06,  avg # of iterations =  8.5

     negative rho (up, down):  3.410E-06 0.000E+00
 
     Adding external electric field

     Computed dipole along edir(3) : 
        Dipole               -0.1895 Ry au,         -0.4816 Debye
        Dipole field         -0.0005 Ry au, 
 
        Potential amp.        0.0602 Ry
        Total length         63.9640 bohr
 

     total cpu time spent up to now is     4396.3 secs

     total energy              =   -3891.09021446 Ry
     estimated scf accuracy    <       0.00482249 Ry

     iteration # 25     ecut=    52.00 Ry     beta= 0.30
     Davidson diagonalization with overlap
     c_bands:  1 eigenvalues not converged
     c_bands:  1 eigenvalues not converged
     c_bands:  1 eigenvalues not converged
     ethr =  1.49E-06,  avg # of iterations = 11.6

     negative rho (up, down):  5.401E-06 0.000E+00
 
     Adding external electric field

     Computed dipole along edir(3) : 
        Dipole               -0.1797 Ry au,         -0.4568 Debye
        Dipole field         -0.0004 Ry au, 
 
        Potential amp.        0.0571 Ry
        Total length         63.9640 bohr
 

     total cpu time spent up to now is     4624.4 secs

     total energy              =   -3891.09039417 Ry
     estimated scf accuracy    <       0.00359074 Ry

     iteration # 26     ecut=    52.00 Ry     beta= 0.30
     Davidson diagonalization with overlap
     ethr =  1.11E-06,  avg # of iterations =  4.5

     negative rho (up, down):  1.818E-03 0.000E+00
 
     Adding external electric field

     Computed dipole along edir(3) : 
        Dipole               -0.0605 Ry au,         -0.1539 Debye
        Dipole field         -0.0002 Ry au, 
 
        Potential amp.        0.0192 Ry
        Total length         63.9640 bohr
 

     total cpu time spent up to now is     4795.4 secs

     total energy              =   -3891.08972841 Ry
     estimated scf accuracy    <       0.00510238 Ry

     iteration # 27     ecut=    52.00 Ry     beta= 0.30
     Davidson diagonalization with overlap
     ethr =  1.11E-06,  avg # of iterations =  9.6

     negative rho (up, down):  3.294E-04 0.000E+00
 
     Adding external electric field

     Computed dipole along edir(3) : 
        Dipole               -0.1245 Ry au,         -0.3164 Debye
        Dipole field         -0.0003 Ry au, 
 
        Potential amp.        0.0395 Ry
        Total length         63.9640 bohr
 

     total cpu time spent up to now is     5006.9 secs

     total energy              =   -3891.08954922 Ry
     estimated scf accuracy    <       0.00454922 Ry

     iteration # 28     ecut=    52.00 Ry     beta= 0.30
     Davidson diagonalization with overlap
     ethr =  1.11E-06,  avg # of iterations =  9.4

     negative rho (up, down):  2.299E-03 0.000E+00
 
     Adding external electric field

     Computed dipole along edir(3) : 
        Dipole                0.0256 Ry au,          0.0650 Debye
        Dipole field          0.0001 Ry au, 
 
        Potential amp.       -0.0081 Ry
        Total length         63.9640 bohr
 

     total cpu time spent up to now is     5216.1 secs

     total energy              =   -3891.08959434 Ry
     estimated scf accuracy    <       0.00070609 Ry

     iteration # 29     ecut=    52.00 Ry     beta= 0.30
     Davidson diagonalization with overlap
     ethr =  2.18E-07,  avg # of iterations =  8.9

     negative rho (up, down):  5.176E-04 0.000E+00
 
     Adding external electric field

     Computed dipole along edir(3) : 
        Dipole                0.0321 Ry au,          0.0815 Debye
        Dipole field          0.0001 Ry au, 
 
        Potential amp.       -0.0102 Ry
        Total length         63.9640 bohr
 

     total cpu time spent up to now is     5430.1 secs

     total energy              =   -3891.08983297 Ry
     estimated scf accuracy    <       0.00491765 Ry

     iteration # 30     ecut=    52.00 Ry     beta= 0.30
     Davidson diagonalization with overlap
     c_bands:  1 eigenvalues not converged
     ethr =  2.18E-07,  avg # of iterations =  9.1

     negative rho (up, down):  4.670E-04 0.000E+00
 
     Adding external electric field

     Computed dipole along edir(3) : 
        Dipole                0.0294 Ry au,          0.0748 Debye
        Dipole field          0.0001 Ry au, 
 
        Potential amp.       -0.0093 Ry
        Total length         63.9640 bohr
 

     total cpu time spent up to now is     5637.4 secs

     total energy              =   -3891.08986334 Ry
     estimated scf accuracy    <       0.00407388 Ry

     iteration # 31     ecut=    52.00 Ry     beta= 0.30
     Davidson diagonalization with overlap
     ethr =  2.18E-07,  avg # of iterations =  1.0

     negative rho (up, down):  8.284E-04 0.000E+00
 
     Adding external electric field

     Computed dipole along edir(3) : 
        Dipole                0.0316 Ry au,          0.0803 Debye
        Dipole field          0.0001 Ry au, 
 
        Potential amp.       -0.0100 Ry
        Total length         63.9640 bohr
 

     total cpu time spent up to now is     5773.9 secs

     total energy              =   -3891.08986050 Ry
     estimated scf accuracy    <       0.00429006 Ry

     iteration # 32     ecut=    52.00 Ry     beta= 0.30
     Davidson diagonalization with overlap
     ethr =  2.18E-07,  avg # of iterations =  1.8

     negative rho (up, down):  5.764E-04 0.000E+00
 
     Adding external electric field

     Computed dipole along edir(3) : 
        Dipole                0.0347 Ry au,          0.0883 Debye
        Dipole field          0.0001 Ry au, 
 
        Potential amp.       -0.0110 Ry
        Total length         63.9640 bohr
 

     total cpu time spent up to now is     5920.3 secs

     total energy              =   -3891.08989175 Ry
     estimated scf accuracy    <       0.00437974 Ry

     iteration # 33     ecut=    52.00 Ry     beta= 0.30
     Davidson diagonalization with overlap
     ethr =  2.18E-07,  avg # of iterations =  1.5

     negative rho (up, down):  3.891E-04 0.000E+00
 
     Adding external electric field

     Computed dipole along edir(3) : 
        Dipole                0.0318 Ry au,          0.0808 Debye
        Dipole field          0.0001 Ry au, 
 
        Potential amp.       -0.0101 Ry
        Total length         63.9640 bohr
 

     total cpu time spent up to now is     6064.3 secs

     total energy              =   -3891.08987128 Ry
     estimated scf accuracy    <       0.00434941 Ry

     iteration # 34     ecut=    52.00 Ry     beta= 0.30
     Davidson diagonalization with overlap
     ethr =  2.18E-07,  avg # of iterations =  1.4

     negative rho (up, down):  6.604E-05 0.000E+00
 
     Adding external electric field

     Computed dipole along edir(3) : 
        Dipole                0.0006 Ry au,          0.0015 Debye
        Dipole field          0.0000 Ry au, 
 
        Potential amp.       -0.0002 Ry
        Total length         63.9640 bohr
 

     total cpu time spent up to now is     6206.2 secs

     total energy              =   -3891.08964965 Ry
     estimated scf accuracy    <       0.00416454 Ry

     iteration # 35     ecut=    52.00 Ry     beta= 0.30
     Davidson diagonalization with overlap
     ethr =  2.18E-07,  avg # of iterations =  6.6

     negative rho (up, down):  1.588E-04 0.000E+00
 
     Adding external electric field

     Computed dipole along edir(3) : 
        Dipole               -0.0247 Ry au,         -0.0627 Debye
        Dipole field         -0.0001 Ry au, 
 
        Potential amp.        0.0078 Ry
        Total length         63.9640 bohr
 

     total cpu time spent up to now is     6393.1 secs

     total energy              =   -3891.08959548 Ry
     estimated scf accuracy    <       0.00147161 Ry

     iteration # 36     ecut=    52.00 Ry     beta= 0.30
     Davidson diagonalization with overlap
     ethr =  2.18E-07,  avg # of iterations =  4.4

     negative rho (up, down):  5.093E-04 0.000E+00
 
     Adding external electric field

     Computed dipole along edir(3) : 
        Dipole                0.0107 Ry au,          0.0272 Debye
        Dipole field          0.0000 Ry au, 
 
        Potential amp.       -0.0034 Ry
        Total length         63.9640 bohr
 

     total cpu time spent up to now is     6563.5 secs

     total energy              =   -3891.08964016 Ry
     estimated scf accuracy    <       0.00021377 Ry

     iteration # 37     ecut=    52.00 Ry     beta= 0.30
     Davidson diagonalization with overlap
     ethr =  6.60E-08,  avg # of iterations =  6.8

     negative rho (up, down):  6.328E-06 0.000E+00
 
     Adding external electric field

     Computed dipole along edir(3) : 
        Dipole               -0.0094 Ry au,         -0.0239 Debye
        Dipole field         -0.0000 Ry au, 
 
        Potential amp.        0.0030 Ry
        Total length         63.9640 bohr
 

     total cpu time spent up to now is     6756.5 secs

     total energy              =   -3891.08974169 Ry
     estimated scf accuracy    <       0.00295437 Ry

     iteration # 38     ecut=    52.00 Ry     beta= 0.30
     Davidson diagonalization with overlap
     ethr =  6.60E-08,  avg # of iterations =  2.5

     negative rho (up, down):  1.059E-04 0.000E+00
 
     Adding external electric field

     Computed dipole along edir(3) : 
        Dipole                0.0129 Ry au,          0.0329 Debye
        Dipole field          0.0000 Ry au, 
 
        Potential amp.       -0.0041 Ry
        Total length         63.9640 bohr
 

     total cpu time spent up to now is     6911.3 secs

     total energy              =   -3891.08964291 Ry
     estimated scf accuracy    <       0.00290302 Ry

     iteration # 39     ecut=    52.00 Ry     beta= 0.30
     Davidson diagonalization with overlap
     ethr =  6.60E-08,  avg # of iterations =  5.7

     negative rho (up, down):  1.321E-03 0.000E+00
 
     Adding external electric field

     Computed dipole along edir(3) : 
        Dipole                0.0063 Ry au,          0.0160 Debye
        Dipole field          0.0000 Ry au, 
 
        Potential amp.       -0.0020 Ry
        Total length         63.9640 bohr
 

     total cpu time spent up to now is     7092.0 secs

     total energy              =   -3891.08956845 Ry
     estimated scf accuracy    <       0.00105607 Ry

     iteration # 40     ecut=    52.00 Ry     beta= 0.30
     Davidson diagonalization with overlap
     ethr =  6.60E-08,  avg # of iterations =  7.4

     negative rho (up, down):  9.949E-04 0.000E+00
 
     Adding external electric field

     Computed dipole along edir(3) : 
        Dipole                0.0053 Ry au,          0.0135 Debye
        Dipole field          0.0000 Ry au, 
 
        Potential amp.       -0.0017 Ry
        Total length         63.9640 bohr
 

     total cpu time spent up to now is     7287.8 secs

     total energy              =   -3891.08962199 Ry
     estimated scf accuracy    <       0.00089472 Ry

     iteration # 41     ecut=    52.00 Ry     beta= 0.30
     Davidson diagonalization with overlap
     ethr =  6.60E-08,  avg # of iterations =  7.3

     negative rho (up, down):  7.463E-04 0.000E+00
 
     Adding external electric field

     Computed dipole along edir(3) : 
        Dipole                0.0192 Ry au,          0.0489 Debye
        Dipole field          0.0000 Ry au, 
 
        Potential amp.       -0.0061 Ry
        Total length         63.9640 bohr
 

     total cpu time spent up to now is     7407.7 secs

     total energy              =   -3891.08964019 Ry
     estimated scf accuracy    <       0.00022346 Ry

     iteration # 42     ecut=    52.00 Ry     beta= 0.30
     Davidson diagonalization with overlap
     ethr =  6.60E-08,  avg # of iterations =  3.1

     negative rho (up, down):  4.884E-04 0.000E+00
 
     Adding external electric field

     Computed dipole along edir(3) : 
        Dipole                0.0272 Ry au,          0.0691 Debye
        Dipole field          0.0001 Ry au, 
 
        Potential amp.       -0.0086 Ry
        Total length         63.9640 bohr
 

     total cpu time spent up to now is     7522.0 secs

     total energy              =   -3891.08964201 Ry
     estimated scf accuracy    <       0.00005284 Ry

     iteration # 43     ecut=    52.00 Ry     beta= 0.30
     Davidson diagonalization with overlap
     ethr =  1.63E-08,  avg # of iterations =  3.3

     negative rho (up, down):  4.781E-04 0.000E+00
 
     Adding external electric field

     Computed dipole along edir(3) : 
        Dipole                0.0255 Ry au,          0.0649 Debye
        Dipole field          0.0001 Ry au, 
 
        Potential amp.       -0.0081 Ry
        Total length         63.9640 bohr
 

     total cpu time spent up to now is     7686.3 secs

     total energy              =   -3891.08964140 Ry
     estimated scf accuracy    <       0.00007922 Ry

     iteration # 44     ecut=    52.00 Ry     beta= 0.30
     Davidson diagonalization with overlap
     ethr =  1.63E-08,  avg # of iterations =  1.0

     negative rho (up, down):  4.750E-04 0.000E+00
 
     Adding external electric field

     Computed dipole along edir(3) : 
        Dipole                0.0252 Ry au,          0.0640 Debye
        Dipole field          0.0001 Ry au, 
 
        Potential amp.       -0.0080 Ry
        Total length         63.9640 bohr
 

     total cpu time spent up to now is     7824.3 secs

     total energy              =   -3891.08963854 Ry
     estimated scf accuracy    <       0.00001215 Ry

     iteration # 45     ecut=    52.00 Ry     beta= 0.30
     Davidson diagonalization with overlap
     ethr =  3.75E-09,  avg # of iterations =  2.0

     negative rho (up, down):  3.771E-04 0.000E+00
 
     Adding external electric field

     Computed dipole along edir(3) : 
        Dipole                0.0240 Ry au,          0.0610 Debye
        Dipole field          0.0001 Ry au, 
 
        Potential amp.       -0.0076 Ry
        Total length         63.9640 bohr
 

     total cpu time spent up to now is     7982.2 secs

     total energy              =   -3891.08963929 Ry
     estimated scf accuracy    <       0.00001447 Ry

     iteration # 46     ecut=    52.00 Ry     beta= 0.30
     Davidson diagonalization with overlap
     ethr =  3.75E-09,  avg # of iterations =  1.0

     negative rho (up, down):  2.954E-04 0.000E+00
 
     Adding external electric field

     Computed dipole along edir(3) : 
        Dipole                0.0234 Ry au,          0.0595 Debye
        Dipole field          0.0001 Ry au, 
 
        Potential amp.       -0.0074 Ry
        Total length         63.9640 bohr
 

     total cpu time spent up to now is     8120.1 secs

     total energy              =   -3891.08963929 Ry
     estimated scf accuracy    <       0.00000107 Ry

     iteration # 47     ecut=    52.00 Ry     beta= 0.30
     Davidson diagonalization with overlap
     ethr =  3.32E-10,  avg # of iterations =  2.7

     negative rho (up, down):  2.924E-04 0.000E+00
 
     Adding external electric field

     Computed dipole along edir(3) : 
        Dipole                0.0232 Ry au,          0.0590 Debye
        Dipole field          0.0001 Ry au, 
 
        Potential amp.       -0.0074 Ry
        Total length         63.9640 bohr
 

     total cpu time spent up to now is     8288.6 secs

     total energy              =   -3891.08963946 Ry
     estimated scf accuracy    <       0.00000018 Ry

     iteration # 48     ecut=    52.00 Ry     beta= 0.30
     Davidson diagonalization with overlap
     ethr =  5.65E-11,  avg # of iterations =  2.5

     negative rho (up, down):  2.859E-04 0.000E+00
 
     Adding external electric field

     Computed dipole along edir(3) : 
        Dipole                0.0232 Ry au,          0.0589 Debye
        Dipole field          0.0001 Ry au, 
 
        Potential amp.       -0.0074 Ry
        Total length         63.9640 bohr
 

     total cpu time spent up to now is     8445.0 secs

     total energy              =   -3891.08963948 Ry
     estimated scf accuracy    <       0.00000007 Ry

     iteration # 49     ecut=    52.00 Ry     beta= 0.30
     Davidson diagonalization with overlap
     ethr =  2.03E-11,  avg # of iterations =  3.0

     negative rho (up, down):  2.830E-04 0.000E+00
 
     Adding external electric field

     Computed dipole along edir(3) : 
        Dipole                0.0231 Ry au,          0.0588 Debye
        Dipole field          0.0001 Ry au, 
 
        Potential amp.       -0.0074 Ry
        Total length         63.9640 bohr
 

     total cpu time spent up to now is     8608.4 secs

     total energy              =   -3891.08963950 Ry
     estimated scf accuracy    <       0.00000003 Ry

     iteration # 50     ecut=    52.00 Ry     beta= 0.30
     Davidson diagonalization with overlap
     ethr =  7.96E-12,  avg # of iterations =  1.4

     negative rho (up, down):  2.703E-04 0.000E+00
 
     Adding external electric field

     Computed dipole along edir(3) : 
        Dipole                0.0230 Ry au,          0.0583 Debye
        Dipole field          0.0001 Ry au, 
 
        Potential amp.       -0.0073 Ry
        Total length         63.9640 bohr
 

     total cpu time spent up to now is     8752.2 secs

     total energy              =   -3891.08963952 Ry
     estimated scf accuracy    <       0.00000002 Ry

     iteration # 51     ecut=    52.00 Ry     beta= 0.30
     Davidson diagonalization with overlap
     ethr =  6.30E-12,  avg # of iterations =  2.0

     negative rho (up, down):  2.695E-04 0.000E+00
 
     Adding external electric field

     Computed dipole along edir(3) : 
        Dipole                0.0230 Ry au,          0.0584 Debye
        Dipole field          0.0001 Ry au, 
 
        Potential amp.       -0.0073 Ry
        Total length         63.9640 bohr
 

     total cpu time spent up to now is     8903.3 secs

     total energy              =   -3891.08963952 Ry
     estimated scf accuracy    <       0.00000002 Ry

     iteration # 52     ecut=    52.00 Ry     beta= 0.30
     Davidson diagonalization with overlap
     ethr =  6.30E-12,  avg # of iterations =  1.0

     negative rho (up, down):  2.738E-04 0.000E+00
 
     Adding external electric field

     Computed dipole along edir(3) : 
        Dipole                0.0231 Ry au,          0.0587 Debye
        Dipole field          0.0001 Ry au, 
 
        Potential amp.       -0.0073 Ry
        Total length         63.9640 bohr
 

     total cpu time spent up to now is     9041.3 secs

     total energy              =   -3891.08963951 Ry
     estimated scf accuracy    <       0.00000001 Ry

     iteration # 53     ecut=    52.00 Ry     beta= 0.30
     Davidson diagonalization with overlap
     ethr =  4.39E-12,  avg # of iterations =  1.0

     negative rho (up, down):  2.757E-04 0.000E+00
 
     Adding external electric field

     Computed dipole along edir(3) : 
        Dipole                0.0230 Ry au,          0.0585 Debye
        Dipole field          0.0001 Ry au, 
 
        Potential amp.       -0.0073 Ry
        Total length         63.9640 bohr
 

     total cpu time spent up to now is     9175.8 secs

     End of self-consistent calculation

          k = 0.0000 0.0000 0.0000 ( 32011 PWs)   bands (ev):

   -87.1901 -87.1772 -87.1744 -87.1741 -87.1657 -87.1657 -87.0029 -86.9895
   -86.9894 -86.9239 -86.9105 -86.9102 -50.6911 -50.6749 -50.6749 -50.6741
   -50.6738 -50.6708 -50.6707 -50.6472 -50.6470 -50.6167 -50.6164 -50.6097
   -50.6097 -50.6047 -50.5757 -50.5756 -50.5599 -50.5596 -50.4890 -50.4884
   -50.4860 -50.4853 -50.4221 -50.4112 -50.4112 -50.4102 -50.4101 -50.4082
   -50.4081 -50.3986 -50.3984 -50.3384 -50.3259 -50.3256 -50.3200 -50.3196
   -14.6821 -14.3398 -14.1841  -9.5792  -9.5728  -9.5702  -9.2217  -9.2217
    -9.2217  -9.1228  -9.1228  -9.1228  -8.4424  -8.4387  -8.4373  -8.0833
    -8.0833  -8.0833  -7.9921  -7.9921  -7.9921  -3.2855  -2.6852  -2.4893
    -1.8533  -1.7361  -1.7341  -1.7304  -1.6083  -1.3760  -1.3760  -1.3759
    -1.3481  -1.2915  -1.2915  -1.2915  -1.1820  -0.7290  -0.7280  -0.7093
    -0.7093  -0.7044  -0.7043  -0.3669  -0.3664  -0.3500  -0.3499  -0.1832
    -0.1801  -0.1470  -0.1468   0.0847   0.1250   0.1255   0.1735   0.1745
     0.2362   0.2375   0.2663   0.2670   0.2932   0.3861   0.3868   0.4750
     0.4772   0.4954   0.5107   0.5324   0.5445   0.6283   0.6284   0.6450
     0.6450   1.0217   1.0223   1.1440   1.1471   1.1478   1.1533   1.2062
     1.2062   1.2952   1.3082   1.5026   1.5479   1.5497   1.5576   1.6152
     1.6430   1.6470   1.7533   1.7661   1.8078   1.8113   1.8270   1.8292
     1.8898   1.8980   1.9068   1.9068   1.9872   1.9872   2.2253   2.2366
     2.2619   2.5562   2.5572   2.5595   2.8528   2.8529   2.8529   4.1230
     5.3719   6.1272   6.1619   6.1751   6.5454   6.5481   6.5492   6.8800
     6.8821   6.8830   8.3525   8.3536   8.5480   8.5530   8.5557   8.5579
     8.6426   9.0537   9.3368   9.3516   9.3619   9.3646   9.5641   9.7535
     9.7586  10.0264  10.7348  11.0130  11.0241  11.0361  11.0383  11.0707
    11.3202  11.3319

          k = 0.0000 0.1283 0.0000 ( 32037 PWs)   bands (ev):

   -87.1895 -87.1768 -87.1747 -87.1744 -87.1659 -87.1659 -87.0024 -86.9897
   -86.9896 -86.9234 -86.9108 -86.9105 -50.6897 -50.6873 -50.6846 -50.6780
   -50.6764 -50.6601 -50.6579 -50.6397 -50.6395 -50.6183 -50.6170 -50.6082
   -50.6073 -50.6058 -50.5797 -50.5772 -50.5649 -50.5609 -50.5001 -50.4979
   -50.4728 -50.4714 -50.4224 -50.4217 -50.4201 -50.4115 -50.4114 -50.4037
   -50.3997 -50.3945 -50.3931 -50.3379 -50.3261 -50.3258 -50.3249 -50.3211
   -14.6104 -14.2680 -14.1128 -10.2869  -9.9394  -9.8152  -9.7781  -9.7731
    -9.4261  -9.4261  -9.3119  -9.3119  -8.1280  -8.1240  -7.7740  -7.7739
    -7.6687  -7.6687  -7.6279  -7.2773  -7.1671  -3.1983  -2.5956  -2.3811
    -1.9550  -1.9525  -1.7688  -1.6631  -1.5965  -1.5965  -1.5111  -1.5110
    -1.5106  -1.3054  -1.2660  -1.2211  -1.0963  -0.9156  -0.8432  -0.7839
    -0.7331  -0.6077  -0.5690  -0.4950  -0.4458  -0.4364  -0.3758  -0.2192
    -0.1867  -0.1721  -0.1215   0.0565   0.0782   0.0948   0.1845   0.1889
     0.1963   0.2201   0.2875   0.2933   0.3392   0.3569   0.3944   0.4362
     0.4391   0.4525   0.5225   0.5307   0.5654   0.6456   0.7661   0.7797
     0.8977   0.9285   0.9767   1.0321   1.1116   1.1655   1.1728   1.2117
     1.2420   1.2541   1.2993   1.3133   1.3946   1.4295   1.5280   1.5405
     1.6119   1.6181   1.6419   1.6929   1.6960   1.7555   1.7583   1.8079
     1.8362   1.8394   1.8479   1.8939   1.9182   1.9534   2.1178   2.1454
     2.1651   2.1922   2.5033   2.5080   2.5939   2.8581   2.8584   4.2849
     5.6090   6.2500   6.2729   6.5694   6.6523   6.6579   6.7060   7.0114
     7.0132   7.0256   7.4293   7.4444   7.6064   7.7068   8.3513   8.7392
     8.7797   8.9412   9.1487   9.5390   9.6010   9.6592   9.9788  10.1091
    10.4205  10.5149  10.5982  10.7931  10.8264  11.1070  11.1525  11.5739
    11.6863  11.7096

          k = 0.0000 0.2566 0.0000 ( 32017 PWs)   bands (ev):

   -87.1880 -87.1757 -87.1756 -87.1750 -87.1667 -87.1663 -87.0011 -86.9906
   -86.9901 -86.9221 -86.9116 -86.9110 -50.6985 -50.6879 -50.6874 -50.6858
   -50.6795 -50.6492 -50.6406 -50.6327 -50.6275 -50.6181 -50.6113 -50.6109
   -50.6064 -50.6030 -50.5888 -50.5835 -50.5771 -50.5648 -50.5105 -50.5008
   -50.4580 -50.4544 -50.4332 -50.4232 -50.4209 -50.4175 -50.4122 -50.4118
   -50.4037 -50.3796 -50.3759 -50.3394 -50.3363 -50.3269 -50.3264 -50.3251
   -14.3958 -14.0532 -13.8994 -11.2591 -10.9133 -10.7803 -10.0964 -10.0909
    -9.7459  -9.7459  -9.6229  -9.6229  -7.4699  -7.4652  -7.1166  -7.1166
    -7.0080  -7.0080  -6.3417  -5.9904  -5.8833  -2.9385  -2.5445  -2.5414
    -2.3328  -2.1865  -2.1865  -2.0984  -2.0984  -2.0683  -1.5187  -1.4541
    -1.2493  -1.0964  -1.0929  -1.0376  -1.0122  -0.9282  -0.9065  -0.8952
    -0.8711  -0.8483  -0.6538  -0.5963  -0.4350  -0.4342  -0.3863  -0.3111
    -0.2709  -0.2605  -0.2056  -0.1273  -0.0192   0.0486   0.1060   0.1812
     0.2654   0.2721   0.3240   0.3399   0.3518   0.3806   0.4108   0.4251
     0.4449   0.4896   0.5249   0.5584   0.5727   0.6364   0.6775   0.7573
     0.7697   0.8032   0.8174   0.8860   0.9347   0.9665   0.9951   1.0421
     1.0991   1.1224   1.1875   1.1990   1.2249   1.2454   1.2787   1.3531
     1.3568   1.3755   1.4346   1.4966   1.5367   1.5894   1.5943   1.6389
     1.7854   1.7970   1.8487   1.8815   1.9030   1.9469   1.9935   2.0030
     2.0722   2.0832   2.3843   2.3996   2.5496   2.8387   2.8396   4.7059
     5.0051   5.8536   6.2359   6.4527   6.5638   6.5717   6.9277   6.9538
     6.9741   7.2947   7.3220   7.3250   7.4961   7.8256   7.9329   8.1955
     8.6301   9.0290   9.3505   9.4332   9.4376   9.9440  10.1137  10.3593
    10.8086  10.8814  11.0669  11.1002  11.4033  11.5713  11.8052  11.8461
    12.1441  12.3184

          k = 0.0000 0.3849 0.0000 ( 32055 PWs)   bands (ev):

   -87.1856 -87.1775 -87.1756 -87.1738 -87.1680 -87.1667 -86.9990 -86.9922
   -86.9906 -86.9200 -86.9131 -86.9115 -50.7066 -50.6958 -50.6822 -50.6802
   -50.6753 -50.6450 -50.6335 -50.6258 -50.6249 -50.6174 -50.6093 -50.6062
   -50.6038 -50.5986 -50.5981 -50.5934 -50.5860 -50.5714 -50.5180 -50.4950
   -50.4437 -50.4410 -50.4401 -50.4383 -50.4187 -50.4172 -50.4134 -50.4123
   -50.4102 -50.3651 -50.3615 -50.3597 -50.3346 -50.3316 -50.3283 -50.3269
   -14.0392 -13.6963 -13.5449 -12.1447 -11.7999 -11.6609 -10.3396 -10.3339
    -9.9897  -9.9896  -9.8633  -9.8633  -6.6957  -6.6909  -6.3414  -6.3414
    -6.2366  -6.2366  -4.9465  -4.5937  -4.4923  -3.3347  -3.3310  -2.9772
    -2.9772  -2.8862  -2.8862  -2.5102  -1.9068  -1.6052  -1.2585  -1.1601
    -1.1528  -1.1158  -1.1101  -0.9201  -0.8746  -0.8530  -0.8315  -0.7575
    -0.7514  -0.7135  -0.6925  -0.6735  -0.6612  -0.6199  -0.5200  -0.4565
    -0.3910  -0.3561  -0.3184  -0.2836  -0.2702  -0.2317  -0.1798  -0.1375
    -0.1095  -0.0189   0.0918   0.1047   0.1525   0.1866   0.2571   0.2630
     0.3000   0.3327   0.4046   0.4518   0.5187   0.5302   0.5565   0.6506
     0.6516   0.6586   0.7079   0.7228   0.8108   0.8582   0.8680   0.8931
     0.9125   0.9468   0.9838   1.1067   1.1214   1.1980   1.2628   1.3096
     1.3260   1.3585   1.4326   1.4714   1.5750   1.6440   1.6709   1.7310
     1.7415   1.8406   1.8566   1.8706   1.8942   1.9460   1.9708   1.9803
     2.0433   2.0774   2.2652   2.2982   2.7904   2.7928   3.0682   3.5784
     4.3200   5.2939   5.6576   5.8481   6.2895   6.7779   6.9365   6.9739
     7.1216   7.1683   7.3160   7.3201   7.6522   7.6538   8.0209   9.1636
     9.2592   9.5111   9.6259   9.8201   9.9052  10.0213  10.4179  10.5178
    10.6461  10.7835  11.5525  11.8235  11.8353  11.9768  12.0787  12.2537
    12.3326  12.3793

          k = 0.0000 0.5132 0.0000 ( 32106 PWs)   bands (ev):

   -87.1828 -87.1800 -87.1760 -87.1718 -87.1697 -87.1669 -86.9967 -86.9942
   -86.9909 -86.9176 -86.9152 -86.9118 -50.7109 -50.7000 -50.6747 -50.6743
   -50.6639 -50.6457 -50.6407 -50.6347 -50.6254 -50.6144 -50.6081 -50.6063
   -50.6009 -50.5975 -50.5948 -50.5906 -50.5904 -50.5803 -50.5218 -50.4809
   -50.4608 -50.4450 -50.4321 -50.4305 -50.4193 -50.4167 -50.4150 -50.4126
   -50.4028 -50.3824 -50.3533 -50.3520 -50.3407 -50.3324 -50.3302 -50.3272
   -13.5426 -13.1993 -13.0512 -12.9094 -12.5654 -12.4214 -10.4663 -10.4605
   -10.1167 -10.1166  -9.9889  -9.9889  -6.0008  -5.9961  -5.6439  -5.6438
    -5.5494  -5.5494  -4.0594  -4.0554  -3.7010  -3.7010  -3.6122  -3.6122
    -3.5035  -3.1491  -3.0535  -2.0675  -1.9217  -1.7113  -1.6208  -1.3950
    -1.3262  -1.3033  -1.2433  -1.1914  -1.1259  -0.9844  -0.8662  -0.8264
    -0.7898  -0.6962  -0.6633  -0.6312  -0.6294  -0.6047  -0.5675  -0.5431
    -0.5276  -0.4658  -0.3949  -0.3751  -0.3048  -0.2917  -0.2900  -0.2212
    -0.1247  -0.0578  -0.0415   0.0235   0.0458   0.0738   0.0869   0.1404
     0.1780   0.2283   0.2335   0.2607   0.2721   0.3165   0.3561   0.3612
     0.4639   0.5533   0.6013   0.6307   0.7149   0.7977   0.8377   0.8811
     0.9076   1.0694   1.0794   1.1375   1.1471   1.2864   1.3849   1.4298
     1.4636   1.5129   1.5279   1.5737   1.6788   1.7036   1.7397   1.7669
     1.8016   1.8178   1.8310   1.9015   1.9192   1.9571   2.0269   2.1378
     2.1427   2.1920   2.2013   2.2423   2.4497   2.7515   2.7554   3.0372
     3.7291   4.6374   5.1238   5.9166   6.0180   6.4497   6.6663   6.8962
     7.2193   7.2259   7.5707   7.5720   7.8555   7.8560   8.1618   9.0577
     9.3056   9.6706  10.1830  10.4259  10.5630  10.7839  11.0202  11.0800
    11.1607  11.3858  11.4060  11.4673  11.6172  11.9372  12.1289  12.1360
    12.2893  12.2923

          k = 0.1111-0.0642 0.0000 ( 32037 PWs)   bands (ev):

   -87.1895 -87.1768 -87.1747 -87.1744 -87.1659 -87.1659 -87.0024 -86.9897
   -86.9896 -86.9234 -86.9108 -86.9105 -50.6897 -50.6872 -50.6846 -50.6780
   -50.6767 -50.6598 -50.6579 -50.6397 -50.6396 -50.6183 -50.6171 -50.6081
   -50.6074 -50.6058 -50.5797 -50.5772 -50.5650 -50.5608 -50.5001 -50.4979
   -50.4728 -50.4713 -50.4222 -50.4217 -50.4203 -50.4114 -50.4114 -50.4035
   -50.3998 -50.3944 -50.3933 -50.3379 -50.3261 -50.3258 -50.3251 -50.3209
   -14.6104 -14.2680 -14.1128 -10.2869  -9.9394  -9.8152  -9.7792  -9.7720
    -9.4261  -9.4261  -9.3119  -9.3119  -8.1284  -8.1237  -7.7740  -7.7739
    -7.6687  -7.6687  -7.6279  -7.2773  -7.1671  -3.1983  -2.5956  -2.3811
    -1.9562  -1.9513  -1.7688  -1.6628  -1.5965  -1.5965  -1.5110  -1.5110
    -1.5105  -1.3054  -1.2662  -1.2211  -1.0963  -0.9148  -0.8440  -0.7847
    -0.7327  -0.6084  -0.5680  -0.4956  -0.4452  -0.4364  -0.3756  -0.2195
    -0.1862  -0.1731  -0.1207   0.0569   0.0775   0.0944   0.1845   0.1896
     0.1964   0.2201   0.2882   0.2919   0.3394   0.3566   0.3921   0.4371
     0.4391   0.4532   0.5244   0.5306   0.5655   0.6433   0.7675   0.7805
     0.8982   0.9287   0.9758   1.0338   1.1083   1.1663   1.1739   1.2117
     1.2420   1.2538   1.3003   1.3122   1.3970   1.4320   1.5254   1.5361
     1.6119   1.6202   1.6432   1.6929   1.6952   1.7536   1.7555   1.8075
     1.8362   1.8414   1.8538   1.8908   1.9185   1.9527   2.1192   2.1485
     2.1575   2.1955   2.5028   2.5086   2.5939   2.8583   2.8583   4.2850
     5.6091   6.2439   6.2791   6.5695   6.6536   6.6583   6.7040   7.0115
     7.0133   7.0253   7.4285   7.4443   7.6060   7.7081   8.3516   8.7392
     8.7831   8.9406   9.1487   9.5372   9.6024   9.6592   9.9740  10.1091
    10.4208  10.5163  10.5985  10.7932  10.8263  11.1068  11.1525  11.5738
    11.6855  11.7070

          k = 0.1111 0.0642 0.0000 ( 32037 PWs)   bands (ev):

   -87.1895 -87.1768 -87.1747 -87.1744 -87.1660 -87.1659 -87.0024 -86.9897
   -86.9896 -86.9234 -86.9108 -86.9105 -50.6897 -50.6873 -50.6845 -50.6780
   -50.6765 -50.6601 -50.6578 -50.6398 -50.6396 -50.6181 -50.6171 -50.6079
   -50.6076 -50.6058 -50.5797 -50.5772 -50.5647 -50.5611 -50.5002 -50.4978
   -50.4729 -50.4713 -50.4225 -50.4217 -50.4200 -50.4114 -50.4114 -50.4035
   -50.3999 -50.3947 -50.3929 -50.3379 -50.3261 -50.3258 -50.3247 -50.3213
   -14.6104 -14.2680 -14.1128 -10.2869  -9.9394  -9.8152  -9.7781  -9.7731
    -9.4261  -9.4261  -9.3119  -9.3119  -8.1280  -8.1240  -7.7740  -7.7739
    -7.6687  -7.6687  -7.6279  -7.2773  -7.1671  -3.1983  -2.5956  -2.3811
    -1.9549  -1.9525  -1.7688  -1.6631  -1.5965  -1.5965  -1.5111  -1.5110
    -1.5105  -1.3054  -1.2662  -1.2211  -1.0965  -0.9163  -0.8440  -0.7821
    -0.7315  -0.6091  -0.5684  -0.4954  -0.4454  -0.4370  -0.3772  -0.2189
    -0.1870  -0.1718  -0.1201   0.0576   0.0778   0.0947   0.1847   0.1882
     0.1971   0.2192   0.2879   0.2955   0.3405   0.3561   0.3938   0.4365
     0.4383   0.4523   0.5188   0.5317   0.5665   0.6450   0.7659   0.7781
     0.8967   0.9318   0.9755   1.0375   1.1105   1.1666   1.1734   1.2101
     1.2418   1.2550   1.2933   1.3127   1.3936   1.4310   1.5265   1.5416
     1.6119   1.6152   1.6447   1.6929   1.6959   1.7555   1.7592   1.8073
     1.8362   1.8392   1.8464   1.8976   1.9176   1.9557   2.1171   2.1453
     2.1651   2.1923   2.5035   2.5078   2.5939   2.8581   2.8584   4.2846
     5.6088   6.2497   6.2732   6.5695   6.6525   6.6581   6.7059   7.0114
     7.0133   7.0255   7.4279   7.4442   7.6061   7.7093   8.3482   8.7392
     8.7772   8.9434   9.1487   9.5390   9.6018   9.6592   9.9798  10.1091
    10.4212  10.5150  10.6005  10.7908  10.8264  11.1066  11.1525  11.5723
    11.6860  11.7099

          k = 0.1111 0.1925 0.0000 ( 31991 PWs)   bands (ev):

   -87.1885 -87.1760 -87.1752 -87.1749 -87.1663 -87.1663 -87.0015 -86.9902
   -86.9901 -86.9225 -86.9112 -86.9109 -50.6920 -50.6918 -50.6870 -50.6825
   -50.6824 -50.6482 -50.6481 -50.6326 -50.6322 -50.6160 -50.6159 -50.6092
   -50.6056 -50.6052 -50.5865 -50.5800 -50.5746 -50.5633 -50.5049 -50.5043
   -50.4606 -50.4599 -50.4272 -50.4270 -50.4210 -50.4133 -50.4118 -50.4118
   -50.4023 -50.3819 -50.3817 -50.3372 -50.3344 -50.3266 -50.3263 -50.3238
   -14.4673 -14.1247 -13.9705 -10.7313 -10.7278 -10.3831 -10.3829 -10.2540
   -10.2540  -9.3883  -9.0357  -8.9374  -8.2653  -7.9089  -7.8185  -6.9666
    -6.9666  -6.6158  -6.6157  -6.5068  -6.5068  -3.0248  -2.6165  -2.4197
    -2.2602  -2.1719  -2.1708  -1.8144  -1.8098  -1.6016  -1.4548  -1.4547
    -1.3695  -1.3695  -1.3332  -1.1125  -0.9879  -0.9871  -0.9423  -0.8290
    -0.8286  -0.7328  -0.7326  -0.5131  -0.5118  -0.3785  -0.3758  -0.3091
    -0.3081  -0.1918  -0.1900  -0.0770   0.0190   0.0698   0.1581   0.1654
     0.2936   0.2997   0.3036   0.3266   0.3277   0.3510   0.3936   0.3979
     0.4332   0.5435   0.5440   0.5516   0.6343   0.7270   0.8041   0.8100
     0.8229   0.9262   0.9309   1.0383   1.0404   1.0697   1.0832   1.0904
     1.0962   1.1675   1.1876   1.1967   1.2859   1.3081   1.3311   1.3690
     1.3739   1.3913   1.4529   1.5335   1.5495   1.5575   1.5582   1.6435
     1.7152   1.7325   1.8720   1.8765   1.9027   1.9075   1.9384   2.0332
     2.0436   2.3279   2.3314   2.4210   2.4856   2.8137   3.1095   4.5728
     5.8171   5.8292   6.0340   6.1105   6.4863   6.6628   6.6670   6.7526
     7.1199   7.1721   7.5314   7.5414   7.9542   7.9610   8.0326   8.0470
     8.8481   8.8515   8.9325   9.3385   9.8491   9.8957   9.9007  10.2756
    10.5190  10.5250  11.0092  11.3189  11.4213  11.4262  11.5656  11.5684
    12.0566  12.0627

          k = 0.1111 0.3208 0.0000 ( 32047 PWs)   bands (ev):

   -87.1865 -87.1765 -87.1757 -87.1745 -87.1672 -87.1668 -86.9998 -86.9913
   -86.9907 -86.9208 -86.9123 -86.9116 -50.7001 -50.6899 -50.6897 -50.6823
   -50.6816 -50.6429 -50.6366 -50.6276 -50.6241 -50.6202 -50.6096 -50.6062
   -50.6027 -50.6007 -50.5962 -50.5906 -50.5845 -50.5678 -50.5120 -50.5026
   -50.4473 -50.4452 -50.4347 -50.4313 -50.4251 -50.4193 -50.4127 -50.4123
   -50.4070 -50.3687 -50.3667 -50.3524 -50.3353 -50.3286 -50.3275 -50.3269
   -14.1816 -13.8389 -13.6865 -11.6650 -11.3197 -11.1838 -11.0584 -10.7124
   -10.5807  -9.3995  -9.0495  -8.9374  -7.8008  -7.4480  -7.3457  -6.2108
    -5.8590  -5.7539  -5.6239  -5.2717  -5.1679  -3.4955  -3.1402  -3.0483
    -2.6808  -2.3232  -2.0761  -1.9666  -1.8789  -1.7873  -1.5336  -1.2729
    -1.1761  -1.1424  -1.0911  -1.0650  -1.0340  -1.0239  -0.9899  -0.8994
    -0.8629  -0.8226  -0.7040  -0.6941  -0.5522  -0.5158  -0.4545  -0.3785
    -0.3316  -0.2453  -0.2079  -0.1918  -0.1759  -0.0838  -0.0274   0.1098
     0.1535   0.1644   0.2367   0.2406   0.2575   0.3055   0.3062   0.3245
     0.4088   0.4445   0.4630   0.5230   0.5451   0.5501   0.5683   0.5806
     0.6005   0.7536   0.7615   0.8318   0.8680   0.9149   0.9284   0.9585
     0.9779   1.0099   1.0495   1.0682   1.0844   1.1970   1.2041   1.2768
     1.3270   1.3413   1.3518   1.4334   1.4374   1.4982   1.5372   1.5926
     1.5959   1.6590   1.6821   1.8501   1.8618   1.9049   1.9435   1.9664
     2.0727   2.0831   2.1245   2.6418   2.8639   3.0042   3.3635   4.2722
     5.0653   5.0675   5.0889   5.8581   6.1136   6.4752   6.5512   6.7214
     6.7831   7.1125   7.7117   8.0821   8.1775   8.4147   8.4714   8.6845
     8.8697   9.2678   9.3186   9.4838   9.7165  10.1318  10.2284  10.3672
    10.6133  10.9998  11.0662  11.3733  11.6612  11.6779  12.2112  12.4263
    12.5364  12.6548

          k = 0.1111 0.4491 0.0000 ( 32081 PWs)   bands (ev):

   -87.1840 -87.1786 -87.1763 -87.1726 -87.1687 -87.1671 -86.9976 -86.9930
   -86.9911 -86.9186 -86.9140 -86.9121 -50.7056 -50.6953 -50.6804 -50.6768
   -50.6742 -50.6424 -50.6392 -50.6358 -50.6173 -50.6162 -50.6131 -50.6058
   -50.6022 -50.5963 -50.5935 -50.5928 -50.5916 -50.5748 -50.5170 -50.4923
   -50.4531 -50.4400 -50.4349 -50.4339 -50.4176 -50.4145 -50.4143 -50.4139
   -50.4127 -50.3745 -50.3561 -50.3554 -50.3357 -50.3332 -50.3291 -50.3274
   -13.7551 -13.4119 -13.2624 -12.4910 -12.1466 -12.0054 -11.2594 -10.9137
   -10.7805  -9.5224  -9.1739  -9.0546  -7.0772  -6.7244  -6.6228  -5.4491
    -5.0955  -4.9973  -4.3980  -4.2126  -4.0428  -3.9500  -3.8588  -3.7610
    -2.9998  -2.6435  -2.5544  -2.1723  -1.5742  -1.4199  -1.3380  -1.3072
    -1.2281  -1.1808  -1.1292  -1.0623  -0.9755  -0.9383  -0.9166  -0.9002
    -0.8743  -0.8445  -0.7956  -0.7714  -0.7359  -0.7084  -0.6989  -0.6868
    -0.5605  -0.5280  -0.5184  -0.3722  -0.3474  -0.3252  -0.1706  -0.1632
    -0.1443  -0.0753  -0.0332  -0.0115   0.0946   0.1292   0.2143   0.2543
     0.2858   0.2948   0.3255   0.3805   0.4083   0.4217   0.4571   0.5746
     0.5857   0.6159   0.6299   0.7673   0.7884   0.8047   0.8447   0.8563
     0.8687   0.9923   1.0000   1.0073   1.1299   1.1759   1.2017   1.3042
     1.3419   1.3530   1.4135   1.4688   1.5045   1.5647   1.5920   1.7383
     1.7836   1.8155   1.8173   1.8593   1.8638   1.9159   1.9350   1.9717
     1.9807   2.0254   2.1258   2.6744   2.9632   3.0860   3.4262   3.5475
     3.6454   4.4913   5.2283   5.2470   5.7040   6.1893   6.4885   6.5460
     6.8236   7.4693   7.6531   7.7265   8.1741   8.5292   8.8379   9.2841
     9.8618   9.8961   9.9125  10.0554  10.2804  10.3281  10.6740  10.7132
    10.7960  11.1298  11.6199  11.8655  11.9101  12.0886  12.1110  12.1886
    12.4086  12.5093

          k = 0.1111-0.5774 0.0000 ( 32048 PWs)   bands (ev):

   -87.1813 -87.1810 -87.1765 -87.1706 -87.1705 -87.1673 -86.9953 -86.9952
   -86.9913 -86.9164 -86.9161 -86.9122 -50.7076 -50.6972 -50.6740 -50.6739
   -50.6596 -50.6594 -50.6363 -50.6349 -50.6347 -50.6108 -50.6081 -50.6026
   -50.6023 -50.5979 -50.5977 -50.5886 -50.5839 -50.5837 -50.5188 -50.4750
   -50.4746 -50.4418 -50.4300 -50.4237 -50.4234 -50.4158 -50.4157 -50.4129
   -50.3968 -50.3965 -50.3513 -50.3451 -50.3448 -50.3312 -50.3310 -50.3276
   -13.1906 -13.1896 -12.8465 -12.8464 -12.7007 -12.7007 -11.3269 -10.9812
   -10.8476  -9.5731  -9.2249  -9.1040  -6.6302  -6.2748  -6.1836  -5.0186
    -4.8999  -4.6624  -4.5740  -4.5425  -4.4562  -3.4113  -3.0537  -2.9686
    -2.7890  -2.7875  -2.4328  -2.4327  -2.3407  -2.3407  -1.5130  -1.5106
    -1.3833  -1.3027  -1.2199  -1.0285  -1.0276  -0.9804  -0.9186  -0.9167
    -0.8313  -0.8299  -0.8211  -0.7789  -0.7787  -0.6184  -0.6181  -0.5491
    -0.5337  -0.5332  -0.3575  -0.3557  -0.2765  -0.2756  -0.2598  -0.2598
    -0.1760  -0.1760  -0.1457  -0.1452  -0.0529  -0.0519  -0.0326   0.0702
     0.0771   0.0779   0.2689   0.3367   0.3371   0.3595   0.3646   0.5224
     0.5234   0.6173   0.6827   0.6833   0.7992   0.8039   0.8330   0.8826
     0.9387   0.9397   1.0775   1.0806   1.1130   1.2362   1.2378   1.3045
     1.4482   1.5101   1.5124   1.5622   1.5634   1.6333   1.6857   1.6870
     1.8202   1.8502   1.8717   1.8720   1.9017   1.9520   2.0013   2.0019
     2.0042   2.1118   2.1885   2.5240   2.5254   2.6733   3.1034   3.6090
     4.1845   4.1860   4.2312   5.0016   6.2167   6.2442   6.4970   6.5075
     6.6013   6.8808   7.4665   8.3514   8.7047   8.8010   8.8129   8.9687
     9.2251   9.8290  10.6081  10.6593  10.6594  11.0254  11.0266  11.4491
    11.4522  11.5612  11.5629  11.7495  11.7502  11.8926  11.8936  11.9700
    12.0829  12.0832

          k = 0.1111-0.4491 0.0000 ( 32081 PWs)   bands (ev):

   -87.1840 -87.1786 -87.1763 -87.1726 -87.1687 -87.1671 -86.9976 -86.9930
   -86.9911 -86.9186 -86.9140 -86.9121 -50.7056 -50.6953 -50.6803 -50.6768
   -50.6742 -50.6423 -50.6393 -50.6358 -50.6173 -50.6163 -50.6130 -50.6059
   -50.6025 -50.5963 -50.5935 -50.5927 -50.5915 -50.5747 -50.5170 -50.4922
   -50.4531 -50.4400 -50.4348 -50.4340 -50.4176 -50.4144 -50.4142 -50.4140
   -50.4127 -50.3747 -50.3563 -50.3554 -50.3355 -50.3333 -50.3291 -50.3274
   -13.7551 -13.4119 -13.2624 -12.4910 -12.1466 -12.0054 -11.2594 -10.9137
   -10.7805  -9.5224  -9.1739  -9.0546  -7.0771  -6.7244  -6.6228  -5.4491
    -5.0955  -4.9973  -4.3980  -4.2126  -4.0428  -3.9500  -3.8588  -3.7610
    -2.9997  -2.6435  -2.5544  -2.1723  -1.5742  -1.4199  -1.3375  -1.3071
    -1.2283  -1.1808  -1.1292  -1.0623  -0.9755  -0.9389  -0.9158  -0.8999
    -0.8736  -0.8452  -0.7953  -0.7714  -0.7360  -0.7084  -0.6980  -0.6868
    -0.5601  -0.5284  -0.5162  -0.3736  -0.3493  -0.3269  -0.1715  -0.1630
    -0.1446  -0.0779  -0.0332  -0.0118   0.0965   0.1301   0.2143   0.2537
     0.2847   0.2912   0.3255   0.3789   0.4083   0.4215   0.4582   0.5801
     0.5884   0.6176   0.6329   0.7632   0.7872   0.8068   0.8483   0.8545
     0.8694   0.9928   0.9991   1.0063   1.1289   1.1728   1.2022   1.3028
     1.3459   1.3529   1.4142   1.4696   1.5006   1.5670   1.5927   1.7356
     1.7832   1.8159   1.8188   1.8608   1.8674   1.9151   1.9326   1.9720
     1.9796   2.0255   2.1221   2.6745   2.9633   3.0861   3.4259   3.5475
     3.6457   4.4914   5.2295   5.2470   5.7056   6.1889   6.4887   6.5460
     6.8236   7.4690   7.6533   7.7281   8.1742   8.5293   8.8379   9.2840
     9.8583   9.8961   9.9143  10.0536  10.2804  10.3281  10.6740  10.7131
    10.7959  11.1298  11.6199  11.8659  11.9100  12.0890  12.1089  12.1887
    12.4097  12.5072

          k = 0.1111-0.3208 0.0000 ( 32047 PWs)   bands (ev):

   -87.1865 -87.1765 -87.1757 -87.1745 -87.1672 -87.1667 -86.9998 -86.9913
   -86.9907 -86.9208 -86.9123 -86.9116 -50.7001 -50.6900 -50.6896 -50.6823
   -50.6816 -50.6428 -50.6365 -50.6276 -50.6239 -50.6203 -50.6100 -50.6067
   -50.6022 -50.6007 -50.5961 -50.5908 -50.5845 -50.5676 -50.5120 -50.5025
   -50.4473 -50.4452 -50.4348 -50.4313 -50.4249 -50.4193 -50.4127 -50.4123
   -50.4070 -50.3689 -50.3666 -50.3527 -50.3353 -50.3283 -50.3275 -50.3269
   -14.1816 -13.8389 -13.6865 -11.6650 -11.3197 -11.1838 -11.0584 -10.7124
   -10.5807  -9.3995  -9.0495  -8.9374  -7.8008  -7.4480  -7.3457  -6.2108
    -5.8590  -5.7539  -5.6239  -5.2717  -5.1679  -3.4956  -3.1402  -3.0483
    -2.6808  -2.3232  -2.0762  -1.9666  -1.8789  -1.7870  -1.5336  -1.2729
    -1.1761  -1.1424  -1.0911  -1.0649  -1.0347  -1.0237  -0.9887  -0.9004
    -0.8620  -0.8231  -0.7012  -0.6932  -0.5517  -0.5157  -0.4559  -0.3793
    -0.3323  -0.2485  -0.2080  -0.1932  -0.1766  -0.0851  -0.0272   0.1085
     0.1535   0.1676   0.2367   0.2415   0.2556   0.3034   0.3052   0.3183
     0.4089   0.4420   0.4684   0.5225   0.5453   0.5540   0.5680   0.5849
     0.6094   0.7528   0.7609   0.8309   0.8685   0.9159   0.9284   0.9553
     0.9778   1.0099   1.0486   1.0670   1.0856   1.1936   1.2044   1.2749
     1.3319   1.3453   1.3533   1.4319   1.4363   1.4978   1.5363   1.5945
     1.5964   1.6590   1.6808   1.8538   1.8604   1.9011   1.9444   1.9661
     2.0696   2.0826   2.1235   2.6419   2.8640   3.0042   3.3635   4.2722
     5.0663   5.0685   5.0887   5.8582   6.1133   6.4753   6.5534   6.7215
     6.7843   7.1126   7.7122   8.0824   8.1774   8.4151   8.4712   8.6855
     8.8698   9.2678   9.3186   9.4836   9.7165  10.1316  10.2283  10.3628
    10.6133  11.0002  11.0616  11.3733  11.6612  11.6782  12.2111  12.4275
    12.5364  12.6547

          k = 0.1111-0.1925 0.0000 ( 31991 PWs)   bands (ev):

   -87.1885 -87.1760 -87.1752 -87.1749 -87.1663 -87.1663 -87.0015 -86.9902
   -86.9901 -86.9225 -86.9112 -86.9109 -50.6919 -50.6917 -50.6870 -50.6826
   -50.6824 -50.6483 -50.6479 -50.6323 -50.6321 -50.6163 -50.6162 -50.6092
   -50.6054 -50.6052 -50.5865 -50.5800 -50.5750 -50.5630 -50.5048 -50.5045
   -50.4604 -50.4601 -50.4271 -50.4270 -50.4210 -50.4133 -50.4118 -50.4118
   -50.4022 -50.3820 -50.3818 -50.3372 -50.3347 -50.3266 -50.3263 -50.3234
   -14.4673 -14.1247 -13.9705 -10.7303 -10.7288 -10.3830 -10.3830 -10.2540
   -10.2540  -9.3882  -9.0357  -8.9374  -8.2653  -7.9089  -7.8185  -6.9667
    -6.9666  -6.6158  -6.6158  -6.5068  -6.5068  -3.0249  -2.6166  -2.4196
    -2.2602  -2.1719  -2.1707  -1.8130  -1.8111  -1.6016  -1.4548  -1.4548
    -1.3695  -1.3695  -1.3332  -1.1120  -0.9874  -0.9864  -0.9412  -0.8306
    -0.8297  -0.7331  -0.7327  -0.5119  -0.5111  -0.3778  -0.3764  -0.3095
    -0.3081  -0.1924  -0.1914  -0.0796   0.0187   0.0703   0.1601   0.1637
     0.2938   0.2990   0.3038   0.3240   0.3267   0.3475   0.3888   0.3974
     0.4391   0.5440   0.5508   0.5573   0.6331   0.7271   0.8007   0.8108
     0.8216   0.9271   0.9341   1.0356   1.0411   1.0715   1.0833   1.0854
     1.0966   1.1675   1.1906   1.1973   1.2889   1.3164   1.3230   1.3704
     1.3725   1.3896   1.4529   1.5335   1.5517   1.5535   1.5630   1.6419
     1.7148   1.7316   1.8742   1.8768   1.9012   1.9122   1.9316   2.0344
     2.0380   2.3290   2.3302   2.4218   2.4859   2.8138   3.1095   4.5739
     5.8187   5.8276   6.0356   6.1094   6.4863   6.6623   6.6670   6.7526
     7.1325   7.1607   7.5332   7.5393   7.9549   7.9603   8.0343   8.0490
     8.8514   8.8548   8.9325   9.3385   9.8491   9.8903   9.8958  10.2756
    10.5177  10.5227  11.0092  11.3188  11.4236  11.4253  11.5655  11.5680
    12.0583  12.0612

          k = 0.2222-0.1283 0.0000 ( 32017 PWs)   bands (ev):

   -87.1880 -87.1757 -87.1756 -87.1750 -87.1667 -87.1663 -87.0011 -86.9906
   -86.9901 -86.9221 -86.9116 -86.9110 -50.6984 -50.6878 -50.6875 -50.6857
   -50.6798 -50.6489 -50.6406 -50.6329 -50.6274 -50.6182 -50.6114 -50.6110
   -50.6063 -50.6031 -50.5887 -50.5836 -50.5772 -50.5647 -50.5106 -50.5008
   -50.4581 -50.4543 -50.4331 -50.4233 -50.4209 -50.4174 -50.4121 -50.4118
   -50.4038 -50.3794 -50.3761 -50.3396 -50.3364 -50.3269 -50.3263 -50.3249
   -14.3958 -14.0532 -13.8994 -11.2591 -10.9133 -10.7803 -10.0971 -10.0902
    -9.7459  -9.7459  -9.6229  -9.6229  -7.4700  -7.4651  -7.1166  -7.1165
    -7.0080  -7.0080  -6.3417  -5.9904  -5.8833  -2.9385  -2.5456  -2.5404
    -2.3328  -2.1865  -2.1865  -2.0984  -2.0984  -2.0682  -1.5186  -1.4539
    -1.2490  -1.0964  -1.0924  -1.0379  -1.0122  -0.9281  -0.9067  -0.8959
    -0.8709  -0.8493  -0.6532  -0.5964  -0.4353  -0.4347  -0.3861  -0.3095
    -0.2712  -0.2598  -0.2069  -0.1275  -0.0192   0.0476   0.1068   0.1815
     0.2654   0.2727   0.3220   0.3417   0.3503   0.3805   0.4117   0.4266
     0.4438   0.4887   0.5268   0.5593   0.5724   0.6333   0.6786   0.7570
     0.7708   0.8032   0.8185   0.8860   0.9349   0.9674   0.9942   1.0405
     1.1001   1.1220   1.1886   1.1999   1.2267   1.2446   1.2788   1.3531
     1.3567   1.3747   1.4346   1.4957   1.5359   1.5883   1.5935   1.6391
     1.7842   1.7989   1.8485   1.8787   1.9035   1.9624   1.9843   2.0002
     2.0648   2.0884   2.3838   2.4003   2.5507   2.8389   2.8394   4.7063
     5.0050   5.8532   6.2364   6.4563   6.5510   6.5779   6.9291   6.9510
     6.9782   7.2950   7.3228   7.3237   7.4978   7.8256   7.9385   8.1955
     8.6301   9.0290   9.3504   9.4307   9.4332   9.9440  10.1135  10.3593
    10.8109  10.8800  11.0631  11.1002  11.4032  11.5706  11.8049  11.8483
    12.1441  12.3184

          k = 0.2222 0.0000 0.0000 ( 31991 PWs)   bands (ev):

   -87.1885 -87.1760 -87.1752 -87.1749 -87.1663 -87.1663 -87.0015 -86.9902
   -86.9901 -86.9225 -86.9112 -86.9109 -50.6920 -50.6917 -50.6870 -50.6826
   -50.6824 -50.6482 -50.6479 -50.6326 -50.6323 -50.6161 -50.6159 -50.6093
   -50.6055 -50.6052 -50.5865 -50.5800 -50.5747 -50.5632 -50.5048 -50.5044
   -50.4604 -50.4601 -50.4272 -50.4269 -50.4210 -50.4132 -50.4118 -50.4118
   -50.4024 -50.3820 -50.3816 -50.3372 -50.3345 -50.3266 -50.3263 -50.3236
   -14.4673 -14.1247 -13.9705 -10.7303 -10.7287 -10.3830 -10.3830 -10.2540
   -10.2540  -9.3882  -9.0357  -8.9374  -8.2653  -7.9089  -7.8185  -6.9667
    -6.9666  -6.6158  -6.6158  -6.5068  -6.5068  -3.0249  -2.6166  -2.4197
    -2.2602  -2.1719  -2.1708  -1.8130  -1.8110  -1.6016  -1.4548  -1.4548
    -1.3695  -1.3695  -1.3329  -1.1127  -0.9881  -0.9866  -0.9421  -0.8292
    -0.8288  -0.7330  -0.7326  -0.5137  -0.5125  -0.3771  -0.3757  -0.3099
    -0.3072  -0.1917  -0.1907  -0.0780   0.0186   0.0703   0.1604   0.1639
     0.2935   0.2990   0.3036   0.3264   0.3281   0.3502   0.3905   0.3977
     0.4350   0.5443   0.5469   0.5517   0.6342   0.7270   0.8045   0.8142
     0.8157   0.9276   0.9343   1.0358   1.0424   1.0700   1.0834   1.0887
     1.0969   1.1675   1.1819   1.2029   1.3010   1.3095   1.3132   1.3703
     1.3720   1.3901   1.4529   1.5335   1.5513   1.5559   1.5582   1.6451
     1.7189   1.7264   1.8735   1.8778   1.9043   1.9172   1.9268   2.0337
     2.0403   2.3287   2.3305   2.4222   2.4858   2.8138   3.1095   4.5732
     5.8182   5.8280   6.0348   6.1094   6.4863   6.6612   6.6681   6.7526
     7.1357   7.1574   7.5343   7.5380   7.9566   7.9579   8.0387   8.0431
     8.8483   8.8543   8.9325   9.3385   9.8491   9.8912   9.9005  10.2756
    10.5189  10.5249  11.0092  11.3189  11.4208  11.4245  11.5662  11.5679
    12.0583  12.0612

          k = 0.2222 0.1283 0.0000 ( 32017 PWs)   bands (ev):

   -87.1880 -87.1757 -87.1756 -87.1750 -87.1667 -87.1663 -87.0011 -86.9906
   -86.9901 -86.9221 -86.9116 -86.9110 -50.6985 -50.6879 -50.6874 -50.6858
   -50.6795 -50.6491 -50.6405 -50.6332 -50.6274 -50.6179 -50.6114 -50.6108
   -50.6061 -50.6034 -50.5887 -50.5835 -50.5770 -50.5650 -50.5106 -50.5008
   -50.4581 -50.4543 -50.4334 -50.4230 -50.4209 -50.4173 -50.4121 -50.4118
   -50.4038 -50.3798 -50.3757 -50.3392 -50.3363 -50.3269 -50.3264 -50.3253
   -14.3958 -14.0532 -13.8994 -11.2591 -10.9133 -10.7803 -10.0964 -10.0909
    -9.7459  -9.7459  -9.6229  -9.6229  -7.4699  -7.4652  -7.1166  -7.1166
    -7.0080  -7.0080  -6.3417  -5.9904  -5.8833  -2.9385  -2.5445  -2.5414
    -2.3328  -2.1865  -2.1865  -2.0984  -2.0984  -2.0683  -1.5187  -1.4542
    -1.2491  -1.0964  -1.0935  -1.0384  -1.0122  -0.9278  -0.9063  -0.8955
    -0.8719  -0.8470  -0.6531  -0.5952  -0.4364  -0.4348  -0.3870  -0.3085
    -0.2715  -0.2603  -0.2063  -0.1258  -0.0195   0.0485   0.1035   0.1825
     0.2655   0.2736   0.3213   0.3392   0.3505   0.3849   0.4091   0.4276
     0.4440   0.4934   0.5203   0.5563   0.5757   0.6377   0.6772   0.7600
     0.7676   0.8032   0.8177   0.8860   0.9335   0.9648   0.9950   1.0430
     1.0984   1.1209   1.1877   1.2005   1.2198   1.2490   1.2791   1.3531
     1.3548   1.3753   1.4346   1.4966   1.5363   1.5897   1.5940   1.6388
     1.7872   1.7947   1.8485   1.8846   1.9024   1.9451   1.9911   2.0128
     2.0628   2.0897   2.3844   2.3996   2.5496   2.8386   2.8397   4.7051
     5.0053   5.8534   6.2352   6.4532   6.5572   6.5771   6.9305   6.9537
     6.9776   7.2958   7.3224   7.3241   7.4890   7.8255   7.9246   8.1955
     8.6301   9.0290   9.3504   9.4332   9.4435   9.9441  10.1188  10.3593
    10.8105  10.8788  11.0651  11.1003  11.4034  11.5699  11.8052  11.8464
    12.1441  12.3185

          k = 0.2222 0.2566 0.0000 ( 32047 PWs)   bands (ev):

   -87.1865 -87.1765 -87.1757 -87.1745 -87.1672 -87.1667 -86.9998 -86.9913
   -86.9907 -86.9208 -86.9123 -86.9116 -50.7001 -50.6899 -50.6896 -50.6823
   -50.6816 -50.6426 -50.6370 -50.6277 -50.6239 -50.6202 -50.6096 -50.6061
   -50.6023 -50.6011 -50.5961 -50.5906 -50.5846 -50.5679 -50.5121 -50.5025
   -50.4475 -50.4451 -50.4349 -50.4312 -50.4249 -50.4193 -50.4127 -50.4123
   -50.4071 -50.3689 -50.3665 -50.3523 -50.3353 -50.3286 -50.3275 -50.3270
   -14.1816 -13.8389 -13.6865 -11.6650 -11.3197 -11.1838 -11.0584 -10.7124
   -10.5807  -9.3995  -9.0495  -8.9374  -7.8008  -7.4480  -7.3457  -6.2108
    -5.8590  -5.7539  -5.6239  -5.2717  -5.1679  -3.4955  -3.1402  -3.0483
    -2.6808  -2.3232  -2.0761  -1.9666  -1.8789  -1.7873  -1.5336  -1.2729
    -1.1761  -1.1427  -1.0911  -1.0650  -1.0340  -1.0238  -0.9892  -0.8994
    -0.8635  -0.8227  -0.7041  -0.6925  -0.5538  -0.5151  -0.4543  -0.3776
    -0.3301  -0.2449  -0.2093  -0.1943  -0.1750  -0.0841  -0.0275   0.1069
     0.1535   0.1653   0.2367   0.2412   0.2579   0.3040   0.3051   0.3207
     0.4079   0.4459   0.4653   0.5245   0.5474   0.5555   0.5697   0.5812
     0.5995   0.7514   0.7611   0.8300   0.8661   0.9144   0.9284   0.9604
     0.9788   1.0099   1.0497   1.0656   1.0848   1.1936   1.2047   1.2759
     1.3271   1.3432   1.3529   1.4324   1.4377   1.4983   1.5363   1.5951
     1.5978   1.6553   1.6832   1.8495   1.8616   1.9057   1.9429   1.9675
     2.0720   2.0852   2.1239   2.6418   2.8637   3.0042   3.3635   4.2724
     5.0650   5.0673   5.0887   5.8593   6.1137   6.4753   6.5530   6.7214
     6.7828   7.1069   7.7115   8.0819   8.1730   8.4146   8.4714   8.6845
     8.8697   9.2678   9.3186   9.4906   9.7165  10.1368  10.2284  10.3651
    10.6133  10.9976  11.0612  11.3733  11.6613  11.6813  12.2112  12.4497
    12.5364  12.6547

          k = 0.2222 0.3849 0.0000 ( 32067 PWs)   bands (ev):

   -87.1844 -87.1774 -87.1771 -87.1729 -87.1678 -87.1677 -86.9980 -86.9919
   -86.9919 -86.9189 -86.9130 -86.9127 -50.6939 -50.6937 -50.6854 -50.6853
   -50.6777 -50.6397 -50.6392 -50.6376 -50.6173 -50.6172 -50.6124 -50.6034
   -50.6032 -50.5960 -50.5943 -50.5940 -50.5909 -50.5720 -50.5063 -50.5057
   -50.4509 -50.4358 -50.4350 -50.4287 -50.4285 -50.4179 -50.4133 -50.4132
   -50.4118 -50.3722 -50.3569 -50.3566 -50.3337 -50.3333 -50.3283 -50.3280
   -13.8260 -13.4830 -13.3330 -11.9402 -11.9376 -11.5940 -11.5938 -11.4563
   -11.4562  -8.8320  -8.4791  -8.3822  -7.8187  -7.4614  -7.3747  -4.8655
    -4.8644  -4.5116  -4.5115  -4.5031  -4.4126  -4.4126  -4.1483  -4.0542
    -2.2566  -1.9628  -1.9591  -1.6578  -1.6040  -1.6040  -1.5172  -1.5172
    -1.4303  -1.1303  -1.1293  -1.0966  -1.0901  -1.0899  -1.0452  -1.0441
    -0.9734  -0.8722  -0.7480  -0.7419  -0.7399  -0.7377  -0.6544  -0.5661
    -0.5635  -0.5606  -0.4549  -0.4541  -0.3710  -0.1708  -0.1655  -0.1517
    -0.1122  -0.0855   0.0149   0.0263   0.1970   0.1983   0.2407   0.2454
     0.3269   0.3370   0.3405   0.4010   0.4554   0.4774   0.4890   0.5450
     0.5551   0.5584   0.6987   0.7121   0.7161   0.7373   0.8682   0.9020
     1.0312   1.0537   1.0566   1.1015   1.1662   1.1689   1.2023   1.2222
     1.2270   1.3608   1.3870   1.3912   1.4169   1.4192   1.5334   1.5349
     1.6271   1.6320   1.6354   1.7660   1.8555   1.8593   1.9275   1.9281
     1.9317   2.0559   2.0590   3.2183   3.3150   3.5657   3.6160   3.6388
     3.8712   4.3719   4.3775   5.5815   5.7358   5.9061   5.9127   6.1156
     6.1995   7.5738   8.0143   8.0312   9.0910   9.0938   9.4506   9.4513
     9.7880   9.7882   9.8004  10.0461  10.0503  10.1857  10.6568  10.6722
    10.7009  11.0444  11.3532  11.3809  11.8256  12.1022  12.3743  12.3748
    12.6050  12.6332

          k = 0.2222-0.6415 0.0000 ( 32050 PWs)   bands (ev):

   -87.1818 -87.1793 -87.1776 -87.1711 -87.1692 -87.1681 -86.9958 -86.9937
   -86.9923 -86.9168 -86.9147 -86.9132 -50.6964 -50.6878 -50.6809 -50.6757
   -50.6747 -50.6585 -50.6404 -50.6393 -50.6307 -50.6096 -50.6073 -50.6043
   -50.6003 -50.5995 -50.5970 -50.5870 -50.5855 -50.5780 -50.5082 -50.4922
   -50.4727 -50.4308 -50.4282 -50.4261 -50.4183 -50.4162 -50.4147 -50.4144
   -50.4136 -50.3943 -50.3495 -50.3474 -50.3398 -50.3316 -50.3298 -50.3285
   -13.3311 -12.9875 -12.8408 -12.7001 -12.3559 -12.2134 -12.0767 -11.7319
   -11.5934  -8.6683  -8.3175  -8.2088  -7.4191  -7.0641  -6.9706  -5.3193
    -4.9628  -4.8737  -4.2221  -3.8663  -3.7760  -3.5066  -3.1513  -3.0589
    -2.4740  -2.2168  -2.1166  -2.0308  -1.8598  -1.7735  -1.6754  -1.4618
    -1.2756  -1.2298  -1.1956  -1.1243  -1.1164  -1.1041  -1.0800  -1.0741
    -1.0189  -1.0068  -0.9815  -0.9147  -0.8907  -0.8348  -0.8120  -0.7235
    -0.7197  -0.6459  -0.5354  -0.4898  -0.4764  -0.4678  -0.3971  -0.3933
    -0.3108  -0.3052  -0.2377  -0.2201   0.0305   0.0346   0.0623   0.1619
     0.2153   0.2688   0.3106   0.3517   0.3712   0.3721   0.3874   0.4281
     0.4347   0.6917   0.7058   0.7546   0.8298   0.8790   0.9660   0.9870
     1.0295   1.0333   1.1065   1.1122   1.1545   1.2291   1.2533   1.2869
     1.3507   1.4073   1.4407   1.4530   1.4831   1.5801   1.6061   1.6636
     1.6847   1.7146   1.7403   1.7686   1.7865   1.8686   1.9231   1.9386
     1.9480   2.0438   2.1683   2.4010   3.0765   3.1092   3.5757   3.8941
     3.9298   3.9753   4.3298   4.7840   5.3930   5.5244   5.7445   6.0038
     6.2762   7.1020   7.7023   8.5279   9.4612   9.5758   9.8194   9.8758
    10.0802  10.4524  10.4721  10.5242  10.8348  10.8572  11.1341  11.1973
    11.3370  11.3591  11.5736  11.6551  11.8699  11.8975  12.1850  12.2090
    12.2121  12.4192

          k = 0.2222-0.5132 0.0000 ( 32050 PWs)   bands (ev):

   -87.1819 -87.1793 -87.1776 -87.1711 -87.1693 -87.1681 -86.9958 -86.9937
   -86.9923 -86.9168 -86.9147 -86.9132 -50.6964 -50.6879 -50.6808 -50.6757
   -50.6747 -50.6587 -50.6401 -50.6393 -50.6310 -50.6096 -50.6073 -50.6043
   -50.6005 -50.5995 -50.5969 -50.5870 -50.5856 -50.5778 -50.5082 -50.4922
   -50.4727 -50.4308 -50.4282 -50.4262 -50.4182 -50.4162 -50.4147 -50.4142
   -50.4136 -50.3946 -50.3494 -50.3477 -50.3394 -50.3317 -50.3297 -50.3285
   -13.3311 -12.9875 -12.8408 -12.7001 -12.3559 -12.2134 -12.0767 -11.7319
   -11.5934  -8.6683  -8.3175  -8.2088  -7.4191  -7.0641  -6.9706  -5.3193
    -4.9628  -4.8737  -4.2221  -3.8663  -3.7760  -3.5066  -3.1513  -3.0589
    -2.4740  -2.2168  -2.1166  -2.0308  -1.8598  -1.7735  -1.6754  -1.4618
    -1.2755  -1.2299  -1.1947  -1.1252  -1.1165  -1.1041  -1.0808  -1.0739
    -1.0189  -1.0059  -0.9808  -0.9143  -0.8905  -0.8347  -0.8116  -0.7238
    -0.7201  -0.6457  -0.5381  -0.4901  -0.4764  -0.4652  -0.3969  -0.3933
    -0.3114  -0.3064  -0.2377  -0.2204   0.0278   0.0355   0.0604   0.1643
     0.2155   0.2758   0.3103   0.3495   0.3653   0.3702   0.3873   0.4316
     0.4344   0.6883   0.7083   0.7598   0.8314   0.8804   0.9642   0.9893
     1.0286   1.0313   1.1044   1.1113   1.1532   1.2302   1.2533   1.2900
     1.3513   1.4067   1.4392   1.4562   1.4841   1.5803   1.6041   1.6633
     1.6816   1.7137   1.7400   1.7691   1.7910   1.8668   1.9220   1.9390
     1.9476   2.0408   2.1691   2.4010   3.0768   3.1094   3.5757   3.8942
     3.9290   3.9753   4.3298   4.7859   5.3931   5.5247   5.7445   6.0038
     6.2783   7.1005   7.7026   8.5317   9.4620   9.5697   9.8193   9.8758
    10.0802  10.4526  10.4721  10.5240  10.8349  10.8572  11.1341  11.1973
    11.3370  11.3591  11.5739  11.6554  11.8702  11.8949  12.1850  12.2087
    12.2115  12.4187

          k = 0.2222-0.3849 0.0000 ( 32067 PWs)   bands (ev):

   -87.1844 -87.1774 -87.1771 -87.1729 -87.1678 -87.1677 -86.9980 -86.9919
   -86.9919 -86.9189 -86.9130 -86.9127 -50.6938 -50.6936 -50.6855 -50.6854
   -50.6776 -50.6395 -50.6392 -50.6377 -50.6173 -50.6172 -50.6126 -50.6036
   -50.6035 -50.5960 -50.5942 -50.5940 -50.5908 -50.5718 -50.5061 -50.5058
   -50.4509 -50.4356 -50.4353 -50.4286 -50.4284 -50.4179 -50.4133 -50.4132
   -50.4118 -50.3726 -50.3570 -50.3567 -50.3337 -50.3330 -50.3282 -50.3279
   -13.8260 -13.4830 -13.3330 -11.9395 -11.9383 -11.5940 -11.5939 -11.4563
   -11.4563  -8.8320  -8.4791  -8.3822  -7.8187  -7.4614  -7.3747  -4.8652
    -4.8648  -4.5115  -4.5115  -4.5031  -4.4126  -4.4126  -4.1483  -4.0542
    -2.2566  -1.9617  -1.9601  -1.6578  -1.6040  -1.6040  -1.5172  -1.5172
    -1.4296  -1.1302  -1.1296  -1.0967  -1.0910  -1.0904  -1.0448  -1.0439
    -0.9726  -0.8720  -0.7462  -0.7410  -0.7404  -0.7377  -0.6544  -0.5639
    -0.5629  -0.5625  -0.4577  -0.4542  -0.3730  -0.1737  -0.1642  -0.1530
    -0.1122  -0.0868   0.0181   0.0206   0.2030   0.2039   0.2377   0.2454
     0.3269   0.3343   0.3350   0.3985   0.4578   0.4830   0.4846   0.5446
     0.5563   0.5592   0.7019   0.7169   0.7214   0.7371   0.8690   0.8975
     1.0316   1.0521   1.0559   1.0987   1.1663   1.1688   1.2021   1.2224
     1.2253   1.3644   1.3919   1.3925   1.4175   1.4212   1.5314   1.5331
     1.6262   1.6276   1.6348   1.7695   1.8574   1.8602   1.9243   1.9288
     1.9313   2.0527   2.0548   3.2184   3.3151   3.5656   3.6161   3.6386
     3.8712   4.3722   4.3777   5.5844   5.7350   5.9097   5.9134   6.1156
     6.1995   7.5765   8.0197   8.0281   9.0917   9.0930   9.4507   9.4511
     9.7880   9.7882   9.8004  10.0432  10.0468  10.1856  10.6558  10.6682
    10.7009  11.0445  11.3528  11.3805  11.8255  12.1023  12.3740  12.3745
    12.5986  12.6254

          k = 0.2222-0.2566 0.0000 ( 32047 PWs)   bands (ev):

   -87.1865 -87.1765 -87.1757 -87.1745 -87.1672 -87.1667 -86.9998 -86.9913
   -86.9907 -86.9208 -86.9123 -86.9116 -50.7000 -50.6899 -50.6897 -50.6823
   -50.6818 -50.6425 -50.6368 -50.6276 -50.6238 -50.6204 -50.6100 -50.6066
   -50.6023 -50.6006 -50.5961 -50.5909 -50.5845 -50.5676 -50.5120 -50.5025
   -50.4474 -50.4452 -50.4346 -50.4313 -50.4250 -50.4193 -50.4127 -50.4123
   -50.4071 -50.3687 -50.3668 -50.3528 -50.3353 -50.3282 -50.3275 -50.3269
   -14.1816 -13.8389 -13.6865 -11.6650 -11.3197 -11.1838 -11.0584 -10.7124
   -10.5807  -9.3995  -9.0495  -8.9374  -7.8008  -7.4480  -7.3457  -6.2108
    -5.8590  -5.7539  -5.6239  -5.2717  -5.1679  -3.4956  -3.1402  -3.0483
    -2.6808  -2.3232  -2.0761  -1.9666  -1.8789  -1.7870  -1.5335  -1.2729
    -1.1761  -1.1422  -1.0911  -1.0647  -1.0348  -1.0237  -0.9895  -0.9009
    -0.8623  -0.8227  -0.7010  -0.6931  -0.5516  -0.5159  -0.4562  -0.3784
    -0.3326  -0.2485  -0.2085  -0.1933  -0.1765  -0.0851  -0.0277   0.1103
     0.1535   0.1673   0.2367   0.2414   0.2556   0.3032   0.3049   0.3191
     0.4100   0.4415   0.4678   0.5232   0.5445   0.5528   0.5689   0.5852
     0.6085   0.7528   0.7610   0.8318   0.8683   0.9150   0.9284   0.9545
     0.9782   1.0099   1.0489   1.0680   1.0851   1.1939   1.2043   1.2747
     1.3322   1.3451   1.3537   1.4318   1.4358   1.4978   1.5359   1.5937
     1.5982   1.6572   1.6819   1.8537   1.8607   1.9003   1.9434   1.9672
     2.0704   2.0817   2.1230   2.6419   2.8645   3.0042   3.3635   4.2722
     5.0660   5.0683   5.0882   5.8596   6.1131   6.4753   6.5533   6.7215
     6.7845   7.1134   7.7127   8.0827   8.1809   8.4147   8.4711   8.6855
     8.8698   9.2678   9.3186   9.4775   9.7164  10.1312  10.2283  10.3651
    10.6133  10.9964  11.0618  11.3732  11.6611  11.6808  12.2113  12.4216
    12.5364  12.6547

          k = 0.3333-0.1925 0.0000 ( 32055 PWs)   bands (ev):

   -87.1856 -87.1775 -87.1756 -87.1738 -87.1680 -87.1667 -86.9990 -86.9922
   -86.9906 -86.9200 -86.9131 -86.9115 -50.7065 -50.6957 -50.6822 -50.6801
   -50.6755 -50.6447 -50.6337 -50.6259 -50.6250 -50.6173 -50.6094 -50.6060
   -50.6038 -50.5987 -50.5980 -50.5935 -50.5859 -50.5713 -50.5180 -50.4949
   -50.4437 -50.4409 -50.4401 -50.4382 -50.4187 -50.4173 -50.4133 -50.4123
   -50.4103 -50.3650 -50.3617 -50.3599 -50.3347 -50.3314 -50.3283 -50.3269
   -14.0392 -13.6963 -13.5449 -12.1447 -11.7999 -11.6609 -10.3401 -10.3333
    -9.9897  -9.9896  -9.8633  -9.8633  -6.6957  -6.6909  -6.3414  -6.3414
    -6.2366  -6.2366  -4.9465  -4.5937  -4.4923  -3.3357  -3.3301  -2.9772
    -2.9772  -2.8862  -2.8862  -2.5101  -1.9068  -1.6050  -1.2586  -1.1603
    -1.1527  -1.1151  -1.1105  -0.9194  -0.8752  -0.8542  -0.8313  -0.7575
    -0.7523  -0.7137  -0.6916  -0.6735  -0.6613  -0.6195  -0.5202  -0.4568
    -0.3907  -0.3561  -0.3175  -0.2837  -0.2702  -0.2322  -0.1798  -0.1383
    -0.1086  -0.0197   0.0923   0.1067   0.1526   0.1870   0.2569   0.2631
     0.2998   0.3343   0.4017   0.4520   0.5211   0.5314   0.5545   0.6500
     0.6506   0.6604   0.7059   0.7233   0.8108   0.8592   0.8685   0.8931
     0.9131   0.9454   0.9841   1.1072   1.1205   1.1981   1.2621   1.3100
     1.3244   1.3601   1.4338   1.4697   1.5764   1.6434   1.6700   1.7300
     1.7410   1.8422   1.8588   1.8691   1.8945   1.9443   1.9713   1.9808
     2.0409   2.0774   2.2652   2.2983   2.7907   2.7925   3.0693   3.5784
     4.3197   5.2945   5.6548   5.8485   6.2919   6.7800   6.9195   6.9907
     7.1230   7.1730   7.3144   7.3220   7.6520   7.6541   8.0210   9.1567
     9.2589   9.5111   9.6259   9.8195   9.9051  10.0213  10.4179  10.5190
    10.6419  10.7835  11.5524  11.8196  11.8352  11.9770  12.0787  12.2516
    12.3319  12.3828

          k = 0.3333-0.0642 0.0000 ( 32047 PWs)   bands (ev):

   -87.1865 -87.1765 -87.1757 -87.1745 -87.1672 -87.1667 -86.9998 -86.9913
   -86.9907 -86.9208 -86.9123 -86.9116 -50.6999 -50.6899 -50.6897 -50.6823
   -50.6818 -50.6426 -50.6366 -50.6278 -50.6241 -50.6204 -50.6097 -50.6062
   -50.6027 -50.6006 -50.5961 -50.5908 -50.5845 -50.5677 -50.5120 -50.5025
   -50.4473 -50.4452 -50.4346 -50.4312 -50.4251 -50.4193 -50.4127 -50.4123
   -50.4072 -50.3686 -50.3668 -50.3526 -50.3353 -50.3283 -50.3276 -50.3269
   -14.1816 -13.8389 -13.6865 -11.6650 -11.3197 -11.1838 -11.0584 -10.7124
   -10.5807  -9.3995  -9.0495  -8.9374  -7.8008  -7.4481  -7.3457  -6.2108
    -5.8590  -5.7539  -5.6239  -5.2717  -5.1679  -3.4956  -3.1402  -3.0483
    -2.6808  -2.3232  -2.0761  -1.9666  -1.8789  -1.7870  -1.5335  -1.2729
    -1.1761  -1.1421  -1.0911  -1.0642  -1.0340  -1.0242  -0.9901  -0.9000
    -0.8635  -0.8225  -0.7035  -0.6942  -0.5527  -0.5154  -0.4551  -0.3774
    -0.3318  -0.2463  -0.2083  -0.1925  -0.1760  -0.0836  -0.0279   0.1106
     0.1535   0.1657   0.2367   0.2413   0.2568   0.3049   0.3078   0.3224
     0.4099   0.4419   0.4643   0.5234   0.5447   0.5498   0.5693   0.5816
     0.6019   0.7536   0.7606   0.8326   0.8703   0.9135   0.9284   0.9570
     0.9774   1.0099   1.0503   1.0700   1.0838   1.1964   1.2039   1.2771
     1.3282   1.3401   1.3522   1.4339   1.4354   1.4987   1.5357   1.5933
     1.5954   1.6591   1.6827   1.8543   1.8592   1.9023   1.9438   1.9672
     2.0717   2.0819   2.1238   2.6419   2.8652   3.0042   3.3635   4.2721
     5.0659   5.0676   5.0884   5.8594   6.1130   6.4753   6.5516   6.7215
     6.7835   7.1136   7.7126   8.0827   8.1806   8.4147   8.4712   8.6850
     8.8698   9.2678   9.3186   9.4776   9.7164  10.1313  10.2283  10.3673
    10.6133  10.9962  11.0663  11.3732  11.6612  11.6781  12.2113  12.4206
    12.5364  12.6549

          k = 0.3333 0.0642 0.0000 ( 32047 PWs)   bands (ev):

   -87.1865 -87.1765 -87.1757 -87.1745 -87.1672 -87.1667 -86.9998 -86.9913
   -86.9907 -86.9208 -86.9123 -86.9116 -50.7001 -50.6900 -50.6896 -50.6823
   -50.6816 -50.6426 -50.6367 -50.6279 -50.6240 -50.6203 -50.6096 -50.6062
   -50.6022 -50.6011 -50.5961 -50.5906 -50.5845 -50.5678 -50.5121 -50.5025
   -50.4474 -50.4451 -50.4349 -50.4311 -50.4248 -50.4193 -50.4127 -50.4123
   -50.4072 -50.3690 -50.3664 -50.3525 -50.3353 -50.3285 -50.3275 -50.3270
   -14.1816 -13.8389 -13.6865 -11.6650 -11.3197 -11.1838 -11.0584 -10.7124
   -10.5807  -9.3995  -9.0495  -8.9374  -7.8008  -7.4481  -7.3457  -6.2108
    -5.8590  -5.7539  -5.6239  -5.2717  -5.1679  -3.4956  -3.1402  -3.0483
    -2.6808  -2.3232  -2.0762  -1.9666  -1.8789  -1.7871  -1.5336  -1.2729
    -1.1761  -1.1427  -1.0911  -1.0643  -1.0340  -1.0241  -0.9887  -0.8996
    -0.8639  -0.8230  -0.7038  -0.6927  -0.5544  -0.5146  -0.4547  -0.3773
    -0.3301  -0.2460  -0.2092  -0.1949  -0.1752  -0.0839  -0.0274   0.1060
     0.1535   0.1668   0.2367   0.2420   0.2572   0.3036   0.3070   0.3178
     0.4080   0.4438   0.4670   0.5242   0.5479   0.5565   0.5691   0.5822
     0.6020   0.7515   0.7600   0.8299   0.8684   0.9140   0.9284   0.9597
     0.9780   1.0099   1.0503   1.0663   1.0847   1.1927   1.2048   1.2764
     1.3280   1.3422   1.3530   1.4329   1.4364   1.4988   1.5353   1.5952
     1.5969   1.6572   1.6828   1.8535   1.8589   1.9039   1.9442   1.9672
     2.0702   2.0848   2.1236   2.6419   2.8644   3.0042   3.3635   4.2723
     5.0655   5.0678   5.0886   5.8592   6.1133   6.4753   6.5535   6.7215
     6.7830   7.1071   7.7119   8.0822   8.1727   8.4150   8.4713   8.6850
     8.8698   9.2678   9.3186   9.4905   9.7165  10.1368  10.2283  10.3629
    10.6133  10.9977  11.0611  11.3733  11.6612  11.6789  12.2111  12.4498
    12.5364  12.6547

          k = 0.3333 0.1925 0.0000 ( 32055 PWs)   bands (ev):

   -87.1856 -87.1775 -87.1756 -87.1738 -87.1680 -87.1667 -86.9990 -86.9922
   -86.9906 -86.9200 -86.9131 -86.9115 -50.7067 -50.6958 -50.6822 -50.6801
   -50.6753 -50.6447 -50.6341 -50.6258 -50.6248 -50.6173 -50.6092 -50.6058
   -50.6036 -50.5985 -50.5984 -50.5934 -50.5860 -50.5716 -50.5180 -50.4949
   -50.4438 -50.4411 -50.4400 -50.4382 -50.4187 -50.4170 -50.4133 -50.4123
   -50.4103 -50.3653 -50.3613 -50.3595 -50.3346 -50.3318 -50.3283 -50.3270
   -14.0392 -13.6963 -13.5449 -12.1447 -11.7999 -11.6609 -10.3395 -10.3339
    -9.9897  -9.9896  -9.8633  -9.8633  -6.6957  -6.6909  -6.3414  -6.3414
    -6.2366  -6.2366  -4.9465  -4.5937  -4.4923  -3.3347  -3.3310  -2.9772
    -2.9772  -2.8862  -2.8862  -2.5102  -1.9068  -1.6053  -1.2583  -1.1601
    -1.1533  -1.1159  -1.1100  -0.9197  -0.8742  -0.8524  -0.8304  -0.7575
    -0.7534  -0.7135  -0.6921  -0.6735  -0.6598  -0.6213  -0.5186  -0.4585
    -0.3899  -0.3561  -0.3176  -0.2815  -0.2702  -0.2322  -0.1800  -0.1424
    -0.1066  -0.0201   0.0879   0.1032   0.1527   0.1869   0.2575   0.2625
     0.2985   0.3356   0.4080   0.4513   0.5160   0.5315   0.5565   0.6515
     0.6538   0.6590   0.7082   0.7302   0.8108   0.8531   0.8612   0.8931
     0.9123   0.9499   0.9838   1.1019   1.1228   1.1996   1.2598   1.3106
     1.3233   1.3579   1.4346   1.4738   1.5785   1.6428   1.6729   1.7287
     1.7418   1.8324   1.8622   1.8722   1.8938   1.9492   1.9687   1.9798
     2.0456   2.0783   2.2652   2.2982   2.7903   2.7929   3.0679   3.5786
     4.3199   5.2926   5.6586   5.8485   6.2990   6.7684   6.9364   6.9711
     7.1188   7.1590   7.3164   7.3195   7.6523   7.6537   8.0198   9.1711
     9.2595   9.5111   9.6259   9.8265   9.9052  10.0213  10.4179  10.5157
    10.6434  10.7835  11.5525  11.8352  11.8443  11.9768  12.0787  12.2527
    12.3321  12.3812

          k = 0.3333 0.3208 0.0000 ( 32081 PWs)   bands (ev):

   -87.1840 -87.1786 -87.1763 -87.1726 -87.1687 -87.1671 -86.9976 -86.9930
   -86.9911 -86.9186 -86.9140 -86.9121 -50.7057 -50.6953 -50.6804 -50.6768
   -50.6742 -50.6421 -50.6392 -50.6364 -50.6172 -50.6161 -50.6130 -50.6055
   -50.6022 -50.5963 -50.5939 -50.5926 -50.5916 -50.5749 -50.5171 -50.4921
   -50.4530 -50.4401 -50.4350 -50.4338 -50.4176 -50.4144 -50.4143 -50.4139
   -50.4127 -50.3744 -50.3563 -50.3552 -50.3358 -50.3333 -50.3291 -50.3275
   -13.7551 -13.4119 -13.2624 -12.4910 -12.1466 -12.0054 -11.2594 -10.9137
   -10.7805  -9.5224  -9.1739  -9.0546  -7.0772  -6.7244  -6.6228  -5.4491
    -5.0955  -4.9973  -4.3980  -4.2126  -4.0428  -3.9500  -3.8588  -3.7610
    -2.9998  -2.6434  -2.5544  -2.1723  -1.5742  -1.4199  -1.3380  -1.3066
    -1.2282  -1.1816  -1.1292  -1.0623  -0.9755  -0.9379  -0.9162  -0.8989
    -0.8744  -0.8448  -0.7957  -0.7714  -0.7343  -0.7083  -0.6998  -0.6868
    -0.5625  -0.5267  -0.5174  -0.3713  -0.3484  -0.3255  -0.1704  -0.1634
    -0.1437  -0.0819  -0.0328  -0.0090   0.0924   0.1263   0.2153   0.2517
     0.2847   0.2961   0.3255   0.3821   0.4083   0.4268   0.4559   0.5741
     0.5859   0.6156   0.6341   0.7680   0.7917   0.8021   0.8486   0.8516
     0.8681   0.9890   1.0005   1.0074   1.1255   1.1749   1.2044   1.3033
     1.3426   1.3529   1.4132   1.4683   1.5042   1.5685   1.5949   1.7369
     1.7848   1.8148   1.8178   1.8612   1.8638   1.9148   1.9335   1.9726
     1.9827   2.0248   2.1250   2.6744   2.9633   3.0860   3.4256   3.5475
     3.6453   4.4919   5.2290   5.2491   5.7032   6.1892   6.4809   6.5460
     6.8236   7.4677   7.6480   7.7258   8.1740   8.5292   8.8379   9.2916
     9.8617   9.8961   9.9163  10.0545  10.2804  10.3281  10.6738  10.7106
    10.7960  11.1298  11.6199  11.8648  11.9101  12.1036  12.1218  12.1887
    12.4096  12.5078

          k = 0.3333-0.7057 0.0000 ( 32050 PWs)   bands (ev):

   -87.1818 -87.1793 -87.1777 -87.1711 -87.1693 -87.1681 -86.9958 -86.9937
   -86.9923 -86.9168 -86.9147 -86.9132 -50.6964 -50.6878 -50.6809 -50.6757
   -50.6747 -50.6585 -50.6400 -50.6397 -50.6306 -50.6095 -50.6073 -50.6040
   -50.6005 -50.5995 -50.5971 -50.5868 -50.5857 -50.5781 -50.5082 -50.4921
   -50.4727 -50.4310 -50.4281 -50.4262 -50.4183 -50.4162 -50.4147 -50.4143
   -50.4136 -50.3943 -50.3492 -50.3476 -50.3398 -50.3316 -50.3297 -50.3285
   -13.3311 -12.9875 -12.8408 -12.7001 -12.3559 -12.2134 -12.0767 -11.7319
   -11.5934  -8.6683  -8.3175  -8.2088  -7.4191  -7.0641  -6.9706  -5.3193
    -4.9628  -4.8737  -4.2221  -3.8663  -3.7760  -3.5066  -3.1513  -3.0589
    -2.4740  -2.2168  -2.1166  -2.0308  -1.8598  -1.7735  -1.6754  -1.4618
    -1.2749  -1.2298  -1.1955  -1.1246  -1.1173  -1.1041  -1.0805  -1.0740
    -1.0189  -1.0070  -0.9804  -0.9150  -0.8894  -0.8347  -0.8120  -0.7218
    -0.7211  -0.6461  -0.5371  -0.4892  -0.4764  -0.4676  -0.3966  -0.3933
    -0.3108  -0.3055  -0.2373  -0.2206   0.0259   0.0393   0.0632   0.1582
     0.2147   0.2696   0.3108   0.3490   0.3703   0.3726   0.3872   0.4313
     0.4353   0.6893   0.7125   0.7513   0.8326   0.8770   0.9655   0.9872
     1.0270   1.0342   1.1061   1.1127   1.1519   1.2278   1.2531   1.2892
     1.3529   1.4062   1.4387   1.4555   1.4838   1.5807   1.6063   1.6629
     1.6840   1.7161   1.7409   1.7678   1.7877   1.8674   1.9247   1.9382
     1.9497   2.0430   2.1678   2.4010   3.0759   3.1094   3.5759   3.8947
     3.9294   3.9753   4.3298   4.7856   5.3930   5.5206   5.7445   6.0038
     6.2759   7.1002   7.7023   8.5276   9.4610   9.5722   9.8194   9.8798
    10.0802  10.4571  10.4721  10.5249  10.8348  10.8572  11.1341  11.1949
    11.3370  11.3591  11.5728  11.6551  11.8702  11.8966  12.1854  12.2088
    12.2121  12.4209

          k = 0.3333-0.5774 0.0000 ( 32121 PWs)   bands (ev):

   -87.1799 -87.1795 -87.1794 -87.1695 -87.1695 -87.1694 -86.9940 -86.9939
   -86.9939 -86.9151 -86.9150 -86.9146 -50.6814 -50.6812 -50.6811 -50.6766
   -50.6765 -50.6764 -50.6400 -50.6397 -50.6396 -50.6031 -50.6030 -50.6029
   -50.6020 -50.6018 -50.6017 -50.5821 -50.5820 -50.5818 -50.4928 -50.4926
   -50.4920 -50.4233 -50.4227 -50.4224 -50.4150 -50.4150 -50.4149 -50.4146
   -50.4145 -50.4144 -50.3444 -50.3441 -50.3439 -50.3301 -50.3301 -50.3296
   -12.7712 -12.7704 -12.7685 -12.4260 -12.4260 -12.4258 -12.2829 -12.2829
   -12.2829  -7.9139  -7.9061  -7.5670  -7.5463  -7.4646  -7.4476  -5.7287
    -5.3702  -5.2872  -3.1307  -3.1285  -3.1274  -2.7717  -2.7717  -2.7716
    -2.6860  -2.6860  -2.6860  -1.7287  -1.7279  -1.7265  -1.3693  -1.3693
    -1.3693  -1.2861  -1.2861  -1.2861  -1.2077  -1.2068  -1.2063  -1.1646
    -1.1635  -1.1631  -1.0411  -1.0389  -1.0359  -0.9616  -0.9599  -0.9586
    -0.7931  -0.7920  -0.7902  -0.6245  -0.6238  -0.6217  -0.4474  -0.4444
    -0.4419  -0.3275  -0.3235  -0.3224   0.0695   0.0727   0.0740   0.2559
     0.2601   0.2620   0.3364   0.3390   0.3404   0.3655   0.3676   0.3683
     0.5017   0.5023   0.5068   0.8724   0.8726   0.8760   0.9469   0.9506
     0.9523   1.2453   1.2456   1.2479   1.3058   1.3072   1.3075   1.5099
     1.5105   1.5131   1.5459   1.5461   1.5470   1.6175   1.6178   1.6184
     1.7101   1.7105   1.7110   1.7695   1.7702   1.7706   1.9641   1.9647
     1.9657   2.0009   2.0016   2.0028   2.8012   2.8030   2.8036   4.3590
     4.5502   4.6173   4.6210   4.6354   4.8227   4.9286   5.0315   5.3712
     6.9655   6.9707   6.9723   9.4275   9.4351   9.4385  10.7223  10.7238
    10.7271  11.0690  11.0692  11.0697  11.2355  11.2356  11.2357  11.3006
    11.3008  11.3009  11.4676  11.4735  11.4745  11.8035  11.8296  11.8308
    12.1076  12.1185

          k = 0.3333-0.4491 0.0000 ( 32050 PWs)   bands (ev):

   -87.1819 -87.1793 -87.1776 -87.1711 -87.1693 -87.1681 -86.9958 -86.9937
   -86.9923 -86.9168 -86.9147 -86.9132 -50.6963 -50.6878 -50.6809 -50.6758
   -50.6747 -50.6587 -50.6401 -50.6394 -50.6310 -50.6096 -50.6072 -50.6042
   -50.6006 -50.5995 -50.5969 -50.5871 -50.5855 -50.5778 -50.5082 -50.4921
   -50.4727 -50.4307 -50.4280 -50.4263 -50.4182 -50.4162 -50.4147 -50.4143
   -50.4136 -50.3946 -50.3496 -50.3475 -50.3394 -50.3317 -50.3297 -50.3284
   -13.3311 -12.9875 -12.8408 -12.7001 -12.3559 -12.2134 -12.0767 -11.7319
   -11.5934  -8.6683  -8.3175  -8.2088  -7.4191  -7.0641  -6.9706  -5.3193
    -4.9628  -4.8737  -4.2221  -3.8663  -3.7760  -3.5066  -3.1513  -3.0589
    -2.4740  -2.2169  -2.1166  -2.0308  -1.8598  -1.7734  -1.6753  -1.4618
    -1.2759  -1.2305  -1.1947  -1.1248  -1.1160  -1.1041  -1.0803  -1.0739
    -1.0189  -1.0060  -0.9805  -0.9152  -0.8903  -0.8346  -0.8118  -0.7242
    -0.7206  -0.6458  -0.5376  -0.4902  -0.4764  -0.4651  -0.3968  -0.3933
    -0.3116  -0.3059  -0.2376  -0.2207   0.0287   0.0346   0.0597   0.1662
     0.2154   0.2759   0.3088   0.3496   0.3675   0.3700   0.3875   0.4309
     0.4346   0.6886   0.7085   0.7599   0.8307   0.8803   0.9634   0.9892
     1.0291   1.0318   1.1033   1.1117   1.1531   1.2299   1.2539   1.2891
     1.3517   1.4066   1.4396   1.4556   1.4841   1.5801   1.6044   1.6636
     1.6813   1.7139   1.7402   1.7693   1.7906   1.8675   1.9210   1.9388
     1.9460   2.0416   2.1693   2.4015   3.0758   3.1084   3.5760   3.8954
     3.9294   3.9754   4.3298   4.7864   5.3930   5.5250   5.7445   6.0038
     6.2785   7.1010   7.7034   8.5319   9.4617   9.5721   9.8193   9.8721
    10.0802  10.4529  10.4721  10.5238  10.8348  10.8573  11.1341  11.1937
    11.3370  11.3591  11.5730  11.6554  11.8709  11.8957  12.1849  12.2089
    12.2123  12.4180

          k = 0.3333-0.3208 0.0000 ( 32081 PWs)   bands (ev):

   -87.1840 -87.1786 -87.1763 -87.1726 -87.1687 -87.1671 -86.9976 -86.9930
   -86.9911 -86.9186 -86.9140 -86.9121 -50.7056 -50.6952 -50.6804 -50.6768
   -50.6743 -50.6421 -50.6393 -50.6361 -50.6173 -50.6163 -50.6129 -50.6057
   -50.6026 -50.5963 -50.5934 -50.5928 -50.5915 -50.5746 -50.5171 -50.4922
   -50.4531 -50.4399 -50.4349 -50.4339 -50.4176 -50.4145 -50.4142 -50.4140
   -50.4128 -50.3748 -50.3561 -50.3556 -50.3354 -50.3332 -50.3291 -50.3274
   -13.7551 -13.4119 -13.2624 -12.4910 -12.1466 -12.0054 -11.2594 -10.9137
   -10.7805  -9.5224  -9.1739  -9.0546  -7.0771  -6.7244  -6.6228  -5.4491
    -5.0955  -4.9973  -4.3980  -4.2126  -4.0428  -3.9500  -3.8588  -3.7610
    -2.9998  -2.6434  -2.5544  -2.1723  -1.5741  -1.4199  -1.3375  -1.3074
    -1.2287  -1.1805  -1.1290  -1.0623  -0.9755  -0.9388  -0.9167  -0.8997
    -0.8735  -0.8448  -0.7954  -0.7714  -0.7363  -0.7088  -0.6982  -0.6868
    -0.5600  -0.5286  -0.5160  -0.3728  -0.3487  -0.3272  -0.1717  -0.1633
    -0.1445  -0.0789  -0.0330  -0.0113   0.0994   0.1303   0.2139   0.2549
     0.2839   0.2911   0.3255   0.3791   0.4083   0.4204   0.4596   0.5782
     0.5881   0.6176   0.6337   0.7631   0.7868   0.8079   0.8477   0.8547
     0.8691   0.9925   0.9997   1.0051   1.1293   1.1723   1.2025   1.3023
     1.3454   1.3527   1.4140   1.4701   1.5009   1.5663   1.5938   1.7358
     1.7834   1.8157   1.8169   1.8618   1.8668   1.9155   1.9328   1.9724
     1.9779   2.0250   2.1228   2.6746   2.9634   3.0861   3.4267   3.5475
     3.6451   4.4901   5.2302   5.2486   5.7060   6.1890   6.4900   6.5459
     6.8236   7.4694   7.6575   7.7286   8.1739   8.5292   8.8379   9.2776
     9.8617   9.8961   9.9108  10.0550  10.2803  10.3281  10.6739  10.7091
    10.7959  11.1298  11.6199  11.8650  11.9100  12.0824  12.1103  12.1887
    12.4087  12.5092

          k = 0.4444-0.2566 0.0000 ( 32106 PWs)   bands (ev):

   -87.1828 -87.1800 -87.1760 -87.1718 -87.1697 -87.1669 -86.9967 -86.9942
   -86.9909 -86.9176 -86.9152 -86.9118 -50.7108 -50.6999 -50.6747 -50.6743
   -50.6641 -50.6458 -50.6406 -50.6349 -50.6254 -50.6144 -50.6079 -50.6062
   -50.6010 -50.5974 -50.5949 -50.5907 -50.5903 -50.5802 -50.5219 -50.4808
   -50.4607 -50.4449 -50.4319 -50.4306 -50.4194 -50.4168 -50.4149 -50.4126
   -50.4030 -50.3826 -50.3535 -50.3518 -50.3405 -50.3324 -50.3302 -50.3272
   -13.5426 -13.1993 -13.0512 -12.9094 -12.5654 -12.4214 -10.4668 -10.4601
   -10.1167 -10.1166  -9.9889  -9.9889  -6.0007  -5.9962  -5.6439  -5.6438
    -5.5494  -5.5494  -4.0605  -4.0544  -3.7010  -3.7010  -3.6122  -3.6122
    -3.5035  -3.1491  -3.0535  -2.0675  -1.9217  -1.7113  -1.6208  -1.3952
    -1.3262  -1.3038  -1.2431  -1.1913  -1.1256  -0.9841  -0.8665  -0.8267
    -0.7910  -0.6974  -0.6628  -0.6303  -0.6284  -0.6046  -0.5676  -0.5435
    -0.5271  -0.4654  -0.3951  -0.3756  -0.3048  -0.2916  -0.2895  -0.2212
    -0.1249  -0.0564  -0.0447   0.0253   0.0519   0.0722   0.0862   0.1405
     0.1785   0.2280   0.2335   0.2596   0.2731   0.3165   0.3570   0.3590
     0.4648   0.5550   0.5997   0.6294   0.7134   0.7969   0.8383   0.8827
     0.9089   1.0690   1.0782   1.1381   1.1467   1.2855   1.3851   1.4295
     1.4647   1.5142   1.5229   1.5736   1.6837   1.7035   1.7366   1.7672
     1.8030   1.8156   1.8312   1.8991   1.9197   1.9575   2.0269   2.1383
     2.1424   2.1926   2.2010   2.2418   2.4499   2.7518   2.7551   3.0369
     3.7302   4.6381   5.1204   5.9189   6.0187   6.4489   6.6759   6.8964
     7.2199   7.2253   7.5703   7.5725   7.8553   7.8562   8.1624   9.0503
     9.3066   9.6698  10.1830  10.4219  10.5629  10.7836  11.0201  11.0799
    11.1606  11.3858  11.4059  11.4673  11.6126  11.9371  12.1287  12.1361
    12.2884  12.2934

          k = 0.4444-0.1283 0.0000 ( 32081 PWs)   bands (ev):

   -87.1840 -87.1786 -87.1763 -87.1726 -87.1687 -87.1671 -86.9976 -86.9930
   -86.9911 -86.9186 -86.9140 -86.9121 -50.7055 -50.6952 -50.6804 -50.6768
   -50.6744 -50.6422 -50.6393 -50.6360 -50.6174 -50.6163 -50.6131 -50.6057
   -50.6023 -50.5963 -50.5934 -50.5929 -50.5916 -50.5747 -50.5171 -50.4922
   -50.4530 -50.4399 -50.4348 -50.4339 -50.4176 -50.4146 -50.4143 -50.4140
   -50.4128 -50.3747 -50.3560 -50.3556 -50.3356 -50.3332 -50.3291 -50.3274
   -13.7551 -13.4119 -13.2624 -12.4910 -12.1466 -12.0054 -11.2594 -10.9137
   -10.7805  -9.5224  -9.1739  -9.0546  -7.0771  -6.7244  -6.6228  -5.4491
    -5.0955  -4.9973  -4.3980  -4.2126  -4.0428  -3.9500  -3.8588  -3.7610
    -2.9998  -2.6435  -2.5544  -2.1723  -1.5742  -1.4199  -1.3375  -1.3074
    -1.2285  -1.1806  -1.1290  -1.0623  -0.9755  -0.9387  -0.9168  -0.9001
    -0.8733  -0.8444  -0.7957  -0.7714  -0.7362  -0.7089  -0.6997  -0.6868
    -0.5608  -0.5283  -0.5189  -0.3709  -0.3463  -0.3259  -0.1708  -0.1636
    -0.1443  -0.0769  -0.0332  -0.0122   0.0984   0.1292   0.2145   0.2575
     0.2850   0.2954   0.3255   0.3788   0.4083   0.4196   0.4575   0.5747
     0.5866   0.6145   0.6315   0.7679   0.7876   0.8054   0.8448   0.8565
     0.8688   0.9926   1.0001   1.0059   1.1304   1.1752   1.2020   1.3031
     1.3419   1.3524   1.4132   1.4693   1.5043   1.5646   1.5936   1.7376
     1.7836   1.8142   1.8165   1.8608   1.8651   1.9160   1.9339   1.9716
     1.9785   2.0257   2.1249   2.6745   2.9632   3.0861   3.4274   3.5475
     3.6453   4.4901   5.2290   5.2485   5.7050   6.1890   6.4900   6.5459
     6.8236   7.4700   7.6574   7.7274   8.1739   8.5292   8.8379   9.2776
     9.8627   9.8961   9.9113  10.0557  10.2803  10.3281  10.6739  10.7091
    10.7959  11.1298  11.6199  11.8656  11.9100  12.0823  12.1105  12.1887
    12.4098  12.5077

          k = 0.4444 0.0000 0.0000 ( 32067 PWs)   bands (ev):

   -87.1844 -87.1774 -87.1771 -87.1729 -87.1678 -87.1677 -86.9980 -86.9919
   -86.9919 -86.9189 -86.9130 -86.9127 -50.6939 -50.6936 -50.6855 -50.6853
   -50.6776 -50.6396 -50.6393 -50.6377 -50.6174 -50.6173 -50.6125 -50.6034
   -50.6032 -50.5960 -50.5944 -50.5940 -50.5908 -50.5719 -50.5062 -50.5058
   -50.4508 -50.4355 -50.4352 -50.4287 -50.4283 -50.4179 -50.4133 -50.4132
   -50.4120 -50.3724 -50.3570 -50.3566 -50.3338 -50.3331 -50.3283 -50.3279
   -13.8260 -13.4830 -13.3330 -11.9395 -11.9383 -11.5940 -11.5939 -11.4563
   -11.4563  -8.8320  -8.4791  -8.3822  -7.8187  -7.4614  -7.3747  -4.8652
    -4.8648  -4.5115  -4.5115  -4.5031  -4.4126  -4.4126  -4.1483  -4.0542
    -2.2566  -1.9617  -1.9601  -1.6579  -1.6040  -1.6040  -1.5172  -1.5172
    -1.4297  -1.1302  -1.1293  -1.0967  -1.0903  -1.0900  -1.0455  -1.0442
    -0.9724  -0.8723  -0.7489  -0.7418  -0.7402  -0.7377  -0.6544  -0.5665
    -0.5629  -0.5608  -0.4566  -0.4531  -0.3705  -0.1719  -0.1642  -0.1522
    -0.1127  -0.0859   0.0147   0.0239   0.2000   0.2012   0.2401   0.2454
     0.3269   0.3350   0.3391   0.4016   0.4571   0.4766   0.4908   0.5428
     0.5550   0.5595   0.7002   0.7119   0.7179   0.7368   0.8685   0.9011
     1.0315   1.0536   1.0576   1.1009   1.1659   1.1694   1.2017   1.2233
     1.2251   1.3616   1.3864   1.3907   1.4176   1.4195   1.5320   1.5351
     1.6264   1.6330   1.6367   1.7653   1.8566   1.8585   1.9261   1.9292
     1.9319   2.0538   2.0576   3.2184   3.3160   3.5656   3.6158   3.6388
     3.8712   4.3725   4.3778   5.5828   5.7349   5.9078   5.9118   6.1156
     6.1995   7.5746   8.0191   8.0277   9.0917   9.0931   9.4508   9.4511
     9.7881   9.7882   9.8004  10.0432  10.0500  10.1856  10.6575  10.6714
    10.7008  11.0445  11.3520  11.3790  11.8255  12.1023  12.3742  12.3748
    12.6027  12.6320

          k = 0.4444 0.1283 0.0000 ( 32081 PWs)   bands (ev):

   -87.1840 -87.1786 -87.1763 -87.1726 -87.1687 -87.1671 -86.9976 -86.9930
   -86.9911 -86.9186 -86.9140 -86.9121 -50.7057 -50.6953 -50.6803 -50.6768
   -50.6742 -50.6420 -50.6393 -50.6363 -50.6173 -50.6161 -50.6131 -50.6055
   -50.6022 -50.5963 -50.5939 -50.5926 -50.5916 -50.5749 -50.5171 -50.4922
   -50.4530 -50.4402 -50.4349 -50.4339 -50.4176 -50.4144 -50.4142 -50.4140
   -50.4127 -50.3745 -50.3564 -50.3552 -50.3357 -50.3333 -50.3291 -50.3275
   -13.7551 -13.4119 -13.2624 -12.4910 -12.1466 -12.0054 -11.2594 -10.9137
   -10.7805  -9.5224  -9.1739  -9.0546  -7.0771  -6.7244  -6.6228  -5.4491
    -5.0955  -4.9973  -4.3980  -4.2126  -4.0428  -3.9500  -3.8588  -3.7610
    -2.9997  -2.6435  -2.5544  -2.1723  -1.5742  -1.4199  -1.3375  -1.3066
    -1.2281  -1.1818  -1.1292  -1.0623  -0.9755  -0.9384  -0.9155  -0.8990
    -0.8734  -0.8452  -0.7958  -0.7714  -0.7343  -0.7084  -0.7006  -0.6868
    -0.5630  -0.5267  -0.5181  -0.3707  -0.3479  -0.3260  -0.1704  -0.1635
    -0.1438  -0.0825  -0.0330  -0.0101   0.0932   0.1260   0.2159   0.2537
     0.2847   0.2967   0.3255   0.3802   0.4083   0.4257   0.4549   0.5764
     0.5872   0.6146   0.6345   0.7687   0.7913   0.8018   0.8486   0.8524
     0.8686   0.9896   1.0000   1.0072   1.1255   1.1748   1.2043   1.3027
     1.3430   1.3526   1.4131   1.4683   1.5037   1.5689   1.5952   1.7362
     1.7846   1.8145   1.8182   1.8621   1.8653   1.9144   1.9322   1.9723
     1.9822   2.0255   2.1233   2.6745   2.9632   3.0860   3.4261   3.5475
     3.6457   4.4919   5.2291   5.2490   5.7038   6.1889   6.4810   6.5459
     6.8236   7.4681   7.6481   7.7262   8.1741   8.5293   8.8379   9.2916
     9.8592   9.8961   9.9186  10.0534  10.2804  10.3281  10.6738  10.7105
    10.7959  11.1298  11.6199  11.8658  11.9101  12.1029  12.1212  12.1887
    12.4087  12.5088

          k = 0.4444 0.2566 0.0000 ( 32106 PWs)   bands (ev):

   -87.1828 -87.1800 -87.1760 -87.1718 -87.1697 -87.1669 -86.9967 -86.9942
   -86.9909 -86.9176 -86.9152 -86.9118 -50.7109 -50.7000 -50.6748 -50.6743
   -50.6640 -50.6457 -50.6404 -50.6353 -50.6251 -50.6143 -50.6077 -50.6063
   -50.6008 -50.5974 -50.5948 -50.5908 -50.5904 -50.5806 -50.5219 -50.4808
   -50.4607 -50.4452 -50.4319 -50.4306 -50.4194 -50.4168 -50.4149 -50.4126
   -50.4026 -50.3822 -50.3531 -50.3522 -50.3409 -50.3324 -50.3301 -50.3273
   -13.5426 -13.1993 -13.0512 -12.9094 -12.5654 -12.4214 -10.4663 -10.4606
   -10.1167 -10.1166  -9.9889  -9.9889  -6.0008  -5.9961  -5.6439  -5.6438
    -5.5494  -5.5494  -4.0594  -4.0554  -3.7010  -3.7010  -3.6122  -3.6122
    -3.5035  -3.1491  -3.0535  -2.0675  -1.9217  -1.7113  -1.6208  -1.3944
    -1.3262  -1.3034  -1.2442  -1.1914  -1.1255  -0.9832  -0.8652  -0.8246
    -0.7899  -0.6976  -0.6637  -0.6304  -0.6294  -0.6047  -0.5656  -0.5435
    -0.5282  -0.4664  -0.3969  -0.3762  -0.3048  -0.2914  -0.2902  -0.2212
    -0.1245  -0.0541  -0.0483   0.0249   0.0424   0.0731   0.0861   0.1401
     0.1792   0.2256   0.2335   0.2610   0.2737   0.3165   0.3552   0.3634
     0.4662   0.5503   0.6043   0.6321   0.7203   0.8009   0.8451   0.8723
     0.8984   1.0695   1.0790   1.1306   1.1486   1.2862   1.3874   1.4286
     1.4666   1.5187   1.5267   1.5725   1.6814   1.7031   1.7382   1.7653
     1.8055   1.8200   1.8308   1.9041   1.9187   1.9557   2.0252   2.1383
     2.1417   2.1917   2.2016   2.2425   2.4496   2.7514   2.7555   3.0372
     3.7286   4.6371   5.1265   5.9283   6.0165   6.4353   6.6528   6.8948
     7.2188   7.2262   7.5707   7.5720   7.8555   7.8559   8.1603   9.0660
     9.3038   9.6777  10.1829  10.4228  10.5630  10.7839  11.0202  11.0800
    11.1607  11.3858  11.4060  11.4673  11.6409  11.9371  12.1289  12.1359
    12.2892  12.2923

          k = 0.4444-0.7698 0.0000 ( 32048 PWs)   bands (ev):

   -87.1813 -87.1810 -87.1765 -87.1706 -87.1705 -87.1672 -86.9953 -86.9952
   -86.9913 -86.9164 -86.9161 -86.9122 -50.7077 -50.6972 -50.6740 -50.6738
   -50.6596 -50.6595 -50.6369 -50.6346 -50.6345 -50.6108 -50.6077 -50.6025
   -50.6023 -50.5979 -50.5977 -50.5884 -50.5841 -50.5840 -50.5188 -50.4749
   -50.4745 -50.4420 -50.4299 -50.4238 -50.4235 -50.4158 -50.4157 -50.4129
   -50.3966 -50.3963 -50.3511 -50.3452 -50.3450 -50.3312 -50.3309 -50.3277
   -13.1906 -13.1896 -12.8465 -12.8464 -12.7007 -12.7007 -11.3269 -10.9812
   -10.8476  -9.5731  -9.2249  -9.1040  -6.6302  -6.2748  -6.1836  -5.0186
    -4.8999  -4.6624  -4.5740  -4.5425  -4.4562  -3.4113  -3.0537  -2.9686
    -2.7890  -2.7875  -2.4328  -2.4327  -2.3407  -2.3407  -1.5130  -1.5107
    -1.3826  -1.3027  -1.2209  -1.0281  -1.0273  -0.9792  -0.9180  -0.9169
    -0.8314  -0.8306  -0.8192  -0.7799  -0.7786  -0.6185  -0.6181  -0.5474
    -0.5354  -0.5350  -0.3552  -0.3550  -0.2765  -0.2758  -0.2598  -0.2598
    -0.1760  -0.1760  -0.1460  -0.1451  -0.0547  -0.0540  -0.0384   0.0657
     0.0798   0.0813   0.2697   0.3379   0.3382   0.3619   0.3627   0.5214
     0.5236   0.6183   0.6837   0.6850   0.7978   0.7997   0.8365   0.8885
     0.9348   0.9366   1.0794   1.0803   1.1088   1.2357   1.2362   1.3025
     1.4468   1.5131   1.5139   1.5655   1.5662   1.6382   1.6843   1.6848
     1.8198   1.8490   1.8738   1.8745   1.9019   1.9513   2.0011   2.0017
     2.0025   2.1121   2.1888   2.5238   2.5249   2.6733   3.1033   3.6090
     4.1844   4.1854   4.2323   5.0038   6.2165   6.2356   6.4954   6.5063
     6.6012   6.8808   7.4613   8.3513   8.7047   8.7994   8.8112   8.9687
     9.2328   9.8353  10.6052  10.6593  10.6594  11.0254  11.0265  11.4493
    11.4521  11.5610  11.5630  11.7495  11.7501  11.8930  11.8932  11.9970
    12.0829  12.0832

          k = 0.4444-0.6415 0.0000 ( 32050 PWs)   bands (ev):

   -87.1818 -87.1793 -87.1777 -87.1711 -87.1693 -87.1681 -86.9958 -86.9937
   -86.9923 -86.9168 -86.9147 -86.9132 -50.6964 -50.6879 -50.6808 -50.6757
   -50.6747 -50.6586 -50.6400 -50.6397 -50.6307 -50.6095 -50.6073 -50.6040
   -50.6004 -50.5995 -50.5970 -50.5868 -50.5858 -50.5780 -50.5082 -50.4922
   -50.4726 -50.4310 -50.4280 -50.4262 -50.4184 -50.4162 -50.4147 -50.4142
   -50.4136 -50.3944 -50.3492 -50.3478 -50.3397 -50.3316 -50.3297 -50.3285
   -13.3311 -12.9875 -12.8408 -12.7001 -12.3559 -12.2134 -12.0767 -11.7319
   -11.5934  -8.6683  -8.3175  -8.2088  -7.4191  -7.0641  -6.9706  -5.3193
    -4.9628  -4.8737  -4.2221  -3.8663  -3.7760  -3.5066  -3.1513  -3.0589
    -2.4740  -2.2168  -2.1166  -2.0308  -1.8598  -1.7734  -1.6754  -1.4618
    -1.2748  -1.2298  -1.1948  -1.1250  -1.1175  -1.1041  -1.0810  -1.0737
    -1.0189  -1.0062  -0.9807  -0.9141  -0.8894  -0.8347  -0.8135  -0.7224
    -0.7204  -0.6463  -0.5375  -0.4892  -0.4764  -0.4666  -0.3965  -0.3933
    -0.3111  -0.3057  -0.2371  -0.2207   0.0244   0.0386   0.0622   0.1595
     0.2148   0.2725   0.3112   0.3483   0.3688   0.3728   0.3865   0.4333
     0.4351   0.6871   0.7129   0.7527   0.8331   0.8770   0.9657   0.9878
     1.0269   1.0337   1.1064   1.1121   1.1516   1.2285   1.2532   1.2892
     1.3526   1.4060   1.4383   1.4556   1.4838   1.5808   1.6065   1.6638
     1.6840   1.7156   1.7407   1.7678   1.7891   1.8662   1.9238   1.9392
     1.9497   2.0415   2.1667   2.4007   3.0769   3.1095   3.5759   3.8948
     3.9299   3.9754   4.3298   4.7854   5.3930   5.5207   5.7445   6.0038
     6.2763   7.1000   7.7024   8.5289   9.4621   9.5692   9.8193   9.8799
    10.0802  10.4577  10.4721  10.5242  10.8347  10.8572  11.1341  11.1950
    11.3370  11.3590  11.5738  11.6553  11.8704  11.8948  12.1854  12.2090
    12.2116  12.4196

          k = 0.4444-0.5132 0.0000 ( 32050 PWs)   bands (ev):

   -87.1818 -87.1793 -87.1776 -87.1711 -87.1693 -87.1681 -86.9958 -86.9937
   -86.9923 -86.9168 -86.9147 -86.9132 -50.6963 -50.6878 -50.6809 -50.6758
   -50.6747 -50.6587 -50.6403 -50.6394 -50.6308 -50.6096 -50.6073 -50.6042
   -50.6003 -50.5995 -50.5970 -50.5871 -50.5854 -50.5779 -50.5082 -50.4922
   -50.4726 -50.4307 -50.4281 -50.4262 -50.4183 -50.4162 -50.4148 -50.4144
   -50.4136 -50.3945 -50.3496 -50.3474 -50.3396 -50.3316 -50.3298 -50.3284
   -13.3311 -12.9875 -12.8408 -12.7001 -12.3559 -12.2134 -12.0767 -11.7319
   -11.5934  -8.6683  -8.3175  -8.2088  -7.4191  -7.0641  -6.9706  -5.3193
    -4.9628  -4.8737  -4.2221  -3.8663  -3.7760  -3.5066  -3.1513  -3.0589
    -2.4740  -2.2169  -2.1166  -2.0308  -1.8598  -1.7734  -1.6753  -1.4618
    -1.2759  -1.2304  -1.1949  -1.1243  -1.1160  -1.1041  -1.0798  -1.0737
    -1.0189  -1.0061  -0.9815  -0.9148  -0.8905  -0.8346  -0.8137  -0.7241
    -0.7199  -0.6462  -0.5354  -0.4900  -0.4764  -0.4667  -0.3969  -0.3933
    -0.3112  -0.3049  -0.2374  -0.2205   0.0292   0.0335   0.0606   0.1651
     0.2153   0.2717   0.3095   0.3509   0.3714   0.3729   0.3873   0.4292
     0.4347   0.6899   0.7064   0.7560   0.8296   0.8789   0.9655   0.9875
     1.0299   1.0333   1.1059   1.1120   1.1541   1.2295   1.2541   1.2859
     1.3509   1.4070   1.4406   1.4526   1.4831   1.5801   1.6066   1.6648
     1.6844   1.7143   1.7402   1.7688   1.7876   1.8681   1.9212   1.9395
     1.9463   2.0432   2.1675   2.4012   3.0764   3.1083   3.5760   3.8954
     3.9308   3.9754   4.3298   4.7844   5.3930   5.5248   5.7445   6.0038
     6.2768   7.1023   7.7032   8.5293   9.4620   9.5752   9.8193   9.8721
    10.0802  10.4532  10.4721  10.5233  10.8347  10.8572  11.1341  11.1938
    11.3370  11.3590  11.5736  11.6553  11.8709  11.8966  12.1849  12.2086
    12.2121  12.4173

          k = 0.4444-0.3849 0.0000 ( 32048 PWs)   bands (ev):

   -87.1813 -87.1810 -87.1765 -87.1706 -87.1706 -87.1672 -86.9953 -86.9952
   -86.9913 -86.9164 -86.9161 -86.9122 -50.7075 -50.6971 -50.6740 -50.6739
   -50.6597 -50.6596 -50.6365 -50.6348 -50.6347 -50.6109 -50.6080 -50.6025
   -50.6023 -50.5980 -50.5977 -50.5887 -50.5837 -50.5836 -50.5188 -50.4750
   -50.4745 -50.4417 -50.4299 -50.4240 -50.4232 -50.4158 -50.4157 -50.4129
   -50.3969 -50.3966 -50.3515 -50.3449 -50.3447 -50.3313 -50.3310 -50.3276
   -13.1912 -13.1890 -12.8465 -12.8464 -12.7007 -12.7007 -11.3269 -10.9812
   -10.8476  -9.5731  -9.2249  -9.1040  -6.6302  -6.2748  -6.1836  -5.0186
    -4.8999  -4.6624  -4.5740  -4.5425  -4.4562  -3.4114  -3.0537  -2.9686
    -2.7901  -2.7864  -2.4328  -2.4327  -2.3407  -2.3407  -1.5144  -1.5092
    -1.3835  -1.3032  -1.2196  -1.0281  -1.0276  -0.9801  -0.9189  -0.9160
    -0.8305  -0.8298  -0.8215  -0.7805  -0.7794  -0.6184  -0.6176  -0.5492
    -0.5342  -0.5337  -0.3566  -0.3548  -0.2766  -0.2755  -0.2598  -0.2598
    -0.1760  -0.1760  -0.1463  -0.1448  -0.0529  -0.0518  -0.0354   0.0760
     0.0772   0.0775   0.2675   0.3376   0.3382   0.3605   0.3647   0.5205
     0.5224   0.6172   0.6832   0.6842   0.7994   0.8024   0.8326   0.8830
     0.9396   0.9405   1.0768   1.0797   1.1135   1.2354   1.2372   1.3037
     1.4479   1.5109   1.5132   1.5628   1.5637   1.6321   1.6854   1.6866
     1.8205   1.8503   1.8698   1.8702   1.9023   1.9522   2.0016   2.0022
     2.0042   2.1122   2.1883   2.5234   2.5253   2.6734   3.1034   3.6090
     4.1846   4.1875   4.2294   5.0036   6.2168   6.2459   6.4978   6.5076
     6.6013   6.8808   7.4708   8.3514   8.7048   8.8026   8.8129   8.9687
     9.2185   9.8282  10.6042  10.6593  10.6594  11.0254  11.0263  11.4470
    11.4541  11.5604  11.5636  11.7492  11.7506  11.8925  11.8939  11.9632
    12.0826  12.0835

     the Fermi energy is     5.0623 ev

!    total energy              =   -3891.08963950 Ry
     estimated scf accuracy    <          1.8E-09 Ry
     smearing contrib. (-TS)   =      -0.00171236 Ry
     internal energy E=F+TS    =   -3891.08792714 Ry

     The total energy is F=E-TS. E is the sum of the following terms:
     one-electron contribution =  -47684.42054959 Ry
     hartree contribution      =   23889.91009736 Ry
     xc contribution           =    -436.03350203 Ry
     ewald contribution        =   20488.12666976 Ry
     DFT-D3 Dispersion         =      -0.68861417 Ry
     electric field correction =       0.00000131 Ry
     one-center paw contrib.   =    -147.98202979 Ry

     convergence has been achieved in  53 iterations

     negative rho (up, down):  2.757E-04 0.000E+00

     Forces acting on atoms (cartesian axes, Ry/au):

     atom    1 type  1   force =    -0.00007035    0.00038312    0.00240836
     atom    2 type  1   force =    -0.00010664    0.00038722    0.00241758
     atom    3 type  1   force =     0.00028177   -0.00016118   -0.00098366
     atom    4 type  1   force =     0.00002028   -0.00033659   -0.00310166
     atom    5 type  1   force =    -0.00010043    0.00038700    0.00241572
     atom    6 type  1   force =     0.00011854   -0.00001037   -0.00086617
     atom    7 type  1   force =    -0.00025448    0.00008510    0.00129659
     atom    8 type  1   force =    -0.00000286   -0.00032443   -0.00311635
     atom    9 type  1   force =    -0.00002275   -0.00007420    0.00024632
     atom   10 type  1   force =     0.00030651    0.00008086   -0.00081854
     atom   11 type  1   force =     0.00000858   -0.00033692   -0.00309888
     atom   12 type  1   force =    -0.00015178    0.00002957    0.00146403
     atom   13 type  2   force =     0.00052648   -0.00032116    0.00044217
     atom   14 type  2   force =     0.00032055   -0.00059759    0.00069139
     atom   15 type  2   force =     0.00045796   -0.00026337    0.00003788
     atom   16 type  2   force =     0.00067111    0.00002158    0.00070031
     atom   17 type  2   force =    -0.00077546   -0.00021959    0.00067701
     atom   18 type  2   force =    -0.00008397    0.00002463    0.00004580
     atom   19 type  2   force =    -0.00021274    0.00078926    0.00067843
     atom   20 type  2   force =    -0.00091569    0.00053340    0.00050296
     atom   21 type  2   force =     0.00000522   -0.00001355   -0.00018236
     atom   22 type  2   force =     0.00000347   -0.00000886   -0.00025371
     atom   23 type  2   force =     0.00001115   -0.00000366   -0.00018140
     atom   24 type  2   force =     0.00001011   -0.00001131   -0.00025663
     atom   25 type  2   force =    -0.00000178   -0.00000309   -0.00017176
     atom   26 type  2   force =    -0.00001156   -0.00001240   -0.00025219
     atom   27 type  2   force =    -0.00002145    0.00000968   -0.00017793
     atom   28 type  2   force =    -0.00000225    0.00000703   -0.00025144
     atom   29 type  2   force =    -0.00000258   -0.00000245   -0.00013169
     atom   30 type  2   force =     0.00000012   -0.00000683    0.00005439
     atom   31 type  2   force =    -0.00000191   -0.00000342   -0.00013055
     atom   32 type  2   force =     0.00000017   -0.00000715    0.00005455
     atom   33 type  2   force =    -0.00000148   -0.00000315   -0.00013221
     atom   34 type  2   force =     0.00000008   -0.00000678    0.00005221
     atom   35 type  2   force =    -0.00000149   -0.00000364   -0.00013224
     atom   36 type  2   force =    -0.00000047   -0.00000675    0.00005366

     Total force =     0.007787     Total SCF correction =     0.000372

     Writing all to output data dir ./tmp/AGC_N3_top_hcp_K9_bound.save/ :
     XML data file, charge density, pseudopotentials, collected wavefunctions
 
     init_run     :     63.30s CPU     65.08s WALL (       1 calls)
     electrons    :   9000.97s CPU   9110.60s WALL (       1 calls)
     forces       :     33.79s CPU     34.37s WALL (       1 calls)
     force_dftd3  :      0.02s CPU      0.02s WALL (       1 calls)

     Called by init_run:
     wfcinit      :     53.03s CPU     54.67s WALL (       1 calls)
     potinit      :      9.26s CPU      9.31s WALL (       1 calls)
     hinit0       :      0.44s CPU      0.46s WALL (       1 calls)

     Called by electrons:
     c_bands      :   7011.88s CPU   7087.65s WALL (      53 calls)
     sum_band     :   1458.85s CPU   1489.85s WALL (      53 calls)
     v_of_rho     :     10.00s CPU     10.78s WALL (      54 calls)
     newd         :     11.62s CPU     11.70s WALL (      54 calls)
                                       11.70s GPU  (      54 calls)
     PAW_pot      :    369.55s CPU    369.68s WALL (      54 calls)
     mix_rho      :    143.70s CPU    145.19s WALL (      53 calls)
     energy_dftd3 :      0.00s CPU      0.00s WALL (       1 calls)

     Called by c_bands:
     init_us_2    :    398.80s CPU    399.54s WALL (    4428 calls)
     cegterg      :   6507.80s CPU   6511.87s WALL (    2173 calls)

     Called by *egterg:
     cdiaghg      :    357.27s CPU    358.08s WALL (   12710 calls)
                                      343.98s GPU  (   12710 calls)
     h_psi        :   3330.74s CPU   3349.59s WALL (   12751 calls)
                                     3338.70s GPU  (   12751 calls)
     s_psi        :    556.05s CPU    556.45s WALL (   12751 calls)
     g_psi        :      0.05s CPU     14.06s WALL (   10537 calls)
                                        3.29s GPU  (   10537 calls)

     Called by h_psi:
     h_psi:calbec :      0.78s CPU    547.03s WALL (   12751 calls)
                                      536.52s GPU  (   12751 calls)
     vloc_psi     :   1867.31s CPU   1879.05s WALL (   12751 calls)
                                     1868.87s GPU  (   12751 calls)
     add_vuspsi   :    475.75s CPU    867.00s WALL (   12751 calls)
                                      854.72s GPU  (   12751 calls)

     General routines
     calbec       :      0.86s CPU      0.87s WALL (   15088 calls)
     fft          :      2.44s CPU      3.84s WALL (     711 calls)
                                        0.69s GPU  (     657 calls)
     ffts         :      0.89s CPU      8.38s WALL (    6311 calls)
                                        2.06s GPU  (    6257 calls)
     fftw         :      2.86s CPU   1015.49s WALL (  161305 calls)
                                      852.61s GPU  (  161305 calls)
     interpolate  :      3.46s CPU      3.90s WALL (      54 calls)
     davcio       :      5.07s CPU    105.29s WALL (    7608 calls)
 
     Parallel routines
 
     PWSCF        :      2h31m CPU      2h33m WALL

 
   This run was terminated on:   1:21:45   6Oct2026            

=------------------------------------------------------------------------------=
   JOB DONE.
=------------------------------------------------------------------------------=
