
     Program PWSCF v.7.4.1 starts on  4Oct2026 at 18:23:36 

     This program is part of the open-source Quantum ESPRESSO suite
     for quantum simulation of materials; please cite
         "P. Giannozzi et al., J. Phys.:Condens. Matter 21 395502 (2009);
         "P. Giannozzi et al., J. Phys.:Condens. Matter 29 465901 (2017);
         "P. Giannozzi et al., J. Chem. Phys. 152 154105 (2020);
          URL http://www.quantum-espresso.org", 
     in publications or presentations arising from this work. More details at
     http://www.quantum-espresso.org/quote

     Parallel version (MPI & OpenMP), running on       1 processor cores
     Number of MPI processes:                 1
     Threads/MPI process:                     1

     MPI processes distributed on     1 nodes
     7563 MiB available memory on the printing compute node when the environment starts
 
     Reading input from pw.in

     Current dimensions of program PWSCF are:
     Max number of different atomic species (ntypx) = 10
     Max number of k-points (npk) =  40000
     Max angular momentum in pseudopotentials (lmaxx) =  4
     Presently no symmetry can be used with electric field

     file C.pbe-n-kjpaw_psl.1.0.0.UPF: wavefunction(s)  2S 2P renormalized
 
     Subspace diagonalization in iterative solution of the eigenvalue problem:
     a serial algorithm will be used

 
     G-vector sticks info
     --------------------
     sticks:   dense  smooth     PW     G-vecs:    dense   smooth      PW
     Sum        3193    1273    367              1013709   256635   40105
 
     Using Slab Decomposition
 


     bravais-lattice index     =            0
     lattice parameter (alat)  =       9.4208  a.u.
     unit-cell volume          =    5061.5040 (a.u.)^3
     number of atoms/cell      =           36
     number of atomic types    =            2
     number of electrons       =       324.00
     number of Kohn-Sham states=          194
     kinetic-energy cutoff     =      52.0000  Ry
     charge density cutoff     =     520.0000  Ry
     scf convergence threshold =      1.0E-08
     mixing beta               =       0.3000
     number of iterations used =            8  local-TF  mixing
     Exchange-correlation= SLA  PW   PBX  PBC
                           (   1   4   3   4   0   0   0)

     GPU acceleration is ACTIVE.  1 visible GPUs per MPI rank


     celldm(1)=   9.420781  celldm(2)=   0.000000  celldm(3)=   0.000000
     celldm(4)=   0.000000  celldm(5)=   0.000000  celldm(6)=   0.000000

     crystal axes: (cart. coord. in units of alat)
               a(1) = (   1.000000  -0.000000   0.000000 )  
               a(2) = (   0.500000   0.866025   0.000000 )  
               a(3) = (   0.000000   0.000000   6.990177 )  

     reciprocal axes: (cart. coord. in units 2 pi/alat)
               b(1) = (  1.000000 -0.577350  0.000000 )  
               b(2) = (  0.000000  1.154701 -0.000000 )  
               b(3) = ( -0.000000  0.000000  0.143058 )  


     PseudoPot. # 1 for Ag read from file:
     /home/kgy/work/pseudo/Ag_ONCV_PBE-1.0.oncvpsp.upf
     MD5 check sum: 94f47bd0669c641108e45594df92fabc
     Pseudo is Norm-conserving, Zval = 19.0
     Generated using ONCVPSP code by D. R. Hamann
     Using radial grid of 1398 points,  6 beta functions with: 
                l(1) =   0
                l(2) =   0
                l(3) =   1
                l(4) =   1
                l(5) =   2
                l(6) =   2

     PseudoPot. # 2 for C  read from file:
     /home/kgy/work/pseudo/C.pbe-n-kjpaw_psl.1.0.0.UPF
     MD5 check sum: 5d2aebdfa2cae82b50a7e79e9516da0f
     Pseudo is Projector augmented-wave + core cor, Zval =  4.0
     Generated using "atomic" code by A. Dal Corso  v.5.1
     Shape of augmentation charge: PSQ
     Using radial grid of 1073 points,  4 beta functions with: 
                l(1) =   0
                l(2) =   0
                l(3) =   1
                l(4) =   1
     Q(r) pseudized with 0 coefficients 


     atomic species   valence    mass     pseudopotential
     Ag               19.00   107.86820     Ag( 1.00)
     C                 4.00    12.01100     C ( 1.00)

     No symmetry found



   Cartesian axes

     site n.     atom                  positions (alat units)
         1        Ag     tau(   1) = (   0.3337695   0.5765948   0.5717001  )
         2        Ag     tau(   2) = (   0.8337695   0.8652699   0.5717001  )
         3        Ag     tau(   3) = (   0.1658131   0.2881628   1.0404978  )
         4        Ag     tau(   4) = (   0.5004501   0.2909658   0.1002956  )
         5        Ag     tau(   5) = (   0.8337695   0.2879196   0.5717001  )
         6        Ag     tau(   6) = (   0.6657286   0.5768865   1.0406295  )
         7        Ag     tau(   7) = (   0.5013979   0.2880440   1.5121792  )
         8        Ag     tau(   8) = (   1.0004501   0.5796409   0.1002956  )
         9        Ag     tau(   9) = (   1.0014376   0.5767316   1.5111335  )
        10        Ag     tau(  10) = (   0.6658079  -0.0004107   1.0405249  )
        11        Ag     tau(  11) = (   1.0004501   0.0022906   0.1002956  )
        12        Ag     tau(  12) = (   1.0014053  -0.0005819   1.5121715  )
        13        C      tau(  13) = (   0.5004501   0.2909658   2.7606349  )
        14        C      tau(  14) = (   0.7504501   0.4353033   2.7614017  )
        15        C      tau(  15) = (   0.7504501   0.7239785   2.7612949  )
        16        C      tau(  16) = (   1.0004501   0.8683160   2.7614006  )
        17        C      tau(  17) = (   1.0004501   0.2909658   2.7612939  )
        18        C      tau(  18) = (   1.2504501   0.4353033   2.7614005  )
        19        C      tau(  19) = (   1.2504501   0.7239785   2.7612952  )
        20        C      tau(  20) = (   1.5004501   0.8683160   2.7607834  )
        21        C      tau(  21) = (   0.7504501   0.4353033   3.4454694  )
        22        C      tau(  22) = (   1.0004501   0.5796409   3.4454111  )
        23        C      tau(  23) = (   1.0004501   0.8683160   3.4454694  )
        24        C      tau(  24) = (   1.2504501   1.0126536   3.4453990  )
        25        C      tau(  25) = (   1.2504501   0.4353033   3.4454694  )
        26        C      tau(  26) = (   1.5004501   0.5796409   3.4453990  )
        27        C      tau(  27) = (   1.5004501   0.8683160   3.4454640  )
        28        C      tau(  28) = (   1.7504501   1.0126536   3.4453990  )
        29        C      tau(  29) = (   0.5004501   0.2909658   4.1265112  )
        30        C      tau(  30) = (   0.7504501   0.4353033   4.1263841  )
        31        C      tau(  31) = (   0.7504501   0.7239785   4.1265127  )
        32        C      tau(  32) = (   1.0004501   0.8683160   4.1263841  )
        33        C      tau(  33) = (   1.0004501   0.2909658   4.1265127  )
        34        C      tau(  34) = (   1.2504501   0.4353033   4.1263841  )
        35        C      tau(  35) = (   1.2504501   0.7239785   4.1265127  )
        36        C      tau(  36) = (   1.5004501   0.8683160   4.1263860  )

     --------------------------------------------
     DFT-D3 Dispersion Correction (no 3-body):
     --------------------------------------------
       Reference C6 values for interpolation: 

         atom   Coordination number   C6
         C          0.000            98.23
         C          0.987            86.49
         C          1.998            58.72
         C          2.999            51.56
         C          3.984            36.41
         Ag         0.000           853.49
         Ag         0.968           537.23

       Values used:

         atom   Coordination number  R0_AB[au]  C6      C8
         Ag         9.095            3.147    537.23  47741.54
         Ag         9.095            3.147    537.23  47741.54
         Ag         9.097            3.147    537.23  47741.54
         Ag         6.766            3.147    537.23  47741.54
         Ag         9.095            3.147    537.23  47741.54
         Ag         9.097            3.147    537.23  47741.54
         Ag         6.766            3.147    537.23  47741.54
         Ag         6.766            3.147    537.23  47741.54
         Ag         6.780            3.147    537.23  47741.54
         Ag         9.097            3.147    537.23  47741.54
         Ag         6.766            3.147    537.23  47741.54
         Ag         6.766            3.147    537.23  47741.54
         C          3.275            2.750     49.01   1417.56
         C          3.275            2.750     49.01   1417.46
         C          3.275            2.750     49.01   1417.55
         C          3.275            2.750     49.01   1417.46
         C          3.275            2.750     49.01   1417.55
         C          3.275            2.750     49.01   1417.46
         C          3.275            2.750     49.01   1417.55
         C          3.275            2.750     49.01   1417.48
         C          3.280            2.750     48.92   1414.89
         C          3.280            2.750     48.93   1415.07
         C          3.280            2.750     48.92   1414.89
         C          3.280            2.750     48.93   1415.07
         C          3.280            2.750     48.92   1414.89
         C          3.280            2.750     48.93   1415.07
         C          3.280            2.750     48.92   1414.90
         C          3.280            2.750     48.93   1415.07
         C          3.274            2.750     49.03   1418.00
         C          3.274            2.750     49.03   1417.91
         C          3.274            2.750     49.03   1418.00
         C          3.274            2.750     49.03   1417.91
         C          3.274            2.750     49.03   1418.00
         C          3.274            2.750     49.03   1417.91
         C          3.274            2.750     49.03   1418.00
         C          3.274            2.750     49.03   1417.91

         Molecular C6 ( Ry / a.u.^6 ) =    198705.69


     number of k points=    20  Marzari-Vanderbilt smearing, width (Ry)=  0.0100
                       cart. coord. in units 2pi/alat
        k(    1) = (   0.0000000   0.0000000   0.0000000), wk =   0.0555556
        k(    2) = (   0.0000000   0.1924501   0.0000000), wk =   0.1111111
        k(    3) = (   0.0000000   0.3849002   0.0000000), wk =   0.1111111
        k(    4) = (   0.0000000  -0.5773503   0.0000000), wk =   0.0555556
        k(    5) = (   0.1666667  -0.0962250   0.0000000), wk =   0.1111111
        k(    6) = (   0.1666667   0.0962250   0.0000000), wk =   0.1111111
        k(    7) = (   0.1666667   0.2886751   0.0000000), wk =   0.1111111
        k(    8) = (   0.1666667  -0.6735753   0.0000000), wk =   0.1111111
        k(    9) = (   0.1666667  -0.4811252   0.0000000), wk =   0.1111111
        k(   10) = (   0.1666667  -0.2886751   0.0000000), wk =   0.1111111
        k(   11) = (   0.3333333  -0.1924501   0.0000000), wk =   0.1111111
        k(   12) = (   0.3333333  -0.0000000   0.0000000), wk =   0.1111111
        k(   13) = (   0.3333333   0.1924501   0.0000000), wk =   0.1111111
        k(   14) = (   0.3333333  -0.7698004   0.0000000), wk =   0.1111111
        k(   15) = (   0.3333333  -0.5773503   0.0000000), wk =   0.1111111
        k(   16) = (   0.3333333  -0.3849002   0.0000000), wk =   0.1111111
        k(   17) = (  -0.5000000   0.2886751   0.0000000), wk =   0.0555556
        k(   18) = (  -0.5000000   0.4811252   0.0000000), wk =   0.1111111
        k(   19) = (  -0.5000000   0.6735753   0.0000000), wk =   0.1111111
        k(   20) = (  -0.5000000  -0.2886751   0.0000000), wk =   0.0555556

     Dense  grid:  1013709 G-vectors     FFT dimensions: (  72,  72, 480)

     Smooth grid:   256635 G-vectors     FFT dimensions: (  45,  45, 320)

     Estimated max dynamical RAM per process >       2.73 GB

     Check: negative core charge=   -0.000002

     Initial potential from superposition of free atoms

     starting charge     323.9955, renormalised to     324.0000

     negative rho (up, down):  1.625E-04 0.000E+00
 
     Adding external electric field

     Computed dipole along edir(3) : 
        Dipole               -0.0083 Ry au,         -0.0212 Debye
        Dipole field         -0.0000 Ry au, 
 
        Potential amp.        0.0026 Ry
        Total length         63.9630 bohr
 
     Starting wfcs are  216 randomized atomic wfcs
     Checking if some PAW data can be deallocated... 

     total cpu time spent up to now is       28.1 secs

     Self-consistent Calculation

     iteration #  1     ecut=    52.00 Ry     beta= 0.30
     Davidson diagonalization with overlap
     ethr =  1.00E-02,  avg # of iterations =  8.4

     negative rho (up, down):  4.265E-08 0.000E+00
 
     Adding external electric field

     Computed dipole along edir(3) : 
        Dipole               -0.1059 Ry au,         -0.2691 Debye
        Dipole field         -0.0003 Ry au, 
 
        Potential amp.        0.0336 Ry
        Total length         63.9630 bohr
 

     total cpu time spent up to now is      119.8 secs

     total energy              =   -3891.68152254 Ry
     estimated scf accuracy    <       3.79058550 Ry

     iteration #  2     ecut=    52.00 Ry     beta= 0.30
     Davidson diagonalization with overlap
     ethr =  1.17E-03,  avg # of iterations =  1.7
 
     Adding external electric field

     Computed dipole along edir(3) : 
        Dipole               -0.3664 Ry au,         -0.9314 Debye
        Dipole field         -0.0009 Ry au, 
 
        Potential amp.        0.1164 Ry
        Total length         63.9630 bohr
 

     total cpu time spent up to now is      179.5 secs

     total energy              =   -3891.04062875 Ry
     estimated scf accuracy    <       2.02353683 Ry

     iteration #  3     ecut=    52.00 Ry     beta= 0.30
     Davidson diagonalization with overlap
     ethr =  6.25E-04,  avg # of iterations =  8.3
 
     Adding external electric field

     Computed dipole along edir(3) : 
        Dipole               -0.5708 Ry au,         -1.4508 Debye
        Dipole field         -0.0014 Ry au, 
 
        Potential amp.        0.1813 Ry
        Total length         63.9630 bohr
 

     total cpu time spent up to now is      260.0 secs

     total energy              =   -3891.08331325 Ry
     estimated scf accuracy    <       0.46773830 Ry

     iteration #  4     ecut=    52.00 Ry     beta= 0.30
     Davidson diagonalization with overlap
     c_bands:  2 eigenvalues not converged
     c_bands:  1 eigenvalues not converged
     ethr =  1.44E-04,  avg # of iterations = 11.4
 
     Adding external electric field

     Computed dipole along edir(3) : 
        Dipole               -0.5767 Ry au,         -1.4658 Debye
        Dipole field         -0.0014 Ry au, 
 
        Potential amp.        0.1832 Ry
        Total length         63.9630 bohr
 

     total cpu time spent up to now is      348.7 secs

     total energy              =   -3891.10081690 Ry
     estimated scf accuracy    <       0.64841351 Ry

     iteration #  5     ecut=    52.00 Ry     beta= 0.30
     Davidson diagonalization with overlap
     ethr =  1.44E-04,  avg # of iterations =  1.1
 
     Adding external electric field

     Computed dipole along edir(3) : 
        Dipole               -0.6807 Ry au,         -1.7303 Debye
        Dipole field         -0.0017 Ry au, 
 
        Potential amp.        0.2162 Ry
        Total length         63.9630 bohr
 

     total cpu time spent up to now is      404.4 secs

     total energy              =   -3891.11404537 Ry
     estimated scf accuracy    <       0.65291212 Ry

     iteration #  6     ecut=    52.00 Ry     beta= 0.30
     Davidson diagonalization with overlap
     ethr =  1.44E-04,  avg # of iterations =  1.1
 
     Adding external electric field

     Computed dipole along edir(3) : 
        Dipole               -0.6718 Ry au,         -1.7074 Debye
        Dipole field         -0.0017 Ry au, 
 
        Potential amp.        0.2134 Ry
        Total length         63.9630 bohr
 

     total cpu time spent up to now is      459.9 secs

     total energy              =   -3891.11855586 Ry
     estimated scf accuracy    <       0.68852064 Ry

     iteration #  7     ecut=    52.00 Ry     beta= 0.30
     Davidson diagonalization with overlap
     ethr =  1.44E-04,  avg # of iterations =  1.1

     negative rho (up, down):  8.922E-07 0.000E+00
 
     Adding external electric field

     Computed dipole along edir(3) : 
        Dipole               -0.8293 Ry au,         -2.1078 Debye
        Dipole field         -0.0021 Ry au, 
 
        Potential amp.        0.2634 Ry
        Total length         63.9630 bohr
 

     total cpu time spent up to now is      514.4 secs

     total energy              =   -3891.10314659 Ry
     estimated scf accuracy    <       0.69492522 Ry

     iteration #  8     ecut=    52.00 Ry     beta= 0.30
     Davidson diagonalization with overlap
     c_bands:  2 eigenvalues not converged
     c_bands:  1 eigenvalues not converged
     ethr =  1.44E-04,  avg # of iterations =  5.2

     negative rho (up, down):  8.431E-07 0.000E+00
 
     Adding external electric field

     Computed dipole along edir(3) : 
        Dipole               -0.7647 Ry au,         -1.9437 Debye
        Dipole field         -0.0019 Ry au, 
 
        Potential amp.        0.2429 Ry
        Total length         63.9630 bohr
 

     total cpu time spent up to now is      584.5 secs

     total energy              =   -3891.10096227 Ry
     estimated scf accuracy    <       0.36161445 Ry

     iteration #  9     ecut=    52.00 Ry     beta= 0.30
     Davidson diagonalization with overlap
     ethr =  1.12E-04,  avg # of iterations =  2.4

     negative rho (up, down):  7.735E-08 0.000E+00
 
     Adding external electric field

     Computed dipole along edir(3) : 
        Dipole               -0.5393 Ry au,         -1.3706 Debye
        Dipole field         -0.0013 Ry au, 
 
        Potential amp.        0.1713 Ry
        Total length         63.9630 bohr
 

     total cpu time spent up to now is      643.9 secs

     total energy              =   -3891.02418488 Ry
     estimated scf accuracy    <       0.23353879 Ry

     iteration # 10     ecut=    52.00 Ry     beta= 0.30
     Davidson diagonalization with overlap
     c_bands:  1 eigenvalues not converged
     ethr =  7.21E-05,  avg # of iterations =  9.1

     negative rho (up, down):  2.707E-06 0.000E+00
 
     Adding external electric field

     Computed dipole along edir(3) : 
        Dipole               -0.4290 Ry au,         -1.0904 Debye
        Dipole field         -0.0011 Ry au, 
 
        Potential amp.        0.1363 Ry
        Total length         63.9630 bohr
 

     total cpu time spent up to now is      730.4 secs

     total energy              =   -3891.06227256 Ry
     estimated scf accuracy    <       0.04105724 Ry

     iteration # 11     ecut=    52.00 Ry     beta= 0.30
     Davidson diagonalization with overlap
     c_bands:  1 eigenvalues not converged
     ethr =  1.27E-05,  avg # of iterations = 10.1
 
     Adding external electric field

     Computed dipole along edir(3) : 
        Dipole               -0.5865 Ry au,         -1.4908 Debye
        Dipole field         -0.0015 Ry au, 
 
        Potential amp.        0.1863 Ry
        Total length         63.9630 bohr
 

     total cpu time spent up to now is      821.8 secs

     total energy              =   -3891.03833399 Ry
     estimated scf accuracy    <       0.06836147 Ry

     iteration # 12     ecut=    52.00 Ry     beta= 0.30
     Davidson diagonalization with overlap
     ethr =  1.27E-05,  avg # of iterations =  4.3
 
     Adding external electric field

     Computed dipole along edir(3) : 
        Dipole               -0.4556 Ry au,         -1.1580 Debye
        Dipole field         -0.0011 Ry au, 
 
        Potential amp.        0.1447 Ry
        Total length         63.9630 bohr
 

     total cpu time spent up to now is      898.7 secs

     total energy              =   -3891.04816781 Ry
     estimated scf accuracy    <       0.09045192 Ry

     iteration # 13     ecut=    52.00 Ry     beta= 0.30
     Davidson diagonalization with overlap
     ethr =  1.27E-05,  avg # of iterations =  6.5
 
     Adding external electric field

     Computed dipole along edir(3) : 
        Dipole               -0.4602 Ry au,         -1.1697 Debye
        Dipole field         -0.0011 Ry au, 
 
        Potential amp.        0.1462 Ry
        Total length         63.9630 bohr
 

     total cpu time spent up to now is      970.2 secs

     total energy              =   -3891.04972398 Ry
     estimated scf accuracy    <       0.01394606 Ry

     iteration # 14     ecut=    52.00 Ry     beta= 0.30
     Davidson diagonalization with overlap
     ethr =  4.30E-06,  avg # of iterations =  5.5

     negative rho (up, down):  6.252E-08 0.000E+00
 
     Adding external electric field

     Computed dipole along edir(3) : 
        Dipole               -0.2783 Ry au,         -0.7073 Debye
        Dipole field         -0.0007 Ry au, 
 
        Potential amp.        0.0884 Ry
        Total length         63.9630 bohr
 

     total cpu time spent up to now is     1039.9 secs

     total energy              =   -3891.04723065 Ry
     estimated scf accuracy    <       0.01620021 Ry

     iteration # 15     ecut=    52.00 Ry     beta= 0.30
     Davidson diagonalization with overlap
     ethr =  4.30E-06,  avg # of iterations = 11.3

     negative rho (up, down):  1.649E-08 0.000E+00
 
     Adding external electric field

     Computed dipole along edir(3) : 
        Dipole               -0.2761 Ry au,         -0.7019 Debye
        Dipole field         -0.0007 Ry au, 
 
        Potential amp.        0.0877 Ry
        Total length         63.9630 bohr
 

     total cpu time spent up to now is     1128.4 secs

     total energy              =   -3891.04856732 Ry
     estimated scf accuracy    <       0.07747062 Ry

     iteration # 16     ecut=    52.00 Ry     beta= 0.30
     Davidson diagonalization with overlap
     ethr =  4.30E-06,  avg # of iterations =  1.0
 
     Adding external electric field

     Computed dipole along edir(3) : 
        Dipole               -0.3196 Ry au,         -0.8124 Debye
        Dipole field         -0.0008 Ry au, 
 
        Potential amp.        0.1015 Ry
        Total length         63.9630 bohr
 

     total cpu time spent up to now is     1182.5 secs

     total energy              =   -3891.04763344 Ry
     estimated scf accuracy    <       0.09186910 Ry

     iteration # 17     ecut=    52.00 Ry     beta= 0.30
     Davidson diagonalization with overlap
     ethr =  4.30E-06,  avg # of iterations =  7.2

     negative rho (up, down):  4.856E-08 0.000E+00
 
     Adding external electric field

     Computed dipole along edir(3) : 
        Dipole               -0.1850 Ry au,         -0.4703 Debye
        Dipole field         -0.0005 Ry au, 
 
        Potential amp.        0.0588 Ry
        Total length         63.9630 bohr
 

     total cpu time spent up to now is     1257.8 secs

     total energy              =   -3891.04695945 Ry
     estimated scf accuracy    <       0.01110472 Ry

     iteration # 18     ecut=    52.00 Ry     beta= 0.30
     Davidson diagonalization with overlap
     ethr =  3.43E-06,  avg # of iterations =  8.9

     negative rho (up, down):  1.866E-06 0.000E+00
 
     Adding external electric field

     Computed dipole along edir(3) : 
        Dipole               -0.1022 Ry au,         -0.2598 Debye
        Dipole field         -0.0003 Ry au, 
 
        Potential amp.        0.0325 Ry
        Total length         63.9630 bohr
 

     total cpu time spent up to now is     1338.1 secs

     total energy              =   -3891.04668880 Ry
     estimated scf accuracy    <       0.00227601 Ry

     iteration # 19     ecut=    52.00 Ry     beta= 0.30
     Davidson diagonalization with overlap
     ethr =  7.02E-07,  avg # of iterations =  8.7

     negative rho (up, down):  5.715E-07 0.000E+00
 
     Adding external electric field

     Computed dipole along edir(3) : 
        Dipole               -0.0566 Ry au,         -0.1439 Debye
        Dipole field         -0.0001 Ry au, 
 
        Potential amp.        0.0180 Ry
        Total length         63.9630 bohr
 

     total cpu time spent up to now is     1417.9 secs

     total energy              =   -3891.04638465 Ry
     estimated scf accuracy    <       0.01012485 Ry

     iteration # 20     ecut=    52.00 Ry     beta= 0.30
     Davidson diagonalization with overlap
     ethr =  7.02E-07,  avg # of iterations =  7.1

     negative rho (up, down):  8.250E-04 0.000E+00
 
     Adding external electric field

     Computed dipole along edir(3) : 
        Dipole                0.0193 Ry au,          0.0490 Debye
        Dipole field          0.0000 Ry au, 
 
        Potential amp.       -0.0061 Ry
        Total length         63.9630 bohr
 

     total cpu time spent up to now is     1493.9 secs

     total energy              =   -3891.04621084 Ry
     estimated scf accuracy    <       0.00144504 Ry

     iteration # 21     ecut=    52.00 Ry     beta= 0.30
     Davidson diagonalization with overlap
     ethr =  4.46E-07,  avg # of iterations =  6.0

     negative rho (up, down):  3.380E-05 0.000E+00
 
     Adding external electric field

     Computed dipole along edir(3) : 
        Dipole                0.0014 Ry au,          0.0035 Debye
        Dipole field          0.0000 Ry au, 
 
        Potential amp.       -0.0004 Ry
        Total length         63.9630 bohr
 

     total cpu time spent up to now is     1567.1 secs

     total energy              =   -3891.04628908 Ry
     estimated scf accuracy    <       0.03000128 Ry

     iteration # 22     ecut=    52.00 Ry     beta= 0.30
     Davidson diagonalization with overlap
     ethr =  4.46E-07,  avg # of iterations =  2.5

     negative rho (up, down):  1.410E-05 0.000E+00
 
     Adding external electric field

     Computed dipole along edir(3) : 
        Dipole                0.0073 Ry au,          0.0186 Debye
        Dipole field          0.0000 Ry au, 
 
        Potential amp.       -0.0023 Ry
        Total length         63.9630 bohr
 

     total cpu time spent up to now is     1629.3 secs

     total energy              =   -3891.04632485 Ry
     estimated scf accuracy    <       0.00714306 Ry

     iteration # 23     ecut=    52.00 Ry     beta= 0.30
     Davidson diagonalization with overlap
     ethr =  4.46E-07,  avg # of iterations =  6.7

     negative rho (up, down):  2.923E-04 0.000E+00
 
     Adding external electric field

     Computed dipole along edir(3) : 
        Dipole                0.0197 Ry au,          0.0501 Debye
        Dipole field          0.0000 Ry au, 
 
        Potential amp.       -0.0063 Ry
        Total length         63.9630 bohr
 

     total cpu time spent up to now is     1704.1 secs

     total energy              =   -3891.04641966 Ry
     estimated scf accuracy    <       0.00039234 Ry

     iteration # 24     ecut=    52.00 Ry     beta= 0.30
     Davidson diagonalization with overlap
     ethr =  1.21E-07,  avg # of iterations =  1.0

     negative rho (up, down):  2.381E-04 0.000E+00
 
     Adding external electric field

     Computed dipole along edir(3) : 
        Dipole                0.0202 Ry au,          0.0512 Debye
        Dipole field          0.0001 Ry au, 
 
        Potential amp.       -0.0064 Ry
        Total length         63.9630 bohr
 

     total cpu time spent up to now is     1759.4 secs

     total energy              =   -3891.04643407 Ry
     estimated scf accuracy    <       0.00001985 Ry

     iteration # 25     ecut=    52.00 Ry     beta= 0.30
     Davidson diagonalization with overlap
     ethr =  6.13E-09,  avg # of iterations =  2.2

     negative rho (up, down):  1.406E-04 0.000E+00
 
     Adding external electric field

     Computed dipole along edir(3) : 
        Dipole                0.0184 Ry au,          0.0467 Debye
        Dipole field          0.0000 Ry au, 
 
        Potential amp.       -0.0058 Ry
        Total length         63.9630 bohr
 

     total cpu time spent up to now is     1821.6 secs

     total energy              =   -3891.04643974 Ry
     estimated scf accuracy    <       0.00006491 Ry

     iteration # 26     ecut=    52.00 Ry     beta= 0.30
     Davidson diagonalization with overlap
     ethr =  6.13E-09,  avg # of iterations =  4.7

     negative rho (up, down):  1.427E-04 0.000E+00
 
     Adding external electric field

     Computed dipole along edir(3) : 
        Dipole                0.0187 Ry au,          0.0476 Debye
        Dipole field          0.0000 Ry au, 
 
        Potential amp.       -0.0060 Ry
        Total length         63.9630 bohr
 

     total cpu time spent up to now is     1890.1 secs

     total energy              =   -3891.04644023 Ry
     estimated scf accuracy    <       0.00000240 Ry

     iteration # 27     ecut=    52.00 Ry     beta= 0.30
     Davidson diagonalization with overlap
     ethr =  7.40E-10,  avg # of iterations =  2.0

     negative rho (up, down):  1.650E-04 0.000E+00
 
     Adding external electric field

     Computed dipole along edir(3) : 
        Dipole                0.0192 Ry au,          0.0487 Debye
        Dipole field          0.0000 Ry au, 
 
        Potential amp.       -0.0061 Ry
        Total length         63.9630 bohr
 

     total cpu time spent up to now is     1951.1 secs

     total energy              =   -3891.04644015 Ry
     estimated scf accuracy    <       0.00000161 Ry

     iteration # 28     ecut=    52.00 Ry     beta= 0.30
     Davidson diagonalization with overlap
     ethr =  4.96E-10,  avg # of iterations =  1.0

     negative rho (up, down):  2.019E-04 0.000E+00
 
     Adding external electric field

     Computed dipole along edir(3) : 
        Dipole                0.0198 Ry au,          0.0502 Debye
        Dipole field          0.0000 Ry au, 
 
        Potential amp.       -0.0063 Ry
        Total length         63.9630 bohr
 

     total cpu time spent up to now is     2006.8 secs

     total energy              =   -3891.04644010 Ry
     estimated scf accuracy    <       0.00000034 Ry

     iteration # 29     ecut=    52.00 Ry     beta= 0.30
     Davidson diagonalization with overlap
     ethr =  1.05E-10,  avg # of iterations =  1.4

     negative rho (up, down):  2.035E-04 0.000E+00
 
     Adding external electric field

     Computed dipole along edir(3) : 
        Dipole                0.0196 Ry au,          0.0498 Debye
        Dipole field          0.0000 Ry au, 
 
        Potential amp.       -0.0062 Ry
        Total length         63.9630 bohr
 

     total cpu time spent up to now is     2065.1 secs

     total energy              =   -3891.04644008 Ry
     estimated scf accuracy    <       0.00000130 Ry

     iteration # 30     ecut=    52.00 Ry     beta= 0.30
     Davidson diagonalization with overlap
     ethr =  1.05E-10,  avg # of iterations =  1.4

     negative rho (up, down):  1.830E-04 0.000E+00
 
     Adding external electric field

     Computed dipole along edir(3) : 
        Dipole                0.0191 Ry au,          0.0486 Debye
        Dipole field          0.0000 Ry au, 
 
        Potential amp.       -0.0061 Ry
        Total length         63.9630 bohr
 

     total cpu time spent up to now is     2122.9 secs

     total energy              =   -3891.04644011 Ry
     estimated scf accuracy    <       0.00000057 Ry

     iteration # 31     ecut=    52.00 Ry     beta= 0.30
     Davidson diagonalization with overlap
     ethr =  1.05E-10,  avg # of iterations =  1.0

     negative rho (up, down):  1.896E-04 0.000E+00
 
     Adding external electric field

     Computed dipole along edir(3) : 
        Dipole                0.0192 Ry au,          0.0487 Debye
        Dipole field          0.0000 Ry au, 
 
        Potential amp.       -0.0061 Ry
        Total length         63.9630 bohr
 

     total cpu time spent up to now is     2179.2 secs

     total energy              =   -3891.04644009 Ry
     estimated scf accuracy    <       0.00000006 Ry

     iteration # 32     ecut=    52.00 Ry     beta= 0.30
     Davidson diagonalization with overlap
     ethr =  1.80E-11,  avg # of iterations =  1.0

     negative rho (up, down):  1.831E-04 0.000E+00
 
     Adding external electric field

     Computed dipole along edir(3) : 
        Dipole                0.0190 Ry au,          0.0482 Debye
        Dipole field          0.0000 Ry au, 
 
        Potential amp.       -0.0060 Ry
        Total length         63.9630 bohr
 

     total cpu time spent up to now is     2234.5 secs

     total energy              =   -3891.04644011 Ry
     estimated scf accuracy    <       0.00000006 Ry

     iteration # 33     ecut=    52.00 Ry     beta= 0.30
     Davidson diagonalization with overlap
     ethr =  1.80E-11,  avg # of iterations =  1.0

     negative rho (up, down):  1.913E-04 0.000E+00
 
     Adding external electric field

     Computed dipole along edir(3) : 
        Dipole                0.0178 Ry au,          0.0453 Debye
        Dipole field          0.0000 Ry au, 
 
        Potential amp.       -0.0057 Ry
        Total length         63.9630 bohr
 

     total cpu time spent up to now is     2287.0 secs

     End of self-consistent calculation

          k = 0.0000 0.0000 0.0000 ( 32011 PWs)   bands (ev):

   -87.1291 -87.1195 -87.1107 -87.1107 -87.1105 -87.1105 -86.9159 -86.9156
   -86.9031 -86.9021 -86.9021 -86.9014 -50.6396 -50.6129 -50.6128 -50.6126
   -50.6124 -50.6103 -50.6103 -50.5850 -50.5850 -50.5595 -50.5593 -50.5588
   -50.5587 -50.5540 -50.5117 -50.5114 -50.4981 -50.4978 -50.3990 -50.3989
   -50.3985 -50.3985 -50.3962 -50.3962 -50.3960 -50.3960 -50.3370 -50.3345
   -50.3248 -50.3237 -50.3237 -50.3229 -50.3086 -50.3085 -50.3083 -50.3081
   -14.4070 -14.3150 -14.2138  -9.2533  -9.2533  -9.2532  -9.2185  -9.2185
    -9.2185  -9.1804  -9.1804  -9.1804  -8.1085  -8.1085  -8.1085  -8.0881
    -8.0880  -8.0880  -8.0528  -8.0528  -8.0528  -3.0730  -2.4755  -2.4615
    -1.7736  -1.5802  -1.3975  -1.3974  -1.3974  -1.3839  -1.3839  -1.3839
    -1.3598  -1.3598  -1.3598  -1.3064  -1.1391  -0.6742  -0.6741  -0.6551
    -0.6544  -0.6513  -0.6508  -0.3038  -0.3035  -0.3013  -0.3009  -0.1110
    -0.1097  -0.0966  -0.0947   0.1355   0.1880   0.1889   0.2342   0.2359
     0.3076   0.3093   0.3104   0.3120   0.3196   0.4594   0.4602   0.5119
     0.5143   0.6335   0.6337   0.6346   0.6346   0.6571   0.6572   0.6575
     0.6578   1.0831   1.0837   1.1998   1.2048   1.2358   1.2367   1.2376
     1.2383   1.3471   1.3629   1.5916   1.6490   1.6494   1.6936   1.7002
     1.8226   1.8231   1.8730   1.8741   1.8747   1.8758   1.8933   1.8933
     1.8967   1.8967   1.9102   1.9102   1.9394   1.9464   2.3841   2.3841
     2.3847   2.6495   2.6495   2.6496   2.8511   2.8515   2.8515   3.9877
     5.1999   6.4502   6.4502   6.4503   6.6005   6.6005   6.6005   6.9026
     6.9033   6.9033   8.4066   8.4075   8.5246   8.5992   8.5995   8.6007
     8.6008   8.6845   9.0923   9.3851   9.3868   9.3874   9.3883   9.7387
     9.7900   9.7907  10.5813  10.8267  11.0518  11.0532  11.0564  11.0579
    11.2853  11.2857

          k = 0.0000 0.1925 0.0000 ( 32019 PWs)   bands (ev):

   -87.1278 -87.1186 -87.1123 -87.1118 -87.1103 -87.1102 -86.9149 -86.9145
   -86.9036 -86.9027 -86.9025 -86.9019 -50.6365 -50.6302 -50.6245 -50.6235
   -50.6185 -50.5945 -50.5876 -50.5769 -50.5722 -50.5626 -50.5564 -50.5559
   -50.5542 -50.5513 -50.5207 -50.5157 -50.5090 -50.5007 -50.4164 -50.4160
   -50.4111 -50.4108 -50.3756 -50.3752 -50.3731 -50.3727 -50.3358 -50.3338
   -50.3252 -50.3243 -50.3241 -50.3234 -50.3198 -50.3195 -50.3113 -50.3113
   -14.2452 -14.1541 -14.0539 -10.4868 -10.4188 -10.3419  -9.6389  -9.6389
    -9.5802  -9.5802  -9.5132  -9.5132  -7.5109  -7.5109  -7.4651  -7.4651
    -7.4092  -7.4091  -6.6967  -6.6492  -6.5921  -2.8784  -2.2708  -2.2248
    -1.8789  -1.8789  -1.8612  -1.8612  -1.8331  -1.8331  -1.5877  -1.3596
    -1.2392  -1.2259  -1.2020  -1.1277  -0.9532  -0.9510  -0.8249  -0.7674
    -0.7598  -0.6837  -0.5495  -0.4486  -0.3736  -0.3492  -0.3219  -0.2565
    -0.1602  -0.1405  -0.1368   0.0175   0.1010   0.1310   0.2085   0.2557
     0.3200   0.3345   0.3459   0.3789   0.4035   0.4289   0.4369   0.4673
     0.5109   0.5770   0.5775   0.6392   0.6581   0.7529   0.8419   0.9057
     0.9713   1.0178   1.0251   1.1270   1.1351   1.2032   1.2433   1.2457
     1.2528   1.2705   1.3072   1.3183   1.3370   1.3906   1.4778   1.5063
     1.5361   1.5638   1.5694   1.5855   1.6279   1.6764   1.6937   1.8329
     1.8378   1.8387   1.8983   1.9377   1.9620   2.0172   2.0831   2.1978
     2.1983   2.2907   2.3101   2.5476   2.5476   2.8689   2.8693   4.3511
     5.7265   5.8609   6.6574   6.6575   6.7382   6.8637   6.8638   7.0057
     7.1753   7.1757   7.3467   7.3702   7.6599   7.9223   8.0224   8.1528
     8.3965   8.7402   8.8865   9.3160   9.6931   9.8644   9.9376  10.2247
    10.2916  10.4647  10.7841  11.0080  11.2580  11.2930  11.3374  11.4914
    11.9966  12.1173

          k = 0.0000 0.3849 0.0000 ( 32055 PWs)   bands (ev):

   -87.1244 -87.1163 -87.1155 -87.1131 -87.1112 -87.1105 -86.9121 -86.9117
   -86.9052 -86.9048 -86.9033 -86.9030 -50.6433 -50.6360 -50.6284 -50.6219
   -50.6144 -50.5888 -50.5787 -50.5676 -50.5661 -50.5552 -50.5529 -50.5505
   -50.5416 -50.5401 -50.5374 -50.5368 -50.5222 -50.5096 -50.4289 -50.4288
   -50.4056 -50.4052 -50.3537 -50.3535 -50.3505 -50.3499 -50.3483 -50.3481
   -50.3328 -50.3315 -50.3266 -50.3260 -50.3249 -50.3244 -50.3201 -50.3201
   -13.7615 -13.6733 -13.5759 -11.8592 -11.7821 -11.6960 -10.0425 -10.0424
    -9.9773  -9.9773  -9.9032  -9.9031  -6.3812  -6.3812  -6.3388  -6.3388
    -6.2871  -6.2870  -4.6316  -4.5929  -4.5447  -3.0059  -3.0059  -2.9815
    -2.9815  -2.9470  -2.9470  -2.2993  -1.7037  -1.5682  -1.2005  -1.1009
    -1.0951  -1.0363  -0.8698  -0.8185  -0.7977  -0.7783  -0.7682  -0.7657
    -0.7425  -0.7157  -0.6305  -0.6065  -0.5660  -0.4619  -0.3858  -0.3797
    -0.3632  -0.3365  -0.2612  -0.2391  -0.2289  -0.1220  -0.0788  -0.0763
    -0.0674   0.0325   0.1493   0.1637   0.2102   0.2430   0.3161   0.3582
     0.3717   0.4530   0.4572   0.5628   0.5735   0.6175   0.6964   0.7090
     0.7205   0.7546   0.7913   0.7926   0.8016   0.8212   0.9097   0.9263
     0.9704   0.9886   1.0364   1.1614   1.1813   1.2356   1.3122   1.3640
     1.4038   1.4080   1.4469   1.6078   1.6256   1.7149   1.7512   1.7855
     1.8728   1.8980   1.9104   1.9332   1.9338   1.9836   1.9959   2.0320
     2.0944   2.1258   2.3678   2.3679   2.8183   2.8190   3.0473   3.6334
     4.3504   5.2043   5.7091   5.8505   6.3377   6.8626   6.9673   7.1703
     7.1707   7.1924   7.4019   7.4019   7.6625   7.6629   7.9849   9.1968
     9.3824   9.4473   9.4936   9.7232   9.7871   9.9883  10.0373  10.3456
    10.5372  10.5909  11.3922  11.5743  11.8127  11.8427  12.0074  12.2681
    12.3377  12.4070

          k = 0.0000-0.5774 0.0000 ( 32112 PWs)   bands (ev):

   -87.1199 -87.1199 -87.1137 -87.1135 -87.1135 -87.1106 -86.9095 -86.9081
   -86.9081 -86.9074 -86.9036 -86.9035 -50.6481 -50.6408 -50.6200 -50.6199
   -50.5936 -50.5935 -50.5804 -50.5744 -50.5743 -50.5586 -50.5481 -50.5460
   -50.5459 -50.5363 -50.5363 -50.5274 -50.5240 -50.5239 -50.4334 -50.4332
   -50.3826 -50.3814 -50.3814 -50.3807 -50.3409 -50.3407 -50.3355 -50.3346
   -50.3345 -50.3338 -50.3304 -50.3288 -50.3288 -50.3280 -50.3254 -50.3249
   -12.9620 -12.9619 -12.8784 -12.8784 -12.7858 -12.7858 -10.1864 -10.1863
   -10.1197 -10.1197 -10.0441 -10.0441  -5.5326  -5.5326  -5.5113  -5.5113
    -5.4823  -5.4823  -3.8585  -3.8585  -3.8454  -3.8454  -3.8210  -3.8210
    -2.4562  -2.4562  -2.4287  -2.4287  -2.3912  -2.3912  -1.3540  -1.3522
    -1.3518  -1.2627  -1.1973  -0.9405  -0.9044  -0.9037  -0.7972  -0.7792
    -0.7792  -0.6882  -0.6874  -0.5128  -0.5077  -0.5075  -0.4695  -0.4689
    -0.3757  -0.3751  -0.2341  -0.2332  -0.1416  -0.1412  -0.0639  -0.0639
    -0.0526  -0.0526  -0.0307  -0.0307   0.0437   0.0444   0.0489   0.0873
     0.1205   0.1217   0.2977   0.2984   0.3092   0.3408   0.3419   0.3933
     0.3957   0.6394   0.6396   0.6983   0.6995   0.8779   0.9418   0.9438
     0.9456   1.1329   1.1343   1.2515   1.2638   1.2642   1.5039   1.5345
     1.5345   1.6280   1.6283   1.7221   1.7313   1.7317   1.8264   1.8270
     1.8918   1.8966   1.8972   1.9981   2.0194   2.0800   2.0806   2.1076
     2.2518   2.2666   2.2872   2.2872   2.5432   2.5438   2.7785   2.7792
     4.1316   4.1320   5.0904   5.9030   6.3805   6.3816   6.4431   6.6449
     7.4822   7.4825   7.6844   7.6844   7.8791   7.8795   8.5592   8.5612
     9.0790   9.6305  10.3564  10.4272  10.4276  10.5262  10.5267  11.1005
    11.1008  11.5417  11.5421  11.5794  11.7796  11.7802  11.9204  11.9215
    12.1699  12.1719

          k = 0.1667-0.0962 0.0000 ( 32019 PWs)   bands (ev):

   -87.1278 -87.1186 -87.1123 -87.1119 -87.1102 -87.1102 -86.9149 -86.9145
   -86.9036 -86.9027 -86.9025 -86.9019 -50.6365 -50.6298 -50.6247 -50.6235
   -50.6189 -50.5939 -50.5878 -50.5774 -50.5721 -50.5626 -50.5565 -50.5559
   -50.5538 -50.5515 -50.5209 -50.5155 -50.5090 -50.5007 -50.4164 -50.4160
   -50.4110 -50.4108 -50.3757 -50.3752 -50.3730 -50.3727 -50.3358 -50.3338
   -50.3252 -50.3243 -50.3241 -50.3234 -50.3197 -50.3195 -50.3115 -50.3111
   -14.2452 -14.1541 -14.0539 -10.4868 -10.4188 -10.3419  -9.6389  -9.6389
    -9.5802  -9.5802  -9.5132  -9.5132  -7.5109  -7.5109  -7.4651  -7.4651
    -7.4092  -7.4091  -6.6967  -6.6492  -6.5921  -2.8784  -2.2708  -2.2248
    -1.8789  -1.8789  -1.8612  -1.8612  -1.8331  -1.8331  -1.5877  -1.3593
    -1.2392  -1.2259  -1.2020  -1.1279  -0.9526  -0.9510  -0.8261  -0.7683
    -0.7590  -0.6842  -0.5481  -0.4488  -0.3756  -0.3503  -0.3192  -0.2568
    -0.1593  -0.1392  -0.1383   0.0176   0.1007   0.1301   0.2082   0.2561
     0.3194   0.3345   0.3477   0.3790   0.4043   0.4284   0.4368   0.4674
     0.5107   0.5759   0.5777   0.6392   0.6585   0.7520   0.8415   0.9080
     0.9736   1.0166   1.0253   1.1281   1.1319   1.2059   1.2446   1.2457
     1.2528   1.2705   1.3073   1.3166   1.3367   1.3906   1.4762   1.5062
     1.5349   1.5637   1.5694   1.5855   1.6258   1.6780   1.6947   1.8329
     1.8373   1.8387   1.8986   1.9363   1.9630   2.0175   2.0818   2.1978
     2.1983   2.2907   2.3120   2.5476   2.5476   2.8689   2.8693   4.3511
     5.7267   5.8608   6.6574   6.6575   6.7376   6.8637   6.8638   7.0032
     7.1753   7.1757   7.3508   7.3702   7.6599   7.9217   8.0224   8.1531
     8.4003   8.7402   8.8865   9.3160   9.6867   9.8622   9.9375  10.2274
    10.2925  10.4645  10.7841  11.0080  11.2595  11.2884  11.3361  11.4916
    11.9966  12.1173

          k = 0.1667 0.0962 0.0000 ( 32019 PWs)   bands (ev):

   -87.1278 -87.1186 -87.1123 -87.1119 -87.1102 -87.1102 -86.9149 -86.9145
   -86.9036 -86.9027 -86.9025 -86.9019 -50.6365 -50.6301 -50.6246 -50.6235
   -50.6187 -50.5941 -50.5876 -50.5778 -50.5719 -50.5623 -50.5564 -50.5559
   -50.5536 -50.5519 -50.5208 -50.5156 -50.5088 -50.5009 -50.4165 -50.4162
   -50.4109 -50.4106 -50.3758 -50.3754 -50.3729 -50.3725 -50.3358 -50.3338
   -50.3252 -50.3243 -50.3241 -50.3234 -50.3195 -50.3193 -50.3115 -50.3114
   -14.2452 -14.1541 -14.0539 -10.4868 -10.4188 -10.3419  -9.6389  -9.6389
    -9.5802  -9.5802  -9.5132  -9.5132  -7.5109  -7.5109  -7.4651  -7.4651
    -7.4092  -7.4091  -6.6967  -6.6492  -6.5921  -2.8784  -2.2708  -2.2249
    -1.8789  -1.8789  -1.8612  -1.8612  -1.8331  -1.8331  -1.5877  -1.3593
    -1.2392  -1.2259  -1.2020  -1.1284  -0.9539  -0.9516  -0.8261  -0.7657
    -0.7583  -0.6838  -0.5480  -0.4481  -0.3775  -0.3516  -0.3197  -0.2566
    -0.1601  -0.1382  -0.1371   0.0190   0.1004   0.1311   0.2061   0.2587
     0.3188   0.3334   0.3479   0.3797   0.4053   0.4324   0.4366   0.4651
     0.5109   0.5692   0.5786   0.6396   0.6610   0.7498   0.8396   0.9138
     0.9720   1.0159   1.0250   1.1312   1.1322   1.2027   1.2457   1.2461
     1.2528   1.2705   1.3070   1.3124   1.3342   1.3906   1.4767   1.5052
     1.5353   1.5637   1.5694   1.5855   1.6201   1.6828   1.6966   1.8329
     1.8378   1.8393   1.8970   1.9416   1.9622   2.0169   2.0845   2.1978
     2.1983   2.2907   2.3107   2.5476   2.5476   2.8689   2.8693   4.3504
     5.7260   5.8612   6.6574   6.6575   6.7377   6.8637   6.8638   7.0032
     7.1753   7.1757   7.3538   7.3702   7.6599   7.9152   8.0224   8.1548
     8.3902   8.7402   8.8865   9.3160   9.6960   9.8661   9.9376  10.2280
    10.2969  10.4584  10.7841  11.0080  11.2605  11.2901  11.3338  11.4912
    11.9966  12.1173

          k = 0.1667 0.2887 0.0000 ( 32043 PWs)   bands (ev):

   -87.1255 -87.1170 -87.1138 -87.1137 -87.1106 -87.1105 -86.9130 -86.9126
   -86.9045 -86.9036 -86.9036 -86.9029 -50.6321 -50.6319 -50.6309 -50.6264
   -50.6262 -50.5842 -50.5835 -50.5666 -50.5664 -50.5631 -50.5514 -50.5511
   -50.5433 -50.5429 -50.5354 -50.5297 -50.5210 -50.5053 -50.4183 -50.4181
   -50.4179 -50.4178 -50.3571 -50.3567 -50.3567 -50.3565 -50.3405 -50.3401
   -50.3336 -50.3320 -50.3260 -50.3251 -50.3250 -50.3243 -50.3166 -50.3165
   -13.9225 -13.8333 -13.7350 -11.0881 -11.0880 -11.0158 -11.0157 -10.9344
   -10.9344  -8.8342  -8.8011  -8.7642  -7.7275  -7.7104  -7.6789  -5.6179
    -5.6179  -5.5756  -5.5756  -5.5238  -5.5238  -3.1901  -3.1642  -3.1283
    -2.4915  -1.8918  -1.7784  -1.5573  -1.5573  -1.5405  -1.5405  -1.5132
    -1.5132  -1.2190  -1.0395  -1.0133  -1.0126  -0.9037  -0.9030  -0.8679
    -0.8676  -0.8449  -0.6686  -0.5594  -0.5567  -0.3658  -0.3637  -0.3519
    -0.3510  -0.1863  -0.1378  -0.1339  -0.0102   0.0295   0.2223   0.2295
     0.2393   0.2431   0.2463   0.3170   0.3845   0.4062   0.4147   0.4631
     0.4910   0.4972   0.5416   0.5631   0.6228   0.6489   0.6505   0.7753
     0.7849   0.7853   0.8601   0.9094   0.9138   0.9288   1.0101   1.0295
     1.0309   1.1199   1.1222   1.1226   1.2424   1.2795   1.2795   1.2942
     1.2962   1.3688   1.3947   1.3964   1.5113   1.5125   1.5781   1.5814
     1.6092   1.6925   1.8122   1.8126   1.8733   1.8738   1.9663   2.0109
     2.0126   2.1395   2.1407   2.8139   2.9678   3.2315   3.4265   4.7187
     4.7191   4.9390   5.5021   5.5032   6.3216   6.3703   6.5344   6.5873
     6.9036   6.9083   8.2913   8.2918   8.5718   8.5719   8.6763   8.6794
     8.8898   8.8901   9.1695   9.2904   9.7632   9.7640   9.7687  10.3367
    10.5380  10.5432  11.1911  11.3389  11.3445  11.3827  12.4330  12.4507
    12.6064  12.7923

          k = 0.1667-0.6736 0.0000 ( 32075 PWs)   bands (ev):

   -87.1216 -87.1173 -87.1147 -87.1145 -87.1120 -87.1110 -86.9100 -86.9094
   -86.9063 -86.9061 -86.9043 -86.9041 -50.6388 -50.6331 -50.6228 -50.6217
   -50.6144 -50.5870 -50.5842 -50.5830 -50.5628 -50.5569 -50.5521 -50.5466
   -50.5443 -50.5428 -50.5309 -50.5278 -50.5277 -50.5144 -50.4246 -50.4240
   -50.4028 -50.4022 -50.3729 -50.3723 -50.3411 -50.3408 -50.3400 -50.3398
   -50.3309 -50.3299 -50.3275 -50.3271 -50.3262 -50.3260 -50.3259 -50.3253
   -13.2808 -13.1954 -13.1009 -12.3293 -12.2495 -12.1607 -11.3954 -11.3211
   -11.2378  -8.7911  -8.7377  -8.6759  -6.9255  -6.8919  -6.8492  -4.5665
    -4.5419  -4.5068  -4.5028  -4.4738  -4.4357  -3.5250  -3.4940  -3.4533
    -2.4305  -2.4123  -2.3836  -1.7275  -1.4748  -1.4568  -1.4295  -1.2410
    -1.1923  -1.1768  -1.1445  -1.1028  -0.9657  -0.9353  -0.9259  -0.9207
    -0.8955  -0.8732  -0.8682  -0.8412  -0.7041  -0.6861  -0.6121  -0.5853
    -0.5076  -0.4942  -0.4457  -0.3861  -0.3391  -0.3121  -0.1639  -0.0661
    -0.0601  -0.0560  -0.0355  -0.0176   0.0309   0.0315   0.1734   0.2514
     0.2864   0.3498   0.3556   0.4014   0.4210   0.4666   0.4861   0.5506
     0.6219   0.7169   0.7878   0.7966   0.8528   0.9049   0.9423   0.9500
     0.9836   1.0572   1.1108   1.1147   1.1298   1.1644   1.2464   1.3245
     1.4192   1.4618   1.4652   1.5487   1.5656   1.5768   1.5994   1.6759
     1.7730   1.8287   1.8382   1.8568   1.8913   1.9222   1.9677   2.0027
     2.0235   2.0469   2.1421   2.7311   3.2819   3.3670   3.6310   3.6381
     3.8356   3.9568   4.5898   4.9709   5.9007   6.0364   6.0491   6.2109
     6.4084   7.2145   7.8864   7.9518   9.0444   9.2506   9.4565   9.4945
     9.5757  10.0124  10.1096  10.1694  10.4810  10.6577  10.7015  10.8759
    10.9410  11.1421  11.2245  11.3846  11.8443  11.9965  12.0558  12.1220
    12.1590  12.3634

          k = 0.1667-0.4811 0.0000 ( 32075 PWs)   bands (ev):

   -87.1216 -87.1173 -87.1147 -87.1145 -87.1120 -87.1110 -86.9100 -86.9094
   -86.9063 -86.9061 -86.9043 -86.9041 -50.6388 -50.6331 -50.6228 -50.6217
   -50.6143 -50.5872 -50.5839 -50.5830 -50.5629 -50.5569 -50.5521 -50.5466
   -50.5443 -50.5430 -50.5308 -50.5279 -50.5278 -50.5142 -50.4246 -50.4240
   -50.4028 -50.4021 -50.3730 -50.3725 -50.3411 -50.3408 -50.3401 -50.3400
   -50.3309 -50.3299 -50.3274 -50.3270 -50.3260 -50.3259 -50.3259 -50.3253
   -13.2808 -13.1954 -13.1009 -12.3293 -12.2495 -12.1607 -11.3954 -11.3211
   -11.2378  -8.7911  -8.7377  -8.6759  -6.9255  -6.8919  -6.8492  -4.5665
    -4.5419  -4.5068  -4.5028  -4.4738  -4.4357  -3.5250  -3.4940  -3.4533
    -2.4305  -2.4123  -2.3836  -1.7275  -1.4748  -1.4568  -1.4295  -1.2409
    -1.1915  -1.1770  -1.1445  -1.1029  -0.9666  -0.9353  -0.9265  -0.9207
    -0.8955  -0.8723  -0.8675  -0.8408  -0.7026  -0.6864  -0.6121  -0.5855
    -0.5070  -0.4942  -0.4460  -0.3892  -0.3380  -0.3128  -0.1649  -0.0661
    -0.0601  -0.0560  -0.0355  -0.0188   0.0272   0.0322   0.1770   0.2515
     0.2881   0.3513   0.3544   0.3946   0.4193   0.4666   0.4885   0.5506
     0.6225   0.7237   0.7950   0.7977   0.8498   0.9003   0.9426   0.9513
     0.9836   1.0557   1.1086   1.1146   1.1304   1.1627   1.2473   1.3255
     1.4206   1.4629   1.4660   1.5487   1.5673   1.5772   1.5955   1.6754
     1.7696   1.8281   1.8381   1.8580   1.8966   1.9235   1.9668   2.0017
     2.0225   2.0461   2.1388   2.7312   3.2819   3.3672   3.6310   3.6375
     3.8356   3.9568   4.5898   4.9727   5.9026   6.0367   6.0491   6.2109
     6.4084   7.2133   7.8867   7.9547   9.0444   9.2506   9.4565   9.4944
     9.5715  10.0125  10.1097  10.1693  10.4810  10.6578  10.7015  10.8759
    10.9410  11.1421  11.2238  11.3846  11.8443  11.9967  12.0560  12.1196
    12.1591  12.3633

          k = 0.1667-0.2887 0.0000 ( 32043 PWs)   bands (ev):

   -87.1255 -87.1170 -87.1137 -87.1137 -87.1106 -87.1105 -86.9130 -86.9126
   -86.9045 -86.9036 -86.9036 -86.9029 -50.6321 -50.6317 -50.6309 -50.6265
   -50.6263 -50.5840 -50.5835 -50.5666 -50.5665 -50.5632 -50.5516 -50.5514
   -50.5430 -50.5429 -50.5353 -50.5300 -50.5209 -50.5051 -50.4183 -50.4181
   -50.4179 -50.4178 -50.3571 -50.3568 -50.3567 -50.3566 -50.3405 -50.3404
   -50.3336 -50.3320 -50.3260 -50.3251 -50.3250 -50.3243 -50.3165 -50.3162
   -13.9225 -13.8333 -13.7350 -11.0881 -11.0880 -11.0158 -11.0157 -10.9344
   -10.9344  -8.8342  -8.8011  -8.7642  -7.7275  -7.7104  -7.6789  -5.6179
    -5.6179  -5.5756  -5.5756  -5.5238  -5.5238  -3.1901  -3.1642  -3.1283
    -2.4915  -1.8918  -1.7781  -1.5573  -1.5573  -1.5405  -1.5405  -1.5132
    -1.5132  -1.2190  -1.0395  -1.0130  -1.0123  -0.9046  -0.9038  -0.8681
    -0.8678  -0.8430  -0.6658  -0.5575  -0.5566  -0.3683  -0.3672  -0.3514
    -0.3510  -0.1904  -0.1368  -0.1356  -0.0117   0.0297   0.2223   0.2295
     0.2431   0.2445   0.2463   0.3133   0.3849   0.4055   0.4069   0.4645
     0.4922   0.4932   0.5462   0.5624   0.6203   0.6584   0.6586   0.7756
     0.7849   0.7853   0.8594   0.9094   0.9138   0.9288   1.0050   1.0298
     1.0316   1.1191   1.1212   1.1242   1.2407   1.2795   1.2795   1.2948
     1.2957   1.3752   1.3988   1.3990   1.5108   1.5121   1.5744   1.5762
     1.6137   1.6897   1.8122   1.8126   1.8747   1.8753   1.9623   2.0109
     2.0121   2.1373   2.1385   2.8141   2.9678   3.2315   3.4265   4.7187
     4.7190   4.9407   5.5022   5.5036   6.3216   6.3703   6.5344   6.5893
     6.9075   6.9086   8.2913   8.2918   8.5718   8.5719   8.6800   8.6825
     8.8898   8.8901   9.1696   9.2904   9.7596   9.7632   9.7640  10.3366
    10.5370  10.5385  11.1912  11.3391  11.3447  11.3825  12.4346  12.4372
    12.6064  12.7924

          k = 0.3333-0.1925 0.0000 ( 32055 PWs)   bands (ev):

   -87.1244 -87.1163 -87.1155 -87.1132 -87.1112 -87.1104 -86.9121 -86.9117
   -86.9052 -86.9048 -86.9033 -86.9030 -50.6430 -50.6360 -50.6283 -50.6220
   -50.6148 -50.5883 -50.5792 -50.5679 -50.5660 -50.5552 -50.5529 -50.5503
   -50.5415 -50.5402 -50.5374 -50.5368 -50.5220 -50.5096 -50.4290 -50.4287
   -50.4055 -50.4052 -50.3538 -50.3534 -50.3503 -50.3501 -50.3484 -50.3480
   -50.3328 -50.3316 -50.3265 -50.3261 -50.3248 -50.3245 -50.3203 -50.3199
   -13.7615 -13.6733 -13.5759 -11.8592 -11.7821 -11.6960 -10.0425 -10.0424
    -9.9773  -9.9773  -9.9032  -9.9031  -6.3812  -6.3812  -6.3388  -6.3388
    -6.2871  -6.2870  -4.6316  -4.5929  -4.5447  -3.0059  -3.0059  -2.9815
    -2.9815  -2.9470  -2.9470  -2.2993  -1.7037  -1.5680  -1.2005  -1.1013
    -1.0950  -1.0363  -0.8686  -0.8195  -0.7993  -0.7783  -0.7678  -0.7657
    -0.7425  -0.7170  -0.6291  -0.6060  -0.5663  -0.4617  -0.3863  -0.3797
    -0.3632  -0.3365  -0.2608  -0.2382  -0.2284  -0.1221  -0.0788  -0.0786
    -0.0658   0.0313   0.1486   0.1653   0.2098   0.2441   0.3157   0.3565
     0.3749   0.4530   0.4553   0.5621   0.5766   0.6178   0.6964   0.7093
     0.7198   0.7548   0.7926   0.7945   0.8016   0.8212   0.9086   0.9240
     0.9697   0.9879   1.0364   1.1616   1.1805   1.2350   1.3112   1.3635
     1.4050   1.4077   1.4474   1.6091   1.6271   1.7145   1.7496   1.7848
     1.8728   1.8985   1.9090   1.9332   1.9338   1.9834   1.9973   2.0309
     2.0927   2.1265   2.3678   2.3679   2.8183   2.8190   3.0488   3.6334
     4.3499   5.2044   5.7056   5.8511   6.3446   6.8604   6.9677   7.1704
     7.1707   7.1966   7.4019   7.4019   7.6625   7.6629   7.9850   9.1900
     9.3824   9.4473   9.4936   9.7232   9.7879   9.9883  10.0373  10.3465
    10.5371  10.5848  11.3922  11.5741  11.8155  11.8430  12.0073  12.2681
    12.3358  12.4034

          k = 0.3333-0.0000 0.0000 ( 32043 PWs)   bands (ev):

   -87.1255 -87.1170 -87.1137 -87.1137 -87.1106 -87.1105 -86.9130 -86.9126
   -86.9045 -86.9036 -86.9036 -86.9029 -50.6320 -50.6317 -50.6308 -50.6265
   -50.6264 -50.5838 -50.5836 -50.5669 -50.5668 -50.5634 -50.5511 -50.5509
   -50.5434 -50.5430 -50.5354 -50.5297 -50.5208 -50.5053 -50.4184 -50.4181
   -50.4179 -50.4178 -50.3570 -50.3569 -50.3567 -50.3565 -50.3403 -50.3402
   -50.3336 -50.3321 -50.3260 -50.3251 -50.3250 -50.3243 -50.3167 -50.3164
   -13.9225 -13.8333 -13.7350 -11.0881 -11.0880 -11.0158 -11.0157 -10.9344
   -10.9344  -8.8342  -8.8011  -8.7642  -7.7275  -7.7104  -7.6789  -5.6179
    -5.6179  -5.5756  -5.5756  -5.5238  -5.5238  -3.1901  -3.1642  -3.1283
    -2.4915  -1.8918  -1.7782  -1.5573  -1.5573  -1.5405  -1.5405  -1.5132
    -1.5132  -1.2190  -1.0383  -1.0134  -1.0122  -0.9037  -0.9032  -0.8682
    -0.8679  -0.8456  -0.6695  -0.5599  -0.5579  -0.3645  -0.3634  -0.3517
    -0.3508  -0.1873  -0.1382  -0.1355  -0.0100   0.0298   0.2223   0.2295
     0.2412   0.2455   0.2463   0.3168   0.3844   0.4056   0.4134   0.4637
     0.4921   0.4973   0.5423   0.5630   0.6239   0.6480   0.6494   0.7754
     0.7849   0.7853   0.8602   0.9094   0.9138   0.9288   1.0088   1.0302
     1.0319   1.1205   1.1227   1.1230   1.2427   1.2795   1.2795   1.2947
     1.2961   1.3682   1.3932   1.3947   1.5109   1.5111   1.5800   1.5819
     1.6068   1.6938   1.8122   1.8126   1.8733   1.8744   1.9650   2.0118
     2.0124   2.1380   2.1404   2.8158   2.9678   3.2315   3.4265   4.7187
     4.7188   4.9391   5.5029   5.5033   6.3216   6.3703   6.5344   6.5878
     6.9039   6.9081   8.2913   8.2918   8.5718   8.5719   8.6766   8.6820
     8.8898   8.8901   9.1696   9.2904   9.7596   9.7640   9.7686  10.3367
    10.5380  10.5433  11.1912  11.3384  11.3400  11.3826  12.4354  12.4505
    12.6064  12.7925

          k = 0.3333 0.1925 0.0000 ( 32055 PWs)   bands (ev):

   -87.1244 -87.1163 -87.1155 -87.1132 -87.1112 -87.1104 -86.9121 -86.9117
   -86.9052 -86.9048 -86.9033 -86.9030 -50.6433 -50.6360 -50.6283 -50.6220
   -50.6147 -50.5882 -50.5797 -50.5678 -50.5658 -50.5549 -50.5529 -50.5501
   -50.5413 -50.5407 -50.5373 -50.5366 -50.5220 -50.5098 -50.4290 -50.4289
   -50.4054 -50.4051 -50.3539 -50.3536 -50.3503 -50.3497 -50.3481 -50.3479
   -50.3328 -50.3315 -50.3265 -50.3260 -50.3249 -50.3245 -50.3203 -50.3203
   -13.7615 -13.6733 -13.5759 -11.8592 -11.7821 -11.6960 -10.0425 -10.0424
    -9.9773  -9.9773  -9.9032  -9.9031  -6.3812  -6.3812  -6.3388  -6.3388
    -6.2871  -6.2870  -4.6316  -4.5929  -4.5447  -3.0059  -3.0059  -2.9815
    -2.9815  -2.9470  -2.9470  -2.2993  -1.7037  -1.5682  -1.2003  -1.1009
    -1.0956  -1.0363  -0.8688  -0.8184  -0.7975  -0.7783  -0.7666  -0.7657
    -0.7425  -0.7189  -0.6296  -0.6045  -0.5678  -0.4599  -0.3880  -0.3797
    -0.3632  -0.3365  -0.2600  -0.2381  -0.2260  -0.1223  -0.0837  -0.0788
    -0.0633   0.0307   0.1434   0.1620   0.2102   0.2434   0.3163   0.3557
     0.3772   0.4530   0.4605   0.5659   0.5712   0.6159   0.6968   0.7127
     0.7206   0.7557   0.7926   0.8016   0.8021   0.8212   0.9025   0.9157
     0.9694   0.9932   1.0364   1.1636   1.1744   1.2367   1.3076   1.3634
     1.4036   1.4059   1.4485   1.6170   1.6316   1.7124   1.7464   1.7845
     1.8708   1.8984   1.9128   1.9332   1.9338   1.9819   1.9988   2.0304
     2.0963   2.1274   2.3678   2.3679   2.8183   2.8190   3.0475   3.6336
     4.3501   5.2026   5.7096   5.8512   6.3524   6.8463   6.9659   7.1703
     7.1707   7.1784   7.4019   7.4019   7.6625   7.6629   7.9834   9.2048
     9.3824   9.4473   9.4936   9.7232   9.7950   9.9883  10.0372  10.3433
    10.5372  10.5858  11.3922  11.5743  11.8419  11.8426  12.0073  12.2681
    12.3371  12.4053

          k = 0.3333-0.7698 0.0000 ( 32075 PWs)   bands (ev):

   -87.1215 -87.1172 -87.1148 -87.1145 -87.1121 -87.1109 -86.9100 -86.9094
   -86.9062 -86.9061 -86.9043 -86.9041 -50.6387 -50.6330 -50.6228 -50.6218
   -50.6145 -50.5871 -50.5838 -50.5836 -50.5626 -50.5565 -50.5521 -50.5465
   -50.5443 -50.5429 -50.5309 -50.5280 -50.5276 -50.5145 -50.4248 -50.4241
   -50.4027 -50.4021 -50.3728 -50.3722 -50.3409 -50.3406 -50.3402 -50.3400
   -50.3309 -50.3298 -50.3274 -50.3270 -50.3262 -50.3261 -50.3259 -50.3254
   -13.2808 -13.1954 -13.1009 -12.3293 -12.2495 -12.1607 -11.3954 -11.3211
   -11.2378  -8.7911  -8.7377  -8.6759  -6.9255  -6.8919  -6.8492  -4.5665
    -4.5419  -4.5068  -4.5028  -4.4738  -4.4357  -3.5250  -3.4940  -3.4533
    -2.4305  -2.4123  -2.3836  -1.7275  -1.4748  -1.4568  -1.4295  -1.2402
    -1.1921  -1.1771  -1.1445  -1.1039  -0.9651  -0.9353  -0.9266  -0.9207
    -0.8955  -0.8733  -0.8678  -0.8391  -0.7048  -0.6837  -0.6121  -0.5884
    -0.5073  -0.4942  -0.4438  -0.3874  -0.3390  -0.3112  -0.1637  -0.0661
    -0.0601  -0.0560  -0.0355  -0.0179   0.0218   0.0383   0.1697   0.2522
     0.2812   0.3464   0.3542   0.4024   0.4299   0.4666   0.4884   0.5506
     0.6206   0.7139   0.7976   0.8026   0.8536   0.8950   0.9380   0.9547
     0.9836   1.0560   1.1122   1.1149   1.1269   1.1560   1.2471   1.3283
     1.4185   1.4624   1.4641   1.5487   1.5715   1.5770   1.5992   1.6770
     1.7709   1.8273   1.8396   1.8590   1.8919   1.9254   1.9660   2.0050
     2.0211   2.0465   2.1410   2.7311   3.2819   3.3663   3.6310   3.6376
     3.8358   3.9568   4.5920   4.9729   5.9000   6.0290   6.0491   6.2109
     6.4084   7.2122   7.8837   7.9513   9.0444   9.2506   9.4565   9.5004
     9.5718  10.0124  10.1096  10.1764  10.4810  10.6577  10.7015  10.8703
    10.9410  11.1421  11.2241  11.3845  11.8437  11.9965  12.0800  12.1203
    12.1591  12.3639

          k = 0.3333-0.5774 0.0000 ( 32121 PWs)   bands (ev):

   -87.1180 -87.1179 -87.1179 -87.1124 -87.1124 -87.1124 -86.9086 -86.9067
   -86.9066 -86.9066 -86.9059 -86.9059 -50.6229 -50.6228 -50.6227 -50.6162
   -50.6161 -50.6160 -50.5827 -50.5823 -50.5822 -50.5500 -50.5499 -50.5498
   -50.5393 -50.5391 -50.5391 -50.5200 -50.5199 -50.5198 -50.4036 -50.4034
   -50.4029 -50.4026 -50.4025 -50.4019 -50.3332 -50.3331 -50.3328 -50.3326
   -50.3324 -50.3319 -50.3299 -50.3277 -50.3277 -50.3277 -50.3268 -50.3268
   -12.4872 -12.4872 -12.4871 -12.4065 -12.4064 -12.4064 -12.3167 -12.3167
   -12.3166  -7.6142  -7.5568  -7.5558  -7.5529  -7.5449  -7.4914  -5.3787
    -5.3752  -5.3677  -2.7920  -2.7920  -2.7919  -2.7779  -2.7779  -2.7779
    -2.7549  -2.7549  -2.7549  -1.3861  -1.3861  -1.3861  -1.3776  -1.3775
    -1.3775  -1.3581  -1.3581  -1.3581  -1.1385  -1.1377  -1.1374  -1.1015
    -1.1007  -1.1006  -0.9224  -0.9222  -0.9211  -0.7925  -0.7920  -0.7920
    -0.7408  -0.7403  -0.7391  -0.5729  -0.5727  -0.5701  -0.3052  -0.3049
    -0.3043  -0.2337  -0.2337  -0.2337   0.1159   0.1206   0.1211   0.3134
     0.3208   0.3216   0.3853   0.3853   0.3859   0.4195   0.4215   0.4225
     0.5392   0.5411   0.5457   0.9251   0.9268   0.9305   0.9618   0.9663
     0.9673   1.2953   1.2957   1.2967   1.3636   1.3654   1.3658   1.5506
     1.5512   1.5537   1.6089   1.6092   1.6096   1.6773   1.6777   1.6780
     1.7753   1.7755   1.7758   1.8104   1.8113   1.8117   2.0148   2.0156
     2.0164   2.0500   2.0507   2.0512   2.8163   2.8183   2.8186   4.5131
     4.6044   4.6064   4.6081   4.9349   4.9372   4.9434   4.9525   5.4031
     6.9189   6.9196   6.9216   9.2782   9.2802   9.2849  10.9698  10.9713
    10.9723  10.9971  10.9981  10.9986  11.1303  11.1304  11.1309  11.1575
    11.1576  11.1578  11.2889  11.2896  11.2898  11.6312  11.6319  11.6322
    11.9422  11.9429

          k = 0.3333-0.3849 0.0000 ( 32075 PWs)   bands (ev):

   -87.1216 -87.1172 -87.1148 -87.1145 -87.1121 -87.1109 -86.9100 -86.9094
   -86.9062 -86.9061 -86.9043 -86.9041 -50.6385 -50.6331 -50.6227 -50.6218
   -50.6146 -50.5873 -50.5837 -50.5834 -50.5628 -50.5567 -50.5521 -50.5467
   -50.5443 -50.5429 -50.5307 -50.5278 -50.5278 -50.5142 -50.4247 -50.4240
   -50.4027 -50.4021 -50.3730 -50.3725 -50.3410 -50.3409 -50.3401 -50.3399
   -50.3309 -50.3299 -50.3274 -50.3270 -50.3261 -50.3258 -50.3258 -50.3253
   -13.2808 -13.1954 -13.1009 -12.3293 -12.2495 -12.1607 -11.3954 -11.3211
   -11.2378  -8.7911  -8.7377  -8.6759  -6.9255  -6.8919  -6.8492  -4.5665
    -4.5419  -4.5068  -4.5028  -4.4738  -4.4357  -3.5250  -3.4940  -3.4533
    -2.4305  -2.4123  -2.3836  -1.7275  -1.4748  -1.4568  -1.4295  -1.2412
    -1.1915  -1.1777  -1.1445  -1.1026  -0.9658  -0.9353  -0.9262  -0.9207
    -0.8955  -0.8722  -0.8687  -0.8403  -0.7032  -0.6859  -0.6121  -0.5865
    -0.5070  -0.4942  -0.4458  -0.3892  -0.3375  -0.3119  -0.1645  -0.0661
    -0.0601  -0.0560  -0.0355  -0.0193   0.0264   0.0331   0.1769   0.2501
     0.2880   0.3518   0.3528   0.3969   0.4200   0.4666   0.4900   0.5506
     0.6225   0.7226   0.7978   0.7989   0.8498   0.8983   0.9419   0.9520
     0.9836   1.0544   1.1086   1.1144   1.1290   1.1611   1.2473   1.3267
     1.4203   1.4632   1.4659   1.5487   1.5679   1.5775   1.5954   1.6757
     1.7687   1.8282   1.8391   1.8589   1.8961   1.9232   1.9667   2.0006
     2.0221   2.0459   2.1393   2.7313   3.2819   3.3662   3.6310   3.6380
     3.8346   3.9568   4.5925   4.9739   5.9027   6.0357   6.0491   6.2109
     6.4084   7.2133   7.8893   7.9549   9.0444   9.2506   9.4565   9.4905
     9.5729  10.0125  10.1097  10.1694  10.4810  10.6578  10.7015  10.8700
    10.9410  11.1421  11.2242  11.3845  11.8437  11.9967  12.0581  12.1201
    12.1590  12.3638

          k =-0.5000 0.2887 0.0000 ( 32112 PWs)   bands (ev):

   -87.1199 -87.1199 -87.1137 -87.1135 -87.1135 -87.1105 -86.9095 -86.9081
   -86.9081 -86.9074 -86.9036 -86.9035 -50.6477 -50.6407 -50.6200 -50.6199
   -50.5939 -50.5938 -50.5810 -50.5742 -50.5741 -50.5582 -50.5483 -50.5460
   -50.5459 -50.5362 -50.5361 -50.5274 -50.5240 -50.5239 -50.4335 -50.4331
   -50.3824 -50.3816 -50.3815 -50.3807 -50.3409 -50.3407 -50.3356 -50.3345
   -50.3344 -50.3339 -50.3304 -50.3288 -50.3288 -50.3280 -50.3253 -50.3249
   -12.9620 -12.9619 -12.8784 -12.8784 -12.7858 -12.7858 -10.1864 -10.1863
   -10.1197 -10.1197 -10.0441 -10.0441  -5.5326  -5.5326  -5.5113  -5.5113
    -5.4823  -5.4823  -3.8585  -3.8585  -3.8454  -3.8454  -3.8210  -3.8210
    -2.4562  -2.4562  -2.4287  -2.4287  -2.3912  -2.3912  -1.3542  -1.3522
    -1.3518  -1.2634  -1.1973  -0.9401  -0.9040  -0.9035  -0.7966  -0.7792
    -0.7792  -0.6903  -0.6894  -0.5122  -0.5064  -0.5061  -0.4681  -0.4675
    -0.3774  -0.3769  -0.2341  -0.2329  -0.1416  -0.1412  -0.0639  -0.0639
    -0.0526  -0.0526  -0.0307  -0.0307   0.0455   0.0462   0.0467   0.0897
     0.1207   0.1216   0.2963   0.2970   0.3076   0.3415   0.3422   0.3939
     0.3963   0.6407   0.6411   0.6978   0.6991   0.8784   0.9421   0.9436
     0.9459   1.1319   1.1335   1.2484   1.2625   1.2630   1.5034   1.5359
     1.5361   1.6295   1.6296   1.7226   1.7304   1.7308   1.8264   1.8270
     1.8919   1.8954   1.8960   1.9977   2.0206   2.0801   2.0806   2.1068
     2.2518   2.2666   2.2872   2.2872   2.5430   2.5434   2.7785   2.7792
     4.1327   4.1331   5.0867   5.9107   6.3805   6.3820   6.4396   6.6497
     7.4822   7.4825   7.6844   7.6844   7.8791   7.8795   8.5599   8.5618
     9.0722   9.6313  10.3499  10.4273  10.4276  10.5262  10.5267  11.1004
    11.1008  11.5416  11.5420  11.5825  11.7796  11.7802  11.9204  11.9214
    12.1699  12.1719

          k =-0.5000 0.4811 0.0000 ( 32075 PWs)   bands (ev):

   -87.1215 -87.1172 -87.1148 -87.1145 -87.1120 -87.1109 -86.9100 -86.9094
   -86.9062 -86.9061 -86.9043 -86.9041 -50.6385 -50.6332 -50.6227 -50.6217
   -50.6146 -50.5874 -50.5839 -50.5833 -50.5627 -50.5567 -50.5522 -50.5466
   -50.5443 -50.5427 -50.5307 -50.5278 -50.5278 -50.5144 -50.4247 -50.4240
   -50.4028 -50.4022 -50.3728 -50.3724 -50.3410 -50.3409 -50.3400 -50.3398
   -50.3309 -50.3299 -50.3274 -50.3271 -50.3263 -50.3259 -50.3258 -50.3253
   -13.2808 -13.1954 -13.1009 -12.3293 -12.2495 -12.1607 -11.3954 -11.3211
   -11.2378  -8.7911  -8.7377  -8.6759  -6.9255  -6.8919  -6.8492  -4.5665
    -4.5419  -4.5068  -4.5028  -4.4738  -4.4357  -3.5250  -3.4940  -3.4533
    -2.4305  -2.4123  -2.3836  -1.7275  -1.4748  -1.4568  -1.4295  -1.2412
    -1.1913  -1.1775  -1.1445  -1.1028  -0.9658  -0.9353  -0.9255  -0.9207
    -0.8955  -0.8718  -0.8690  -0.8408  -0.7071  -0.6856  -0.6121  -0.5864
    -0.5086  -0.4942  -0.4453  -0.3857  -0.3372  -0.3112  -0.1635  -0.0661
    -0.0601  -0.0560  -0.0355  -0.0188   0.0286   0.0303   0.1755   0.2509
     0.2871   0.3537   0.3546   0.4049   0.4194   0.4666   0.4882   0.5506
     0.6196   0.7158   0.7896   0.7965   0.8542   0.9033   0.9410   0.9503
     0.9836   1.0568   1.1120   1.1149   1.1290   1.1635   1.2451   1.3252
     1.4182   1.4615   1.4647   1.5487   1.5654   1.5767   1.6006   1.6773
     1.7725   1.8284   1.8391   1.8578   1.8921   1.9206   1.9669   2.0013
     2.0221   2.0470   2.1418   2.7311   3.2819   3.3669   3.6310   3.6400
     3.8345   3.9568   4.5924   4.9713   5.9008   6.0355   6.0491   6.2109
     6.4084   7.2146   7.8891   7.9527   9.0444   9.2506   9.4565   9.4905
     9.5759  10.0125  10.1096  10.1695  10.4810  10.6576  10.7015  10.8700
    10.9410  11.1420  11.2245  11.3846  11.8443  11.9966  12.0578  12.1218
    12.1589  12.3633

          k =-0.5000 0.6736 0.0000 ( 32075 PWs)   bands (ev):

   -87.1215 -87.1172 -87.1148 -87.1145 -87.1121 -87.1109 -86.9100 -86.9094
   -86.9062 -86.9061 -86.9043 -86.9041 -50.6388 -50.6331 -50.6227 -50.6217
   -50.6144 -50.5873 -50.5837 -50.5837 -50.5626 -50.5566 -50.5522 -50.5465
   -50.5443 -50.5429 -50.5307 -50.5280 -50.5276 -50.5145 -50.4248 -50.4241
   -50.4027 -50.4021 -50.3728 -50.3723 -50.3409 -50.3406 -50.3401 -50.3400
   -50.3309 -50.3298 -50.3274 -50.3270 -50.3263 -50.3261 -50.3259 -50.3254
   -13.2808 -13.1954 -13.1009 -12.3293 -12.2495 -12.1607 -11.3954 -11.3211
   -11.2378  -8.7911  -8.7377  -8.6759  -6.9255  -6.8919  -6.8492  -4.5665
    -4.5419  -4.5068  -4.5028  -4.4738  -4.4357  -3.5250  -3.4940  -3.4533
    -2.4305  -2.4123  -2.3836  -1.7275  -1.4748  -1.4568  -1.4295  -1.2401
    -1.1912  -1.1770  -1.1445  -1.1042  -0.9661  -0.9353  -0.9266  -0.9207
    -0.8955  -0.8720  -0.8674  -0.8394  -0.7071  -0.6837  -0.6121  -0.5885
    -0.5084  -0.4942  -0.4436  -0.3870  -0.3375  -0.3112  -0.1638  -0.0661
    -0.0601  -0.0560  -0.0355  -0.0187   0.0202   0.0364   0.1718   0.2530
     0.2819   0.3503   0.3545   0.4036   0.4277   0.4666   0.4890   0.5506
     0.6183   0.7140   0.7974   0.8006   0.8550   0.8955   0.9374   0.9543
     0.9836   1.0568   1.1132   1.1156   1.1274   1.1566   1.2458   1.3278
     1.4178   1.4620   1.4637   1.5487   1.5707   1.5767   1.6005   1.6782
     1.7713   1.8270   1.8395   1.8591   1.8932   1.9241   1.9653   2.0047
     2.0201   2.0468   2.1402   2.7309   3.2819   3.3673   3.6310   3.6389
     3.8358   3.9568   4.5919   4.9721   5.9000   6.0291   6.0491   6.2109
     6.4084   7.2124   7.8838   7.9520   9.0444   9.2506   9.4565   9.5004
     9.5707  10.0125  10.1097  10.1764  10.4810  10.6577  10.7014  10.8703
    10.9410  11.1421  11.2237  11.3846  11.8443  11.9967  12.0800  12.1197
    12.1590  12.3633

          k =-0.5000-0.2887 0.0000 ( 32112 PWs)   bands (ev):

   -87.1199 -87.1199 -87.1138 -87.1135 -87.1135 -87.1105 -86.9095 -86.9081
   -86.9080 -86.9074 -86.9036 -86.9035 -50.6480 -50.6407 -50.6200 -50.6199
   -50.5938 -50.5937 -50.5815 -50.5740 -50.5739 -50.5579 -50.5481 -50.5459
   -50.5458 -50.5363 -50.5362 -50.5273 -50.5243 -50.5242 -50.4336 -50.4333
   -50.3824 -50.3813 -50.3813 -50.3806 -50.3407 -50.3405 -50.3356 -50.3347
   -50.3347 -50.3339 -50.3304 -50.3288 -50.3288 -50.3280 -50.3254 -50.3250
   -12.9620 -12.9619 -12.8784 -12.8784 -12.7858 -12.7858 -10.1864 -10.1863
   -10.1197 -10.1197 -10.0441 -10.0441  -5.5326  -5.5326  -5.5113  -5.5113
    -5.4823  -5.4823  -3.8585  -3.8585  -3.8454  -3.8454  -3.8210  -3.8210
    -2.4562  -2.4562  -2.4287  -2.4287  -2.3912  -2.3912  -1.3533  -1.3522
    -1.3518  -1.2630  -1.1984  -0.9388  -0.9031  -0.9027  -0.7947  -0.7792
    -0.7792  -0.6899  -0.6890  -0.5099  -0.5077  -0.5072  -0.4688  -0.4682
    -0.3788  -0.3784  -0.2348  -0.2335  -0.1416  -0.1412  -0.0639  -0.0639
    -0.0526  -0.0526  -0.0307  -0.0307   0.0367   0.0498   0.0500   0.0841
     0.1196   0.1205   0.2928   0.2934   0.3098   0.3424   0.3434   0.3976
     0.3997   0.6381   0.6385   0.7049   0.7062   0.8827   0.9305   0.9319
     0.9550   1.1334   1.1351   1.2394   1.2628   1.2634   1.5019   1.5393
     1.5395   1.6323   1.6324   1.7279   1.7283   1.7315   1.8264   1.8270
     1.8910   1.8994   1.9000   1.9941   2.0203   2.0797   2.0802   2.1049
     2.2522   2.2671   2.2872   2.2872   2.5430   2.5434   2.7785   2.7792
     4.1314   4.1318   5.0933   5.9208   6.3783   6.3799   6.4226   6.6287
     7.4822   7.4825   7.6844   7.6844   7.8791   7.8795   8.5574   8.5592
     9.0877   9.6392  10.3506  10.4272  10.4275  10.5262  10.5267  11.1004
    11.1007  11.5417  11.5420  11.6132  11.7796  11.7802  11.9204  11.9214
    12.1699  12.1719

     the Fermi energy is     4.9595 ev

!    total energy              =   -3891.04644008 Ry
     estimated scf accuracy    <          8.2E-09 Ry
     smearing contrib. (-TS)   =      -0.00138676 Ry
     internal energy E=F+TS    =   -3891.04505332 Ry

     The total energy is F=E-TS. E is the sum of the following terms:
     one-electron contribution =  -34237.81583394 Ry
     hartree contribution      =   17167.39437507 Ry
     xc contribution           =    -435.96760524 Ry
     ewald contribution        =   13763.96168438 Ry
     DFT-D3 Dispersion         =      -0.63619994 Ry
     electric field correction =       0.00000079 Ry
     one-center paw contrib.   =    -147.98147444 Ry

     convergence has been achieved in  33 iterations

     negative rho (up, down):  1.913E-04 0.000E+00

     Forces acting on atoms (cartesian axes, Ry/au):

     atom    1 type  1   force =    -0.00014812    0.00039905    0.00131197
     atom    2 type  1   force =    -0.00017641    0.00037571    0.00130989
     atom    3 type  1   force =     0.00046042   -0.00011222   -0.00119675
     atom    4 type  1   force =     0.00000869   -0.00033508   -0.00080768
     atom    5 type  1   force =    -0.00018274    0.00040915    0.00131006
     atom    6 type  1   force =     0.00035107   -0.00004597   -0.00130862
     atom    7 type  1   force =    -0.00024548    0.00004053    0.00137165
     atom    8 type  1   force =     0.00000660   -0.00033586   -0.00081093
     atom    9 type  1   force =    -0.00027687    0.00003283    0.00201183
     atom   10 type  1   force =     0.00046607    0.00001455   -0.00122065
     atom   11 type  1   force =     0.00000826   -0.00033765   -0.00080759
     atom   12 type  1   force =    -0.00025025    0.00000216    0.00137460
     atom   13 type  2   force =    -0.00000184   -0.00000341    0.00158588
     atom   14 type  2   force =    -0.00000393   -0.00000868   -0.00073656
     atom   15 type  2   force =    -0.00000709   -0.00000035   -0.00070139
     atom   16 type  2   force =    -0.00000012   -0.00000217   -0.00073256
     atom   17 type  2   force =    -0.00000188   -0.00000938   -0.00069876
     atom   18 type  2   force =     0.00000353   -0.00000868   -0.00073293
     atom   19 type  2   force =     0.00000333   -0.00000033   -0.00070306
     atom   20 type  2   force =    -0.00000018   -0.00000622    0.00147267
     atom   21 type  2   force =    -0.00000125   -0.00000187   -0.00029656
     atom   22 type  2   force =    -0.00000006   -0.00000589    0.00007512
     atom   23 type  2   force =    -0.00000173   -0.00000296   -0.00029655
     atom   24 type  2   force =     0.00000528   -0.00000917    0.00009348
     atom   25 type  2   force =    -0.00000206   -0.00000201   -0.00029652
     atom   26 type  2   force =     0.00000005    0.00000002    0.00009336
     atom   27 type  2   force =    -0.00000161   -0.00000251   -0.00028844
     atom   28 type  2   force =    -0.00000530   -0.00000920    0.00009351
     atom   29 type  2   force =    -0.00000159   -0.00000248   -0.00009556
     atom   30 type  2   force =     0.00000012   -0.00000595   -0.00001892
     atom   31 type  2   force =    -0.00000173   -0.00000250   -0.00009754
     atom   32 type  2   force =     0.00000006   -0.00000628   -0.00001895
     atom   33 type  2   force =    -0.00000171   -0.00000261   -0.00009757
     atom   34 type  2   force =    -0.00000000   -0.00000592   -0.00001900
     atom   35 type  2   force =    -0.00000150   -0.00000246   -0.00009750
     atom   36 type  2   force =    -0.00000002   -0.00000620   -0.00002343

     Total force =     0.005425     Total SCF correction =     0.000702
     SCF correction compared to forces is large: reduce conv_thr to get better values

     Writing all to output data dir ./tmp/AGC_N3_top_fcc_Ed_p30.save/ :
     XML data file, charge density, pseudopotentials, collected wavefunctions
 
     init_run     :     26.88s CPU     27.92s WALL (       1 calls)
     electrons    :   2218.98s CPU   2258.96s WALL (       1 calls)
     forces       :     13.57s CPU     13.98s WALL (       1 calls)
     force_dftd3  :      0.01s CPU      0.01s WALL (       1 calls)

     Called by init_run:
     wfcinit      :     19.63s CPU     20.49s WALL (       1 calls)
     potinit      :      6.32s CPU      6.38s WALL (       1 calls)
     hinit0       :      0.39s CPU      0.42s WALL (       1 calls)

     Called by electrons:
     c_bands      :   1680.39s CPU   1709.22s WALL (      33 calls)
     sum_band     :    328.22s CPU    337.56s WALL (      33 calls)
     v_of_rho     :      5.96s CPU      6.47s WALL (      34 calls)
     newd         :      4.67s CPU      4.70s WALL (      34 calls)
                                        4.70s GPU  (      34 calls)
     PAW_pot      :    149.75s CPU    149.72s WALL (      34 calls)
     mix_rho      :     52.70s CPU     53.73s WALL (      33 calls)
     energy_dftd3 :      0.00s CPU      0.00s WALL (       1 calls)

     Called by c_bands:
     init_us_2    :     80.11s CPU     80.31s WALL (    1360 calls)
     cegterg      :   1565.04s CPU   1565.73s WALL (     660 calls)

     Called by *egterg:
     cdiaghg      :    103.65s CPU    103.91s WALL (    3700 calls)
                                      100.36s GPU  (    3700 calls)
     h_psi        :    808.38s CPU    813.31s WALL (    3720 calls)
                                      811.04s GPU  (    3720 calls)
     s_psi        :     93.99s CPU     94.03s WALL (    3720 calls)
     g_psi        :      0.01s CPU      3.49s WALL (    3040 calls)
                                        1.00s GPU  (    3040 calls)

     Called by h_psi:
     h_psi:calbec :      0.24s CPU    151.05s WALL (    3720 calls)
                                      149.27s GPU  (    3720 calls)
     vloc_psi     :    467.71s CPU    469.73s WALL (    3720 calls)
                                      467.51s GPU  (    3720 calls)
     add_vuspsi   :     63.49s CPU    178.65s WALL (    3720 calls)
                                      176.57s GPU  (    3720 calls)

     General routines
     calbec       :      0.27s CPU      0.28s WALL (    4460 calls)
     fft          :      2.01s CPU      2.81s WALL (     451 calls)
                                        0.45s GPU  (     417 calls)
     ffts         :      0.72s CPU      3.78s WALL (    3537 calls)
                                        1.20s GPU  (    3503 calls)
     fftw         :      0.89s CPU    278.44s WALL (   49266 calls)
                                      246.32s GPU  (   49266 calls)
     interpolate  :      2.81s CPU      3.11s WALL (      34 calls)
     davcio       :      1.70s CPU     39.30s WALL (    2606 calls)
 
     Parallel routines
 
     PWSCF        :  37m39.77s CPU  38m22.25s WALL

 
   This run was terminated on:  19: 1:58   4Oct2026            

=------------------------------------------------------------------------------=
   JOB DONE.
=------------------------------------------------------------------------------=
