80
Lattice="10.417074 0.0 6.014301000000001 3.4723559999999996 9.821307000000001 6.014301000000001 0.0 0.0 12.028599" Properties=species:S:1:pos:R:3 pbc="T T T"
Li       3.51035623       2.48219702       6.04431428
S        0.00363549       0.00257080      -0.03896429
Li       1.15635952       0.81766975       6.04511809
Li       3.51035622       2.48219701      10.09235002
S        0.00363548       0.00257079       4.07312999
Li       1.15635951       0.81766975      10.09154521
Li       2.03399074       1.43824883      14.11958041
S       -0.00133988      -0.00094756       8.06833140
Li       2.38833292       4.07631996       3.94939476
Li       4.65362897       5.76802597       8.06833265
S        1.05233050       3.45028743       2.01708335
Li       2.33017482       4.11063688       8.06833215
Li       4.66717144       5.74369443      12.08659656
S        1.16908328       3.28785195       6.03835635
Li       2.38833289       4.07631994      12.18726955
Li       4.66717143       5.74369442      16.15256585
S        1.16908327       3.28785195      10.09830745
Li       3.48971692       7.42836598       6.03850184
Li       5.79383005       9.06580620      10.02671471
S        2.33366252       6.59030830       4.03192327
Li       3.48971691       7.42836597      10.09816347
Li       5.82157888       9.06272716      14.11958170
S        2.33376462       6.59385279       8.06833240
Li       3.49866405       7.40487811      14.11958120
Li       5.79383002       9.06580619      18.21244869
S        2.33366251       6.59030830      12.10474153
Li       4.63930305       0.89296894       3.94939499
Li       6.98935699       2.46480960       8.06833265
S        3.60373969      -0.15794821       2.01708335
Li       4.65227076       0.82669838       8.06833215
Li       6.97093149       2.48568810      12.08659644
S        3.48951136       0.00627208       6.03835637
Li       4.63930301       0.89296892      12.18726931
Li       6.97093148       2.48568810      16.15256597
S        3.48951136       0.00627208      10.09830743
Li       5.82330965       4.11770222       6.05880309
Li       8.15154155       5.76401134      10.08836422
S        4.68800453       3.31492005       4.10620837
Li       5.82330964       4.11770222      10.07786221
Li       8.12770962       5.74715911      14.11958170
S        4.66003150       3.29514045       8.06833240
Li       5.68774826       4.02184534      14.11958120
Li       8.15154154       5.76401134      18.15079918
S        4.68800454       3.31492007      12.03045643
Li       6.99775858       7.36386182       8.06833315
Li       9.30491546       9.07744528      12.08439703
S        5.82077748       6.58780128       6.05505006
Li       6.97503328       7.42407479      12.09145404
Li       9.30491545       9.07744528      16.15476738
S        5.82077748       6.58780127      10.08161574
Li       6.97503327       7.42407478      16.14770936
Li       9.35667631       9.03173418      20.17083075
S        5.81723785       6.58374094      14.11958145
Li       8.16677006       0.81401637       6.03850194
Li      10.47860125       2.44054163      10.02671454
S        6.99129068       0.00342996       4.03192340
Li       8.16677005       0.81401637      10.09816336
Li      10.48494790       2.46772942      14.11958170
S        6.99466629       0.00234482       8.06833240
Li       8.14760797       0.83028036      14.11958120
Li      10.47860122       2.44054162      18.21244887
S        6.99129068       0.00342996      12.10474140
Li       9.27530177       4.14293099       8.06833315
Li      11.65993591       5.74694448      12.08439682
S        8.15129788       3.29194935       6.05505021
Li       9.32449621       4.10143420      12.09145394
Li      11.65993590       5.74694447      16.15476758
S        8.15129788       3.29194934      10.08161559
Li       9.32449620       4.10143420      16.14770946
Li      11.63409264       5.81098205      20.17083075
S        8.14629008       3.28996506      14.11958145
Li      10.48291782       7.41254305      10.08715088
Li      12.92597195       9.14004378      14.11958270
S        9.31654434       6.58779239       8.06833340
Li      10.49855190       7.42359778      14.11958220
Li      12.81409774       9.06093656      18.15749017
S        9.31663909       6.58785934      12.10300486
Li      10.48291781       7.41254305      18.15201352
Li      12.81409773       9.06093656      22.18417234
S        9.31663909       6.58785934      16.13615904
