Li S 
 1.0000000000000000
    10.4170739999999995    0.0000000000000000    6.0143010000000006
     3.4723559999999996    9.8213070000000009    6.0143010000000006
     0.0000000000000000    0.0000000000000000   12.0285989999999998
 Li  S  
  53  27
Direct
  0.2510682673920174  0.2510684456966878  0.2510682315898873
  0.4192540875820690  0.4192543091362483  0.0837619857980657
  0.5865498419923452  0.5865501723548607  0.2511899050181642
  0.4192540872501583  0.4192543089224275  0.4192543278473927
  0.9216802826276401  0.9216808028401922  0.9216811436402302
  0.4166730134899247  0.4166732426549745  0.7571609944534252
  0.5865498411908349  0.5865501717643079  0.9233783247478672
  0.4203221916800622  0.7568972532270908  0.0821526318796948
  0.5865499128505781  0.9233782762314628  0.2511901522426420
  0.4166729940589964  0.7571612607364783  0.4166730578639558
  0.5865499125406782  0.9233782760380059  0.5865499013894327
  0.4166729931085507  0.7571612599015589  0.7571609314174529
  0.5887692699128985  0.9216806814714170  0.9216809123106822
  0.7568967599152331  0.0821526244724862  0.0821525855527777
  0.9337260557156067  0.2401080266200822  0.2401079463846440
  0.7568967592633405  0.0821526239226612  0.4203227406163466
  0.9233778518332141  0.2511901220071829  0.5865501346053457
  0.7546325639732837  0.0837693569094215  0.7546331614540667
  0.9337260522542696  0.2401080233822240  0.9337262178633904
  0.7568968572873949  0.4203224702679592  0.0821526905556090
  0.9233778077467156  0.5865503185573977  0.2511901676945957
  0.7571608771654728  0.4166733055488439  0.4166730992085697
  0.9233778074306102  0.5865503183537588  0.5865499487236163
  0.7571608762150269  0.4166733047139246  0.7571609621540154
  0.9216802130745503  0.5887696666950742  0.9216809481180366
  0.7546326161443606  0.7546330161454071  0.0837695010577720
  0.9337261592376829  0.9337266896554601  0.2401076937429805
  0.7571608262424793  0.7571612643205227  0.4166730753768453
  0.9216802826423807  0.9216808027383727  0.5887695469633205
  0.7546326154963445  0.7546330157279473  0.7546331097629998
  0.5865498669264807  0.2511900413254570  0.9233782298886564
  0.4203223791766440  0.0821526957664596  0.7568966692791584
  0.5869168925282451  0.5869172489466015  0.5869170508796318
  0.5865498674248790  0.2511900417021889  0.5865501054276699
  0.0821525927072055  0.0821526339111485  0.4203227069124181
  0.2510682668467855  0.2510684452588642  0.5883197667946432
  0.0821525922370237  0.0821526335649624  0.7568967790059248
  0.2401079160232914  0.2401080324136085  0.9337261508260443
  0.0821526186332419  0.4203225424477618  0.0821529321440807
  0.2510682026966572  0.5883199457261645  0.2510682807492772
  0.0837621713279465  0.4192541707636264  0.4192541843104347
  0.2511898245211826  0.5865501552593763  0.5865500478539359
  0.0821526175145616  0.4203225415415687  0.7568966186264549
  0.0821524660638496  0.7568971031859608  0.0821524904530690
  0.2401077900531744  0.9337264942130411  0.2401078274122710
  0.0821524654023575  0.7568971026361359  0.4203226508587177
  0.2511899168779315  0.9233782984891927  0.5865500138419518
  0.2511898240227842  0.5865501548826444  0.9233782168005685
  0.0837692301794264  0.7546328584678189  0.7546330775717756
  0.4192539563016746  0.0837622924932496  0.4192542309587708
  0.2401077865918375  0.9337264909751827  0.9337261349051865
  0.5883196395955539  0.2510684038387151  0.2510683332435667
  0.4203223803049238  0.0821526966726526  0.0821529656079386
  0.0005886814355323  0.6713448048309659  0.3347956119090770
 -0.0036070734945316 -0.0036070700366051 -0.0036073241402878
  0.6708724327551034  0.6708728256636310  0.3350502501036858
  0.3347956189552385  0.0005887696617161  0.6713445980081855
  0.6711592931636629  0.6711596443528340 -0.0003971142628003
 -0.0036070755973975 -0.0036070720220842  0.3462026493976560
  0.3462026163335609 -0.0036069541660799 -0.0036072433264708
  0.6708724005874955  0.3350503353983334  0.6708727537627359
  0.3347956274082523  0.3347958379877545  0.0005886995299561
 -0.0003973200963139 -0.0003973567672816  0.6711596943131448
  0.6713445393946222  0.3347958283454534  0.3347956119295769
 -0.0036069922779092  0.3462026895503826 -0.0036072608789714
  0.3347955712501597  0.6713448806559045  0.0005886843481029
  0.3353811201559215  0.3353813106239322  0.3353811397984332
  0.6711592282415582 -0.0003972309795427  0.6711597060892180
 -0.0003973195859298  0.6711594890985486  0.6711596305303790
  0.0005887188838423  0.3347957574689397  0.3347956760705870
  0.6713444989974353  0.0005887952591239  0.3347957079140706
  0.3347956194158207  0.0005887700079022  0.3347957239412931
  0.6711592289680183 -0.0003972304806275 -0.0003969935870930
  0.0005887184232601  0.3347957571227536  0.6713445589498106
  0.3347956267726476  0.3347958375906587  0.6713445462508394
  0.3350501356341555  0.6708727131633294  0.6708726973568940
 -0.0003973188532640  0.6711594896076458 -0.0003970902870941
  0.3347955710785311  0.6713448805948129  0.3347955736458214
  0.6713445395696448  0.3347958283963631  0.0005887300010308
  0.6708724323791709  0.6708728254090824  0.6708727346001682
