Li S 
 1.0000000000000000
    10.4170739999999995    0.0000000000000000    6.0143010000000006
     3.4723559999999996    9.8213070000000009    6.0143010000000006
     0.0000000000000000    0.0000000000000000   12.0285989999999998
 Li  S  
  53  27
Direct
  0.2516954330156144  0.2516956006568168  0.2507688114545063
  0.4188948465869948  0.4188950898999491  0.0843518849532382
  0.5866815484178882  0.5866819150445047  0.2516505043966188
  0.4188948463149113  0.4188950897370380  0.4193828890474131
  0.9220351364954519  0.9220356506725631  0.9217172535109550
  0.4124528218137596  0.4124530297749576  0.7613811977757449
  0.5866815477574607  0.5866819146066811  0.9226542760416137
  0.4213118810038403  0.7523327205228387  0.0839400540157248
  0.5859298766143171  0.9236845637652910  0.2508114561480088
  0.4170182854312158  0.7566908097873327  0.4173768300712317
  0.5859298761791397  0.9236845634292868  0.5872423463986619
  0.4170182846410522  0.7566908091051424  0.7565823186618131
  0.5903224041345704  0.9204541319704189  0.9215176199096192
  0.7568333101284930  0.0821257230325862  0.0821648107148877
  0.9292764653480917  0.2424393873239071  0.2440247176216402
  0.7568333094703951  0.0821257224725793  0.4204008667116044
  0.9230976604305501  0.2512504623569958  0.5866600601591871
  0.7543409559190924  0.0842883849064081  0.7545194514543091
  0.9292764626029331  0.2424393847886029  0.9319276761007027
  0.7523323598338219  0.4213121737565071  0.0839400879839082
  0.9236840994714146  0.5859302593636467  0.2508114932041487
  0.7566904454313108  0.4170185758168439  0.4173768686692607
  0.9236840990170380  0.5859302590276426  0.5872423908966887
  0.7566904446411473  0.4170185751346536  0.7565823540341965
  0.9204536668695162  0.5903228150998640  0.9215176469774305
  0.7545882909467091  0.7545887013815982  0.0840614873405348
  0.9326389506729221  0.9326394265040284  0.2411949298722394
  0.7566674792713841  0.7566678790816741  0.4171664416048654
  0.9220351366106474  0.9220356506725631  0.5880237351142723
  0.7545882903551263  0.7545887010252301  0.7544297634050424
  0.5855558056056698  0.2520228890920526  0.9235958736924219
  0.4195982200880665  0.0845795564378549  0.7576857152493299
  0.5860601802501084  0.5860605604325371  0.5877737514893981
  0.5855558061418843  0.2520228894993303  0.5864936751841464
  0.0823750111777303  0.0823750022782100  0.4200897270348712
  0.2516954325488266  0.2516956003004488  0.5873648659535138
  0.0823750107075485  0.0823750019320239  0.7566849719349532
  0.2125717083379181  0.2125718504777419  0.9612623409236120
  0.0845794340620395  0.4195983921284611  0.0796611585243340
  0.2509199501342285  0.5877991466818010  0.2514028066361059
  0.0840768082252933  0.4189100290215956  0.4192689367364560
  0.2520226849061994  0.5855560826578377  0.5864936375517087
  0.0845794325285458  0.4195983908251723  0.7576857271180052
  0.0821255640685079  0.7568336621897676  0.0821647078563037
  0.2424391183184751  0.9292769522427106  0.2440245913433302
  0.0821255634008102  0.7568336616297606  0.4204007764777438
  0.2512502633862442  0.9230980692895557  0.5866599552150340
  0.2520226843699849  0.5855560822505599  0.9235958393937060
  0.0842882997365366  0.7543412550182984  0.7545193444896152
  0.4189098477108654  0.0840769273274932  0.4192689678407290
  0.2424391155603228  0.9292769497175883  0.9319275844994909
  0.5877988671255120  0.2509201382972754  0.2514028523327383
  0.4195982216215602  0.0845795577411438  0.0796612172374447
  0.0005007291245927  0.6711540694430995  0.3349349557932332
 -0.0030740372110984 -0.0030740288130694 -0.0037934197625826
  0.6707454664057905  0.6707458454969384  0.3354399265477306
  0.3347596043172433  0.0005970020690729  0.6716648603760231
  0.6708006407261295  0.6708010424070848 -0.0000384869817155
 -0.0030740392259206 -0.0030740307170929  0.3453226671623467
  0.3492590953160820 -0.0120940560762432 -0.0008919311937493
  0.6701477085944113  0.3352456149777214  0.6711374600356034
  0.3339548294702885  0.3339550323902918  0.0026000195036887
 -0.0001386281566486 -0.0001386671855385  0.6709010034879217
  0.6706130411449666  0.3349296563278187  0.3354546044761098
 -0.0120941127825581  0.3492592265367532 -0.0008919684509367
  0.3349294052491165  0.6706133866297020  0.0005273661762629
  0.3354441850237975  0.3354443913116655  0.3353180670048978
  0.6706723735107382  0.0000954349965845  0.6710817873990647
  0.0000953388604510  0.6706726455857657  0.6710817079343266
  0.0005969558011864  0.3347597226621670  0.3345032067126998
  0.6711537928009060  0.0005008238821982  0.3349350467355499
  0.3347596048562694  0.0005970024967145  0.3345032437310730
  0.6706723742117934  0.0000954354853178 -0.0003248861259026
  0.0005969552621602  0.3347597222345254  0.6716648262840090
  0.3339548291298429  0.3339550322884723  0.6710148299367171
  0.3352453727406243  0.6701480330367434  0.6711374189329755
  0.0000953395711058  0.6706726460744989 -0.0003249826049025
  0.3349294049798446  0.6706133864871549  0.3354545520835164
  0.6706130414142385  0.3349296564703659  0.0005274077779071
  0.6707454660958908  0.6707458453034815  0.6707370046719026
