Li S 
 1.0000000000000000
    10.4170739999999995    0.0000000000000000    6.0143010000000006
     3.4723559999999996    9.8213070000000009    6.0143010000000006
     0.0000000000000000    0.0000000000000000   12.0285989999999998
 Li  S  
  53  27
Direct
  0.2524603199628553  0.2524605030369176  0.2500871493023952
  0.4190819121802258  0.4190821619261061  0.0844525725430047
  0.5868439744713825  0.5868443666713604  0.2518671360128357
  0.4190819119803808  0.4190821618344687  0.4189080636731906
  0.9224422494900022  0.9224427728712684  0.9216915250585366
  0.4100739391846268  0.4100741289321268  0.7637600901050356
  0.5868439739148039  0.5868443663251744  0.9221127665662773
  0.4221135649022612  0.7491417352395154  0.0851347050061285
  0.5853766362814352  0.9240900014529633  0.2502007861686442
  0.4174328039983898  0.7561492374691067  0.4181406245997554
  0.5853766356797701  0.9240900009540481  0.5880008192247982
  0.4174328033809196  0.7561492369600094  0.7559455777431361
  0.5923822658331852  0.9194114507061025  0.9210090295656247
  0.7565615696936399  0.0825327146885847  0.0823156985153219
  0.9245266524462642  0.2464210871221111  0.2470244247951220
  0.7565615690857693  0.0825327141794875  0.4201147276057238
  0.9228778155454544  0.2512210789460099  0.5867846743383074
  0.7541168999682603  0.0845186709772946  0.7545163363935050
  0.9245266503478570  0.2464210852384514  0.9296960815815316
  0.7491413318162982  0.4221139319848163  0.0851347231764642
  0.9240895662189547  0.5853769961574360  0.2502007956648244
  0.7561488813704759  0.4174330994133469  0.4181406471435180
  0.9240895655980905  0.5853769956585207  0.5880008851045579
  0.7561488807530057  0.4174330989042496  0.7559456158830626
  0.9194109598581200  0.5923827159562367  0.9210090499280954
  0.7546787358152659  0.7546791591893013  0.0840337922742405
  0.9314489615007787  0.9314495000003563  0.2423848879986157
  0.7561232680288746  0.7561236480134466  0.4177106628959658
  0.9224422496898472  0.9224427729629059  0.5872352280822167
  0.7546787352456937  0.7546791588532972  0.7542765557287714
  0.5849617749038881  0.2528500903291181  0.9238271762752474
  0.4169980304861434  0.0889603112905441  0.7591186965409793
  0.5854025341044643  0.5854028733650215  0.5884314182600038
  0.5849617755247523  0.2528500908280333  0.5860292019197394
  0.0829206686647935  0.0829207124469279  0.4196278982397196
  0.2524603195180784  0.2524605027009134  0.5865167383755577
  0.0829206682166227  0.0829207121211057  0.7560554327809431
  0.1676900375787050  0.1676901482969629  1.0061440294092259
  0.0889602477176318  0.4169981737664854  0.0764476214403399
  0.2508657009865186  0.5874068686682943  0.2516260702723974
  0.0841617574799483  0.4186458638346200  0.4193585447249651
  0.2528498657389062  0.5849620588176299  0.5860291820624912
  0.0889602456192246  0.4169981718828257  0.7591186690535615
  0.0825325459698678  0.7565619078295790  0.0823156276320735
  0.2464208600372655  0.9245270797257431  0.2470243439934605
  0.0825325453523976  0.7565619073204818  0.4201146290765074
  0.2512208950497785  0.9228782217376973  0.5867845631902739
  0.2528498651180420  0.5849620583187145  0.9238271379204173
  0.0845185541900139  0.7541172370948184  0.7545162262238388
  0.4186456803673091  0.0841618781695756  0.4193585761138147
  0.2464208579292587  0.9245270778420835  0.9296959621849958
  0.5874066040694850  0.2508659253600360  0.2516260903850484
  0.4169980325941502  0.0889603131742038  0.0764476696735042
  0.0003194978491866  0.6712692814510328  0.3349679654352024
 -0.0010325009823848 -0.0010324864908510 -0.0038094275380475
  0.6707617791824521  0.6707621743521508  0.3354216367951815
  0.3347459263465511  0.0006363216932329  0.6718982201445137
  0.6707618127412052  0.6707622190814317  0.0000003386832566
 -0.0010325024915383 -0.0010324878959593  0.3412555948662448
  0.3523631116003672 -0.0169805712925988 -0.0000006815054315
  0.6702529407924205  0.3350630908085858  0.6711761060308051
  0.3364138506565646  0.3364140451571262  0.0038087868819821
 -0.0001163139290135 -0.0001163340378221  0.6708786797946783
  0.6706027887675058  0.3351103291547652  0.3353478351690805
 -0.0169806204060032  0.3523632315739646 -0.0000007169355368
  0.3351100049134085  0.6706031367108267  0.0004637277222575
  0.3354976011721476  0.3354977746139083  0.3352646672662832
  0.6709191758658858  0.0002723252414368  0.6707963622196341
  0.0002722567412548  0.6709194271495635  0.6707962709858202
  0.0006362940546699  0.3347460384956910  0.3342441727802241
  0.6712690156143303  0.0003195895923017  0.3349680524820178
  0.3347459269420104  0.0006363221819662  0.3342442422439569
  0.6709191765545297  0.0002723257098062 -0.0004631536357557
  0.0006362934654162  0.3347460380171396  0.6718982061736477
  0.3364138512140079  0.3364140459614998  0.6648880264850001
  0.3350628645810823  0.6702532591436150  0.6711760599689481
  0.0002722574298987  0.6709194276179331 -0.0004632451854834
  0.3351100046537364  0.6706031365682794  0.3353478407365053
  0.6706027890209724  0.3351103292871305  0.0004637566059404
  0.6707617788725524  0.6707621741586939  0.6707226527844368
