80
Lattice="10.417074 0.0 6.014301000000001 3.4723559999999996 9.821307000000001 6.014301000000001 0.0 0.0 12.028599" Properties=species:S:1:pos:R:3 pbc="T T T"
Li       3.51410875       2.48485050       6.04394401
S        0.01980234       0.01400249      -0.01412544
Li       1.16235151       0.82190648       6.04394892
Li       3.51410874       2.48485049      10.09272029
S        0.01980234       0.01400248       4.04829114
Li       1.16235151       0.82190648      10.09271438
Li       1.70574530       1.20614381      14.11958034
S       -0.00087311      -0.00061762       8.06833140
Li       2.39965922       4.04881896       3.93108580
Li       4.65456728       5.76689947       8.06833265
S        1.06200504       3.41265853       2.01708335
Li       2.32932845       4.10949125       8.06833215
Li       4.66844470       5.74243064      12.08532898
S        1.16896844       3.28801826       6.04053538
Li       2.39965918       4.04881893      12.20557850
Li       4.66844469       5.74243064      16.15383342
S        1.16896843       3.28801826      10.09612842
Li       3.49334256       7.42459994       6.04089702
Li       5.81387431       9.05452544      10.04173572
S        2.33434954       6.58921842       4.03143801
Li       3.49334255       7.42459993      10.09576828
Li       5.82151139       9.06127957      14.11958170
S        2.33267800       6.59379381       8.06833240
Li       3.49705080       7.40256775      14.11958120
Li       5.81387429       9.05452543      18.19742769
S        2.33434953       6.58921842      12.10522680
Li       4.61715032       0.91281415       3.93108603
Li       6.98860781       2.46606984       8.06833265
S        3.57148774      -0.13628417       2.01708335
Li       4.65090880       0.82628274       8.06833215
Li       6.97016380       2.48730973      12.08532887
S        3.48962990       0.00610839       6.04053536
Li       4.61715029       0.91281413      12.20557828
Li       6.97016380       2.48730972      16.15383354
S        3.48962989       0.00610839      10.09612845
Li       5.82645927       4.11992930       6.06139803
Li       8.15219976       5.76447682      10.08778255
S        4.70094121       3.32406762       4.11676441
Li       5.82645927       4.11992930      10.07526728
Li       8.12333317       5.74406433      14.11958170
S        4.66017436       3.29524133       8.06833240
Li       5.67917918       4.01578653      14.11958120
Li       8.15219976       5.76447682      18.15138085
S        4.70094123       3.32406764      12.01990040
Li       6.99475875       7.37780731       8.06833315
Li       9.30247694       9.07985997      12.07950908
S        5.82213587       6.58864896       6.05512759
Li       6.97636623       7.42092983      12.09618003
Li       9.30247693       9.07985997      16.15965533
S        5.82213587       6.58864896      10.08153822
Li       6.97636623       7.42092983      16.14298338
Li       9.33295722       9.03769800      20.17083075
S        5.81624135       6.58391302      14.11958145
Li       8.16442813       0.81868995       6.04089729
Li      10.47464712       2.46320015      10.04173575
S        6.99049223       0.00444084       4.03143821
Li       8.16442812       0.81868995      10.09576801
Li      10.48356043       2.46814831      14.11958170
S        6.99424839       0.00133982       8.06833240
Li       8.14489185       0.82952963      14.11958120
Li      10.47464710       2.46320013      18.19742765
S        6.99049222       0.00444084      12.10522659
Li       9.28744980       4.13545451       8.06833315
Li      11.66139981       5.74384061      12.07950864
S        8.15254984       3.29294759       6.05512773
Li       9.32197527       4.10373935      12.09617989
Li      11.66139980       5.74384061      16.15965577
S        8.15254984       3.29294759      10.08153807
Li       9.32197527       4.10373935      16.14298352
Li      11.63180835       5.78663151      20.17083075
S        8.14611998       3.28896826      14.11958145
Li      10.48433238       7.41354328      10.08397219
Li      12.90426479       9.12469459      14.11958270
S        9.31596728       6.58738452       8.06833340
Li      10.49297492       7.41965396      14.11958220
Li      12.81479182       9.06142698      18.15584961
S        9.31673710       6.58792863      12.10300573
Li      10.48433238       7.41354327      18.15519221
Li      12.81479182       9.06142698      22.18581290
S        9.31673709       6.58792863      16.13615817
