Li S 
 1.0000000000000000
    10.4170739999999995    0.0000000000000000    6.0143010000000006
     3.4723559999999996    9.8213070000000009    6.0143010000000006
     0.0000000000000000    0.0000000000000000   12.0285989999999998
 Li  S  
  53  27
Direct
  0.2530059330953169  0.2530060915721298  0.2494584272557885
  0.4194886644287129  0.4194889026888172  0.0844266572198035
  0.5869354165977984  0.5869358140927678  0.2517140720283797
  0.4194886643101234  0.4194889026989991  0.4181204856907664
  0.9226289405894536  0.9226294398495026  0.9217926025688946
  0.4088849129709228  0.4088851440342920  0.7649490959490359
  0.5869354160192091  0.5869358137262178  0.9220829409867972
  0.4210693188130127  0.7512042248246592  0.0846255831312031
  0.5848342850858408  0.9245062773009741  0.2495619501237354
  0.4178401368449581  0.7555949356333124  0.4189006797099867
  0.5848342842922830  0.9245062766289660  0.5887657308312273
  0.4178401364001811  0.7555949352973081  0.7553324914858925
  0.5891912462144602  0.9202133689436650  0.9222035805541338
  0.7559682837250445  0.0833585541007933  0.0825476891978214
  0.9219262962112441  0.2508016648700626  0.2484575968440494
  0.7559682831956182  0.0833585536731516  0.4196501833499746
  0.9226140008557908  0.2513054841580657  0.5868743790994841
  0.7537249772966319  0.0844622443530174  0.7547405110973681
  0.9219262946811444  0.2508016635565918  0.9264826870064272
  0.7512038405962107  0.4210696715213158  0.0846255988912797
  0.9245058371337926  0.5848346470077760  0.2495619527500151
  0.7555945628221100  0.4178404513778053  0.4189006972185567
  0.9245058363402352  0.5848346463357676  0.5887658064585268
  0.7555945623677335  0.4178404510418012  0.7553325322604920
  0.9202128529838675  0.5891915925141124  0.9222036653842276
  0.7548424170127702  0.7548428408662919  0.0834902412535906
  0.9290707200174996  0.9290713125452651  0.2447631030609410
  0.7554646730631545  0.7554650274958312  0.4183692708018940
  0.9226289408615371  0.9226294400124138  0.5867607923292992
  0.7548424163489488  0.7548428404386504  0.7544927438862236
  0.5846907786407450  0.2532564884999522  0.9239784657871157
  0.4122483714628550  0.0929422254492197  0.7621178462679745
  0.5848571275760232  0.5848574261144672  0.5889768452855341
  0.5846907793180425  0.2532564890599591  0.5857425104076474
  0.0836860448255024  0.0836860596048978  0.4187788376478541
  0.2530059326381288  0.2530060912157618  0.5860542585070400
  0.0836860443553206  0.0836860592587117  0.7553737697018599
  0.1228088723347866  0.1228088899674962  1.0510252432114180
  0.0929421935264183  0.4122484876300068  0.0742162063287862
  0.2510936031054741  0.5871824870559489  0.2516243100186533
  0.0841314982444220  0.4184261067289720  0.4194835529267300
  0.2532562509244434  0.5846910848016460  0.5857424862608891
  0.0929421907716599  0.4122484850947027  0.7621178253299705
  0.0833583758778051  0.7559686237992560  0.0825475854931443
  0.2508013768458067  0.9219267294872259  0.2484575216576041
  0.0833583753449846  0.7559686233817963  0.4196501251916805
  0.2513052738057731  0.9226144308288091  0.5868742692890939
  0.2532562502471461  0.5846910842416391  0.9239784225857695
  0.0844621209738268  0.7537253186363077  0.7547404021170984
  0.4184259195598284  0.0841316472237351  0.4194835720216500
  0.2508013753123130  0.9219267281839372  0.9264826169377165
  0.5871822117727553  0.2510938553188491  0.2516243215535655
  0.4122483742210074  0.0929422279743419  0.0742162643484839
  0.0001363250308872  0.6713764074781492  0.3350059888402771
  0.0014257092081266  0.0014257254660709 -0.0026000389415642
  0.6707788439708153  0.6707792179493014  0.3354066201255673
  0.3347840525857373  0.0006219529030098  0.6716406267914512
  0.6707234112193426  0.6707238169115373  0.0000387405387128
  0.0014257086098556  0.0014257249569736  0.3351297820093251
  0.3474748727142992 -0.0138763779708750  0.0008913414992160
  0.6703700320750373  0.3348809134466522  0.6712086490785799
  0.3384545376741084  0.3384547110990421  0.0037933291312141
 -0.0000628535280709 -0.0000628861922349  0.6708252256580817
  0.6708522166216585  0.3352860864750485  0.3350614203488844
 -0.0138764321233619  0.3474749882169451  0.0008913108241289
  0.3352857964696140  0.6708525619858945  0.0003249464216636
  0.3355194314460406  0.3355196341586715  0.3352428223515069
  0.6709102908070846  0.0004521633729604  0.6706891391975491
  0.0004520731097180  0.6709105436374201  0.6706890752227312
  0.0006219180013329  0.3347841853940621  0.3344780315266119
  0.6713761173552381  0.0001364193584418  0.3350060867379798
  0.3347840531281575  0.0006219533204695  0.3344780782042877
  0.6709102914895230  0.0004521638311479 -0.0005268837208362
  0.0006219174589127  0.3347841849766023  0.6716405765223348
  0.3384545387406145  0.3384547123921490  0.6608221297678117
  0.3348806810522069  0.6703703507384505  0.6712086059440852
  0.0004520737921563  0.6709105440956076 -0.0005269823131519
  0.3352857962319526  0.6708525618637111  0.3350614050869009
  0.6708522168627139  0.3352860865870499  0.0003249861620444
  0.6707788436609156  0.6707792177558445  0.6707035610600302
