73
Lattice="10.417074 0.0 6.014301000000001 3.4723559999999996 9.821307000000001 6.014301000000001 0.0 0.0 12.028599" Properties=species:S:1:pos:R:3 pbc="T T T"
Li       8.10278763       5.72953486      15.97761946
S        4.56549171       3.22828843       9.85083996
Li       5.75664472       4.07056081      15.98169343
Li       8.10278763       5.72953485       8.00568394
S        4.56549168       3.22828841      14.05856383
Li       5.75664471       4.07056081       8.00160897
Li       6.93089130       7.39183130      13.94784059
Li       5.80148823      -0.77952162      11.99165070
S        5.78015657       6.66387747      11.95470240
Li       9.26896583       9.02440372      10.00281576
S        5.78425467       6.55184649      15.98184517
Li       6.93089128       7.39183130      10.03546281
Li       9.26896582       9.02440372      14.05438673
S        5.78425467       6.55184649       8.00145772
Li       4.62724041       0.87612639       9.95779407
Li       6.88668730       2.61282213      13.87127153
S        6.94195767       9.85537797      13.96700820
Li       4.62724040       0.87612639      14.02550732
S        3.48051639       0.03589101      11.99165045
Li       8.10857609      10.67519555      12.02860125
Li       6.88668725       2.61282210      10.18592897
S        6.94195766       9.85537796      10.01629569
Li       9.27938464       4.07056143      13.94784048
Li       1.19888599       5.72953445      11.99165070
S        8.20948553       3.22828957      11.95470240
Li      11.59794651       5.73072909      10.00281603
S        8.10522705       3.26949707      15.98184523
Li       9.27938462       4.07056142      10.03546291
Li      11.59794650       5.73072909      14.05438647
S        8.10522704       3.26949706       8.00145767
Li      10.43879296       7.38133986      15.98820027
S        9.26571305       6.55184728      13.97182490
Li      10.43879296       7.38133985       7.99510412
Li      12.76753422       9.02800906      12.02860175
Li      10.40294334       7.35599041      12.02860125
S        9.26571304       6.55184728      10.01147900
Li       8.14997998       0.87612787      11.99165120
Li      10.45966783       2.51118910      16.02594628
S        6.96197455       0.03589175       9.98163062
Li       8.11288275       0.87872077      15.99510371
Li      10.45966783       2.51118910       8.03125522
S        6.96197455       0.03589175      14.00167127
Li       8.11288274       0.87872076       8.06209679
Li      10.47689239       2.49451650      12.06554980
S       10.43534284       9.85256145      12.02860150
Li       2.36843061       4.07056072       9.95779411
Li       4.75895185       5.62188922      13.87127175
S       11.60572792       3.25981325      13.96700833
Li       2.36843060       4.07056072      14.02550729
S        1.19400772       3.26949731      11.99165045
Li      12.76753218       4.08643915      12.02860125
Li       4.75895181       5.62188919      10.18592875
S       11.60572791       3.25981325      10.01629557
Li       3.54267771       7.39183060      11.99165120
Li       5.85412436       9.02440533      16.02594609
S        2.35449394       6.55184719       9.98163066
Li       3.53275683       7.35599103      15.99510377
Li       5.85412436       9.02440532       8.03125541
S        2.35449394       6.55184719      14.00167123
Li       3.53275682       7.35599102       8.06209673
Li       5.84414676       9.04620222      12.06554980
S       12.76753337       6.55434678      12.02860150
Li       3.69508786       2.61282405      12.02859975
Li       1.24269571       0.87872080      12.02859925
Li       3.52777746       2.49451770      16.07761825
Li       3.52777746       2.49451770       8.05347935
Li       7.95055439       5.62188928      12.02860075
He       7.56809225       5.35144798      12.02860061
He       7.23984766       5.11934370      12.02860054
Ne       6.94471131       4.91065100      12.02860050
He       6.64958263       4.70196340      12.02860046
He       6.32133719       4.46985839      12.02860039
Li       5.93887958       4.19942075      12.02860025
