31
Lattice="0.0 7.333914 7.333914 7.333914 0.0 7.333914 7.333914 7.333914 0.0" Properties=species:S:1:pos:R:3 pbc="T T T"
Li       5.50043550       5.50043550       5.03566183
Li       3.69862548       3.69862548       3.59759728
Nd      -0.03661902      -0.03661902      -0.28135413
Li       5.50043550       5.50043550       2.01532051
Li       9.16739250       9.16739250       5.73738626
Li       7.30224552       7.30224552       3.59759728
Nd       3.70357602       3.70357602      -0.28135413
Li       5.13863332       1.72811223       5.29025008
Li       9.53120810       5.82862205       9.32869181
Li       7.10925876       3.89161224       7.43940326
Nd       3.23195804       0.43499896       3.12258698
Li       9.27275877       5.86223768       5.29025008
Li      12.50616295       8.80357690       9.32869181
Li      11.05022129       7.28456371       7.17036536
Nd       7.98112468       3.01974632       4.63143808
Li       1.72811223       5.13863332       5.29025008
Li       5.82862205       9.53120810       9.32869181
Li       3.89161224       7.10925876       7.43940326
Nd       0.43499896       3.23195804       3.12258698
Li       5.86223768       9.27275877       5.29025008
Li       8.80357690      12.50616295       9.32869181
Li       7.28456371      11.05022129       7.17036536
Nd       3.01974632       7.98112468       4.63143808
Li       5.50043550       5.50043550       9.49446490
Li       9.16739250       9.16739250      15.37055726
Li       7.25983360       7.25983360      10.87588743
Nd       3.85796102       3.85796102       7.33356093
Li       9.16739250       9.16739250       9.00355739
Li      12.83434950      12.83434950      12.36728230
Li      11.07495140      11.07495140      10.87588743
Nd       7.14290998       7.14290998       7.33356093
