31
Lattice="0.0 7.333914 7.333914 7.333914 0.0 7.333914 7.333914 7.333914 0.0" Properties=species:S:1:pos:R:3 pbc="T T T"
Li       5.31503461       5.68583639       5.31503461
Li       3.81318654       3.77821089       3.81318654
Nd       0.05263805       0.19073605       0.05263805
Li       5.66511153       5.33575947       1.94037132
Li       9.24521599       9.08956901       5.75944294
Li       7.22266011       7.18768446       3.81318654
Nd       3.47622095       3.61431895       0.05263805
Li       4.97934945       1.03010923       4.97934945
Li       9.42131014       5.35520333       9.42131014
Li       7.60172314       3.39914786       7.60172314
Nd       2.36624909       1.30070791       2.36624909
Li       9.97076177       6.02152155       4.97934945
Li      12.97958167       8.91347486       9.42131014
Li      11.11331730       7.22146770       7.58968523
Nd       7.40830483       3.59256617       4.38220669
Li       1.94037132       5.33575947       5.66511153
Li       5.75944294       9.08956901       9.24521599
Li       3.81318654       7.18768446       7.22266011
Nd       0.05263805       3.61431895       3.47622095
Li       5.66511153       9.06049968       5.66511153
Li       9.24521599      12.57534206       9.24521599
Li       7.38461693      10.95016807       7.38461693
Nd       3.60358650       7.39728450       3.60358650
Li       4.97934945       6.02152155       9.97076177
Li       9.42131014       8.91347486      12.97958167
Li       7.58968523       7.22146770      11.11331730
Nd       4.38220669       3.59256617       7.40830483
Li       9.08625725       9.24852775       9.08625725
Li      13.00467257      12.66402643      13.00467257
Li      11.11331730      10.74509977      11.11331730
Nd       7.40830483       6.61866431       7.40830483
