Li Nd
 1.0000000000000000
     0.0000000000000000    7.3339140000000000    7.3339140000000000
     7.3339140000000000    0.0000000000000000    7.3339140000000000
     7.3339140000000000    7.3339140000000000    0.0000000000000000
 Li  Nd 
  23   8
Direct
  0.3504081603152150  0.3504081603152150  0.3995918396847850
  0.8488727846958662  0.8488727846958662  0.9011272153041338
  0.6154451503112798  0.6154451503112798  0.6345548496887202
  0.7448916858378760  0.7448916858378760  0.2451432302110442
  0.9999877076551484  0.9999877076551484  0.2500122923448517
  0.6495941136819985  0.6495941136819985  0.1004058863180016
  0.7531249180042199  0.2468782482996119  0.7499984168480842
  0.8857969729396882  0.3980664512291799  0.8099422252565275
  0.6019387885241086  0.1142008065406819  0.6900564323361306
  0.7101318504621135  0.2898636181103297  0.2500022657137785
  0.8857969729396882  0.3980664512291799  0.4061943505746045
  0.7448916858378759  0.7448916858378759  0.7650733981132042
  0.2468782482996119  0.7531249180042199  0.7499984168480842
  0.6019387885241088  0.1142008065406821  0.0938039725990787
  0.1142008065406819  0.6019387885241086  0.6900564323361306
  0.2551125776427157  0.2551125776427157  0.2548554254317681
  0.2898636181103297  0.7101318504621135  0.2500022657137785
  0.3980664512291799  0.8857969729396882  0.4061943505746045
  0.1142008065406821  0.6019387885241088  0.0938039725990787
  0.3980664512291799  0.8857969729396882  0.8099422252565275
  0.2551125776427156  0.2551125776427156  0.7349194192828005
  0.3845545694699992  0.3845545694699992  0.8654454305300009
  0.1511338520808943  0.1511338520808943  0.5988661479191058
 -0.0216537213348835  0.6421604439253038  0.4397466387047899
  0.0000027670218113  0.0000027670218113 -0.0141940440261503
  0.5000008109585141  0.5000008109585141  0.0188408494018337
  0.6421604439253038 -0.0216537213348835  0.4397466387047899
  0.3578342621211539  0.0216452505783405  0.0602602436502528
  0.0216452505783405  0.3578342621211539  0.0602602436502528
  0.0000027670218112  0.0000027670218112  0.5141885099825279
  0.5000008109585141  0.5000008109585141  0.4811575286811381
