31
Lattice="0.0 7.333914 7.333914 7.333914 0.0 7.333914 7.333914 7.333914 0.0" Properties=species:S:1:pos:R:3 pbc="T T T"
Li       5.50043550       5.50043550       5.50043550
Li       3.81996045       3.81996045       3.81996045
Nd       0.51756682       0.51756682       0.51756682
Li       5.50043550       5.50043550       1.51727494
Li       9.16739250       9.16739250       5.77057388
Li       7.18091055       7.18091055       3.81996045
Nd       3.14939018       3.14939018       0.51756682
Li       5.50043550       1.51727494       5.50043550
Li       9.16739250       5.77057388       9.16739250
Li       7.18091055       3.81996045       7.18091055
Nd       3.14939018       0.51756682       3.14939018
Li       9.48359606       5.50043550       5.50043550
Li      12.56421112       9.16739250       9.16739250
Li      10.97610364       7.35868136       7.35868136
Nd       7.25082183       3.75004917       3.75004917
Li       1.51727494       5.50043550       5.50043550
Li       5.77057388       9.16739250       9.16739250
Li       3.81996045       7.18091055       7.18091055
Nd       0.51756682       3.14939018       3.14939018
Li       5.50043550       9.48359606       5.50043550
Li       9.16739250      12.56421112       9.16739250
Li       7.35868136      10.97610364       7.35868136
Nd       3.75004917       7.25082183       3.75004917
Li       5.50043550       5.50043550       9.48359606
Li       9.16739250       9.16739250      12.56421112
Li       7.35868136       7.35868136      10.97610364
Nd       3.75004917       3.75004917       7.25082183
Li       9.16739250       9.16739250       9.16739250
Li      12.83434950      12.83434950      12.83434950
Li      10.97610364      10.97610364      10.97610364
Nd       7.25082183       7.25082183       7.25082183
