Li Nd
 1.0000000000000000
     0.0000000000000000    7.3339140000000000    7.3339140000000000
     7.3339140000000000    0.0000000000000000    7.3339140000000000
     7.3339140000000000    7.3339140000000000    0.0000000000000000
 Li  Nd 
  23   8
Direct
  0.3433133951666190  0.3433133951666190  0.4066866048333810
  0.8431570301615209  0.8431570301615209  0.9068429698384792
  0.6138303088773606  0.6138303088773606  0.6361696911226394
  0.7414790679028962  0.7414790679028962  0.2484198593956787
  1.0479095653630519  1.0479095653630519  0.2020904346369483
  0.6472986252565821  0.6472986252565821  0.1027013747434180
  0.7455788912646099  0.2321207875562762  0.7611501605895570
  0.8884258707833226  0.3835677485446379  0.8168249614189641
  0.5931874281727328  0.1281531927699180  0.6711795615683521
  0.7265594997500653  0.2878242608585265  0.2428081196957041
  0.8884258707833227  0.3835677485446380  0.4111814192530755
  0.7414790679028962  0.7414790679028962  0.7686220047985290
  0.2321207875562762  0.7455788912646099  0.7611501605895570
  0.5931874281727328  0.1281531927699180  0.1074798174889970
  0.1281531927699180  0.5931874281727328  0.6711795615683521
  0.2452713026223106  0.2452713026223106  0.2590467841455463
  0.2878242608585265  0.7265594997500653  0.2428081196957041
  0.3835677485446380  0.8884258707833227  0.4111814192530755
  0.1281531927699180  0.5931874281727328  0.1074798174889970
  0.3835677485446379  0.8884258707833226  0.8168249614189641
  0.2452713026223106  0.2452713026223106  0.7504106106098326
  0.3911544548245315  0.3911544548245315  0.8588455451754685
  0.1373973370631288  0.1373973370631288  0.6126026629368712
 -0.0224941470270854  0.6540038812563115  0.4342451328853870
 -0.0191817170272245 -0.0191817170272245  0.0141886101814120
  0.4999759287741853  0.4999759287741853  0.0260680116374422
  0.6540038812563115 -0.0224941470270854  0.4342451328853870
  0.4035734566153898  0.0222001448476216  0.0371131992684943
  0.0222001448476216  0.4035734566153898  0.0371131992684943
 -0.0191817170272245 -0.0191817170272245  0.5241748238730370
  0.4999759287741852  0.4999759287741852  0.4739801308141874
