Li Nd
 1.0000000000000000
     0.0000000000000000    7.3339140000000000    7.3339140000000000
     7.3339140000000000    0.0000000000000000    7.3339140000000000
     7.3339140000000000    7.3339140000000000    0.0000000000000000
 Li  Nd 
  23   8
Direct
  0.3749850180612972  0.3750449458161085  0.3749850180612972
  0.8749738879880511  0.8750783360358466  0.8749738879880512
  0.6250261120119489  0.6249216639641535  0.6250261120119489
  0.7500000000000001  0.7500000000000001  0.2500000000000000
  0.8750449458161086  0.8749850180612972  0.3749850180612972
  0.6249550541838916  0.6250149819387029  0.1250149819387028
  0.7500000000000000  0.2499999999999999  0.7500000000000001
  0.8749738879880511  0.3749738879880510  0.8749738879880512
  0.6250261120119489  0.1250261120119489  0.6250261120119489
  0.7500000000000001  0.2500000000000000  0.2500000000000000
  0.8749738879880512  0.3749738879880511  0.3750783360358466
  0.7500000000000000  0.7500000000000000  0.7500000000000001
  0.2499999999999999  0.7500000000000000  0.7500000000000001
  0.6250261120119489  0.1250261120119489  0.1249216639641534
  0.1250149819387027  0.6250149819387028  0.6249550541838916
  0.2500000000000000  0.2500000000000000  0.2500000000000000
  0.1250149819387029  1.1249550541838915  0.1250149819387028
  0.3749850180612972  0.8749850180612972  0.3749850180612972
  0.1250149819387029  0.6250149819387029  0.1250149819387028
  0.3749850180612971  0.8749850180612971  0.8750449458161086
  0.2499999999999999  0.2499999999999999  0.7500000000000001
  0.3750783360358465  0.3749738879880510  0.8749738879880512
  0.1249216639641534  0.1250261120119489  0.6250261120119489
 -0.0005242660262992  0.4994757339737009  0.5005242660262992
 -0.0005242660262992  0.0005242660262992 -0.0005242660262992
  0.5005242660262992  0.4994757339737008 -0.0005242660262992
  0.5000000000000000  0.0000000000000000  0.5000000000000000
  0.5005242660262993  0.0005242660262992 -0.0005242660262992
  0.0000000000000000  0.5000000000000000 -0.0000000000000000
 -0.0005242660262992  0.0005242660262992  0.5005242660262992
  0.5005242660262992  0.4994757339737009  0.5005242660262992
