31
Lattice="0.0 7.333914 7.333914 7.333914 0.0 7.333914 7.333914 7.333914 0.0" Properties=species:S:1:pos:R:3 pbc="T T T"
Li       5.50043550       5.50043550       4.95532146
Li       3.60676186       3.60676186       3.52699652
Nd       0.18956018       0.18956018      -0.46720437
Li       5.50043550       5.50043550       1.83738016
Li       9.16739250       9.16739250       5.67596808
Li       7.39410914       7.39410914       3.52699652
Nd       3.47739682       3.47739682      -0.46720437
Li       5.16456606       1.87210581       5.37114386
Li       9.51683680       5.70215006       9.22658591
Li       7.20159083       3.79928017       7.48177196
Nd       3.50119464       0.16576236       3.39359203
Li       9.12876519       5.83630494       5.37114386
Li      12.63263494       8.81794820       9.22658591
Li      11.05883995       7.27594505       7.13705994
Nd       7.94662793       3.05424307       4.44692142
Li       1.87210581       5.16456606       5.37114386
Li       5.70215006       9.51683680       9.22658591
Li       3.79928017       7.20159083       7.48177196
Nd       0.16576236       3.50119464       3.39359203
Li       5.83630494       9.12876519       5.37114386
Li       8.81794820      12.63263494       9.22658591
Li       7.27594505      11.05883995       7.13705994
Nd       3.05424307       7.94662793       4.44692142
Li       5.50043550       5.50043550       9.47280869
Li       9.16739250       9.16739250      16.06259160
Li       7.23160431       7.23160431      10.85491706
Nd       3.90807013       3.90807013       7.38273382
Li       9.16739250       9.16739250       8.89718948
Li      12.83434950      12.83434950      12.58211666
Li      11.10318069      11.10318069      10.85491706
Nd       7.09280087       7.09280087       7.38273382
