31
Lattice="0.0 7.333914 7.333914 7.333914 0.0 7.333914 7.333914 7.333914 0.0" Properties=species:S:1:pos:R:3 pbc="T T T"
Li       5.17996074       5.82091026       5.17996074
Li       3.71237497       3.68258485       3.71237497
Nd       0.03517888      -0.27449317       0.03517888
Li       5.52296799       5.47790301       2.09326636
Li       9.21287977       9.12190523       5.84573975
Li       7.31828615       7.28849603       3.71237497
Nd       3.94145017       3.63177812       0.03517888
Li       5.34583239       1.43054549       5.34583239
Li       9.25821842       5.26062046       9.25821842
Li       8.57442504       2.42644596       8.57442504
Nd       3.10014719       0.56680981       3.10014719
Li       9.57032551       5.65503861       5.34583239
Li      13.07416454       9.07656658       9.25821842
Li      11.02148907       7.31329593       7.41583488
Nd       7.33079367       3.67007733       4.18747886
Li       2.09326636       5.47790301       5.52296799
Li       5.84573975       9.12190523       9.21287977
Li       3.71237497       7.28849603       7.31828615
Nd       0.03517888       3.63177812       3.94145017
Li       5.52296799       8.90760464       5.52296799
Li       9.21287977      12.48904525       9.21287977
Li       7.29683249      11.03795251       7.29683249
Nd       3.37538872       7.62548228       3.37538872
Li       5.34583239       5.65503861       9.57032551
Li       9.25821842       9.07656658      13.07416454
Li       7.41583488       7.31329593      11.02148907
Nd       4.18747886       3.67007733       7.33079367
Li       8.92052058       9.41426442       8.92052058
Li      12.58202199      13.08667701      12.58202199
Li      11.02148907      10.91895012      11.02148907
Nd       7.33079367       6.81339214       7.33079367
