Li Nd
 1.0000000000000000
     0.0000000000000000    7.3339140000000000    7.3339140000000000
     7.3339140000000000    0.0000000000000000    7.3339140000000000
     7.3339140000000000    7.3339140000000000    0.0000000000000000
 Li  Nd 
  23   8
Direct
  0.3534328030094162  0.3534328030094162  0.3965671969905838
  0.8965671969905837  0.8965671969905837  0.8534328030094164
  0.6065826953656670  0.6065826953656670  0.6434173046343331
  0.7395669447446480  0.7395669447446480  0.2395669447446479
  1.1434173046343332  1.1434173046343332  0.1065826953656669
  0.6250000000000001  0.6250000000000001  0.1250000000000000
  0.7449212574827030  0.2516929141724322  0.7516929141724324
  0.8965671969905837  0.3534328030094161  0.8534328030094163
  0.6065826953656671  0.1434173046343331  0.6434173046343330
  0.7395669447446479  0.2812991657660561  0.2395669447446480
  0.8965671969905837  0.3534328030094163  0.3965671969905837
  0.7395669447446479  0.7395669447446479  0.7812991657660562
  0.2516929141724322  0.7449212574827030  0.7516929141724324
  0.6065826953656670  0.1434173046343331  0.1065826953656669
  0.1434173046343331  0.6065826953656671  0.6434173046343330
  0.2516929141724323  0.2516929141724323  0.2449212574827030
  0.2812991657660561  0.7395669447446479  0.2395669447446480
  0.3534328030094163  0.8965671969905837  0.3965671969905837
  0.1434173046343331  0.6065826953656670  0.1065826953656669
  0.3534328030094161  0.8965671969905837  0.8534328030094163
  0.2516929141724322  0.2516929141724322  0.7516929141724324
  0.3749999999999999  0.3749999999999999  0.8750000000000001
  0.1249999999999999  0.1249999999999999  0.6250000000000001
 -0.0352859107156152  0.6058577321468454  0.4647140892843849
 -0.0352859107156152 -0.0352859107156152  0.1058577321468455
  0.5056579292925988  0.5056579292925988  0.0056579292925988
  0.6058577321468454 -0.0352859107156152  0.4647140892843849
  0.5056579292925988 -0.0169737878777962  0.0056579292925988
 -0.0169737878777962  0.5056579292925988  0.0056579292925988
 -0.0352859107156152 -0.0352859107156152  0.4647140892843849
  0.5056579292925988  0.5056579292925988  0.4830262121222038
