31
Lattice="0.0 7.333914 7.333914 7.333914 0.0 7.333914 7.333914 7.333914 0.0" Properties=species:S:1:pos:R:3 pbc="T T T"
Li       5.50043550       5.50043550       5.18409156
Li       3.64212563       3.64212563       3.69178837
Nd       0.51756767       0.51756767      -0.51756767
Li       5.50043550       5.50043550       1.83347850
Li       9.16739250       9.16739250       5.50043550
Li       7.35874537       7.35874537       3.69178837
Nd       3.14938933       3.14938933      -0.51756767
Li       5.23029364       1.83347850       5.50043550
Li       9.48373644       5.50043550       9.16739250
Li       7.18088374       3.81998726       7.48694426
Nd       3.74994653      -0.08298953       3.58396747
Li       9.16739250       5.77057736       5.50043550
Li      12.83434950       8.85104856       9.16739250
Li      10.97603963       7.35874537       7.30908263
Nd       7.85148167       3.14938933       4.18452467
Li       1.83347850       5.23029364       5.50043550
Li       5.50043550       9.48373644       9.16739250
Li       3.81998726       7.18088374       7.48694426
Nd      -0.08298953       3.74994653       3.58396747
Li       5.77057736       9.16739250       5.50043550
Li       8.85104856      12.83434950       9.16739250
Li       7.35874537      10.97603963       7.30908263
Nd       3.14938933       7.85148167       4.18452467
Li       5.50043550       5.50043550       9.16739250
Li       9.16739250       9.16739250      16.77144836
Li       7.18088374       7.18088374      10.84784074
Nd       3.74994653       3.74994653       7.41690353
Li       9.16739250       9.16739250       8.89725064
Li      12.83434950      12.83434950      13.15069344
Li      11.15390126      11.15390126      10.84784074
Nd       7.25092447       7.25092447       7.41690353
