Li Nd
 1.0000000000000000
     0.0000000000000000    7.3339140000000000    7.3339140000000000
     7.3339140000000000    0.0000000000000000    7.3339140000000000
     7.3339140000000000    7.3339140000000000    0.0000000000000000
 Li  Nd 
  23   8
Direct
  0.3541698942474646  0.3541698942474646  0.3958301057525355
  0.8747482342852669  0.8747482342852669  0.8752517657147331
  0.6130358133187817  0.6130358133187817  0.6369641866812183
  0.7595476074712629  0.7595476074712629  0.2486784998978718
  0.9048746034109481  0.9048746034109481  0.3451253965890520
  0.6621836230149413  0.6621836230149413  0.0878163769850588
  0.7713284786609169  0.2555132843731192  0.7365791184829820
  0.8582598751021625  0.4093540860514593  0.8459320258527711
  0.6310339902744972  0.1108915641702370  0.6666193455704553
  0.7218735112587904  0.2579429201446867  0.2600917842982615
  0.8582598751021624  0.4093540860514591  0.3864540129936075
  0.7595476074712628  0.7595476074712628  0.7322262851596025
  0.2555132843731192  0.7713284786609169  0.7365791184829820
  0.6310339902744974  0.1108915641702370  0.0914550999848103
  0.1108915641702370  0.6310339902744972  0.6666193455704553
  0.2599487868756029  0.2599487868756029  0.2539997904188678
  0.2579429201446867  0.7218735112587904  0.2600917842982615
  0.4093540860514591  0.8582598751021624  0.3864540129936075
  0.1108915641702370  0.6310339902744974  0.0914550999848103
  0.4093540860514593  0.8582598751021625  0.8459320258527711
  0.2599487868756029  0.2599487868756029  0.7261026358299266
  0.3934275902267193  0.3934275902267193  0.8565724097732808
  0.1421758925384181  0.1421758925384181  0.6078241074615819
 -0.0039864940330634  0.5412932378808915  0.4813466280760860
  0.0318506739852690  0.0318506739852690 -0.0060360264450879
  0.4966828355841097  0.4966828355841097  0.0362262536416435
  0.5412932378808915 -0.0039864940330634  0.4813466280760860
  0.3633050252566365  0.0303564057882326  0.0531692844775655
  0.0303564057882326  0.3633050252566365  0.0531692844775655
  0.0318506739852689  0.0318506739852689  0.4423346784745499
  0.4966828355841097  0.4966828355841097  0.4704080751901372
