69
Lattice="0.0 7.333914 7.333914 7.333914 0.0 7.333914 7.333914 7.333914 0.0" Properties=species:S:1:pos:R:3 pbc="T T T"
Li      11.00087100       3.66695700       5.50056788
Li       3.66695700      11.00087100       5.50056788
Li       9.32039595       1.98648195       3.82009283
Li       1.98648195       9.32039595       3.82009283
Li       9.32039595       9.32039595      11.15400683
Nd       6.01800232       6.01800232       7.85161320
Li       3.66695700       3.66695700       8.85132132
Li      11.00087100      11.00087100       8.85132132
Li       7.33391400       7.33391400      13.10462026
Li      12.68134605       5.34743205       3.82009283
Li       5.34743205      12.68134605       3.82009283
Li       5.34743205       5.34743205      11.15400683
Nd       8.64982568       8.64982568       7.85161320
Li       3.66695700       7.01771044       5.50056788
Li      11.00087100       7.01771044      12.83448188
Li       7.33391400       3.93709538       1.83361088
Li       7.33391400      11.27100938       9.16752488
Li       5.34743205       9.32039595       7.18104293
Nd       8.64982568       6.01800232      10.48343657
Li       7.65011756      11.00087100       5.50056788
Li       7.65011756       3.66695700      12.83448188
Li      10.73073262       7.33391400       1.83361088
Li       3.39681862       7.33391400       9.16752488
Li       9.14262514       5.52520286       0.02489974
Li       1.80871114       5.52520286       7.35881374
Li       9.14262514      12.85911686       7.35881374
Li       9.14262514       5.52520286      14.69272774
Nd       5.41734333       9.25048467       3.75018155
Nd       5.41734333       1.91657067      11.08409555
Nd      12.75125733       9.25048467      11.08409555
Li       7.01771044       3.66695700       5.50056788
Li       7.01771044      11.00087100      12.83448188
Li       3.93709538       7.33391400       1.83361088
Li      11.27100938       7.33391400       9.16752488
Li       9.32039595       5.34743205       7.18104293
Nd       6.01800232       8.64982568      10.48343657
Li      11.00087100       7.65011756       5.50056788
Li       3.66695700       7.65011756      12.83448188
Li       7.33391400      10.73073262       1.83361088
Li       7.33391400       3.39681862       9.16752488
Li       5.52520286       9.14262514       0.02489974
Li       5.52520286       1.80871114       7.35881374
Li      12.85911686       9.14262514       7.35881374
Li       5.52520286       9.14262514      14.69272774
Nd       9.25048467       5.41734333       3.75018155
Nd       1.91657067       5.41734333      11.08409555
Nd       9.25048467      12.75125733      11.08409555
Li      11.00087100       3.66695700       9.48372844
Li       3.66695700      11.00087100       9.48372844
Li       5.52520286       5.52520286       3.64232203
Nd       9.25048467       9.25048467      -0.08295978
Nd       9.25048467       1.91657067       7.25095422
Nd       1.91657067       9.25048467       7.25095422
Nd       9.25048467       9.25048467      14.58486822
Li       7.33391400       7.33391400       1.83361088
Li       3.66695700       3.66695700       5.50056788
Li      11.00087100      11.00087100       5.50056788
Li       9.14262514       9.14262514       3.64232203
Nd       5.41734333       5.41734333      -0.08295978
Nd      12.75125733       5.41734333       7.25095422
Nd       5.41734333      12.75125733       7.25095422
Nd       5.41734333       5.41734333      14.58486822
Li       7.33391400       7.33391400       5.23042950
He       7.33391400       7.33391400       5.93876343
Ne       7.33391400       7.33391400       6.63108663
He       7.33391400       7.33391400       7.33386608
Ne       7.33391400       7.33391400       8.03677565
He       7.33391400       7.33391400       8.72880998
Li       7.33391400       7.33391400       9.43766674
