Li Nd
 1.0000000000000000
     0.0000000000000000    7.3339140000000000    7.3339140000000000
     7.3339140000000000    0.0000000000000000    7.3339140000000000
     7.3339140000000000    7.3339140000000000    0.0000000000000000
 Li  Nd 
  23   8
Direct
  0.3526929890437767  0.3526929890437767  0.3973070109562234
  0.8626203285176238  0.8626203285176238  0.8873796714823763
  0.6088467953810203  0.6088467953810203  0.6411532046189797
  0.7547373480722572  0.7547373480722572  0.2409485335047561
  0.9520747205584904  0.9520747205584904  0.2979252794415097
  0.6567013164253086  0.6567013164253086  0.0932986835746915
  0.7678927415292844  0.2544192720558218  0.7388439932074470
  0.8718442662199201  0.4068177489741494  0.8288176874244777
  0.6164335291973698  0.1115724850400482  0.6831861415132493
  0.7121700343636426  0.2734324543483875  0.2571987556439850
  0.8718442662199202  0.4068177489741494  0.3925202973814529
  0.7547373480722571  0.7547373480722571  0.7495767703507294
  0.2544192720558218  0.7678927415292844  0.7388439932074470
  0.6164335291973699  0.1115724850400482  0.0888078442493326
  0.1115724850400482  0.6164335291973698  0.6831861415132493
  0.2585177960363320  0.2585177960363320  0.2515820705151438
  0.2734324543483875  0.7121700343636426  0.2571987556439850
  0.4068177489741494  0.8718442662199202  0.3925202973814529
  0.1115724850400482  0.6164335291973699  0.0888078442493326
  0.4068177489741494  0.8718442662199201  0.8288176874244777
  0.2585177960363321  0.2585177960363321  0.7313823374121922
  0.3861671779829977  0.3861671779829977  0.8638328220170023
  0.1568328954634592  0.1568328954634592  0.5931671045365409
 -0.0221967064653335  0.5964217318201441  0.4628874873225948
  0.0191848776519605  0.0191848776519605 -0.0241714687000693
  0.5000263420732777  0.5000263420732777  0.0260315173725789
  0.5964217318201441 -0.0221967064653335  0.4628874873225948
  0.3459895351718059  0.0224790448660838  0.0657657099810551
  0.0224790448660838  0.3459895351718059  0.0657657099810551
  0.0191848776519604  0.0191848776519604  0.4858017133961484
  0.5000263420732777  0.5000263420732777  0.4739157984808658
