Li Nd
 1.0000000000000000
     0.0000000000000000    7.3339140000000000    7.3339140000000000
     7.3339140000000000    0.0000000000000000    7.3339140000000000
     7.3339140000000000    7.3339140000000000    0.0000000000000000
 Li  Nd 
  23   8
Direct
  0.3866905655765802  0.3399283032702592  0.3866905655765803
  0.8633708171243896  0.9098875486268315  0.8633708171243896
  0.6271987088817784  0.6184038733546644  0.6271987088817786
  0.7352477226825950  0.7789192546640172  0.2505852999707932
  0.8555431811853806  0.8808022709156395  0.3818272739494901
  0.7045448708561349  0.6383084317869013  0.0785733486784819
  0.7445686893928671  0.2662939318213984  0.7445686893928672
  0.8488008760601774  0.4171825062101899  0.8488008760601775
  0.6258328983132335  0.1397120887564266  0.6258328983132336
  0.7226015202046274  0.2570591122352948  0.2601696837800389
  0.8488008760601775  0.4171825062101900  0.3852157416694552
  0.7352477226825949  0.7789192546640171  0.7352477226825950
  0.2505852999707931  0.7789192546640171  0.7352477226825950
  0.6258328983132336  0.1397120887564267  0.1086221146171062
  0.0785733486784819  0.6383084317869013  0.7045448708561349
  0.2601696837800389  0.2570591122352948  0.2601696837800389
  0.2481549355296504  0.7555351934110491  0.2481549355296503
  0.3818272739494900  0.8808022709156395  0.3818272739494901
  0.0785733486784819  0.6383084317869013  0.0785733486784819
  0.3818272739494901  0.8808022709156395  0.8555431811853806
  0.2601696837800388  0.2570591122352948  0.7226015202046274
  0.3852157416694550  0.4171825062101899  0.8488008760601775
  0.1086221146171061  0.1397120887564266  0.6258328983132336
  0.0393268325071714  0.5278896399248750  0.4663917637839768
  0.0245691684617518  0.0292283117105000  0.0245691684617518
  0.4663917637839768  0.5278896399248751  0.0393268325071715
  0.5010148798172435 -0.0030446394517308  0.5010148798172437
  0.4216333513659964  0.0292283117105000  0.0245691684617518
  0.0552188111832236  0.3343435664503293  0.0552188111832236
  0.0245691684617518  0.0292283117105000  0.4216333513659964
  0.4663917637839767  0.5278896399248750  0.4663917637839768
