31
Lattice="0.0 7.333914 7.333914 7.333914 0.0 7.333914 7.333914 7.333914 0.0" Properties=species:S:1:pos:R:3 pbc="T T T"
Li       5.32896029       5.67191071       5.32896029
Li       3.79331151       3.81612417       3.79331151
Nd       0.39454609       0.36037634       0.39454609
Li       5.61444110       5.38642990       1.82126169
Li       9.28461325       9.05017175       5.88471974
Li       7.18474683       7.20755949       3.79331151
Nd       3.30658066       3.27241091       0.39454609
Li       5.25754933       1.15250036       5.25754933
Li       9.26001650       5.60057678       9.26001650
Li       7.36097709       3.63989391       7.36097709
Nd       2.85701698       0.80994002       2.85701698
Li       9.84837064       5.74332167       5.25754933
Li      12.73420822       9.07476850       9.26001650
Li      11.10477039       7.23001461       7.55029787
Nd       7.29197431       3.70889669       4.15991683
Li       1.82126169       5.38642990       5.61444110
Li       5.88471974       9.05017175       9.28461325
Li       3.79331151       7.20755949       7.18474683
Nd       0.39454609       3.27241091       3.30658066
Li       5.61444110       9.17960931       5.61444110
Li       9.28461325      12.45006526       9.28461325
Li       7.41357953      10.92120547       7.41357953
Nd       3.65207092       7.34880008       3.65207092
Li       5.25754933       5.74332167       9.84837064
Li       9.26001650       9.07476850      12.73420822
Li       7.55029787       7.23001461      11.10477039
Nd       4.15991683       3.70889669       7.29197431
Li       9.13514222       9.19964278       9.13514222
Li      13.00492435      12.66377465      13.00492435
Li      11.10477039      10.78448713      11.10477039
Nd       7.29197431       6.84095417       7.29197431
