62
Lattice="7.0072051335954395 0.0 0.0 3.5036025667977206 6.068417655222382 0.0 17.51801383735877 10.114030004666674 28.606796805696046" Properties=species:S:1:pos:R:3:spacegroup_kinds:I:1 spacegroup="P 1" unit_cell=conventional pbc="T T T"
Li       1.87589020       2.45136422       0.03792889        0
Li       5.69192630       5.60859083       5.66034135        1
Li      16.43577097      11.53042474      22.47881643        2
Li       3.02962646       0.08263126       0.08592194        3
Li      21.57212120      14.20601973      23.05309959        4
Li       2.74739390       1.61089574       3.28634367        5
Li       8.02409085       3.53689828       9.04307133        6
Li      11.09006104       5.28903103      14.80949555        7
Li      14.93070319       7.86130039      20.58904886        8
Li       4.01430315       4.29418370       1.71864658        9
Li       7.17055537       6.43560864       7.73945044       10
Li      19.85863477      10.53836722      18.59443337       11
Li      17.75782034      12.82650470      24.75742904       12
Li      11.93997550       3.43912377       7.95422884       13
Li       8.44509744       6.55970980      11.33691934       14
Li       5.73889085       0.91367306       2.11171741       15
Li      11.99704034       7.95814040      16.54246755       16
Li      17.44749012       8.84433256      13.19893918       17
Li      15.31035607       9.40699898      17.15587137       18
Li      23.05149160      12.16549269      28.15406335       19
Li       8.98517835       4.02697624       5.75144112       20
Li      12.34703923       6.09272697      11.26161882       21
Li      15.35023352      12.73376383      19.17252868       22
Li      19.82196033      10.24533358      22.80797997       23
Li      20.72062845      15.33609315      26.41513055       24
Li       6.15857491       2.26861175       5.68333235       25
Li      12.99978603      10.25596353      12.07414224       26
P        7.30786419       4.05204599       2.71825130       27
P       10.48291698       6.28555870       8.52659106       28
P       13.79015105       8.18600171      14.17696008       29
P       17.31618928       9.91361924      19.89681329       30
P       21.37211246      12.15819822      25.64183705       31
S        7.27857949       2.14873693       3.53649294       32
S       10.39965232       4.46505209       9.51366229       33
S       13.43069646       6.44803272      15.13552979       34
S       17.42960190       7.99990665      20.68501722       35
S       21.75815652      10.35848595      26.52076944       36
S        5.68649602       5.18505768       3.32157465       37
S        8.87020324       7.42233591       9.15794421       38
S       12.34942302       9.61651714      14.63899847       39
S       15.45021286      10.62033190      20.43176154       40
S       19.59934596      13.04529625      26.27112136       41
S        7.17041817       3.93602793       0.65869410       42
S       10.39664353       6.02887553       6.47851462       43
S       13.78835997       8.02943773      12.10285431       44
S       17.57020347       9.90630465      17.85417100       45
S       21.26478804      11.93880265      23.56954267       46
S        9.09220054       4.88289197       3.33476553       47
S       12.22473991       7.23363705       9.08807468       48
S       15.59403659       9.05994216      14.77463902       49
S       18.76654952      11.16980724      20.69986673       50
S       22.82734719      13.55735999      26.08114706       51
S        3.84256484       1.99487899       1.23309025       52
S        6.94017228       4.16793317       7.00670336       53
Cl      10.40391905       6.36476808      12.70061679       54
Cl      13.67768868       8.16942828      18.46865157       55
Cl      17.75386398      10.30298946      24.09085234       56
Cl      17.92512489      10.34494139      28.60514190       57
Cl       7.09278139       8.07911126       5.79839289       58
Cl       7.20168329       4.39880495      11.33386242       59
Cl      14.19654793      11.89532536      17.21256432       60
Cl      24.14442891      13.98262460      22.65369464       61
