 running on   64 total cores
 distrk:  each k-point on   16 cores,    4 groups
 distr:  one band on    4 cores,    4 groups
 using from now: INCAR     
 vasp.5.4.4.18Apr17-6-g9f103f2a35 (build Aug 19 2022 11:57:46) complex          
  
 POSCAR found type information on POSCAR  Li Ni O 
 POSCAR found :  3 types and     192 ions
 scaLAPACK will be used

 ----------------------------------------------------------------------------- 
|                                                                             |
|           W    W    AA    RRRRR   N    N  II  N    N   GGGG   !!!           |
|           W    W   A  A   R    R  NN   N  II  NN   N  G    G  !!!           |
|           W    W  A    A  R    R  N N  N  II  N N  N  G       !!!           |
|           W WW W  AAAAAA  RRRRR   N  N N  II  N  N N  G  GGG   !            |
|           WW  WW  A    A  R   R   N   NN  II  N   NN  G    G                |
|           W    W  A    A  R    R  N    N  II  N    N   GGGG   !!!           |
|                                                                             |
|      You have enabled k-point parallelism (KPAR>1).                         |
|      This developmental code was originally  written by Paul Kent at ORNL,  |
|      and carefully double checked in Vienna.                                |
|      GW as well as linear response parallelism added by Martijn Marsman     |
|      and Georg Kresse.                                                      |
|      Carefully verify results versus KPAR=1.                                |
|      Report problems to Paul Kent and Vienna.                               |
|                                                                             |
 ----------------------------------------------------------------------------- 


 ----------------------------------------------------------------------------- 
|                                                                             |
|  ADVICE TO THIS USER RUNNING 'VASP/VAMP'   (HEAR YOUR MASTER'S VOICE ...):  |
|                                                                             |
|      You have a (more or less) 'large supercell' and for larger cells       |
|      it might be more efficient to use real space projection opertators     |
|      So try LREAL= Auto  in the INCAR   file.                               |
|      Mind:          For very  accurate calculation you might also keep the  |
|      reciprocal projection scheme          (i.e. LREAL=.FALSE.)             |
|                                                                             |
 ----------------------------------------------------------------------------- 

 LDA part: xc-table for Pade appr. of Perdew
 POSCAR found type information on POSCAR  Li Ni O 
 POSCAR found :  3 types and     192 ions



 VERY BAD NEWS! internal error in subroutine IBZKPT:
 Reciprocal lattice and k-lattice belong to different class of lattices. Often results are still useful...      96


 VERY BAD NEWS! internal error in subroutine IBZKPT:
 Reciprocal lattice and k-lattice belong to different class of lattices. Often results are still useful...      96

 VERY BAD NEWS! internal error in subroutine IBZKPT:
 Reciprocal lattice and k-lattice belong to different class of lattices. Often results are still useful...      96


 VERY BAD NEWS! internal error in subroutine IBZKPT:
 Reciprocal lattice and k-lattice belong to different class of lattices. Often results are still useful...      96


 VERY BAD NEWS! internal error in subroutine IBZKPT:
 Reciprocal lattice and k-lattice belong to different class of lattices. Often results are still useful...      96


 VERY BAD NEWS! internal error in subroutine IBZKPT:
 Reciprocal lattice and k-lattice belong to different class of lattices. Often results are still useful...      96


 VERY BAD NEWS! internal error in subroutine IBZKPT:
 Reciprocal lattice and k-lattice belong to different class of lattices. Often results are still useful...      96


 VERY BAD NEWS! internal error in subroutine IBZKPT:
 Reciprocal lattice and k-lattice belong to different class of lattices. Often results are still useful...      96


 VERY BAD NEWS! internal error in subroutine IBZKPT:
 Reciprocal lattice and k-lattice belong to different class of lattices. Often results are still useful...      96


 VERY BAD NEWS! internal error in subroutine IBZKPT:
 Reciprocal lattice and k-lattice belong to different class of lattices. Often results are still useful...      96



 VERY BAD NEWS! internal error in subroutine IBZKPT:
 Reciprocal lattice and k-lattice belong to different class of lattices. Often results are still useful...      96

 VERY BAD NEWS! internal error in subroutine IBZKPT:
 Reciprocal lattice and k-lattice belong to different class of lattices. Often results are still useful...      96


 VERY BAD NEWS! internal error in subroutine IBZKPT:
 Reciprocal lattice and k-lattice belong to different class of lattices. Often results are still useful...      96




 VERY BAD NEWS! internal error in subroutine IBZKPT:
 Reciprocal lattice and k-lattice belong to different class of lattices. Often results are still useful...      96
 VERY BAD NEWS! internal error in subroutine IBZKPT:
 Reciprocal lattice and k-lattice belong to different class of lattices. Often results are still useful...      96


 VERY BAD NEWS! internal error in subroutine IBZKPT:
 Reciprocal lattice and k-lattice belong to different class of lattices. Often results are still useful...      96


 VERY BAD NEWS! internal error in subroutine IBZKPT:
 Reciprocal lattice and k-lattice belong to different class of lattices. Often results are still useful...      96




 VERY BAD NEWS! internal error in subroutine IBZKPT:
 Reciprocal lattice and k-lattice belong to different class of lattices. Often results are still useful...      96

 VERY BAD NEWS! internal error in subroutine IBZKPT:
 Reciprocal lattice and k-lattice belong to different class of lattices. Often results are still useful...      96


 VERY BAD NEWS! internal error in subroutine IBZKPT:
 Reciprocal lattice and k-lattice belong to different class of lattices. Often results are still useful...      96


 VERY BAD NEWS! internal error in subroutine IBZKPT:
 Reciprocal lattice and k-lattice belong to different class of lattices. Often results are still useful...      96

 VERY BAD NEWS! internal error in subroutine IBZKPT:
 Reciprocal lattice and k-lattice belong to different class of lattices. Often results are still useful...      96



 VERY BAD NEWS! internal error in subroutine IBZKPT:
 Reciprocal lattice and k-lattice belong to different class of lattices. Often results are still useful...      96


 VERY BAD NEWS! internal error in subroutine IBZKPT:
 Reciprocal lattice and k-lattice belong to different class of lattices. Often results are still useful...      96

 VERY BAD NEWS! internal error in subroutine IBZKPT:
 Reciprocal lattice and k-lattice belong to different class of lattices. Often results are still useful...      96


 VERY BAD NEWS! internal error in subroutine IBZKPT:
 Reciprocal lattice and k-lattice belong to different class of lattices. Often results are still useful...      96


 VERY BAD NEWS! internal error in subroutine IBZKPT:
 Reciprocal lattice and k-lattice belong to different class of lattices. Often results are still useful...      96


 VERY BAD NEWS! internal error in subroutine IBZKPT:


 VERY BAD NEWS! internal error in subroutine IBZKPT:
 Reciprocal lattice and k-lattice belong to different class of lattices. Often results are still useful...      96
 Reciprocal lattice and k-lattice belong to different class of lattices. Often results are still useful...      96


 VERY BAD NEWS! internal error in subroutine IBZKPT:
 Reciprocal lattice and k-lattice belong to different class of lattices. Often results are still useful...      96


 VERY BAD NEWS! internal error in subroutine IBZKPT:
 Reciprocal lattice and k-lattice belong to different class of lattices. Often results are still useful...      96


 VERY BAD NEWS! internal error in subroutine IBZKPT:
 Reciprocal lattice and k-lattice belong to different class of lattices. Often results are still useful...      96




 VERY BAD NEWS! internal error in subroutine IBZKPT:
 Reciprocal lattice and k-lattice belong to different class of lattices. Often results are still useful...      96


 VERY BAD NEWS! internal error in subroutine IBZKPT:
 Reciprocal lattice and k-lattice belong to different class of lattices. Often results are still useful...      96
 VERY BAD NEWS! internal error in subroutine IBZKPT:
 Reciprocal lattice and k-lattice belong to different class of lattices. Often results are still useful...      96




 VERY BAD NEWS! internal error in subroutine IBZKPT:
 Reciprocal lattice and k-lattice belong to different class of lattices. Often results are still useful...      96
 VERY BAD NEWS! internal error in subroutine IBZKPT:
 Reciprocal lattice and k-lattice belong to different class of lattices. Often results are still useful...      96



 VERY BAD NEWS! internal error in subroutine IBZKPT:
 Reciprocal lattice and k-lattice belong to different class of lattices. Often results are still useful...      96


 VERY BAD NEWS! internal error in subroutine IBZKPT:
 Reciprocal lattice and k-lattice belong to different class of lattices. Often results are still useful...      96



 VERY BAD NEWS! internal error in subroutine IBZKPT:
 Reciprocal lattice and k-lattice belong to different class of lattices. Often results are still useful...      96
 VERY BAD NEWS! internal error in subroutine IBZKPT:
 Reciprocal lattice and k-lattice belong to different class of lattices. Often results are still useful...      96


 VERY BAD NEWS! internal error in subroutine IBZKPT:
 Reciprocal lattice and k-lattice belong to different class of lattices. Often results are still useful...      96


 VERY BAD NEWS! internal error in subroutine IBZKPT:
 Reciprocal lattice and k-lattice belong to different class of lattices. Often results are still useful...      96


 VERY BAD NEWS! internal error in subroutine IBZKPT:
 Reciprocal lattice and k-lattice belong to different class of lattices. Often results are still useful...      96


 VERY BAD NEWS! internal error in subroutine IBZKPT:
 Reciprocal lattice and k-lattice belong to different class of lattices. Often results are still useful...      96


 VERY BAD NEWS! internal error in subroutine IBZKPT:
 Reciprocal lattice and k-lattice belong to different class of lattices. Often results are still useful...      96



 VERY BAD NEWS! internal error in subroutine IBZKPT:
 Reciprocal lattice and k-lattice belong to different class of lattices. Often results are still useful...      96

 VERY BAD NEWS! internal error in subroutine IBZKPT:
 Reciprocal lattice and k-lattice belong to different class of lattices. Often results are still useful...      96


 VERY BAD NEWS! internal error in subroutine IBZKPT:
 Reciprocal lattice and k-lattice belong to different class of lattices. Often results are still useful...      96



 VERY BAD NEWS! internal error in subroutine IBZKPT:
 Reciprocal lattice and k-lattice belong to different class of lattices. Often results are still useful...      96



 VERY BAD NEWS! internal error in subroutine IBZKPT:
 Reciprocal lattice and k-lattice belong to different class of lattices. Often results are still useful...      96


 VERY BAD NEWS! internal error in subroutine IBZKPT:
 Reciprocal lattice and k-lattice belong to different class of lattices. Often results are still useful...      96
 VERY BAD NEWS! internal error in subroutine IBZKPT:
 Reciprocal lattice and k-lattice belong to different class of lattices. Often results are still useful...      96


 VERY BAD NEWS! internal error in subroutine IBZKPT:
 Reciprocal lattice and k-lattice belong to different class of lattices. Often results are still useful...      96



 VERY BAD NEWS! internal error in subroutine IBZKPT:
 Reciprocal lattice and k-lattice belong to different class of lattices. Often results are still useful...      96

 VERY BAD NEWS! internal error in subroutine IBZKPT:
 Reciprocal lattice and k-lattice belong to different class of lattices. Often results are still useful...      96


 VERY BAD NEWS! internal error in subroutine IBZKPT:
 Reciprocal lattice and k-lattice belong to different class of lattices. Often results are still useful...      96


 VERY BAD NEWS! internal error in subroutine IBZKPT:
 Reciprocal lattice and k-lattice belong to different class of lattices. Often results are still useful...      96



 VERY BAD NEWS! internal error in subroutine IBZKPT:
 Reciprocal lattice and k-lattice belong to different class of lattices. Often results are still useful...      96

 VERY BAD NEWS! internal error in subroutine IBZKPT:
 Reciprocal lattice and k-lattice belong to different class of lattices. Often results are still useful...      96


 VERY BAD NEWS! internal error in subroutine IBZKPT:
 Reciprocal lattice and k-lattice belong to different class of lattices. Often results are still useful...      96


 VERY BAD NEWS! internal error in subroutine IBZKPT:
 Reciprocal lattice and k-lattice belong to different class of lattices. Often results are still useful...      96


 VERY BAD NEWS! internal error in subroutine IBZKPT:
 Reciprocal lattice and k-lattice belong to different class of lattices. Often results are still useful...      96


 VERY BAD NEWS! internal error in subroutine IBZKPT:
 Reciprocal lattice and k-lattice belong to different class of lattices. Often results are still useful...      96
 POSCAR, INCAR and KPOINTS ok, starting setup
 FFT: planning ...
 WAVECAR not read
 entering main loop
       N       E                     dE             d eps       ncg     rms          rms(c)
DAV:   1     0.158111748944E+05    0.15811E+05   -0.81293E+05 30288   0.149E+03
DAV:   2     0.167720803638E+04   -0.14134E+05   -0.13572E+05 29168   0.450E+02
DAV:   3    -0.876890208625E+03   -0.25541E+04   -0.24624E+04 29012   0.182E+02
DAV:   4    -0.105759178493E+04   -0.18070E+03   -0.17838E+03 29560   0.490E+01
DAV:   5    -0.109628070929E+04   -0.38689E+02   -0.38514E+02 48472   0.144E+01    0.178E+02
DAV:   6    -0.117681325403E+04   -0.80533E+02   -0.28512E+03 35792   0.173E+02    0.446E+02
DAV:   7    -0.108109798303E+04    0.95715E+02   -0.79353E+02 29680   0.632E+01    0.242E+02
DAV:   8    -0.909531939125E+03    0.17157E+03   -0.52835E+02 34120   0.759E+01    0.104E+02
DAV:   9    -0.939253190010E+03   -0.29721E+02   -0.19327E+02 36080   0.617E+01    0.133E+02
DAV:  10    -0.937726855908E+03    0.15263E+01   -0.13106E+02 33584   0.314E+01    0.102E+02
DAV:  11    -0.912297734316E+03    0.25429E+02   -0.60259E+01 32344   0.340E+01    0.509E+01
DAV:  12    -0.914929715200E+03   -0.26320E+01   -0.31933E+01 35240   0.262E+01    0.513E+01
DAV:  13    -0.917203372557E+03   -0.22737E+01   -0.19513E+01 33504   0.152E+01    0.411E+01
DAV:  14    -0.918033128368E+03   -0.82976E+00   -0.11145E+01 33536   0.112E+01    0.334E+01
DAV:  15    -0.917007761639E+03    0.10254E+01   -0.45244E+00 32088   0.851E+00    0.265E+01
DAV:  16    -0.916353232022E+03    0.65453E+00   -0.33442E+00 33864   0.654E+00    0.200E+01
DAV:  17    -0.917171248590E+03   -0.81802E+00   -0.18295E+00 32128   0.369E+00    0.170E+01
DAV:  18    -0.917838584802E+03   -0.66734E+00   -0.13846E+00 34888   0.332E+00    0.143E+01
DAV:  19    -0.917810943269E+03    0.27642E-01   -0.20252E+00 33856   0.530E+00    0.893E+00
DAV:  20    -0.918043395061E+03   -0.23245E+00   -0.12629E+00 30968   0.367E+00    0.589E+00
DAV:  21    -0.918200694984E+03   -0.15730E+00   -0.65039E-01 31672   0.232E+00    0.437E+00
DAV:  22    -0.918167147594E+03    0.33547E-01   -0.18486E-01 33200   0.126E+00    0.339E+00
DAV:  23    -0.918107159150E+03    0.59988E-01   -0.73023E-02 32664   0.797E-01    0.279E+00
DAV:  24    -0.918055590993E+03    0.51568E-01   -0.32141E-02 33336   0.602E-01    0.224E+00
DAV:  25    -0.917990137326E+03    0.65454E-01   -0.18072E-02 34440   0.632E-01    0.164E+00
DAV:  26    -0.917941570659E+03    0.48567E-01   -0.35994E-02 30288   0.471E-01    0.120E+00
DAV:  27    -0.917927367165E+03    0.14203E-01   -0.23841E-02 28040   0.379E-01    0.963E-01
DAV:  28    -0.917923938113E+03    0.34291E-02   -0.27281E-03 36384   0.222E-01    0.931E-01
DAV:  29    -0.917904428408E+03    0.19510E-01   -0.31726E-03 39184   0.253E-01    0.790E-01
DAV:  30    -0.917794973333E+03    0.10946E+00   -0.23035E-02 33664   0.551E-01    0.374E-01
DAV:  31    -0.917736790245E+03    0.58183E-01   -0.16901E-02 27992   0.222E-01    0.472E-01
DAV:  32    -0.917716733433E+03    0.20057E-01   -0.32916E-03 34836   0.171E-01    0.433E-01
DAV:  33    -0.917660969884E+03    0.55764E-01   -0.74031E-03 34208   0.249E-01    0.541E-01
DAV:  34    -0.917605662581E+03    0.55307E-01   -0.87923E-03 33232   0.209E-01    0.714E-01
DAV:  35    -0.917571063401E+03    0.34599E-01   -0.49159E-03 31428   0.331E-01    0.717E-01
DAV:  36    -0.917539617579E+03    0.31446E-01   -0.62214E-03 34472   0.281E-01    0.719E-01
DAV:  37    -0.917522440871E+03    0.17177E-01   -0.54195E-03 31328   0.132E-01    0.688E-01
DAV:  38    -0.917514585798E+03    0.78551E-02   -0.97568E-04 31228   0.736E-02    0.570E-01
DAV:  39    -0.917505467151E+03    0.91186E-02   -0.13664E-03 33168   0.111E-01    0.419E-01
DAV:  40    -0.917494192424E+03    0.11275E-01   -0.26863E-03 32496   0.140E-01    0.288E-01
DAV:  41    -0.917488489530E+03    0.57029E-02   -0.12548E-03 37176   0.154E-01    0.212E-01
DAV:  42    -0.917483219523E+03    0.52700E-02   -0.26388E-03 36528   0.163E-01    0.179E-01
DAV:  43    -0.917474989675E+03    0.82298E-02   -0.17064E-03 31792   0.105E-01    0.247E-01
DAV:  44    -0.917464995190E+03    0.99945E-02   -0.11577E-03 30712   0.122E-01    0.290E-01
DAV:  45    -0.917453630918E+03    0.11364E-01   -0.12002E-03 29144   0.753E-02    0.353E-01
DAV:  46    -0.917446974242E+03    0.66567E-02   -0.35347E-04 35768   0.910E-02    0.355E-01
DAV:  47    -0.917438966491E+03    0.80078E-02   -0.68945E-04 31364   0.737E-02    0.298E-01
DAV:  48    -0.917430751525E+03    0.82150E-02   -0.73752E-04 34396   0.129E-01    0.141E-01
DAV:  49    -0.917419691253E+03    0.11060E-01   -0.16097E-03 33744   0.932E-02    0.145E-01
DAV:  50    -0.917416604357E+03    0.30869E-02   -0.43609E-04 32256   0.517E-02    0.140E-01
DAV:  51    -0.917415123077E+03    0.14813E-02   -0.39271E-04 36928   0.105E-01    0.919E-02
DAV:  52    -0.917410827984E+03    0.42951E-02   -0.37145E-04 33144   0.601E-02    0.877E-02
DAV:  53    -0.917409887180E+03    0.94080E-03   -0.22899E-04 29808   0.375E-02    0.797E-02
DAV:  54    -0.917410888008E+03   -0.10008E-02   -0.96226E-05 34972   0.396E-02    0.718E-02
DAV:  55    -0.917414140222E+03   -0.32522E-02   -0.14244E-04 36216   0.633E-02    0.637E-02
DAV:  56    -0.917417553601E+03   -0.34134E-02   -0.19947E-04 32044   0.398E-02    0.543E-02
DAV:  57    -0.917420896903E+03   -0.33433E-02   -0.17539E-04 29424   0.237E-02    0.447E-02
DAV:  58    -0.917422534111E+03   -0.16372E-02   -0.11609E-04 29688   0.217E-02    0.413E-02
DAV:  59    -0.917423317760E+03   -0.78365E-03   -0.45462E-05 29160   0.180E-02    0.301E-02
DAV:  60    -0.917424212204E+03   -0.89444E-03   -0.18967E-05 29164   0.105E-02    0.212E-02
DAV:  61    -0.917424674092E+03   -0.46189E-03   -0.11929E-05 28368   0.119E-02    0.150E-02
DAV:  62    -0.917425315973E+03   -0.64188E-03   -0.14798E-05 29560   0.768E-03    0.938E-03
DAV:  63    -0.917425839337E+03   -0.52336E-03   -0.59084E-06 23840   0.624E-03    0.109E-02
DAV:  64    -0.917426055255E+03   -0.21592E-03   -0.41963E-06 23084   0.577E-03    0.113E-02
DAV:  65    -0.917426185845E+03   -0.13059E-03   -0.37986E-06 21828   0.482E-03    0.809E-03
DAV:  66    -0.917426292655E+03   -0.10681E-03   -0.63914E-06 21284   0.643E-03    0.634E-03
DAV:  67    -0.917426328922E+03   -0.36267E-04   -0.83374E-06 22924   0.590E-03    0.526E-03
DAV:  68    -0.917426308880E+03    0.20042E-04   -0.65825E-06 23064   0.571E-03    0.576E-03
DAV:  69    -0.917426227045E+03    0.81835E-04   -0.56159E-06 22416   0.447E-03    0.694E-03
DAV:  70    -0.917426236257E+03   -0.92122E-05   -0.16304E-06 18488   0.402E-03    0.579E-03
DAV:  71    -0.917426279510E+03   -0.43252E-04   -0.25079E-06 19712   0.326E-03    0.530E-03
DAV:  72    -0.917426344582E+03   -0.65073E-04   -0.28491E-06 19464   0.431E-03    0.508E-03
DAV:  73    -0.917426448602E+03   -0.10402E-03   -0.53293E-06 22236   0.434E-03    0.511E-03
DAV:  74    -0.917426534401E+03   -0.85799E-04   -0.44618E-06 22436   0.357E-03    0.468E-03
DAV:  75    -0.917426588682E+03   -0.54281E-04   -0.21851E-06 18684   0.288E-03    0.457E-03
DAV:  76    -0.917426617405E+03   -0.28723E-04   -0.12397E-06 17400   0.247E-03    0.384E-03
DAV:  77    -0.917426647692E+03   -0.30286E-04   -0.10848E-06 16832   0.217E-03    0.347E-03
DAV:  78    -0.917426658681E+03   -0.10989E-04   -0.10408E-06 16616   0.202E-03    0.314E-03
DAV:  79    -0.917426675274E+03   -0.16593E-04   -0.52012E-07 15648   0.176E-03    0.286E-03
DAV:  80    -0.917426683449E+03   -0.81753E-05   -0.35369E-07 15432   0.110E-03    0.231E-03
DAV:  81    -0.917426701067E+03   -0.17617E-04   -0.15756E-07 15784   0.954E-04    0.207E-03
DAV:  82    -0.917426721438E+03   -0.20371E-04   -0.17687E-07 15416   0.847E-04    0.205E-03
DAV:  83    -0.917426750119E+03   -0.28682E-04   -0.19179E-07 15720   0.739E-04    0.189E-03
DAV:  84    -0.917426795783E+03   -0.45664E-04   -0.60535E-07 16732   0.948E-04    0.212E-03
DAV:  85    -0.917426821222E+03   -0.25439E-04   -0.16902E-07 15836   0.592E-04    0.165E-03
DAV:  86    -0.917426851680E+03   -0.30458E-04   -0.29730E-07 15940   0.728E-04    0.180E-03
DAV:  87    -0.917426869918E+03   -0.18237E-04   -0.16458E-07 15628   0.672E-04    0.163E-03
DAV:  88    -0.917426885621E+03   -0.15703E-04   -0.13173E-07 15736   0.615E-04    0.158E-03
DAV:  89    -0.917426899753E+03   -0.14132E-04   -0.90232E-08 15580   0.556E-04    0.148E-03
DAV:  90    -0.917426914335E+03   -0.14582E-04   -0.46222E-08 15560   0.484E-04    0.149E-03
DAV:  91    -0.917426927005E+03   -0.12671E-04    0.38204E-10 15416   0.428E-04    0.137E-03
DAV:  92    -0.917426940632E+03   -0.13626E-04    0.22860E-08 15404   0.359E-04    0.142E-03
DAV:  93    -0.917426954192E+03   -0.13560E-04    0.31206E-08 15452   0.387E-04    0.138E-03
DAV:  94    -0.917426963648E+03   -0.94558E-05    0.43283E-08 15216   0.351E-04    0.134E-03
DAV:  95    -0.917426969068E+03   -0.54203E-05    0.55546E-08 14896   0.288E-04    0.133E-03
DAV:  96    -0.917426971817E+03   -0.27489E-05    0.74773E-08 14656   0.258E-04    0.130E-03
DAV:  97    -0.917426975444E+03   -0.36273E-05    0.79919E-08 14292   0.200E-04    0.129E-03
DAV:  98    -0.917426977943E+03   -0.24987E-05    0.83853E-08 14416   0.162E-04    0.128E-03
DAV:  99    -0.917426979383E+03   -0.14406E-05    0.87604E-08 14468   0.132E-04    0.127E-03
DAV: 100    -0.917426980253E+03   -0.86951E-06    0.88902E-08 14216   0.101E-04
   1 F= -.94494787E+03 E0= -.94494773E+03  d E =-.277160E-03  mag=     0.0001
