gas-phase ptfe_c10 (+24 A box)          
   1.00000000000000     
    27.2560975463999995    0.0000000000000000    0.0000000000000000
     0.0000000000000000   27.2445446504000017    0.0000000000000000
     0.0000000000000000    0.0000000000000000   37.8666709913999995
   C    F 
    10    22
Direct
  0.5136176678913102  0.5010955434228421  0.3448127195037927
  0.4820582632870511  0.5004180985641753  0.3793186460347187
  0.5127084246271991  0.4926299089642896  0.4138785663640547
  0.4842705182952116  0.5075246335965815  0.4482892474956515
  0.5077063378916407  0.4856356567334217  0.4827805407359946
  0.4908358061650304  0.5130058089186988  0.5172029325854410
  0.5008539098475282  0.4827593748499979  0.5517784241304255
  0.4999264475996057  0.5151893032058439  0.5860428131810167
  0.4935434262480030  0.4844957184192182  0.6207256363977223
  0.5078027742099920  0.5128615990686001  0.6551486598553709
  0.4834955353959174  0.4995191383204158  0.3169070494241595
  0.5405618804936339  0.5419789004175257  0.3428083625610512
  0.5433695357593891  0.4619463359691451  0.3438450286548047
  0.4491371778355315  0.4637000613006919  0.3762932745906298
  0.4579565603238223  0.5437402912763503  0.3812522893596508
  0.5540207615559609  0.5198957753177922  0.4117357927381846
  0.5250972515429098  0.4446747008716159  0.4160183914841014
  0.4375763165323434  0.4913076627839104  0.4456695742869172
  0.4841923606464036  0.5569999209319576  0.4507813999011603
  0.5570394033097870  0.4889679798962732  0.4802446095282633
  0.4947322840639359  0.4379102208825074  0.4853491642868235
  0.4421891024157958  0.5219714105477351  0.5149086304214094
  0.5152782471515280  0.5560478080986258  0.5193742293418566
  0.5454549604429175  0.4614198597375108  0.5491526875262593
  0.4661978883208917  0.4475589224876586  0.5547637550887714
  0.4621939185884614  0.5472426214244379  0.5837774290066449
  0.5424587083213197  0.5405204863786821  0.5880732096823991
  0.5220533310125077  0.4439176786983836  0.6190184771279093
  0.4461553693113416  0.4708667845880683  0.6237376883582968
  0.5563200732638549  0.5193458171484693  0.6572114891074534
  0.4855228659191511  0.5566968835457260  0.6559869534647333
  0.4932173766224111  0.4865425765009235  0.6831043049090511
 
  0.00000000E+00  0.00000000E+00  0.00000000E+00
  0.00000000E+00  0.00000000E+00  0.00000000E+00
  0.00000000E+00  0.00000000E+00  0.00000000E+00
  0.00000000E+00  0.00000000E+00  0.00000000E+00
  0.00000000E+00  0.00000000E+00  0.00000000E+00
  0.00000000E+00  0.00000000E+00  0.00000000E+00
  0.00000000E+00  0.00000000E+00  0.00000000E+00
  0.00000000E+00  0.00000000E+00  0.00000000E+00
  0.00000000E+00  0.00000000E+00  0.00000000E+00
  0.00000000E+00  0.00000000E+00  0.00000000E+00
  0.00000000E+00  0.00000000E+00  0.00000000E+00
  0.00000000E+00  0.00000000E+00  0.00000000E+00
  0.00000000E+00  0.00000000E+00  0.00000000E+00
  0.00000000E+00  0.00000000E+00  0.00000000E+00
  0.00000000E+00  0.00000000E+00  0.00000000E+00
  0.00000000E+00  0.00000000E+00  0.00000000E+00
  0.00000000E+00  0.00000000E+00  0.00000000E+00
  0.00000000E+00  0.00000000E+00  0.00000000E+00
  0.00000000E+00  0.00000000E+00  0.00000000E+00
  0.00000000E+00  0.00000000E+00  0.00000000E+00
  0.00000000E+00  0.00000000E+00  0.00000000E+00
  0.00000000E+00  0.00000000E+00  0.00000000E+00
  0.00000000E+00  0.00000000E+00  0.00000000E+00
  0.00000000E+00  0.00000000E+00  0.00000000E+00
  0.00000000E+00  0.00000000E+00  0.00000000E+00
  0.00000000E+00  0.00000000E+00  0.00000000E+00
  0.00000000E+00  0.00000000E+00  0.00000000E+00
  0.00000000E+00  0.00000000E+00  0.00000000E+00
  0.00000000E+00  0.00000000E+00  0.00000000E+00
  0.00000000E+00  0.00000000E+00  0.00000000E+00
  0.00000000E+00  0.00000000E+00  0.00000000E+00
  0.00000000E+00  0.00000000E+00  0.00000000E+00
