       N       E                     dE             d eps       ncg     rms          rms(c)
DAV:   1     0.243358427876E+04    0.24336E+04   -0.39684E+04   640   0.765E+02
DAV:   2     0.130473327884E+04   -0.11289E+04   -0.10856E+04   944   0.133E+02
DAV:   3     0.317269955157E+03   -0.98746E+03   -0.90734E+03   800   0.115E+02
DAV:   4    -0.135368025710E+03   -0.45264E+03   -0.43551E+03   704   0.826E+01
DAV:   5    -0.184075479022E+03   -0.48707E+02   -0.48506E+02   544   0.291E+01    0.230E+01
DAV:   6    -0.177517217336E+03    0.65583E+01   -0.38803E+01   640   0.184E+01    0.119E+01
DAV:   7    -0.177217700154E+03    0.29952E+00   -0.31388E+00   656   0.533E+00    0.547E+00
DAV:   8    -0.177212957825E+03    0.47423E-02   -0.47586E-01   608   0.231E+00    0.106E+00
DAV:   9    -0.177221023114E+03   -0.80653E-02   -0.67343E-02   640   0.844E-01    0.410E-01
DAV:  10    -0.177220185943E+03    0.83717E-03   -0.11543E-02   672   0.355E-01    0.163E-01
DAV:  11    -0.177222748387E+03   -0.25624E-02   -0.98081E-04   640   0.126E-01    0.704E-02
DAV:  12    -0.177223042292E+03   -0.29391E-03   -0.20048E-04   656   0.505E-02    0.333E-02
DAV:  13    -0.177223287389E+03   -0.24510E-03   -0.61086E-05   624   0.271E-02    0.133E-02
DAV:  14    -0.177223431871E+03   -0.14448E-03   -0.13352E-05   624   0.153E-02    0.829E-03
DAV:  15    -0.177223528178E+03   -0.96307E-04   -0.88157E-06   576   0.125E-02    0.525E-03
DAV:  16    -0.177223612041E+03   -0.83862E-04   -0.74309E-06   608   0.107E-02    0.338E-03
DAV:  17    -0.177223655962E+03   -0.43921E-04   -0.28390E-06   512   0.743E-03    0.245E-03
DAV:  18    -0.177223680770E+03   -0.24809E-04   -0.42688E-06   544   0.802E-03    0.186E-03
DAV:  19    -0.177223677267E+03    0.35033E-05   -0.88184E-07   448   0.526E-03    0.156E-03
DAV:  20    -0.177223668190E+03    0.90769E-05   -0.21451E-07   384   0.371E-03    0.134E-03
DAV:  21    -0.177223662675E+03    0.55153E-05    0.11980E-07   416   0.243E-03    0.971E-04
DAV:  22    -0.177223657947E+03    0.47273E-05   -0.19163E-07   416   0.291E-03    0.136E-03
DAV:  23    -0.177223661442E+03   -0.34943E-05    0.27552E-07   416   0.195E-03    0.919E-04
DAV:  24    -0.177223674950E+03   -0.13508E-04   -0.50898E-07   384   0.324E-03    0.140E-03
DAV:  25    -0.177223681414E+03   -0.64644E-05    0.53935E-08   416   0.203E-03    0.111E-03
DAV:  26    -0.177223690854E+03   -0.94395E-05    0.28653E-08   352   0.264E-03    0.759E-04
DAV:  27    -0.177223707060E+03   -0.16207E-04    0.17612E-07   384   0.141E-03    0.899E-04
DAV:  28    -0.177223718200E+03   -0.11140E-04    0.15010E-07   384   0.133E-03    0.771E-04
DAV:  29    -0.177223726075E+03   -0.78755E-05    0.29302E-07   416   0.118E-03    0.560E-04
DAV:  30    -0.177223737751E+03   -0.11676E-04    0.33764E-07   320   0.919E-04    0.587E-04
DAV:  31    -0.177223745005E+03   -0.72541E-05    0.42150E-07   416   0.707E-04    0.517E-04
DAV:  32    -0.177223752260E+03   -0.72551E-05    0.48659E-07   320   0.697E-04    0.515E-04
DAV:  33    -0.177223754528E+03   -0.22676E-05    0.57110E-07   416   0.519E-04    0.504E-04
DAV:  34    -0.177223757641E+03   -0.31136E-05    0.64645E-07   352   0.546E-04    0.503E-04
DAV:  35    -0.177223759540E+03   -0.18985E-05    0.70298E-07   416   0.518E-04    0.506E-04
DAV:  36    -0.177223761154E+03   -0.16144E-05    0.74851E-07   384   0.473E-04    0.516E-04
DAV:  37    -0.177223762980E+03   -0.18254E-05    0.80814E-07   384   0.385E-04    0.483E-04
DAV:  38    -0.177223764177E+03   -0.11977E-05    0.85000E-07   416   0.305E-04    0.473E-04
DAV:  39    -0.177223765613E+03   -0.14356E-05    0.89398E-07   384   0.233E-04    0.473E-04
DAV:  40    -0.177223766832E+03   -0.12189E-05    0.91451E-07   384   0.165E-04    0.472E-04
DAV:  41    -0.177223767903E+03   -0.10707E-05    0.92110E-07   384   0.210E-04    0.471E-04
DAV:  42    -0.177223768442E+03   -0.53962E-06    0.92405E-07   352   0.160E-04
   1 F= -.17785500E+03 E0= -.17785500E+03  d E =-.214306E-11  mag=    -0.0000
