
     Program PWSCF v.7.4.1 starts on 30Sep2026 at 19:51: 9 

     This program is part of the open-source Quantum ESPRESSO suite
     for quantum simulation of materials; please cite
         "P. Giannozzi et al., J. Phys.:Condens. Matter 21 395502 (2009);
         "P. Giannozzi et al., J. Phys.:Condens. Matter 29 465901 (2017);
         "P. Giannozzi et al., J. Chem. Phys. 152 154105 (2020);
          URL http://www.quantum-espresso.org", 
     in publications or presentations arising from this work. More details at
     http://www.quantum-espresso.org/quote

     Parallel version (MPI & OpenMP), running on      16 processor cores
     Number of MPI processes:                 1
     Threads/MPI process:                    16

     MPI processes distributed on     1 nodes
     97859 MiB available memory on the printing compute node when the environment starts
 
     Reading input from pw.in

     Current dimensions of program PWSCF are:
     Max number of different atomic species (ntypx) = 10
     Max number of k-points (npk) =  40000
     Max angular momentum in pseudopotentials (lmaxx) =  4
     Presently no symmetry can be used with electric field

     file C.pbe-n-kjpaw_psl.1.0.0.UPF: wavefunction(s)  2S 2P renormalized
 
     Subspace diagonalization in iterative solution of the eigenvalue problem:
     a serial algorithm will be used

 
     G-vector sticks info
     --------------------
     sticks:   dense  smooth     PW     G-vecs:    dense   smooth      PW
     Sum         769     313    109               220793    56141   11415
 
     Using Slab Decomposition
 


     bravais-lattice index     =            0
     lattice parameter (alat)  =       4.6601  a.u.
     unit-cell volume          =    1103.5425 (a.u.)^3
     number of atoms/cell      =           10
     number of atomic types    =            1
     number of electrons       =        40.00
     number of Kohn-Sham states=           24
     kinetic-energy cutoff     =      52.0000  Ry
     charge density cutoff     =     520.0000  Ry
     scf convergence threshold =      1.0E-08
     mixing beta               =       0.3000
     number of iterations used =            8  local-TF  mixing
     Exchange-correlation= SLA  PW   PBX  PBC
                           (   1   4   3   4   0   0   0)

     GPU acceleration is ACTIVE.  1 visible GPUs per MPI rank


     celldm(1)=   4.660140  celldm(2)=   0.000000  celldm(3)=   0.000000
     celldm(4)=   0.000000  celldm(5)=   0.000000  celldm(6)=   0.000000

     crystal axes: (cart. coord. in units of alat)
               a(1) = (   1.000000   0.000000   0.000000 )  
               a(2) = (   0.500000   0.866025   0.000000 )  
               a(3) = (   0.000000   0.000000  12.591037 )  

     reciprocal axes: (cart. coord. in units 2 pi/alat)
               b(1) = (  1.000000 -0.577350  0.000000 )  
               b(2) = (  0.000000  1.154701  0.000000 )  
               b(3) = (  0.000000  0.000000  0.079422 )  


     PseudoPot. # 1 for C  read from file:
     /home/ubuntu/wad4l/pseudo_kgy/C.pbe-n-kjpaw_psl.1.0.0.UPF
     MD5 check sum: 5d2aebdfa2cae82b50a7e79e9516da0f
     Pseudo is Projector augmented-wave + core cor, Zval =  4.0
     Generated using "atomic" code by A. Dal Corso  v.5.1
     Shape of augmentation charge: PSQ
     Using radial grid of 1073 points,  4 beta functions with: 
                l(1) =   0
                l(2) =   0
                l(3) =   1
                l(4) =   1
     Q(r) pseudized with 0 coefficients 


     atomic species   valence    mass     pseudopotential
     C                 4.00    12.01100     C ( 1.00)

     No symmetry found



   Cartesian axes

     site n.     atom                  positions (alat units)
         1        C      tau(   1) = (   0.0000000   0.0000000   0.2027542  )
         2        C      tau(   2) = (   0.5000000   0.2886751   0.2027542  )
         3        C      tau(   3) = (   0.5000000   0.2886751   1.5612074  )
         4        C      tau(   4) = (   1.0000000   0.5773503   1.5612074  )
         5        C      tau(   5) = (   0.0000000   0.0000000   2.9196607  )
         6        C      tau(   6) = (   0.5000000   0.2886751   2.9196607  )
         7        C      tau(   7) = (   0.5000000   0.2886751   4.2781139  )
         8        C      tau(   8) = (   1.0000000   0.5773503   4.2781139  )
         9        C      tau(   9) = (   0.0000000   0.0000000   8.3331982  )
        10        C      tau(  10) = (   0.5000000   0.2886751   8.3331982  )

     --------------------------------------------
     DFT-D3 Dispersion Correction (no 3-body):
     --------------------------------------------
       Reference C6 values for interpolation: 

         atom   Coordination number   C6
         C          0.000            98.23
         C          0.987            86.49
         C          1.998            58.72
         C          2.999            51.56
         C          3.984            36.41

       Values used:

         atom   Coordination number  R0_AB[au]  C6      C8
         C          3.314            2.750     48.28   1396.40
         C          3.314            2.750     48.28   1396.28
         C          3.322            2.750     48.13   1392.05
         C          3.321            2.750     48.14   1392.31
         C          3.321            2.750     48.14   1392.30
         C          3.322            2.750     48.13   1392.05
         C          3.315            2.750     48.28   1396.26
         C          3.314            2.750     48.28   1396.38
         C          3.307            2.750     48.43   1400.71
         C          3.307            2.750     48.43   1400.70

         Molecular C6 ( Ry / a.u.^6 ) =      4825.23


     number of k points=   164  Marzari-Vanderbilt smearing, width (Ry)=  0.0100

     Number of k-points >= 100: set verbosity='high' to print them.

     Dense  grid:   220793 G-vectors     FFT dimensions: (  36,  36, 432)

     Smooth grid:    56141 G-vectors     FFT dimensions: (  24,  24, 270)

     Estimated max dynamical RAM per process >     381.50 MB

     Check: negative core charge=   -0.000002

     Initial potential from superposition of free atoms

     starting charge      39.9996, renormalised to      40.0000

     negative rho (up, down):  2.193E-05 0.000E+00
 
     Adding external electric field

     Computed dipole along edir(3) : 
        Dipole                0.0000 Ry au,          0.0000 Debye
        Dipole field          0.0000 Ry au, 
 
        Potential amp.       -0.0000 Ry
        Total length         56.7860 bohr
 
     Starting wfcs are   40 randomized atomic wfcs
     Checking if some PAW data can be deallocated... 

     total cpu time spent up to now is        3.3 secs

     Self-consistent Calculation

     iteration #  1     ecut=    52.00 Ry     beta= 0.30
     Davidson diagonalization with overlap
     ethr =  1.00E-02,  avg # of iterations =  2.1
 
     Adding external electric field

     Computed dipole along edir(3) : 
        Dipole               -0.0002 Ry au,         -0.0004 Debye
        Dipole field         -0.0000 Ry au, 
 
        Potential amp.        0.0002 Ry
        Total length         56.7860 bohr
 

     total cpu time spent up to now is        7.5 secs

     total energy              =    -184.79211096 Ry
     estimated scf accuracy    <       0.90220346 Ry

     iteration #  2     ecut=    52.00 Ry     beta= 0.30
     Davidson diagonalization with overlap
     ethr =  2.26E-03,  avg # of iterations =  1.0
 
     Adding external electric field

     Computed dipole along edir(3) : 
        Dipole               -0.0011 Ry au,         -0.0028 Debye
        Dipole field         -0.0000 Ry au, 
 
        Potential amp.        0.0014 Ry
        Total length         56.7860 bohr
 

     total cpu time spent up to now is       11.1 secs

     total energy              =    -184.42504706 Ry
     estimated scf accuracy    <       0.62207901 Ry

     iteration #  3     ecut=    52.00 Ry     beta= 0.30
     Davidson diagonalization with overlap
     ethr =  1.56E-03,  avg # of iterations =  2.7
 
     Adding external electric field

     Computed dipole along edir(3) : 
        Dipole               -0.0018 Ry au,         -0.0046 Debye
        Dipole field         -0.0000 Ry au, 
 
        Potential amp.        0.0023 Ry
        Total length         56.7860 bohr
 

     total cpu time spent up to now is       15.5 secs

     total energy              =    -184.53055981 Ry
     estimated scf accuracy    <       0.05309335 Ry

     iteration #  4     ecut=    52.00 Ry     beta= 0.30
     Davidson diagonalization with overlap
     ethr =  1.33E-04,  avg # of iterations =  3.1
 
     Adding external electric field

     Computed dipole along edir(3) : 
        Dipole               -0.0059 Ry au,         -0.0150 Debye
        Dipole field         -0.0001 Ry au, 
 
        Potential amp.        0.0076 Ry
        Total length         56.7860 bohr
 

     total cpu time spent up to now is       20.0 secs

     total energy              =    -184.52911464 Ry
     estimated scf accuracy    <       0.03376758 Ry

     iteration #  5     ecut=    52.00 Ry     beta= 0.30
     Davidson diagonalization with overlap
     c_bands:  1 eigenvalues not converged
     c_bands:  1 eigenvalues not converged
     ethr =  8.44E-05,  avg # of iterations =  2.7
 
     Adding external electric field

     Computed dipole along edir(3) : 
        Dipole               -0.0107 Ry au,         -0.0273 Debye
        Dipole field         -0.0001 Ry au, 
 
        Potential amp.        0.0139 Ry
        Total length         56.7860 bohr
 

     total cpu time spent up to now is       24.0 secs

     total energy              =    -184.52665594 Ry
     estimated scf accuracy    <       0.01595417 Ry

     iteration #  6     ecut=    52.00 Ry     beta= 0.30
     Davidson diagonalization with overlap
     c_bands:  1 eigenvalues not converged
     c_bands:  1 eigenvalues not converged
     c_bands:  1 eigenvalues not converged
     ethr =  3.99E-05,  avg # of iterations =  2.6

     negative rho (up, down):  3.354E-04 0.000E+00
 
     Adding external electric field

     Computed dipole along edir(3) : 
        Dipole               -0.0244 Ry au,         -0.0621 Debye
        Dipole field         -0.0003 Ry au, 
 
        Potential amp.        0.0316 Ry
        Total length         56.7860 bohr
 

     total cpu time spent up to now is       28.2 secs

     total energy              =    -184.52597127 Ry
     estimated scf accuracy    <       0.01049166 Ry

     iteration #  7     ecut=    52.00 Ry     beta= 0.30
     Davidson diagonalization with overlap
     ethr =  2.62E-05,  avg # of iterations =  3.8

     negative rho (up, down):  5.221E-04 0.000E+00
 
     Adding external electric field

     Computed dipole along edir(3) : 
        Dipole               -0.0414 Ry au,         -0.1051 Debye
        Dipole field         -0.0005 Ry au, 
 
        Potential amp.        0.0535 Ry
        Total length         56.7860 bohr
 

     total cpu time spent up to now is       32.8 secs

     total energy              =    -184.52594849 Ry
     estimated scf accuracy    <       0.00704451 Ry

     iteration #  8     ecut=    52.00 Ry     beta= 0.30
     Davidson diagonalization with overlap
     ethr =  1.76E-05,  avg # of iterations =  3.1

     negative rho (up, down):  3.443E-03 0.000E+00
 
     Adding external electric field

     Computed dipole along edir(3) : 
        Dipole               -0.0470 Ry au,         -0.1195 Debye
        Dipole field         -0.0005 Ry au, 
 
        Potential amp.        0.0608 Ry
        Total length         56.7860 bohr
 

     total cpu time spent up to now is       37.2 secs

     total energy              =    -184.52622940 Ry
     estimated scf accuracy    <       0.00596227 Ry

     iteration #  9     ecut=    52.00 Ry     beta= 0.30
     Davidson diagonalization with overlap
     c_bands:  1 eigenvalues not converged
     c_bands:  1 eigenvalues not converged
     ethr =  1.49E-05,  avg # of iterations =  2.9

     negative rho (up, down):  2.674E-03 0.000E+00
 
     Adding external electric field

     Computed dipole along edir(3) : 
        Dipole               -0.0468 Ry au,         -0.1188 Debye
        Dipole field         -0.0005 Ry au, 
 
        Potential amp.        0.0605 Ry
        Total length         56.7860 bohr
 

     total cpu time spent up to now is       41.5 secs

     total energy              =    -184.52568366 Ry
     estimated scf accuracy    <       0.00561665 Ry

     iteration # 10     ecut=    52.00 Ry     beta= 0.30
     Davidson diagonalization with overlap
     ethr =  1.40E-05,  avg # of iterations =  2.8

     negative rho (up, down):  3.443E-04 0.000E+00
 
     Adding external electric field

     Computed dipole along edir(3) : 
        Dipole               -0.0437 Ry au,         -0.1111 Debye
        Dipole field         -0.0005 Ry au, 
 
        Potential amp.        0.0565 Ry
        Total length         56.7860 bohr
 

     total cpu time spent up to now is       45.7 secs

     total energy              =    -184.52471648 Ry
     estimated scf accuracy    <       0.00632790 Ry

     iteration # 11     ecut=    52.00 Ry     beta= 0.30
     Davidson diagonalization with overlap
     ethr =  1.40E-05,  avg # of iterations =  2.5

     negative rho (up, down):  4.634E-03 0.000E+00
 
     Adding external electric field

     Computed dipole along edir(3) : 
        Dipole               -0.0389 Ry au,         -0.0988 Debye
        Dipole field         -0.0004 Ry au, 
 
        Potential amp.        0.0503 Ry
        Total length         56.7860 bohr
 

     total cpu time spent up to now is       49.8 secs

     total energy              =    -184.52464837 Ry
     estimated scf accuracy    <       0.00224189 Ry

     iteration # 12     ecut=    52.00 Ry     beta= 0.30
     Davidson diagonalization with overlap
     c_bands:  1 eigenvalues not converged
     c_bands:  1 eigenvalues not converged
     c_bands:  1 eigenvalues not converged
     c_bands:  1 eigenvalues not converged
     c_bands:  2 eigenvalues not converged
     ethr =  5.60E-06,  avg # of iterations =  3.6

     negative rho (up, down):  3.246E-03 0.000E+00
 
     Adding external electric field

     Computed dipole along edir(3) : 
        Dipole               -0.0365 Ry au,         -0.0927 Debye
        Dipole field         -0.0004 Ry au, 
 
        Potential amp.        0.0472 Ry
        Total length         56.7860 bohr
 

     total cpu time spent up to now is       54.3 secs

     total energy              =    -184.52469866 Ry
     estimated scf accuracy    <       0.00292813 Ry

     iteration # 13     ecut=    52.00 Ry     beta= 0.30
     Davidson diagonalization with overlap
     ethr =  5.60E-06,  avg # of iterations =  1.5

     negative rho (up, down):  2.717E-03 0.000E+00
 
     Adding external electric field

     Computed dipole along edir(3) : 
        Dipole               -0.0295 Ry au,         -0.0749 Debye
        Dipole field         -0.0003 Ry au, 
 
        Potential amp.        0.0381 Ry
        Total length         56.7860 bohr
 

     total cpu time spent up to now is       57.9 secs

     total energy              =    -184.52456139 Ry
     estimated scf accuracy    <       0.00301439 Ry

     iteration # 14     ecut=    52.00 Ry     beta= 0.30
     Davidson diagonalization with overlap
     ethr =  5.60E-06,  avg # of iterations =  1.7

     negative rho (up, down):  3.044E-03 0.000E+00
 
     Adding external electric field

     Computed dipole along edir(3) : 
        Dipole               -0.0310 Ry au,         -0.0788 Debye
        Dipole field         -0.0004 Ry au, 
 
        Potential amp.        0.0401 Ry
        Total length         56.7860 bohr
 

     total cpu time spent up to now is       61.7 secs

     total energy              =    -184.52459958 Ry
     estimated scf accuracy    <       0.00271173 Ry

     iteration # 15     ecut=    52.00 Ry     beta= 0.30
     Davidson diagonalization with overlap
     ethr =  5.60E-06,  avg # of iterations =  1.0

     negative rho (up, down):  3.705E-03 0.000E+00
 
     Adding external electric field

     Computed dipole along edir(3) : 
        Dipole               -0.0401 Ry au,         -0.1020 Debye
        Dipole field         -0.0005 Ry au, 
 
        Potential amp.        0.0519 Ry
        Total length         56.7860 bohr
 

     total cpu time spent up to now is       65.2 secs

     total energy              =    -184.52474869 Ry
     estimated scf accuracy    <       0.00275856 Ry

     iteration # 16     ecut=    52.00 Ry     beta= 0.30
     Davidson diagonalization with overlap
     ethr =  5.60E-06,  avg # of iterations =  2.1

     negative rho (up, down):  9.289E-04 0.000E+00
 
     Adding external electric field

     Computed dipole along edir(3) : 
        Dipole               -0.0494 Ry au,         -0.1255 Debye
        Dipole field         -0.0006 Ry au, 
 
        Potential amp.        0.0639 Ry
        Total length         56.7860 bohr
 

     total cpu time spent up to now is       69.1 secs

     total energy              =    -184.52491883 Ry
     estimated scf accuracy    <       0.00236349 Ry

     iteration # 17     ecut=    52.00 Ry     beta= 0.30
     Davidson diagonalization with overlap
     c_bands:  1 eigenvalues not converged
     c_bands:  1 eigenvalues not converged
     ethr =  5.60E-06,  avg # of iterations =  5.5

     negative rho (up, down):  1.712E-03 0.000E+00
 
     Adding external electric field

     Computed dipole along edir(3) : 
        Dipole               -0.0375 Ry au,         -0.0953 Debye
        Dipole field         -0.0004 Ry au, 
 
        Potential amp.        0.0485 Ry
        Total length         56.7860 bohr
 

     total cpu time spent up to now is       74.2 secs

     total energy              =    -184.52445889 Ry
     estimated scf accuracy    <       0.01173936 Ry

     iteration # 18     ecut=    52.00 Ry     beta= 0.30
     Davidson diagonalization with overlap
     ethr =  5.60E-06,  avg # of iterations =  2.8

     negative rho (up, down):  2.663E-03 0.000E+00
 
     Adding external electric field

     Computed dipole along edir(3) : 
        Dipole               -0.0308 Ry au,         -0.0783 Debye
        Dipole field         -0.0004 Ry au, 
 
        Potential amp.        0.0398 Ry
        Total length         56.7860 bohr
 

     total cpu time spent up to now is       78.4 secs

     total energy              =    -184.52459845 Ry
     estimated scf accuracy    <       0.00267359 Ry

     iteration # 19     ecut=    52.00 Ry     beta= 0.30
     Davidson diagonalization with overlap
     ethr =  5.60E-06,  avg # of iterations =  2.1

     negative rho (up, down):  2.516E-03 0.000E+00
 
     Adding external electric field

     Computed dipole along edir(3) : 
        Dipole               -0.0365 Ry au,         -0.0927 Debye
        Dipole field         -0.0004 Ry au, 
 
        Potential amp.        0.0472 Ry
        Total length         56.7860 bohr
 

     total cpu time spent up to now is       82.4 secs

     total energy              =    -184.52470573 Ry
     estimated scf accuracy    <       0.00300524 Ry

     iteration # 20     ecut=    52.00 Ry     beta= 0.30
     Davidson diagonalization with overlap
     ethr =  5.60E-06,  avg # of iterations =  2.0

     negative rho (up, down):  2.222E-03 0.000E+00
 
     Adding external electric field

     Computed dipole along edir(3) : 
        Dipole               -0.0358 Ry au,         -0.0911 Debye
        Dipole field         -0.0004 Ry au, 
 
        Potential amp.        0.0463 Ry
        Total length         56.7860 bohr
 

     total cpu time spent up to now is       86.3 secs

     total energy              =    -184.52466669 Ry
     estimated scf accuracy    <       0.00242241 Ry

     iteration # 21     ecut=    52.00 Ry     beta= 0.30
     Davidson diagonalization with overlap
     ethr =  5.60E-06,  avg # of iterations =  1.3

     negative rho (up, down):  3.640E-03 0.000E+00
 
     Adding external electric field

     Computed dipole along edir(3) : 
        Dipole               -0.0327 Ry au,         -0.0830 Debye
        Dipole field         -0.0004 Ry au, 
 
        Potential amp.        0.0423 Ry
        Total length         56.7860 bohr
 

     total cpu time spent up to now is       90.0 secs

     total energy              =    -184.52464568 Ry
     estimated scf accuracy    <       0.00271692 Ry

     iteration # 22     ecut=    52.00 Ry     beta= 0.30
     Davidson diagonalization with overlap
     ethr =  5.60E-06,  avg # of iterations =  2.4

     negative rho (up, down):  2.579E-03 0.000E+00
 
     Adding external electric field

     Computed dipole along edir(3) : 
        Dipole               -0.0357 Ry au,         -0.0906 Debye
        Dipole field         -0.0004 Ry au, 
 
        Potential amp.        0.0461 Ry
        Total length         56.7860 bohr
 

     total cpu time spent up to now is       94.0 secs

     total energy              =    -184.52468044 Ry
     estimated scf accuracy    <       0.00289260 Ry

     iteration # 23     ecut=    52.00 Ry     beta= 0.30
     Davidson diagonalization with overlap
     ethr =  5.60E-06,  avg # of iterations =  1.5

     negative rho (up, down):  2.716E-03 0.000E+00
 
     Adding external electric field

     Computed dipole along edir(3) : 
        Dipole               -0.0358 Ry au,         -0.0910 Debye
        Dipole field         -0.0004 Ry au, 
 
        Potential amp.        0.0463 Ry
        Total length         56.7860 bohr
 

     total cpu time spent up to now is       97.7 secs

     total energy              =    -184.52468677 Ry
     estimated scf accuracy    <       0.00266369 Ry

     iteration # 24     ecut=    52.00 Ry     beta= 0.30
     Davidson diagonalization with overlap
     ethr =  5.60E-06,  avg # of iterations =  1.0

     negative rho (up, down):  2.699E-03 0.000E+00
 
     Adding external electric field

     Computed dipole along edir(3) : 
        Dipole               -0.0358 Ry au,         -0.0909 Debye
        Dipole field         -0.0004 Ry au, 
 
        Potential amp.        0.0462 Ry
        Total length         56.7860 bohr
 

     total cpu time spent up to now is      101.2 secs

     total energy              =    -184.52468554 Ry
     estimated scf accuracy    <       0.00261015 Ry

     iteration # 25     ecut=    52.00 Ry     beta= 0.30
     Davidson diagonalization with overlap
     ethr =  5.60E-06,  avg # of iterations =  1.0

     negative rho (up, down):  2.725E-03 0.000E+00
 
     Adding external electric field

     Computed dipole along edir(3) : 
        Dipole               -0.0336 Ry au,         -0.0853 Debye
        Dipole field         -0.0004 Ry au, 
 
        Potential amp.        0.0434 Ry
        Total length         56.7860 bohr
 

     total cpu time spent up to now is      104.8 secs

     total energy              =    -184.52466026 Ry
     estimated scf accuracy    <       0.00260750 Ry

     iteration # 26     ecut=    52.00 Ry     beta= 0.30
     Davidson diagonalization with overlap
     ethr =  5.60E-06,  avg # of iterations =  1.0

     negative rho (up, down):  3.201E-03 0.000E+00
 
     Adding external electric field

     Computed dipole along edir(3) : 
        Dipole               -0.0761 Ry au,         -0.1934 Debye
        Dipole field         -0.0009 Ry au, 
 
        Potential amp.        0.0984 Ry
        Total length         56.7860 bohr
 

     total cpu time spent up to now is      108.3 secs

     total energy              =    -184.52555303 Ry
     estimated scf accuracy    <       0.00281402 Ry

     iteration # 27     ecut=    52.00 Ry     beta= 0.30
     Davidson diagonalization with overlap
     c_bands:  1 eigenvalues not converged
     c_bands:  1 eigenvalues not converged
     c_bands:  1 eigenvalues not converged
     c_bands:  1 eigenvalues not converged
     c_bands:  1 eigenvalues not converged
     ethr =  5.60E-06,  avg # of iterations =  7.0

     negative rho (up, down):  2.613E-03 0.000E+00
 
     Adding external electric field

     Computed dipole along edir(3) : 
        Dipole               -0.0278 Ry au,         -0.0706 Debye
        Dipole field         -0.0003 Ry au, 
 
        Potential amp.        0.0359 Ry
        Total length         56.7860 bohr
 

     total cpu time spent up to now is      114.0 secs

     total energy              =    -184.52335258 Ry
     estimated scf accuracy    <       0.03245475 Ry

     iteration # 28     ecut=    52.00 Ry     beta= 0.30
     Davidson diagonalization with overlap
     ethr =  5.60E-06,  avg # of iterations =  3.7

     negative rho (up, down):  2.580E-03 0.000E+00
 
     Adding external electric field

     Computed dipole along edir(3) : 
        Dipole               -0.0357 Ry au,         -0.0908 Debye
        Dipole field         -0.0004 Ry au, 
 
        Potential amp.        0.0462 Ry
        Total length         56.7860 bohr
 

     total cpu time spent up to now is      118.6 secs

     total energy              =    -184.52469750 Ry
     estimated scf accuracy    <       0.00280513 Ry

     iteration # 29     ecut=    52.00 Ry     beta= 0.30
     Davidson diagonalization with overlap
     ethr =  5.60E-06,  avg # of iterations =  2.2

     negative rho (up, down):  2.077E-03 0.000E+00
 
     Adding external electric field

     Computed dipole along edir(3) : 
        Dipole               -0.0382 Ry au,         -0.0970 Debye
        Dipole field         -0.0004 Ry au, 
 
        Potential amp.        0.0494 Ry
        Total length         56.7860 bohr
 

     total cpu time spent up to now is      122.5 secs

     total energy              =    -184.52473434 Ry
     estimated scf accuracy    <       0.00248140 Ry

     iteration # 30     ecut=    52.00 Ry     beta= 0.30
     Davidson diagonalization with overlap
     ethr =  5.60E-06,  avg # of iterations =  1.9

     negative rho (up, down):  1.613E-03 0.000E+00
 
     Adding external electric field

     Computed dipole along edir(3) : 
        Dipole               -0.0401 Ry au,         -0.1018 Debye
        Dipole field         -0.0005 Ry au, 
 
        Potential amp.        0.0518 Ry
        Total length         56.7860 bohr
 

     total cpu time spent up to now is      126.3 secs

     total energy              =    -184.52475032 Ry
     estimated scf accuracy    <       0.00156237 Ry

     iteration # 31     ecut=    52.00 Ry     beta= 0.30
     Davidson diagonalization with overlap
     ethr =  3.91E-06,  avg # of iterations =  2.3

     negative rho (up, down):  1.246E-03 0.000E+00
 
     Adding external electric field

     Computed dipole along edir(3) : 
        Dipole               -0.0417 Ry au,         -0.1059 Debye
        Dipole field         -0.0005 Ry au, 
 
        Potential amp.        0.0539 Ry
        Total length         56.7860 bohr
 

     total cpu time spent up to now is      130.3 secs

     total energy              =    -184.52475711 Ry
     estimated scf accuracy    <       0.00106730 Ry

     iteration # 32     ecut=    52.00 Ry     beta= 0.30
     Davidson diagonalization with overlap
     ethr =  2.67E-06,  avg # of iterations =  1.5

     negative rho (up, down):  1.020E-03 0.000E+00
 
     Adding external electric field

     Computed dipole along edir(3) : 
        Dipole               -0.0446 Ry au,         -0.1133 Debye
        Dipole field         -0.0005 Ry au, 
 
        Potential amp.        0.0577 Ry
        Total length         56.7860 bohr
 

     total cpu time spent up to now is      134.1 secs

     total energy              =    -184.52477481 Ry
     estimated scf accuracy    <       0.00119939 Ry

     iteration # 33     ecut=    52.00 Ry     beta= 0.30
     Davidson diagonalization with overlap
     ethr =  2.67E-06,  avg # of iterations =  1.6

     negative rho (up, down):  5.921E-04 0.000E+00
 
     Adding external electric field

     Computed dipole along edir(3) : 
        Dipole               -0.0459 Ry au,         -0.1167 Debye
        Dipole field         -0.0005 Ry au, 
 
        Potential amp.        0.0594 Ry
        Total length         56.7860 bohr
 

     total cpu time spent up to now is      137.8 secs

     total energy              =    -184.52481796 Ry
     estimated scf accuracy    <       0.00227973 Ry

     iteration # 34     ecut=    52.00 Ry     beta= 0.30
     Davidson diagonalization with overlap
     c_bands:  1 eigenvalues not converged
     c_bands:  1 eigenvalues not converged
     c_bands:  1 eigenvalues not converged
     ethr =  2.67E-06,  avg # of iterations =  2.3

     negative rho (up, down):  7.033E-04 0.000E+00
 
     Adding external electric field

     Computed dipole along edir(3) : 
        Dipole               -0.0525 Ry au,         -0.1335 Debye
        Dipole field         -0.0006 Ry au, 
 
        Potential amp.        0.0679 Ry
        Total length         56.7860 bohr
 

     total cpu time spent up to now is      141.7 secs

     total energy              =    -184.52497191 Ry
     estimated scf accuracy    <       0.00463405 Ry

     iteration # 35     ecut=    52.00 Ry     beta= 0.30
     Davidson diagonalization with overlap
     ethr =  2.67E-06,  avg # of iterations =  3.2

     negative rho (up, down):  6.251E-04 0.000E+00
 
     Adding external electric field

     Computed dipole along edir(3) : 
        Dipole               -0.0524 Ry au,         -0.1333 Debye
        Dipole field         -0.0006 Ry au, 
 
        Potential amp.        0.0678 Ry
        Total length         56.7860 bohr
 

     total cpu time spent up to now is      146.0 secs

     total energy              =    -184.52503391 Ry
     estimated scf accuracy    <       0.01434440 Ry

     iteration # 36     ecut=    52.00 Ry     beta= 0.30
     Davidson diagonalization with overlap
     ethr =  2.67E-06,  avg # of iterations =  1.0

     negative rho (up, down):  6.818E-04 0.000E+00
 
     Adding external electric field

     Computed dipole along edir(3) : 
        Dipole               -0.0508 Ry au,         -0.1291 Debye
        Dipole field         -0.0006 Ry au, 
 
        Potential amp.        0.0657 Ry
        Total length         56.7860 bohr
 

     total cpu time spent up to now is      149.6 secs

     total energy              =    -184.52496032 Ry
     estimated scf accuracy    <       0.01473743 Ry

     iteration # 37     ecut=    52.00 Ry     beta= 0.30
     Davidson diagonalization with overlap
     ethr =  2.67E-06,  avg # of iterations =  1.0

     negative rho (up, down):  6.380E-04 0.000E+00
 
     Adding external electric field

     Computed dipole along edir(3) : 
        Dipole               -0.0441 Ry au,         -0.1122 Debye
        Dipole field         -0.0005 Ry au, 
 
        Potential amp.        0.0571 Ry
        Total length         56.7860 bohr
 

     total cpu time spent up to now is      153.0 secs

     total energy              =    -184.52472354 Ry
     estimated scf accuracy    <       0.01180420 Ry

     iteration # 38     ecut=    52.00 Ry     beta= 0.30
     Davidson diagonalization with overlap
     ethr =  2.67E-06,  avg # of iterations =  3.6

     negative rho (up, down):  7.426E-04 0.000E+00
 
     Adding external electric field

     Computed dipole along edir(3) : 
        Dipole               -0.0474 Ry au,         -0.1206 Debye
        Dipole field         -0.0005 Ry au, 
 
        Potential amp.        0.0614 Ry
        Total length         56.7860 bohr
 

     total cpu time spent up to now is      157.4 secs

     total energy              =    -184.52483674 Ry
     estimated scf accuracy    <       0.00270820 Ry

     iteration # 39     ecut=    52.00 Ry     beta= 0.30
     Davidson diagonalization with overlap
     ethr =  2.67E-06,  avg # of iterations =  1.9

     negative rho (up, down):  5.050E-04 0.000E+00
 
     Adding external electric field

     Computed dipole along edir(3) : 
        Dipole               -0.0505 Ry au,         -0.1283 Debye
        Dipole field         -0.0006 Ry au, 
 
        Potential amp.        0.0653 Ry
        Total length         56.7860 bohr
 

     total cpu time spent up to now is      161.1 secs

     total energy              =    -184.52494175 Ry
     estimated scf accuracy    <       0.00583404 Ry

     iteration # 40     ecut=    52.00 Ry     beta= 0.30
     Davidson diagonalization with overlap
     ethr =  2.67E-06,  avg # of iterations =  1.7

     negative rho (up, down):  1.271E-03 0.000E+00
 
     Adding external electric field

     Computed dipole along edir(3) : 
        Dipole               -0.0369 Ry au,         -0.0939 Debye
        Dipole field         -0.0004 Ry au, 
 
        Potential amp.        0.0478 Ry
        Total length         56.7860 bohr
 

     total cpu time spent up to now is      164.8 secs

     total energy              =    -184.52443733 Ry
     estimated scf accuracy    <       0.01201295 Ry

     iteration # 41     ecut=    52.00 Ry     beta= 0.30
     Davidson diagonalization with overlap
     ethr =  2.67E-06,  avg # of iterations =  3.0

     negative rho (up, down):  4.479E-04 0.000E+00
 
     Adding external electric field

     Computed dipole along edir(3) : 
        Dipole               -0.0519 Ry au,         -0.1318 Debye
        Dipole field         -0.0006 Ry au, 
 
        Potential amp.        0.0671 Ry
        Total length         56.7860 bohr
 

     total cpu time spent up to now is      169.1 secs

     total energy              =    -184.52493387 Ry
     estimated scf accuracy    <       0.00190837 Ry

     iteration # 42     ecut=    52.00 Ry     beta= 0.30
     Davidson diagonalization with overlap
     ethr =  2.67E-06,  avg # of iterations =  3.3

     negative rho (up, down):  3.836E-04 0.000E+00
 
     Adding external electric field

     Computed dipole along edir(3) : 
        Dipole               -0.0430 Ry au,         -0.1093 Debye
        Dipole field         -0.0005 Ry au, 
 
        Potential amp.        0.0556 Ry
        Total length         56.7860 bohr
 

     total cpu time spent up to now is      173.5 secs

     total energy              =    -184.52468199 Ry
     estimated scf accuracy    <       0.01472505 Ry

     iteration # 43     ecut=    52.00 Ry     beta= 0.30
     Davidson diagonalization with overlap
     ethr =  2.67E-06,  avg # of iterations =  2.5

     negative rho (up, down):  3.599E-04 0.000E+00
 
     Adding external electric field

     Computed dipole along edir(3) : 
        Dipole               -0.0402 Ry au,         -0.1022 Debye
        Dipole field         -0.0005 Ry au, 
 
        Potential amp.        0.0520 Ry
        Total length         56.7860 bohr
 

     total cpu time spent up to now is      177.5 secs

     total energy              =    -184.52473260 Ry
     estimated scf accuracy    <       0.00233019 Ry

     iteration # 44     ecut=    52.00 Ry     beta= 0.30
     Davidson diagonalization with overlap
     ethr =  2.67E-06,  avg # of iterations =  1.8

     negative rho (up, down):  1.945E-04 0.000E+00
 
     Adding external electric field

     Computed dipole along edir(3) : 
        Dipole               -0.0403 Ry au,         -0.1023 Debye
        Dipole field         -0.0005 Ry au, 
 
        Potential amp.        0.0521 Ry
        Total length         56.7860 bohr
 

     total cpu time spent up to now is      181.3 secs

     total energy              =    -184.52472710 Ry
     estimated scf accuracy    <       0.00108168 Ry

     iteration # 45     ecut=    52.00 Ry     beta= 0.30
     Davidson diagonalization with overlap
     ethr =  2.67E-06,  avg # of iterations =  2.5

     negative rho (up, down):  1.869E-05 0.000E+00
 
     Adding external electric field

     Computed dipole along edir(3) : 
        Dipole               -0.0432 Ry au,         -0.1099 Debye
        Dipole field         -0.0005 Ry au, 
 
        Potential amp.        0.0559 Ry
        Total length         56.7860 bohr
 

     total cpu time spent up to now is      185.2 secs

     total energy              =    -184.52476933 Ry
     estimated scf accuracy    <       0.00107733 Ry

     iteration # 46     ecut=    52.00 Ry     beta= 0.30
     Davidson diagonalization with overlap
     ethr =  2.67E-06,  avg # of iterations =  1.2

     negative rho (up, down):  8.236E-05 0.000E+00
 
     Adding external electric field

     Computed dipole along edir(3) : 
        Dipole               -0.0593 Ry au,         -0.1508 Debye
        Dipole field         -0.0007 Ry au, 
 
        Potential amp.        0.0767 Ry
        Total length         56.7860 bohr
 

     total cpu time spent up to now is      188.8 secs

     total energy              =    -184.52504132 Ry
     estimated scf accuracy    <       0.00223547 Ry

     iteration # 47     ecut=    52.00 Ry     beta= 0.30
     Davidson diagonalization with overlap
     c_bands:  1 eigenvalues not converged
     c_bands:  1 eigenvalues not converged
     c_bands:  1 eigenvalues not converged
     c_bands:  1 eigenvalues not converged
     c_bands:  1 eigenvalues not converged
     c_bands:  1 eigenvalues not converged
     ethr =  2.67E-06,  avg # of iterations =  4.0

     negative rho (up, down):  6.834E-05 0.000E+00
 
     Adding external electric field

     Computed dipole along edir(3) : 
        Dipole               -0.0493 Ry au,         -0.1252 Debye
        Dipole field         -0.0006 Ry au, 
 
        Potential amp.        0.0637 Ry
        Total length         56.7860 bohr
 

     total cpu time spent up to now is      193.4 secs

     total energy              =    -184.52485205 Ry
     estimated scf accuracy    <       0.02196747 Ry

     iteration # 48     ecut=    52.00 Ry     beta= 0.30
     Davidson diagonalization with overlap
     ethr =  2.67E-06,  avg # of iterations =  2.8

     negative rho (up, down):  1.057E-04 0.000E+00
 
     Adding external electric field

     Computed dipole along edir(3) : 
        Dipole               -0.0307 Ry au,         -0.0780 Debye
        Dipole field         -0.0003 Ry au, 
 
        Potential amp.        0.0397 Ry
        Total length         56.7860 bohr
 

     total cpu time spent up to now is      197.5 secs

     total energy              =    -184.52429641 Ry
     estimated scf accuracy    <       0.00972370 Ry

     iteration # 49     ecut=    52.00 Ry     beta= 0.30
     Davidson diagonalization with overlap
     ethr =  2.67E-06,  avg # of iterations =  3.6

     negative rho (up, down):  1.999E-04 0.000E+00
 
     Adding external electric field

     Computed dipole along edir(3) : 
        Dipole               -0.0351 Ry au,         -0.0892 Debye
        Dipole field         -0.0004 Ry au, 
 
        Potential amp.        0.0454 Ry
        Total length         56.7860 bohr
 

     total cpu time spent up to now is      201.9 secs

     total energy              =    -184.52465829 Ry
     estimated scf accuracy    <       0.00279641 Ry

     iteration # 50     ecut=    52.00 Ry     beta= 0.30
     Davidson diagonalization with overlap
     ethr =  2.67E-06,  avg # of iterations =  1.4

     negative rho (up, down):  3.062E-04 0.000E+00
 
     Adding external electric field

     Computed dipole along edir(3) : 
        Dipole               -0.0317 Ry au,         -0.0805 Debye
        Dipole field         -0.0004 Ry au, 
 
        Potential amp.        0.0410 Ry
        Total length         56.7860 bohr
 

     total cpu time spent up to now is      205.5 secs

     total energy              =    -184.52459139 Ry
     estimated scf accuracy    <       0.00230063 Ry

     iteration # 51     ecut=    52.00 Ry     beta= 0.30
     Davidson diagonalization with overlap
     ethr =  2.67E-06,  avg # of iterations =  1.0

     negative rho (up, down):  2.674E-04 0.000E+00
 
     Adding external electric field

     Computed dipole along edir(3) : 
        Dipole               -0.0570 Ry au,         -0.1449 Debye
        Dipole field         -0.0006 Ry au, 
 
        Potential amp.        0.0737 Ry
        Total length         56.7860 bohr
 

     total cpu time spent up to now is      209.0 secs

     total energy              =    -184.52510627 Ry
     estimated scf accuracy    <       0.00276818 Ry

     iteration # 52     ecut=    52.00 Ry     beta= 0.30
     Davidson diagonalization with overlap
     c_bands:  1 eigenvalues not converged
     c_bands:  1 eigenvalues not converged
     c_bands:  1 eigenvalues not converged
     c_bands:  1 eigenvalues not converged
     c_bands:  1 eigenvalues not converged
     c_bands:  1 eigenvalues not converged
     ethr =  2.67E-06,  avg # of iterations =  3.9

     negative rho (up, down):  1.229E-04 0.000E+00
 
     Adding external electric field

     Computed dipole along edir(3) : 
        Dipole               -0.0551 Ry au,         -0.1401 Debye
        Dipole field         -0.0006 Ry au, 
 
        Potential amp.        0.0713 Ry
        Total length         56.7860 bohr
 

     total cpu time spent up to now is      213.7 secs

     total energy              =    -184.52517589 Ry
     estimated scf accuracy    <       0.02090354 Ry

     iteration # 53     ecut=    52.00 Ry     beta= 0.30
     Davidson diagonalization with overlap
     c_bands:  1 eigenvalues not converged
     c_bands:  1 eigenvalues not converged
     c_bands:  1 eigenvalues not converged
     c_bands:  1 eigenvalues not converged
     c_bands:  1 eigenvalues not converged
     c_bands:  1 eigenvalues not converged
     ethr =  2.67E-06,  avg # of iterations =  1.7

     negative rho (up, down):  1.395E-04 0.000E+00
 
     Adding external electric field

     Computed dipole along edir(3) : 
        Dipole               -0.0538 Ry au,         -0.1367 Debye
        Dipole field         -0.0006 Ry au, 
 
        Potential amp.        0.0696 Ry
        Total length         56.7860 bohr
 

     total cpu time spent up to now is      217.4 secs

     total energy              =    -184.52509452 Ry
     estimated scf accuracy    <       0.01943722 Ry

     iteration # 54     ecut=    52.00 Ry     beta= 0.30
     Davidson diagonalization with overlap
     ethr =  2.67E-06,  avg # of iterations =  1.1

     negative rho (up, down):  7.062E-05 0.000E+00
 
     Adding external electric field

     Computed dipole along edir(3) : 
        Dipole               -0.0496 Ry au,         -0.1261 Debye
        Dipole field         -0.0006 Ry au, 
 
        Potential amp.        0.0641 Ry
        Total length         56.7860 bohr
 

     total cpu time spent up to now is      221.0 secs

     total energy              =    -184.52495798 Ry
     estimated scf accuracy    <       0.01725727 Ry

     iteration # 55     ecut=    52.00 Ry     beta= 0.30
     Davidson diagonalization with overlap
     ethr =  2.67E-06,  avg # of iterations =  1.2

     negative rho (up, down):  7.264E-05 0.000E+00
 
     Adding external electric field

     Computed dipole along edir(3) : 
        Dipole               -0.0484 Ry au,         -0.1231 Debye
        Dipole field         -0.0006 Ry au, 
 
        Potential amp.        0.0627 Ry
        Total length         56.7860 bohr
 

     total cpu time spent up to now is      224.6 secs

     total energy              =    -184.52493932 Ry
     estimated scf accuracy    <       0.01232872 Ry

     iteration # 56     ecut=    52.00 Ry     beta= 0.30
     Davidson diagonalization with overlap
     ethr =  2.67E-06,  avg # of iterations =  1.0

     negative rho (up, down):  4.060E-05 0.000E+00
 
     Adding external electric field

     Computed dipole along edir(3) : 
        Dipole               -0.0638 Ry au,         -0.1622 Debye
        Dipole field         -0.0007 Ry au, 
 
        Potential amp.        0.0825 Ry
        Total length         56.7860 bohr
 

     total cpu time spent up to now is      228.1 secs

     total energy              =    -184.52547812 Ry
     estimated scf accuracy    <       0.01086684 Ry

     iteration # 57     ecut=    52.00 Ry     beta= 0.30
     Davidson diagonalization with overlap
     ethr =  2.67E-06,  avg # of iterations =  3.9

     negative rho (up, down):  1.357E-04 0.000E+00
 
     Adding external electric field

     Computed dipole along edir(3) : 
        Dipole               -0.0612 Ry au,         -0.1555 Debye
        Dipole field         -0.0007 Ry au, 
 
        Potential amp.        0.0791 Ry
        Total length         56.7860 bohr
 

     total cpu time spent up to now is      232.7 secs

     total energy              =    -184.52550880 Ry
     estimated scf accuracy    <       0.02619190 Ry

     iteration # 58     ecut=    52.00 Ry     beta= 0.30
     Davidson diagonalization with overlap
     ethr =  2.67E-06,  avg # of iterations =  1.0

     negative rho (up, down):  4.723E-06 0.000E+00
 
     Adding external electric field

     Computed dipole along edir(3) : 
        Dipole               -0.0391 Ry au,         -0.0993 Debye
        Dipole field         -0.0004 Ry au, 
 
        Potential amp.        0.0505 Ry
        Total length         56.7860 bohr
 

     total cpu time spent up to now is      236.2 secs

     total energy              =    -184.52436763 Ry
     estimated scf accuracy    <       0.02454332 Ry

     iteration # 59     ecut=    52.00 Ry     beta= 0.30
     Davidson diagonalization with overlap
     c_bands:  1 eigenvalues not converged
     c_bands:  1 eigenvalues not converged
     c_bands:  1 eigenvalues not converged
     c_bands:  1 eigenvalues not converged
     c_bands:  1 eigenvalues not converged
     c_bands:  1 eigenvalues not converged
     ethr =  2.67E-06,  avg # of iterations =  4.2

     negative rho (up, down):  2.200E-06 0.000E+00
 
     Adding external electric field

     Computed dipole along edir(3) : 
        Dipole               -0.0345 Ry au,         -0.0876 Debye
        Dipole field         -0.0004 Ry au, 
 
        Potential amp.        0.0446 Ry
        Total length         56.7860 bohr
 

     total cpu time spent up to now is      241.0 secs

     total energy              =    -184.52466386 Ry
     estimated scf accuracy    <       0.00120122 Ry

     iteration # 60     ecut=    52.00 Ry     beta= 0.30
     Davidson diagonalization with overlap
     ethr =  2.67E-06,  avg # of iterations =  1.8

     negative rho (up, down):  3.271E-06 0.000E+00
 
     Adding external electric field

     Computed dipole along edir(3) : 
        Dipole               -0.0297 Ry au,         -0.0755 Debye
        Dipole field         -0.0003 Ry au, 
 
        Potential amp.        0.0384 Ry
        Total length         56.7860 bohr
 

     total cpu time spent up to now is      244.8 secs

     total energy              =    -184.52458381 Ry
     estimated scf accuracy    <       0.00216017 Ry

     iteration # 61     ecut=    52.00 Ry     beta= 0.30
     Davidson diagonalization with overlap
     ethr =  2.67E-06,  avg # of iterations =  2.0

     negative rho (up, down):  3.781E-06 0.000E+00
 
     Adding external electric field

     Computed dipole along edir(3) : 
        Dipole               -0.0195 Ry au,         -0.0497 Debye
        Dipole field         -0.0002 Ry au, 
 
        Potential amp.        0.0253 Ry
        Total length         56.7860 bohr
 

     total cpu time spent up to now is      248.6 secs

     total energy              =    -184.52438942 Ry
     estimated scf accuracy    <       0.00300804 Ry

     iteration # 62     ecut=    52.00 Ry     beta= 0.30
     Davidson diagonalization with overlap
     ethr =  2.67E-06,  avg # of iterations =  2.7

     negative rho (up, down):  3.467E-06 0.000E+00
 
     Adding external electric field

     Computed dipole along edir(3) : 
        Dipole               -0.0290 Ry au,         -0.0736 Debye
        Dipole field         -0.0003 Ry au, 
 
        Potential amp.        0.0375 Ry
        Total length         56.7860 bohr
 

     total cpu time spent up to now is      252.7 secs

     total energy              =    -184.52455932 Ry
     estimated scf accuracy    <       0.00284651 Ry

     iteration # 63     ecut=    52.00 Ry     beta= 0.30
     Davidson diagonalization with overlap
     ethr =  2.67E-06,  avg # of iterations =  2.0

     negative rho (up, down):  2.706E-06 0.000E+00
 
     Adding external electric field

     Computed dipole along edir(3) : 
        Dipole               -0.0940 Ry au,         -0.2388 Debye
        Dipole field         -0.0011 Ry au, 
 
        Potential amp.        0.1215 Ry
        Total length         56.7860 bohr
 

     total cpu time spent up to now is      256.6 secs

     total energy              =    -184.52592952 Ry
     estimated scf accuracy    <       0.00303240 Ry

     iteration # 64     ecut=    52.00 Ry     beta= 0.30
     Davidson diagonalization with overlap
     c_bands:  2 eigenvalues not converged
     c_bands:  1 eigenvalues not converged
     c_bands:  1 eigenvalues not converged
     c_bands:  1 eigenvalues not converged
     c_bands:  1 eigenvalues not converged
     c_bands:  1 eigenvalues not converged
     c_bands:  2 eigenvalues not converged
     c_bands:  1 eigenvalues not converged
     c_bands:  1 eigenvalues not converged
     c_bands:  2 eigenvalues not converged
     ethr =  2.67E-06,  avg # of iterations =  6.0

     negative rho (up, down):  5.519E-06 0.000E+00
 
     Adding external electric field

     Computed dipole along edir(3) : 
        Dipole               -0.0458 Ry au,         -0.1164 Debye
        Dipole field         -0.0005 Ry au, 
 
        Potential amp.        0.0592 Ry
        Total length         56.7860 bohr
 

     total cpu time spent up to now is      261.9 secs

     total energy              =    -184.52245389 Ry
     estimated scf accuracy    <       0.12390398 Ry

     iteration # 65     ecut=    52.00 Ry     beta= 0.30
     Davidson diagonalization with overlap
     c_bands:  1 eigenvalues not converged
     ethr =  2.67E-06,  avg # of iterations =  4.6

     negative rho (up, down):  8.811E-06 0.000E+00
 
     Adding external electric field

     Computed dipole along edir(3) : 
        Dipole               -0.0356 Ry au,         -0.0906 Debye
        Dipole field         -0.0004 Ry au, 
 
        Potential amp.        0.0461 Ry
        Total length         56.7860 bohr
 

     total cpu time spent up to now is      266.8 secs

     total energy              =    -184.52457152 Ry
     estimated scf accuracy    <       0.00622977 Ry

     iteration # 66     ecut=    52.00 Ry     beta= 0.30
     Davidson diagonalization with overlap
     ethr =  2.67E-06,  avg # of iterations =  3.2

     negative rho (up, down):  3.626E-05 0.000E+00
 
     Adding external electric field

     Computed dipole along edir(3) : 
        Dipole               -0.0127 Ry au,         -0.0323 Debye
        Dipole field         -0.0001 Ry au, 
 
        Potential amp.        0.0164 Ry
        Total length         56.7860 bohr
 

     total cpu time spent up to now is      271.1 secs

     total energy              =    -184.52436764 Ry
     estimated scf accuracy    <       0.00182430 Ry

     iteration # 67     ecut=    52.00 Ry     beta= 0.30
     Davidson diagonalization with overlap
     ethr =  2.67E-06,  avg # of iterations =  3.4

     negative rho (up, down):  1.389E-06 0.000E+00
 
     Adding external electric field

     Computed dipole along edir(3) : 
        Dipole                0.0142 Ry au,          0.0360 Debye
        Dipole field          0.0002 Ry au, 
 
        Potential amp.       -0.0183 Ry
        Total length         56.7860 bohr
 

     total cpu time spent up to now is      275.5 secs

     total energy              =    -184.52382413 Ry
     estimated scf accuracy    <       0.00276244 Ry

     iteration # 68     ecut=    52.00 Ry     beta= 0.30
     Davidson diagonalization with overlap
     c_bands:  1 eigenvalues not converged
     c_bands:  1 eigenvalues not converged
     c_bands:  1 eigenvalues not converged
     c_bands:  1 eigenvalues not converged
     c_bands:  1 eigenvalues not converged
     c_bands:  1 eigenvalues not converged
     c_bands:  1 eigenvalues not converged
     c_bands:  1 eigenvalues not converged
     c_bands:  1 eigenvalues not converged
     ethr =  2.67E-06,  avg # of iterations =  3.7

     negative rho (up, down):  1.606E-06 0.000E+00
 
     Adding external electric field

     Computed dipole along edir(3) : 
        Dipole                0.0121 Ry au,          0.0306 Debye
        Dipole field          0.0001 Ry au, 
 
        Potential amp.       -0.0156 Ry
        Total length         56.7860 bohr
 

     total cpu time spent up to now is      280.0 secs

     total energy              =    -184.52403727 Ry
     estimated scf accuracy    <       0.00006558 Ry

     iteration # 69     ecut=    52.00 Ry     beta= 0.30
     Davidson diagonalization with overlap
     ethr =  1.64E-07,  avg # of iterations =  1.5

     negative rho (up, down):  2.653E-05 0.000E+00
 
     Adding external electric field

     Computed dipole along edir(3) : 
        Dipole               -0.0008 Ry au,         -0.0019 Debye
        Dipole field         -0.0000 Ry au, 
 
        Potential amp.        0.0010 Ry
        Total length         56.7860 bohr
 

     total cpu time spent up to now is      283.7 secs

     total energy              =    -184.52401258 Ry
     estimated scf accuracy    <       0.00005999 Ry

     iteration # 70     ecut=    52.00 Ry     beta= 0.30
     Davidson diagonalization with overlap
     ethr =  1.50E-07,  avg # of iterations =  3.0

     negative rho (up, down):  7.367E-05 0.000E+00
 
     Adding external electric field

     Computed dipole along edir(3) : 
        Dipole                0.0248 Ry au,          0.0629 Debye
        Dipole field          0.0003 Ry au, 
 
        Potential amp.       -0.0320 Ry
        Total length         56.7860 bohr
 

     total cpu time spent up to now is      287.8 secs

     total energy              =    -184.52382426 Ry
     estimated scf accuracy    <       0.00116202 Ry

     iteration # 71     ecut=    52.00 Ry     beta= 0.30
     Davidson diagonalization with overlap
     c_bands:  1 eigenvalues not converged
     ethr =  1.50E-07,  avg # of iterations =  3.7

     negative rho (up, down):  1.191E-04 0.000E+00
 
     Adding external electric field

     Computed dipole along edir(3) : 
        Dipole                0.0332 Ry au,          0.0844 Debye
        Dipole field          0.0004 Ry au, 
 
        Potential amp.       -0.0429 Ry
        Total length         56.7860 bohr
 

     total cpu time spent up to now is      292.4 secs

     total energy              =    -184.52408985 Ry
     estimated scf accuracy    <       0.00004393 Ry

     iteration # 72     ecut=    52.00 Ry     beta= 0.30
     Davidson diagonalization with overlap
     ethr =  1.10E-07,  avg # of iterations =  2.0

     negative rho (up, down):  1.257E-04 0.000E+00
 
     Adding external electric field

     Computed dipole along edir(3) : 
        Dipole                0.0385 Ry au,          0.0979 Debye
        Dipole field          0.0004 Ry au, 
 
        Potential amp.       -0.0498 Ry
        Total length         56.7860 bohr
 

     total cpu time spent up to now is      296.2 secs

     total energy              =    -184.52410646 Ry
     estimated scf accuracy    <       0.00007482 Ry

     iteration # 73     ecut=    52.00 Ry     beta= 0.30
     Davidson diagonalization with overlap
     ethr =  1.10E-07,  avg # of iterations =  2.1

     negative rho (up, down):  1.238E-04 0.000E+00
 
     Adding external electric field

     Computed dipole along edir(3) : 
        Dipole                0.0620 Ry au,          0.1576 Debye
        Dipole field          0.0007 Ry au, 
 
        Potential amp.       -0.0802 Ry
        Total length         56.7860 bohr
 

     total cpu time spent up to now is      300.2 secs

     total energy              =    -184.52420514 Ry
     estimated scf accuracy    <       0.00010068 Ry

     iteration # 74     ecut=    52.00 Ry     beta= 0.30
     Davidson diagonalization with overlap
     c_bands:  1 eigenvalues not converged
     ethr =  1.10E-07,  avg # of iterations =  4.3

     negative rho (up, down):  1.524E-04 0.000E+00
 
     Adding external electric field

     Computed dipole along edir(3) : 
        Dipole                0.0602 Ry au,          0.1530 Debye
        Dipole field          0.0007 Ry au, 
 
        Potential amp.       -0.0778 Ry
        Total length         56.7860 bohr
 

     total cpu time spent up to now is      304.9 secs

     total energy              =    -184.52419910 Ry
     estimated scf accuracy    <       0.00026410 Ry

     iteration # 75     ecut=    52.00 Ry     beta= 0.30
     Davidson diagonalization with overlap
     ethr =  1.10E-07,  avg # of iterations =  1.0

     negative rho (up, down):  1.454E-04 0.000E+00
 
     Adding external electric field

     Computed dipole along edir(3) : 
        Dipole                0.0567 Ry au,          0.1442 Debye
        Dipole field          0.0006 Ry au, 
 
        Potential amp.       -0.0734 Ry
        Total length         56.7860 bohr
 

     total cpu time spent up to now is      308.5 secs

     total energy              =    -184.52418157 Ry
     estimated scf accuracy    <       0.00025026 Ry

     iteration # 76     ecut=    52.00 Ry     beta= 0.30
     Davidson diagonalization with overlap
     ethr =  1.10E-07,  avg # of iterations =  1.5

     negative rho (up, down):  1.376E-04 0.000E+00
 
     Adding external electric field

     Computed dipole along edir(3) : 
        Dipole                0.0527 Ry au,          0.1339 Debye
        Dipole field          0.0006 Ry au, 
 
        Potential amp.       -0.0681 Ry
        Total length         56.7860 bohr
 

     total cpu time spent up to now is      312.1 secs

     total energy              =    -184.52416249 Ry
     estimated scf accuracy    <       0.00022306 Ry

     iteration # 77     ecut=    52.00 Ry     beta= 0.30
     Davidson diagonalization with overlap
     ethr =  1.10E-07,  avg # of iterations =  1.5

     negative rho (up, down):  1.381E-04 0.000E+00
 
     Adding external electric field

     Computed dipole along edir(3) : 
        Dipole                0.0530 Ry au,          0.1347 Debye
        Dipole field          0.0006 Ry au, 
 
        Potential amp.       -0.0685 Ry
        Total length         56.7860 bohr
 

     total cpu time spent up to now is      315.8 secs

     total energy              =    -184.52416404 Ry
     estimated scf accuracy    <       0.00019283 Ry

     iteration # 78     ecut=    52.00 Ry     beta= 0.30
     Davidson diagonalization with overlap
     ethr =  1.10E-07,  avg # of iterations =  1.0

     negative rho (up, down):  1.315E-04 0.000E+00
 
     Adding external electric field

     Computed dipole along edir(3) : 
        Dipole                0.0560 Ry au,          0.1424 Debye
        Dipole field          0.0006 Ry au, 
 
        Potential amp.       -0.0724 Ry
        Total length         56.7860 bohr
 

     total cpu time spent up to now is      319.4 secs

     total energy              =    -184.52417759 Ry
     estimated scf accuracy    <       0.00019501 Ry

     iteration # 79     ecut=    52.00 Ry     beta= 0.30
     Davidson diagonalization with overlap
     ethr =  1.10E-07,  avg # of iterations =  1.0

     negative rho (up, down):  1.222E-04 0.000E+00
 
     Adding external electric field

     Computed dipole along edir(3) : 
        Dipole                0.0003 Ry au,          0.0009 Debye
        Dipole field          0.0000 Ry au, 
 
        Potential amp.       -0.0005 Ry
        Total length         56.7860 bohr
 

     total cpu time spent up to now is      322.9 secs

     total energy              =    -184.52402630 Ry
     estimated scf accuracy    <       0.00021793 Ry

     iteration # 80     ecut=    52.00 Ry     beta= 0.30
     Davidson diagonalization with overlap
     c_bands:  1 eigenvalues not converged
     c_bands:  1 eigenvalues not converged
     c_bands:  1 eigenvalues not converged
     c_bands:  1 eigenvalues not converged
     c_bands:  1 eigenvalues not converged
     c_bands:  1 eigenvalues not converged
     c_bands:  1 eigenvalues not converged
     c_bands:  1 eigenvalues not converged
     c_bands:  1 eigenvalues not converged
     c_bands:  1 eigenvalues not converged
     c_bands:  1 eigenvalues not converged
     c_bands:  1 eigenvalues not converged
     c_bands:  1 eigenvalues not converged
     c_bands:  1 eigenvalues not converged
     c_bands:  1 eigenvalues not converged
     ethr =  1.10E-07,  avg # of iterations =  4.9

     negative rho (up, down):  1.269E-04 0.000E+00
 
     Adding external electric field

     Computed dipole along edir(3) : 
        Dipole                0.0594 Ry au,          0.1510 Debye
        Dipole field          0.0007 Ry au, 
 
        Potential amp.       -0.0768 Ry
        Total length         56.7860 bohr
 

     total cpu time spent up to now is      328.1 secs

     total energy              =    -184.52361481 Ry
     estimated scf accuracy    <       0.00090015 Ry

     iteration # 81     ecut=    52.00 Ry     beta= 0.30
     Davidson diagonalization with overlap
     c_bands:  1 eigenvalues not converged
     c_bands:  1 eigenvalues not converged
     c_bands:  1 eigenvalues not converged
     c_bands:  1 eigenvalues not converged
     c_bands:  1 eigenvalues not converged
     c_bands:  1 eigenvalues not converged
     ethr =  1.10E-07,  avg # of iterations =  4.8

     negative rho (up, down):  6.489E-05 0.000E+00
 
     Adding external electric field

     Computed dipole along edir(3) : 
        Dipole                0.0380 Ry au,          0.0966 Debye
        Dipole field          0.0004 Ry au, 
 
        Potential amp.       -0.0492 Ry
        Total length         56.7860 bohr
 

     total cpu time spent up to now is      333.2 secs

     total energy              =    -184.52410271 Ry
     estimated scf accuracy    <       0.00024113 Ry

     iteration # 82     ecut=    52.00 Ry     beta= 0.30
     Davidson diagonalization with overlap
     c_bands:  1 eigenvalues not converged
     c_bands:  1 eigenvalues not converged
     c_bands:  1 eigenvalues not converged
     c_bands:  1 eigenvalues not converged
     c_bands:  1 eigenvalues not converged
     c_bands:  1 eigenvalues not converged
     ethr =  1.10E-07,  avg # of iterations =  3.4

     negative rho (up, down):  6.797E-05 0.000E+00
 
     Adding external electric field

     Computed dipole along edir(3) : 
        Dipole                0.0340 Ry au,          0.0864 Debye
        Dipole field          0.0004 Ry au, 
 
        Potential amp.       -0.0439 Ry
        Total length         56.7860 bohr
 

     total cpu time spent up to now is      337.5 secs

     total energy              =    -184.52409238 Ry
     estimated scf accuracy    <       0.00009818 Ry

     iteration # 83     ecut=    52.00 Ry     beta= 0.30
     Davidson diagonalization with overlap
     c_bands:  1 eigenvalues not converged
     c_bands:  1 eigenvalues not converged
     c_bands:  1 eigenvalues not converged
     c_bands:  1 eigenvalues not converged
     c_bands:  1 eigenvalues not converged
     c_bands:  1 eigenvalues not converged
     ethr =  1.10E-07,  avg # of iterations =  2.0

     negative rho (up, down):  8.706E-05 0.000E+00
 
     Adding external electric field

     Computed dipole along edir(3) : 
        Dipole                0.0302 Ry au,          0.0769 Debye
        Dipole field          0.0003 Ry au, 
 
        Potential amp.       -0.0391 Ry
        Total length         56.7860 bohr
 

     total cpu time spent up to now is      341.4 secs

     total energy              =    -184.52408187 Ry
     estimated scf accuracy    <       0.00007782 Ry

     iteration # 84     ecut=    52.00 Ry     beta= 0.30
     Davidson diagonalization with overlap
     ethr =  1.10E-07,  avg # of iterations =  2.3

     negative rho (up, down):  7.167E-05 0.000E+00
 
     Adding external electric field

     Computed dipole along edir(3) : 
        Dipole                0.0240 Ry au,          0.0611 Debye
        Dipole field          0.0003 Ry au, 
 
        Potential amp.       -0.0311 Ry
        Total length         56.7860 bohr
 

     total cpu time spent up to now is      345.4 secs

     total energy              =    -184.52406752 Ry
     estimated scf accuracy    <       0.00006052 Ry

     iteration # 85     ecut=    52.00 Ry     beta= 0.30
     Davidson diagonalization with overlap
     c_bands:  1 eigenvalues not converged
     c_bands:  1 eigenvalues not converged
     c_bands:  1 eigenvalues not converged
     c_bands:  1 eigenvalues not converged
     c_bands:  1 eigenvalues not converged
     c_bands:  1 eigenvalues not converged
     ethr =  1.10E-07,  avg # of iterations =  2.8

     negative rho (up, down):  5.624E-05 0.000E+00
 
     Adding external electric field

     Computed dipole along edir(3) : 
        Dipole                0.0222 Ry au,          0.0564 Debye
        Dipole field          0.0003 Ry au, 
 
        Potential amp.       -0.0287 Ry
        Total length         56.7860 bohr
 

     total cpu time spent up to now is      349.4 secs

     total energy              =    -184.52406391 Ry
     estimated scf accuracy    <       0.00003922 Ry

     iteration # 86     ecut=    52.00 Ry     beta= 0.30
     Davidson diagonalization with overlap
     ethr =  9.81E-08,  avg # of iterations =  1.4

     negative rho (up, down):  5.447E-05 0.000E+00
 
     Adding external electric field

     Computed dipole along edir(3) : 
        Dipole                0.0288 Ry au,          0.0733 Debye
        Dipole field          0.0003 Ry au, 
 
        Potential amp.       -0.0373 Ry
        Total length         56.7860 bohr
 

     total cpu time spent up to now is      353.0 secs

     total energy              =    -184.52407884 Ry
     estimated scf accuracy    <       0.00003564 Ry

     iteration # 87     ecut=    52.00 Ry     beta= 0.30
     Davidson diagonalization with overlap
     ethr =  8.91E-08,  avg # of iterations =  1.4

     negative rho (up, down):  8.918E-05 0.000E+00
 
     Adding external electric field

     Computed dipole along edir(3) : 
        Dipole                0.0269 Ry au,          0.0684 Debye
        Dipole field          0.0003 Ry au, 
 
        Potential amp.       -0.0348 Ry
        Total length         56.7860 bohr
 

     total cpu time spent up to now is      356.7 secs

     total energy              =    -184.52407383 Ry
     estimated scf accuracy    <       0.00005537 Ry

     iteration # 88     ecut=    52.00 Ry     beta= 0.30
     Davidson diagonalization with overlap
     ethr =  8.91E-08,  avg # of iterations =  1.0

     negative rho (up, down):  8.387E-05 0.000E+00
 
     Adding external electric field

     Computed dipole along edir(3) : 
        Dipole                0.0307 Ry au,          0.0780 Debye
        Dipole field          0.0003 Ry au, 
 
        Potential amp.       -0.0397 Ry
        Total length         56.7860 bohr
 

     total cpu time spent up to now is      360.2 secs

     total energy              =    -184.52408318 Ry
     estimated scf accuracy    <       0.00004852 Ry

     iteration # 89     ecut=    52.00 Ry     beta= 0.30
     Davidson diagonalization with overlap
     ethr =  8.91E-08,  avg # of iterations =  1.0

     negative rho (up, down):  1.145E-04 0.000E+00
 
     Adding external electric field

     Computed dipole along edir(3) : 
        Dipole               -0.0019 Ry au,         -0.0049 Debye
        Dipole field         -0.0000 Ry au, 
 
        Potential amp.        0.0025 Ry
        Total length         56.7860 bohr
 

     total cpu time spent up to now is      363.8 secs

     total energy              =    -184.52403783 Ry
     estimated scf accuracy    <       0.00006273 Ry

     iteration # 90     ecut=    52.00 Ry     beta= 0.30
     Davidson diagonalization with overlap
     c_bands:  1 eigenvalues not converged
     c_bands:  1 eigenvalues not converged
     c_bands:  1 eigenvalues not converged
     ethr =  8.91E-08,  avg # of iterations =  3.9

     negative rho (up, down):  7.930E-05 0.000E+00
 
     Adding external electric field

     Computed dipole along edir(3) : 
        Dipole                0.0313 Ry au,          0.0796 Debye
        Dipole field          0.0004 Ry au, 
 
        Potential amp.       -0.0405 Ry
        Total length         56.7860 bohr
 

     total cpu time spent up to now is      368.5 secs

     total energy              =    -184.52372249 Ry
     estimated scf accuracy    <       0.00144473 Ry

     iteration # 91     ecut=    52.00 Ry     beta= 0.30
     Davidson diagonalization with overlap
     ethr =  8.91E-08,  avg # of iterations =  3.7

     negative rho (up, down):  8.444E-05 0.000E+00
 
     Adding external electric field

     Computed dipole along edir(3) : 
        Dipole                0.0306 Ry au,          0.0779 Debye
        Dipole field          0.0003 Ry au, 
 
        Potential amp.       -0.0396 Ry
        Total length         56.7860 bohr
 

     total cpu time spent up to now is      373.1 secs

     total energy              =    -184.52408314 Ry
     estimated scf accuracy    <       0.00006539 Ry

     iteration # 92     ecut=    52.00 Ry     beta= 0.30
     Davidson diagonalization with overlap
     ethr =  8.91E-08,  avg # of iterations =  1.0

     negative rho (up, down):  8.149E-05 0.000E+00
 
     Adding external electric field

     Computed dipole along edir(3) : 
        Dipole                0.0308 Ry au,          0.0783 Debye
        Dipole field          0.0004 Ry au, 
 
        Potential amp.       -0.0399 Ry
        Total length         56.7860 bohr
 

     total cpu time spent up to now is      376.5 secs

     total energy              =    -184.52408367 Ry
     estimated scf accuracy    <       0.00006517 Ry

     iteration # 93     ecut=    52.00 Ry     beta= 0.30
     Davidson diagonalization with overlap
     ethr =  8.91E-08,  avg # of iterations =  1.0

     negative rho (up, down):  8.248E-05 0.000E+00
 
     Adding external electric field

     Computed dipole along edir(3) : 
        Dipole                0.0320 Ry au,          0.0813 Debye
        Dipole field          0.0004 Ry au, 
 
        Potential amp.       -0.0414 Ry
        Total length         56.7860 bohr
 

     total cpu time spent up to now is      380.1 secs

     total energy              =    -184.52408672 Ry
     estimated scf accuracy    <       0.00006540 Ry

     iteration # 94     ecut=    52.00 Ry     beta= 0.30
     Davidson diagonalization with overlap
     ethr =  8.91E-08,  avg # of iterations =  1.0

     negative rho (up, down):  7.840E-05 0.000E+00
 
     Adding external electric field

     Computed dipole along edir(3) : 
        Dipole                0.0291 Ry au,          0.0738 Debye
        Dipole field          0.0003 Ry au, 
 
        Potential amp.       -0.0376 Ry
        Total length         56.7860 bohr
 

     total cpu time spent up to now is      383.6 secs

     total energy              =    -184.52407894 Ry
     estimated scf accuracy    <       0.00006929 Ry

     iteration # 95     ecut=    52.00 Ry     beta= 0.30
     Davidson diagonalization with overlap
     ethr =  8.91E-08,  avg # of iterations =  1.0

     negative rho (up, down):  6.962E-05 0.000E+00
 
     Adding external electric field

     Computed dipole along edir(3) : 
        Dipole                0.0248 Ry au,          0.0631 Debye
        Dipole field          0.0003 Ry au, 
 
        Potential amp.       -0.0321 Ry
        Total length         56.7860 bohr
 

     total cpu time spent up to now is      387.2 secs

     total energy              =    -184.52406913 Ry
     estimated scf accuracy    <       0.00005693 Ry

     iteration # 96     ecut=    52.00 Ry     beta= 0.30
     Davidson diagonalization with overlap
     ethr =  8.91E-08,  avg # of iterations =  1.5

     negative rho (up, down):  7.191E-05 0.000E+00
 
     Adding external electric field

     Computed dipole along edir(3) : 
        Dipole                0.0244 Ry au,          0.0619 Debye
        Dipole field          0.0003 Ry au, 
 
        Potential amp.       -0.0315 Ry
        Total length         56.7860 bohr
 

     total cpu time spent up to now is      390.8 secs

     total energy              =    -184.52406825 Ry
     estimated scf accuracy    <       0.00004193 Ry

     iteration # 97     ecut=    52.00 Ry     beta= 0.30
     Davidson diagonalization with overlap
     ethr =  8.91E-08,  avg # of iterations =  1.0

     negative rho (up, down):  7.826E-05 0.000E+00
 
     Adding external electric field

     Computed dipole along edir(3) : 
        Dipole                0.0228 Ry au,          0.0579 Debye
        Dipole field          0.0003 Ry au, 
 
        Potential amp.       -0.0295 Ry
        Total length         56.7860 bohr
 

     total cpu time spent up to now is      394.3 secs

     total energy              =    -184.52406499 Ry
     estimated scf accuracy    <       0.00004068 Ry

     iteration # 98     ecut=    52.00 Ry     beta= 0.30
     Davidson diagonalization with overlap
     ethr =  8.91E-08,  avg # of iterations =  1.0

     negative rho (up, down):  6.954E-05 0.000E+00
 
     Adding external electric field

     Computed dipole along edir(3) : 
        Dipole                0.0249 Ry au,          0.0633 Debye
        Dipole field          0.0003 Ry au, 
 
        Potential amp.       -0.0322 Ry
        Total length         56.7860 bohr
 

     total cpu time spent up to now is      397.8 secs

     total energy              =    -184.52406945 Ry
     estimated scf accuracy    <       0.00003721 Ry

     iteration # 99     ecut=    52.00 Ry     beta= 0.30
     Davidson diagonalization with overlap
     ethr =  8.91E-08,  avg # of iterations =  1.0

     negative rho (up, down):  7.570E-05 0.000E+00
 
     Adding external electric field

     Computed dipole along edir(3) : 
        Dipole               -0.0034 Ry au,         -0.0086 Debye
        Dipole field         -0.0000 Ry au, 
 
        Potential amp.        0.0044 Ry
        Total length         56.7860 bohr
 

     total cpu time spent up to now is      401.4 secs

     total energy              =    -184.52403893 Ry
     estimated scf accuracy    <       0.00004183 Ry

     iteration #100     ecut=    52.00 Ry     beta= 0.30
     Davidson diagonalization with overlap
     c_bands:  1 eigenvalues not converged
     c_bands:  1 eigenvalues not converged
     c_bands:  1 eigenvalues not converged
     ethr =  8.91E-08,  avg # of iterations =  3.7

     negative rho (up, down):  7.098E-05 0.000E+00
 
     Adding external electric field

     Computed dipole along edir(3) : 
        Dipole                0.0243 Ry au,          0.0618 Debye
        Dipole field          0.0003 Ry au, 
 
        Potential amp.       -0.0315 Ry
        Total length         56.7860 bohr
 

     total cpu time spent up to now is      405.8 secs

     total energy              =    -184.52376255 Ry
     estimated scf accuracy    <       0.00176111 Ry

     iteration #101     ecut=    52.00 Ry     beta= 0.30
     Davidson diagonalization with overlap
     c_bands:  1 eigenvalues not converged
     c_bands:  1 eigenvalues not converged
     c_bands:  1 eigenvalues not converged
     ethr =  8.91E-08,  avg # of iterations =  3.5

     negative rho (up, down):  7.196E-05 0.000E+00
 
     Adding external electric field

     Computed dipole along edir(3) : 
        Dipole                0.0235 Ry au,          0.0598 Debye
        Dipole field          0.0003 Ry au, 
 
        Potential amp.       -0.0304 Ry
        Total length         56.7860 bohr
 

     total cpu time spent up to now is      410.3 secs

     total energy              =    -184.52406648 Ry
     estimated scf accuracy    <       0.00003991 Ry

     iteration #102     ecut=    52.00 Ry     beta= 0.30
     Davidson diagonalization with overlap
     ethr =  8.91E-08,  avg # of iterations =  1.0

     negative rho (up, down):  7.105E-05 0.000E+00
 
     Adding external electric field

     Computed dipole along edir(3) : 
        Dipole                0.0209 Ry au,          0.0530 Debye
        Dipole field          0.0002 Ry au, 
 
        Potential amp.       -0.0270 Ry
        Total length         56.7860 bohr
 

     total cpu time spent up to now is      413.8 secs

     total energy              =    -184.52406136 Ry
     estimated scf accuracy    <       0.00003854 Ry

     iteration #103     ecut=    52.00 Ry     beta= 0.30
     Davidson diagonalization with overlap
     ethr =  8.91E-08,  avg # of iterations =  1.0

     negative rho (up, down):  7.142E-05 0.000E+00
 
     Adding external electric field

     Computed dipole along edir(3) : 
        Dipole                0.0177 Ry au,          0.0451 Debye
        Dipole field          0.0002 Ry au, 
 
        Potential amp.       -0.0230 Ry
        Total length         56.7860 bohr
 

     total cpu time spent up to now is      417.3 secs

     total energy              =    -184.52405551 Ry
     estimated scf accuracy    <       0.00003538 Ry

     iteration #104     ecut=    52.00 Ry     beta= 0.30
     Davidson diagonalization with overlap
     ethr =  8.84E-08,  avg # of iterations =  1.3

     negative rho (up, down):  7.063E-05 0.000E+00
 
     Adding external electric field

     Computed dipole along edir(3) : 
        Dipole                0.0154 Ry au,          0.0391 Debye
        Dipole field          0.0002 Ry au, 
 
        Potential amp.       -0.0199 Ry
        Total length         56.7860 bohr
 

     total cpu time spent up to now is      420.9 secs

     total energy              =    -184.52405028 Ry
     estimated scf accuracy    <       0.00004062 Ry

     iteration #105     ecut=    52.00 Ry     beta= 0.30
     Davidson diagonalization with overlap
     ethr =  8.84E-08,  avg # of iterations =  1.1

     negative rho (up, down):  7.111E-05 0.000E+00
 
     Adding external electric field

     Computed dipole along edir(3) : 
        Dipole                0.0186 Ry au,          0.0473 Debye
        Dipole field          0.0002 Ry au, 
 
        Potential amp.       -0.0240 Ry
        Total length         56.7860 bohr
 

     total cpu time spent up to now is      424.5 secs

     total energy              =    -184.52405774 Ry
     estimated scf accuracy    <       0.00005174 Ry

     iteration #106     ecut=    52.00 Ry     beta= 0.30
     Davidson diagonalization with overlap
     ethr =  8.84E-08,  avg # of iterations =  1.0

     negative rho (up, down):  7.061E-05 0.000E+00
 
     Adding external electric field

     Computed dipole along edir(3) : 
        Dipole                0.0193 Ry au,          0.0491 Debye
        Dipole field          0.0002 Ry au, 
 
        Potential amp.       -0.0250 Ry
        Total length         56.7860 bohr
 

     total cpu time spent up to now is      428.0 secs

     total energy              =    -184.52405828 Ry
     estimated scf accuracy    <       0.00003772 Ry

     iteration #107     ecut=    52.00 Ry     beta= 0.30
     Davidson diagonalization with overlap
     ethr =  8.84E-08,  avg # of iterations =  1.0

     negative rho (up, down):  7.250E-05 0.000E+00
 
     Adding external electric field

     Computed dipole along edir(3) : 
        Dipole                0.0185 Ry au,          0.0470 Debye
        Dipole field          0.0002 Ry au, 
 
        Potential amp.       -0.0239 Ry
        Total length         56.7860 bohr
 

     total cpu time spent up to now is      431.6 secs

     total energy              =    -184.52405659 Ry
     estimated scf accuracy    <       0.00003626 Ry

     iteration #108     ecut=    52.00 Ry     beta= 0.30
     Davidson diagonalization with overlap
     ethr =  8.84E-08,  avg # of iterations =  1.0

     negative rho (up, down):  6.916E-05 0.000E+00
 
     Adding external electric field

     Computed dipole along edir(3) : 
        Dipole                0.0223 Ry au,          0.0566 Debye
        Dipole field          0.0003 Ry au, 
 
        Potential amp.       -0.0288 Ry
        Total length         56.7860 bohr
 

     total cpu time spent up to now is      435.1 secs

     total energy              =    -184.52406478 Ry
     estimated scf accuracy    <       0.00003815 Ry

     iteration #109     ecut=    52.00 Ry     beta= 0.30
     Davidson diagonalization with overlap
     ethr =  8.84E-08,  avg # of iterations =  1.3

     negative rho (up, down):  6.880E-05 0.000E+00
 
     Adding external electric field

     Computed dipole along edir(3) : 
        Dipole                0.0244 Ry au,          0.0620 Debye
        Dipole field          0.0003 Ry au, 
 
        Potential amp.       -0.0315 Ry
        Total length         56.7860 bohr
 

     total cpu time spent up to now is      438.7 secs

     total energy              =    -184.52406841 Ry
     estimated scf accuracy    <       0.00003625 Ry

     iteration #110     ecut=    52.00 Ry     beta= 0.30
     Davidson diagonalization with overlap
     ethr =  8.84E-08,  avg # of iterations =  1.0

     negative rho (up, down):  6.946E-05 0.000E+00
 
     Adding external electric field

     Computed dipole along edir(3) : 
        Dipole                0.0222 Ry au,          0.0565 Debye
        Dipole field          0.0003 Ry au, 
 
        Potential amp.       -0.0287 Ry
        Total length         56.7860 bohr
 

     total cpu time spent up to now is      442.3 secs

     total energy              =    -184.52406395 Ry
     estimated scf accuracy    <       0.00004091 Ry

     iteration #111     ecut=    52.00 Ry     beta= 0.30
     Davidson diagonalization with overlap
     ethr =  8.84E-08,  avg # of iterations =  1.0

     negative rho (up, down):  7.135E-05 0.000E+00
 
     Adding external electric field

     Computed dipole along edir(3) : 
        Dipole                0.0235 Ry au,          0.0598 Debye
        Dipole field          0.0003 Ry au, 
 
        Potential amp.       -0.0304 Ry
        Total length         56.7860 bohr
 

     total cpu time spent up to now is      445.7 secs

     total energy              =    -184.52406661 Ry
     estimated scf accuracy    <       0.00003625 Ry

     iteration #112     ecut=    52.00 Ry     beta= 0.30
     Davidson diagonalization with overlap
     ethr =  8.84E-08,  avg # of iterations =  1.0

     negative rho (up, down):  7.154E-05 0.000E+00
 
     Adding external electric field

     Computed dipole along edir(3) : 
        Dipole                0.0192 Ry au,          0.0489 Debye
        Dipole field          0.0002 Ry au, 
 
        Potential amp.       -0.0249 Ry
        Total length         56.7860 bohr
 

     total cpu time spent up to now is      449.2 secs

     total energy              =    -184.52405847 Ry
     estimated scf accuracy    <       0.00003858 Ry

     iteration #113     ecut=    52.00 Ry     beta= 0.30
     Davidson diagonalization with overlap
     ethr =  8.84E-08,  avg # of iterations =  1.0

     negative rho (up, down):  7.166E-05 0.000E+00
 
     Adding external electric field

     Computed dipole along edir(3) : 
        Dipole                0.0194 Ry au,          0.0493 Debye
        Dipole field          0.0002 Ry au, 
 
        Potential amp.       -0.0251 Ry
        Total length         56.7860 bohr
 

     total cpu time spent up to now is      452.7 secs

     total energy              =    -184.52405840 Ry
     estimated scf accuracy    <       0.00003638 Ry

     iteration #114     ecut=    52.00 Ry     beta= 0.30
     Davidson diagonalization with overlap
     ethr =  8.84E-08,  avg # of iterations =  1.0

     negative rho (up, down):  5.837E-05 0.000E+00
 
     Adding external electric field

     Computed dipole along edir(3) : 
        Dipole                0.0169 Ry au,          0.0428 Debye
        Dipole field          0.0002 Ry au, 
 
        Potential amp.       -0.0218 Ry
        Total length         56.7860 bohr
 

     total cpu time spent up to now is      456.3 secs

     total energy              =    -184.52405366 Ry
     estimated scf accuracy    <       0.00003597 Ry

     iteration #115     ecut=    52.00 Ry     beta= 0.30
     Davidson diagonalization with overlap
     ethr =  8.84E-08,  avg # of iterations =  1.3

     negative rho (up, down):  6.884E-05 0.000E+00
 
     Adding external electric field

     Computed dipole along edir(3) : 
        Dipole                0.0003 Ry au,          0.0008 Debye
        Dipole field          0.0000 Ry au, 
 
        Potential amp.       -0.0004 Ry
        Total length         56.7860 bohr
 

     total cpu time spent up to now is      459.8 secs

     total energy              =    -184.52402711 Ry
     estimated scf accuracy    <       0.00004484 Ry

     iteration #116     ecut=    52.00 Ry     beta= 0.30
     Davidson diagonalization with overlap
     ethr =  8.84E-08,  avg # of iterations =  2.9

     negative rho (up, down):  7.002E-05 0.000E+00
 
     Adding external electric field

     Computed dipole along edir(3) : 
        Dipole                0.0155 Ry au,          0.0393 Debye
        Dipole field          0.0002 Ry au, 
 
        Potential amp.       -0.0200 Ry
        Total length         56.7860 bohr
 

     total cpu time spent up to now is      464.1 secs

     total energy              =    -184.52393274 Ry
     estimated scf accuracy    <       0.00088106 Ry

     iteration #117     ecut=    52.00 Ry     beta= 0.30
     Davidson diagonalization with overlap
     c_bands:  1 eigenvalues not converged
     c_bands:  1 eigenvalues not converged
     c_bands:  1 eigenvalues not converged
     ethr =  8.84E-08,  avg # of iterations =  3.0

     negative rho (up, down):  6.831E-05 0.000E+00
 
     Adding external electric field

     Computed dipole along edir(3) : 
        Dipole                0.0184 Ry au,          0.0467 Debye
        Dipole field          0.0002 Ry au, 
 
        Potential amp.       -0.0238 Ry
        Total length         56.7860 bohr
 

     total cpu time spent up to now is      468.2 secs

     total energy              =    -184.52405711 Ry
     estimated scf accuracy    <       0.00005071 Ry

     iteration #118     ecut=    52.00 Ry     beta= 0.30
     Davidson diagonalization with overlap
     ethr =  8.84E-08,  avg # of iterations =  1.1

     negative rho (up, down):  6.816E-05 0.000E+00
 
     Adding external electric field

     Computed dipole along edir(3) : 
        Dipole                0.0217 Ry au,          0.0552 Debye
        Dipole field          0.0002 Ry au, 
 
        Potential amp.       -0.0281 Ry
        Total length         56.7860 bohr
 

     total cpu time spent up to now is      471.8 secs

     total energy              =    -184.52406358 Ry
     estimated scf accuracy    <       0.00003800 Ry

     iteration #119     ecut=    52.00 Ry     beta= 0.30
     Davidson diagonalization with overlap
     ethr =  8.84E-08,  avg # of iterations =  1.6

     negative rho (up, down):  6.743E-05 0.000E+00
 
     Adding external electric field

     Computed dipole along edir(3) : 
        Dipole                0.0234 Ry au,          0.0596 Debye
        Dipole field          0.0003 Ry au, 
 
        Potential amp.       -0.0303 Ry
        Total length         56.7860 bohr
 

     total cpu time spent up to now is      475.6 secs

     total energy              =    -184.52406643 Ry
     estimated scf accuracy    <       0.00003546 Ry

     iteration #120     ecut=    52.00 Ry     beta= 0.30
     Davidson diagonalization with overlap
     ethr =  8.84E-08,  avg # of iterations =  1.1

     negative rho (up, down):  6.795E-05 0.000E+00
 
     Adding external electric field

     Computed dipole along edir(3) : 
        Dipole                0.0233 Ry au,          0.0592 Debye
        Dipole field          0.0003 Ry au, 
 
        Potential amp.       -0.0301 Ry
        Total length         56.7860 bohr
 

     total cpu time spent up to now is      479.2 secs

     total energy              =    -184.52406610 Ry
     estimated scf accuracy    <       0.00003826 Ry

     iteration #121     ecut=    52.00 Ry     beta= 0.30
     Davidson diagonalization with overlap
     ethr =  8.84E-08,  avg # of iterations =  1.0

     negative rho (up, down):  6.761E-05 0.000E+00
 
     Adding external electric field

     Computed dipole along edir(3) : 
        Dipole                0.0235 Ry au,          0.0597 Debye
        Dipole field          0.0003 Ry au, 
 
        Potential amp.       -0.0304 Ry
        Total length         56.7860 bohr
 

     total cpu time spent up to now is      482.7 secs

     total energy              =    -184.52406653 Ry
     estimated scf accuracy    <       0.00003799 Ry

     iteration #122     ecut=    52.00 Ry     beta= 0.30
     Davidson diagonalization with overlap
     ethr =  8.84E-08,  avg # of iterations =  1.0

     negative rho (up, down):  6.807E-05 0.000E+00
 
     Adding external electric field

     Computed dipole along edir(3) : 
        Dipole                0.0231 Ry au,          0.0588 Debye
        Dipole field          0.0003 Ry au, 
 
        Potential amp.       -0.0299 Ry
        Total length         56.7860 bohr
 

     total cpu time spent up to now is      486.2 secs

     total energy              =    -184.52406578 Ry
     estimated scf accuracy    <       0.00003838 Ry

     iteration #123     ecut=    52.00 Ry     beta= 0.30
     Davidson diagonalization with overlap
     ethr =  8.84E-08,  avg # of iterations =  1.0

     negative rho (up, down):  6.862E-05 0.000E+00
 
     Adding external electric field

     Computed dipole along edir(3) : 
        Dipole                0.0220 Ry au,          0.0559 Debye
        Dipole field          0.0003 Ry au, 
 
        Potential amp.       -0.0284 Ry
        Total length         56.7860 bohr
 

     total cpu time spent up to now is      489.8 secs

     total energy              =    -184.52406350 Ry
     estimated scf accuracy    <       0.00003773 Ry

     iteration #124     ecut=    52.00 Ry     beta= 0.30
     Davidson diagonalization with overlap
     ethr =  8.84E-08,  avg # of iterations =  1.0

     negative rho (up, down):  6.826E-05 0.000E+00
 
     Adding external electric field

     Computed dipole along edir(3) : 
        Dipole                0.0216 Ry au,          0.0550 Debye
        Dipole field          0.0002 Ry au, 
 
        Potential amp.       -0.0280 Ry
        Total length         56.7860 bohr
 

     total cpu time spent up to now is      493.3 secs

     total energy              =    -184.52406279 Ry
     estimated scf accuracy    <       0.00003591 Ry

     iteration #125     ecut=    52.00 Ry     beta= 0.30
     Davidson diagonalization with overlap
     ethr =  8.84E-08,  avg # of iterations =  1.0

     negative rho (up, down):  6.913E-05 0.000E+00
 
     Adding external electric field

     Computed dipole along edir(3) : 
        Dipole                0.0251 Ry au,          0.0638 Debye
        Dipole field          0.0003 Ry au, 
 
        Potential amp.       -0.0325 Ry
        Total length         56.7860 bohr
 

     total cpu time spent up to now is      496.9 secs

     total energy              =    -184.52407012 Ry
     estimated scf accuracy    <       0.00003549 Ry

     iteration #126     ecut=    52.00 Ry     beta= 0.30
     Davidson diagonalization with overlap
     ethr =  8.84E-08,  avg # of iterations =  1.0

     negative rho (up, down):  7.814E-05 0.000E+00
 
     Adding external electric field

     Computed dipole along edir(3) : 
        Dipole               -0.0045 Ry au,         -0.0114 Debye
        Dipole field         -0.0001 Ry au, 
 
        Potential amp.        0.0058 Ry
        Total length         56.7860 bohr
 

     total cpu time spent up to now is      500.4 secs

     total energy              =    -184.52403923 Ry
     estimated scf accuracy    <       0.00004212 Ry

     iteration #127     ecut=    52.00 Ry     beta= 0.30
     Davidson diagonalization with overlap
     c_bands:  1 eigenvalues not converged
     c_bands:  1 eigenvalues not converged
     c_bands:  1 eigenvalues not converged
     ethr =  8.84E-08,  avg # of iterations =  3.6

     negative rho (up, down):  6.911E-05 0.000E+00
 
     Adding external electric field

     Computed dipole along edir(3) : 
        Dipole                0.0227 Ry au,          0.0576 Debye
        Dipole field          0.0003 Ry au, 
 
        Potential amp.       -0.0293 Ry
        Total length         56.7860 bohr
 

     total cpu time spent up to now is      504.8 secs

     total energy              =    -184.52376271 Ry
     estimated scf accuracy    <       0.00196320 Ry

     iteration #128     ecut=    52.00 Ry     beta= 0.30
     Davidson diagonalization with overlap
     c_bands:  1 eigenvalues not converged
     c_bands:  1 eigenvalues not converged
     c_bands:  1 eigenvalues not converged
     ethr =  8.84E-08,  avg # of iterations =  3.6

     negative rho (up, down):  6.954E-05 0.000E+00
 
     Adding external electric field

     Computed dipole along edir(3) : 
        Dipole                0.0211 Ry au,          0.0536 Debye
        Dipole field          0.0002 Ry au, 
 
        Potential amp.       -0.0273 Ry
        Total length         56.7860 bohr
 

     total cpu time spent up to now is      509.3 secs

     total energy              =    -184.52406174 Ry
     estimated scf accuracy    <       0.00003651 Ry

     iteration #129     ecut=    52.00 Ry     beta= 0.30
     Davidson diagonalization with overlap
     ethr =  8.84E-08,  avg # of iterations =  1.0

     negative rho (up, down):  6.998E-05 0.000E+00
 
     Adding external electric field

     Computed dipole along edir(3) : 
        Dipole                0.0203 Ry au,          0.0515 Debye
        Dipole field          0.0002 Ry au, 
 
        Potential amp.       -0.0262 Ry
        Total length         56.7860 bohr
 

     total cpu time spent up to now is      512.8 secs

     total energy              =    -184.52406010 Ry
     estimated scf accuracy    <       0.00003520 Ry

     iteration #130     ecut=    52.00 Ry     beta= 0.30
     Davidson diagonalization with overlap
     ethr =  8.80E-08,  avg # of iterations =  1.0

     negative rho (up, down):  7.085E-05 0.000E+00
 
     Adding external electric field

     Computed dipole along edir(3) : 
        Dipole                0.0188 Ry au,          0.0479 Debye
        Dipole field          0.0002 Ry au, 
 
        Potential amp.       -0.0244 Ry
        Total length         56.7860 bohr
 

     total cpu time spent up to now is      516.4 secs

     total energy              =    -184.52405734 Ry
     estimated scf accuracy    <       0.00003531 Ry

     iteration #131     ecut=    52.00 Ry     beta= 0.30
     Davidson diagonalization with overlap
     ethr =  8.80E-08,  avg # of iterations =  1.0

     negative rho (up, down):  7.059E-05 0.000E+00
 
     Adding external electric field

     Computed dipole along edir(3) : 
        Dipole                0.0197 Ry au,          0.0500 Debye
        Dipole field          0.0002 Ry au, 
 
        Potential amp.       -0.0254 Ry
        Total length         56.7860 bohr
 

     total cpu time spent up to now is      519.9 secs

     total energy              =    -184.52405894 Ry
     estimated scf accuracy    <       0.00003727 Ry

     iteration #132     ecut=    52.00 Ry     beta= 0.30
     Davidson diagonalization with overlap
     ethr =  8.80E-08,  avg # of iterations =  1.0

     negative rho (up, down):  7.098E-05 0.000E+00
 
     Adding external electric field

     Computed dipole along edir(3) : 
        Dipole                0.0178 Ry au,          0.0453 Debye
        Dipole field          0.0002 Ry au, 
 
        Potential amp.       -0.0230 Ry
        Total length         56.7860 bohr
 

     total cpu time spent up to now is      523.4 secs

     total energy              =    -184.52405537 Ry
     estimated scf accuracy    <       0.00003581 Ry

     iteration #133     ecut=    52.00 Ry     beta= 0.30
     Davidson diagonalization with overlap
     ethr =  8.80E-08,  avg # of iterations =  1.0

     negative rho (up, down):  7.108E-05 0.000E+00
 
     Adding external electric field

     Computed dipole along edir(3) : 
        Dipole                0.0195 Ry au,          0.0495 Debye
        Dipole field          0.0002 Ry au, 
 
        Potential amp.       -0.0252 Ry
        Total length         56.7860 bohr
 

     total cpu time spent up to now is      526.9 secs

     total energy              =    -184.52405870 Ry
     estimated scf accuracy    <       0.00004031 Ry

     iteration #134     ecut=    52.00 Ry     beta= 0.30
     Davidson diagonalization with overlap
     ethr =  8.80E-08,  avg # of iterations =  1.0

     negative rho (up, down):  6.916E-05 0.000E+00
 
     Adding external electric field

     Computed dipole along edir(3) : 
        Dipole                0.0206 Ry au,          0.0524 Debye
        Dipole field          0.0002 Ry au, 
 
        Potential amp.       -0.0267 Ry
        Total length         56.7860 bohr
 

     total cpu time spent up to now is      530.4 secs

     total energy              =    -184.52406085 Ry
     estimated scf accuracy    <       0.00003604 Ry

     iteration #135     ecut=    52.00 Ry     beta= 0.30
     Davidson diagonalization with overlap
     ethr =  8.80E-08,  avg # of iterations =  1.0

     negative rho (up, down):  6.955E-05 0.000E+00
 
     Adding external electric field

     Computed dipole along edir(3) : 
        Dipole                0.0211 Ry au,          0.0537 Debye
        Dipole field          0.0002 Ry au, 
 
        Potential amp.       -0.0273 Ry
        Total length         56.7860 bohr
 

     total cpu time spent up to now is      533.9 secs

     total energy              =    -184.52406175 Ry
     estimated scf accuracy    <       0.00003524 Ry

     iteration #136     ecut=    52.00 Ry     beta= 0.30
     Davidson diagonalization with overlap
     ethr =  8.80E-08,  avg # of iterations =  1.0

     negative rho (up, down):  6.540E-05 0.000E+00
 
     Adding external electric field

     Computed dipole along edir(3) : 
        Dipole                0.0399 Ry au,          0.1014 Debye
        Dipole field          0.0005 Ry au, 
 
        Potential amp.       -0.0516 Ry
        Total length         56.7860 bohr
 

     total cpu time spent up to now is      537.5 secs

     total energy              =    -184.52411196 Ry
     estimated scf accuracy    <       0.00003538 Ry

     iteration #137     ecut=    52.00 Ry     beta= 0.30
     Davidson diagonalization with overlap
     c_bands:  1 eigenvalues not converged
     c_bands:  1 eigenvalues not converged
     c_bands:  1 eigenvalues not converged
     c_bands:  1 eigenvalues not converged
     c_bands:  1 eigenvalues not converged
     c_bands:  1 eigenvalues not converged
     ethr =  8.80E-08,  avg # of iterations =  3.4

     negative rho (up, down):  6.886E-05 0.000E+00
 
     Adding external electric field

     Computed dipole along edir(3) : 
        Dipole                0.0198 Ry au,          0.0503 Debye
        Dipole field          0.0002 Ry au, 
 
        Potential amp.       -0.0256 Ry
        Total length         56.7860 bohr
 

     total cpu time spent up to now is      541.9 secs

     total energy              =    -184.52405791 Ry
     estimated scf accuracy    <       0.00010531 Ry

     iteration #138     ecut=    52.00 Ry     beta= 0.30
     Davidson diagonalization with overlap
     ethr =  8.80E-08,  avg # of iterations =  3.1

     negative rho (up, down):  6.914E-05 0.000E+00
 
     Adding external electric field

     Computed dipole along edir(3) : 
        Dipole                0.0198 Ry au,          0.0504 Debye
        Dipole field          0.0002 Ry au, 
 
        Potential amp.       -0.0256 Ry
        Total length         56.7860 bohr
 

     total cpu time spent up to now is      546.2 secs

     total energy              =    -184.52405917 Ry
     estimated scf accuracy    <       0.00003623 Ry

     iteration #139     ecut=    52.00 Ry     beta= 0.30
     Davidson diagonalization with overlap
     ethr =  8.80E-08,  avg # of iterations =  1.0

     negative rho (up, down):  6.946E-05 0.000E+00
 
     Adding external electric field

     Computed dipole along edir(3) : 
        Dipole                0.0190 Ry au,          0.0484 Debye
        Dipole field          0.0002 Ry au, 
 
        Potential amp.       -0.0246 Ry
        Total length         56.7860 bohr
 

     total cpu time spent up to now is      549.7 secs

     total energy              =    -184.52405766 Ry
     estimated scf accuracy    <       0.00003598 Ry

     iteration #140     ecut=    52.00 Ry     beta= 0.30
     Davidson diagonalization with overlap
     ethr =  8.80E-08,  avg # of iterations =  1.0

     negative rho (up, down):  6.946E-05 0.000E+00
 
     Adding external electric field

     Computed dipole along edir(3) : 
        Dipole                0.0169 Ry au,          0.0429 Debye
        Dipole field          0.0002 Ry au, 
 
        Potential amp.       -0.0218 Ry
        Total length         56.7860 bohr
 

     total cpu time spent up to now is      553.1 secs

     total energy              =    -184.52405350 Ry
     estimated scf accuracy    <       0.00003692 Ry

     iteration #141     ecut=    52.00 Ry     beta= 0.30
     Davidson diagonalization with overlap
     ethr =  8.80E-08,  avg # of iterations =  1.0

     negative rho (up, down):  6.896E-05 0.000E+00
 
     Adding external electric field

     Computed dipole along edir(3) : 
        Dipole                0.0157 Ry au,          0.0399 Debye
        Dipole field          0.0002 Ry au, 
 
        Potential amp.       -0.0203 Ry
        Total length         56.7860 bohr
 

     total cpu time spent up to now is      556.7 secs

     total energy              =    -184.52405059 Ry
     estimated scf accuracy    <       0.00004410 Ry

     iteration #142     ecut=    52.00 Ry     beta= 0.30
     Davidson diagonalization with overlap
     ethr =  8.80E-08,  avg # of iterations =  1.0

     negative rho (up, down):  7.299E-05 0.000E+00
 
     Adding external electric field

     Computed dipole along edir(3) : 
        Dipole                0.0108 Ry au,          0.0276 Debye
        Dipole field          0.0001 Ry au, 
 
        Potential amp.       -0.0140 Ry
        Total length         56.7860 bohr
 

     total cpu time spent up to now is      560.2 secs

     total energy              =    -184.52404001 Ry
     estimated scf accuracy    <       0.00004993 Ry

     iteration #143     ecut=    52.00 Ry     beta= 0.30
     Davidson diagonalization with overlap
     ethr =  8.80E-08,  avg # of iterations =  1.7

     negative rho (up, down):  7.015E-05 0.000E+00
 
     Adding external electric field

     Computed dipole along edir(3) : 
        Dipole                0.0095 Ry au,          0.0242 Debye
        Dipole field          0.0001 Ry au, 
 
        Potential amp.       -0.0123 Ry
        Total length         56.7860 bohr
 

     total cpu time spent up to now is      563.9 secs

     total energy              =    -184.52403653 Ry
     estimated scf accuracy    <       0.00003389 Ry

     iteration #144     ecut=    52.00 Ry     beta= 0.30
     Davidson diagonalization with overlap
     ethr =  8.47E-08,  avg # of iterations =  1.0

     negative rho (up, down):  6.912E-05 0.000E+00
 
     Adding external electric field

     Computed dipole along edir(3) : 
        Dipole                0.0145 Ry au,          0.0368 Debye
        Dipole field          0.0002 Ry au, 
 
        Potential amp.       -0.0187 Ry
        Total length         56.7860 bohr
 

     total cpu time spent up to now is      567.5 secs

     total energy              =    -184.52404356 Ry
     estimated scf accuracy    <       0.00001223 Ry

     iteration #145     ecut=    52.00 Ry     beta= 0.30
     Davidson diagonalization with overlap
     ethr =  3.06E-08,  avg # of iterations =  1.0

     negative rho (up, down):  6.949E-05 0.000E+00
 
     Adding external electric field

     Computed dipole along edir(3) : 
        Dipole                0.0087 Ry au,          0.0222 Debye
        Dipole field          0.0001 Ry au, 
 
        Potential amp.       -0.0113 Ry
        Total length         56.7860 bohr
 

     total cpu time spent up to now is      571.0 secs

     total energy              =    -184.52403459 Ry
     estimated scf accuracy    <       0.00005505 Ry

     iteration #146     ecut=    52.00 Ry     beta= 0.30
     Davidson diagonalization with overlap
     ethr =  3.06E-08,  avg # of iterations =  1.0

     negative rho (up, down):  6.975E-05 0.000E+00
 
     Adding external electric field

     Computed dipole along edir(3) : 
        Dipole                0.0127 Ry au,          0.0324 Debye
        Dipole field          0.0001 Ry au, 
 
        Potential amp.       -0.0165 Ry
        Total length         56.7860 bohr
 

     total cpu time spent up to now is      574.4 secs

     total energy              =    -184.52403897 Ry
     estimated scf accuracy    <       0.00000255 Ry

     iteration #147     ecut=    52.00 Ry     beta= 0.30
     Davidson diagonalization with overlap
     ethr =  6.37E-09,  avg # of iterations =  1.7

     negative rho (up, down):  6.959E-05 0.000E+00
 
     Adding external electric field

     Computed dipole along edir(3) : 
        Dipole                0.0124 Ry au,          0.0314 Debye
        Dipole field          0.0001 Ry au, 
 
        Potential amp.       -0.0160 Ry
        Total length         56.7860 bohr
 

     total cpu time spent up to now is      578.2 secs

     total energy              =    -184.52404231 Ry
     estimated scf accuracy    <       0.00005380 Ry

     iteration #148     ecut=    52.00 Ry     beta= 0.30
     Davidson diagonalization with overlap
     ethr =  6.37E-09,  avg # of iterations =  1.0

     negative rho (up, down):  6.845E-05 0.000E+00
 
     Adding external electric field

     Computed dipole along edir(3) : 
        Dipole                0.0126 Ry au,          0.0320 Debye
        Dipole field          0.0001 Ry au, 
 
        Potential amp.       -0.0163 Ry
        Total length         56.7860 bohr
 

     total cpu time spent up to now is      581.7 secs

     total energy              =    -184.52404283 Ry
     estimated scf accuracy    <       0.00005146 Ry

     iteration #149     ecut=    52.00 Ry     beta= 0.30
     Davidson diagonalization with overlap
     ethr =  6.37E-09,  avg # of iterations =  1.0

     negative rho (up, down):  6.901E-05 0.000E+00
 
     Adding external electric field

     Computed dipole along edir(3) : 
        Dipole                0.0126 Ry au,          0.0321 Debye
        Dipole field          0.0001 Ry au, 
 
        Potential amp.       -0.0163 Ry
        Total length         56.7860 bohr
 

     total cpu time spent up to now is      585.2 secs

     total energy              =    -184.52404290 Ry
     estimated scf accuracy    <       0.00005303 Ry

     iteration #150     ecut=    52.00 Ry     beta= 0.30
     Davidson diagonalization with overlap
     ethr =  6.37E-09,  avg # of iterations =  1.0

     negative rho (up, down):  6.987E-05 0.000E+00
 
     Adding external electric field

     Computed dipole along edir(3) : 
        Dipole                0.0105 Ry au,          0.0266 Debye
        Dipole field          0.0001 Ry au, 
 
        Potential amp.       -0.0135 Ry
        Total length         56.7860 bohr
 

     total cpu time spent up to now is      588.7 secs

     total energy              =    -184.52403787 Ry
     estimated scf accuracy    <       0.00005312 Ry

     iteration #151     ecut=    52.00 Ry     beta= 0.30
     Davidson diagonalization with overlap
     ethr =  6.37E-09,  avg # of iterations =  1.0

     negative rho (up, down):  6.990E-05 0.000E+00
 
     Adding external electric field

     Computed dipole along edir(3) : 
        Dipole                0.0125 Ry au,          0.0318 Debye
        Dipole field          0.0001 Ry au, 
 
        Potential amp.       -0.0162 Ry
        Total length         56.7860 bohr
 

     total cpu time spent up to now is      592.3 secs

     total energy              =    -184.52404199 Ry
     estimated scf accuracy    <       0.00002704 Ry

     iteration #152     ecut=    52.00 Ry     beta= 0.30
     Davidson diagonalization with overlap
     ethr =  6.37E-09,  avg # of iterations =  1.0

     negative rho (up, down):  7.012E-05 0.000E+00
 
     Adding external electric field

     Computed dipole along edir(3) : 
        Dipole                0.0114 Ry au,          0.0290 Debye
        Dipole field          0.0001 Ry au, 
 
        Potential amp.       -0.0147 Ry
        Total length         56.7860 bohr
 

     total cpu time spent up to now is      595.8 secs

     total energy              =    -184.52404004 Ry
     estimated scf accuracy    <       0.00005278 Ry

     iteration #153     ecut=    52.00 Ry     beta= 0.30
     Davidson diagonalization with overlap
     ethr =  6.37E-09,  avg # of iterations =  1.0

     negative rho (up, down):  7.198E-05 0.000E+00
 
     Adding external electric field

     Computed dipole along edir(3) : 
        Dipole                0.0076 Ry au,          0.0193 Debye
        Dipole field          0.0001 Ry au, 
 
        Potential amp.       -0.0098 Ry
        Total length         56.7860 bohr
 

     total cpu time spent up to now is      599.4 secs

     total energy              =    -184.52403256 Ry
     estimated scf accuracy    <       0.00004160 Ry

     iteration #154     ecut=    52.00 Ry     beta= 0.30
     Davidson diagonalization with overlap
     ethr =  6.37E-09,  avg # of iterations =  1.9

     negative rho (up, down):  7.069E-05 0.000E+00
 
     Adding external electric field

     Computed dipole along edir(3) : 
        Dipole                0.0114 Ry au,          0.0289 Debye
        Dipole field          0.0001 Ry au, 
 
        Potential amp.       -0.0147 Ry
        Total length         56.7860 bohr
 

     total cpu time spent up to now is      603.2 secs

     total energy              =    -184.52403478 Ry
     estimated scf accuracy    <       0.00000250 Ry

     iteration #155     ecut=    52.00 Ry     beta= 0.30
     Davidson diagonalization with overlap
     ethr =  6.25E-09,  avg # of iterations =  2.0

     negative rho (up, down):  7.071E-05 0.000E+00
 
     Adding external electric field

     Computed dipole along edir(3) : 
        Dipole                0.0114 Ry au,          0.0289 Debye
        Dipole field          0.0001 Ry au, 
 
        Potential amp.       -0.0147 Ry
        Total length         56.7860 bohr
 

     total cpu time spent up to now is      607.0 secs

     total energy              =    -184.52404005 Ry
     estimated scf accuracy    <       0.00004126 Ry

     iteration #156     ecut=    52.00 Ry     beta= 0.30
     Davidson diagonalization with overlap
     ethr =  6.25E-09,  avg # of iterations =  1.0

     negative rho (up, down):  7.082E-05 0.000E+00
 
     Adding external electric field

     Computed dipole along edir(3) : 
        Dipole                0.0115 Ry au,          0.0292 Debye
        Dipole field          0.0001 Ry au, 
 
        Potential amp.       -0.0149 Ry
        Total length         56.7860 bohr
 

     total cpu time spent up to now is      610.5 secs

     total energy              =    -184.52404032 Ry
     estimated scf accuracy    <       0.00004110 Ry

     iteration #157     ecut=    52.00 Ry     beta= 0.30
     Davidson diagonalization with overlap
     ethr =  6.25E-09,  avg # of iterations =  1.0

     negative rho (up, down):  7.089E-05 0.000E+00
 
     Adding external electric field

     Computed dipole along edir(3) : 
        Dipole                0.0101 Ry au,          0.0257 Debye
        Dipole field          0.0001 Ry au, 
 
        Potential amp.       -0.0131 Ry
        Total length         56.7860 bohr
 

     total cpu time spent up to now is      614.0 secs

     total energy              =    -184.52403744 Ry
     estimated scf accuracy    <       0.00004282 Ry

     iteration #158     ecut=    52.00 Ry     beta= 0.30
     Davidson diagonalization with overlap
     ethr =  6.25E-09,  avg # of iterations =  1.0

     negative rho (up, down):  7.093E-05 0.000E+00
 
     Adding external electric field

     Computed dipole along edir(3) : 
        Dipole                0.0096 Ry au,          0.0243 Debye
        Dipole field          0.0001 Ry au, 
 
        Potential amp.       -0.0124 Ry
        Total length         56.7860 bohr
 

     total cpu time spent up to now is      617.5 secs

     total energy              =    -184.52403690 Ry
     estimated scf accuracy    <       0.00002178 Ry

     iteration #159     ecut=    52.00 Ry     beta= 0.30
     Davidson diagonalization with overlap
     ethr =  6.25E-09,  avg # of iterations =  1.0

     negative rho (up, down):  7.085E-05 0.000E+00
 
     Adding external electric field

     Computed dipole along edir(3) : 
        Dipole                0.0091 Ry au,          0.0232 Debye
        Dipole field          0.0001 Ry au, 
 
        Potential amp.       -0.0118 Ry
        Total length         56.7860 bohr
 

     total cpu time spent up to now is      620.9 secs

     total energy              =    -184.52403647 Ry
     estimated scf accuracy    <       0.00001279 Ry

     iteration #160     ecut=    52.00 Ry     beta= 0.30
     Davidson diagonalization with overlap
     ethr =  6.25E-09,  avg # of iterations =  1.0

     negative rho (up, down):  7.043E-05 0.000E+00
 
     Adding external electric field

     Computed dipole along edir(3) : 
        Dipole                0.0080 Ry au,          0.0203 Debye
        Dipole field          0.0001 Ry au, 
 
        Potential amp.       -0.0103 Ry
        Total length         56.7860 bohr
 

     total cpu time spent up to now is      624.5 secs

     total energy              =    -184.52403561 Ry
     estimated scf accuracy    <       0.00000670 Ry

     iteration #161     ecut=    52.00 Ry     beta= 0.30
     Davidson diagonalization with overlap
     ethr =  6.25E-09,  avg # of iterations =  1.0

     negative rho (up, down):  6.905E-05 0.000E+00
 
     Adding external electric field

     Computed dipole along edir(3) : 
        Dipole                0.0103 Ry au,          0.0261 Debye
        Dipole field          0.0001 Ry au, 
 
        Potential amp.       -0.0133 Ry
        Total length         56.7860 bohr
 

     total cpu time spent up to now is      628.0 secs

     total energy              =    -184.52403600 Ry
     estimated scf accuracy    <       0.00000017 Ry

     iteration #162     ecut=    52.00 Ry     beta= 0.30
     Davidson diagonalization with overlap
     ethr =  4.22E-10,  avg # of iterations =  2.0

     negative rho (up, down):  6.876E-05 0.000E+00
 
     Adding external electric field

     Computed dipole along edir(3) : 
        Dipole                0.0093 Ry au,          0.0237 Debye
        Dipole field          0.0001 Ry au, 
 
        Potential amp.       -0.0120 Ry
        Total length         56.7860 bohr
 

     total cpu time spent up to now is      631.9 secs

     total energy              =    -184.52403648 Ry
     estimated scf accuracy    <       0.00002371 Ry

     iteration #163     ecut=    52.00 Ry     beta= 0.30
     Davidson diagonalization with overlap
     ethr =  4.22E-10,  avg # of iterations =  1.7

     negative rho (up, down):  6.873E-05 0.000E+00
 
     Adding external electric field

     Computed dipole along edir(3) : 
        Dipole                0.0089 Ry au,          0.0226 Debye
        Dipole field          0.0001 Ry au, 
 
        Potential amp.       -0.0115 Ry
        Total length         56.7860 bohr
 

     total cpu time spent up to now is      635.7 secs

     total energy              =    -184.52403630 Ry
     estimated scf accuracy    <       0.00000918 Ry

     iteration #164     ecut=    52.00 Ry     beta= 0.30
     Davidson diagonalization with overlap
     ethr =  4.22E-10,  avg # of iterations =  1.0

     negative rho (up, down):  6.916E-05 0.000E+00
 
     Adding external electric field

     Computed dipole along edir(3) : 
        Dipole                0.0090 Ry au,          0.0228 Debye
        Dipole field          0.0001 Ry au, 
 
        Potential amp.       -0.0116 Ry
        Total length         56.7860 bohr
 

     total cpu time spent up to now is      639.2 secs

     total energy              =    -184.52403640 Ry
     estimated scf accuracy    <       0.00000413 Ry

     iteration #165     ecut=    52.00 Ry     beta= 0.30
     Davidson diagonalization with overlap
     ethr =  4.22E-10,  avg # of iterations =  1.1

     negative rho (up, down):  6.924E-05 0.000E+00
 
     Adding external electric field

     Computed dipole along edir(3) : 
        Dipole                0.0080 Ry au,          0.0203 Debye
        Dipole field          0.0001 Ry au, 
 
        Potential amp.       -0.0103 Ry
        Total length         56.7860 bohr
 

     total cpu time spent up to now is      642.8 secs

     total energy              =    -184.52403574 Ry
     estimated scf accuracy    <       0.00000477 Ry

     iteration #166     ecut=    52.00 Ry     beta= 0.30
     Davidson diagonalization with overlap
     ethr =  4.22E-10,  avg # of iterations =  1.7

     negative rho (up, down):  6.880E-05 0.000E+00
 
     Adding external electric field

     Computed dipole along edir(3) : 
        Dipole                0.0085 Ry au,          0.0217 Debye
        Dipole field          0.0001 Ry au, 
 
        Potential amp.       -0.0111 Ry
        Total length         56.7860 bohr
 

     total cpu time spent up to now is      646.5 secs

     total energy              =    -184.52403604 Ry
     estimated scf accuracy    <       0.00000019 Ry

     iteration #167     ecut=    52.00 Ry     beta= 0.30
     Davidson diagonalization with overlap
     ethr =  4.22E-10,  avg # of iterations =  1.0

     negative rho (up, down):  6.860E-05 0.000E+00
 
     Adding external electric field

     Computed dipole along edir(3) : 
        Dipole                0.0093 Ry au,          0.0235 Debye
        Dipole field          0.0001 Ry au, 
 
        Potential amp.       -0.0120 Ry
        Total length         56.7860 bohr
 

     total cpu time spent up to now is      650.0 secs

     total energy              =    -184.52403648 Ry
     estimated scf accuracy    <       0.00000137 Ry

     iteration #168     ecut=    52.00 Ry     beta= 0.30
     Davidson diagonalization with overlap
     ethr =  4.22E-10,  avg # of iterations =  1.0

     negative rho (up, down):  6.899E-05 0.000E+00
 
     Adding external electric field

     Computed dipole along edir(3) : 
        Dipole                0.0084 Ry au,          0.0213 Debye
        Dipole field          0.0001 Ry au, 
 
        Potential amp.       -0.0108 Ry
        Total length         56.7860 bohr
 

     total cpu time spent up to now is      653.6 secs

     total energy              =    -184.52403584 Ry
     estimated scf accuracy    <       0.00000844 Ry

     iteration #169     ecut=    52.00 Ry     beta= 0.30
     Davidson diagonalization with overlap
     ethr =  4.22E-10,  avg # of iterations =  1.4

     negative rho (up, down):  6.908E-05 0.000E+00
 
     Adding external electric field

     Computed dipole along edir(3) : 
        Dipole                0.0081 Ry au,          0.0205 Debye
        Dipole field          0.0001 Ry au, 
 
        Potential amp.       -0.0104 Ry
        Total length         56.7860 bohr
 

     total cpu time spent up to now is      657.3 secs

     total energy              =    -184.52403606 Ry
     estimated scf accuracy    <       0.00000047 Ry

     iteration #170     ecut=    52.00 Ry     beta= 0.30
     Davidson diagonalization with overlap
     ethr =  4.22E-10,  avg # of iterations =  1.0

     negative rho (up, down):  6.910E-05 0.000E+00
 
     Adding external electric field

     Computed dipole along edir(3) : 
        Dipole                0.0082 Ry au,          0.0208 Debye
        Dipole field          0.0001 Ry au, 
 
        Potential amp.       -0.0106 Ry
        Total length         56.7860 bohr
 

     total cpu time spent up to now is      660.7 secs

     total energy              =    -184.52403610 Ry
     estimated scf accuracy    <       0.00000002 Ry

     iteration #171     ecut=    52.00 Ry     beta= 0.30
     Davidson diagonalization with overlap
     ethr =  4.06E-11,  avg # of iterations =  1.0

     negative rho (up, down):  6.901E-05 0.000E+00
 
     Adding external electric field

     Computed dipole along edir(3) : 
        Dipole                0.0080 Ry au,          0.0203 Debye
        Dipole field          0.0001 Ry au, 
 
        Potential amp.       -0.0103 Ry
        Total length         56.7860 bohr
 

     total cpu time spent up to now is      664.3 secs

     total energy              =    -184.52403609 Ry
     estimated scf accuracy    <       0.00000005 Ry

     iteration #172     ecut=    52.00 Ry     beta= 0.30
     Davidson diagonalization with overlap
     ethr =  4.06E-11,  avg # of iterations =  1.0

     negative rho (up, down):  6.894E-05 0.000E+00
 
     Adding external electric field

     Computed dipole along edir(3) : 
        Dipole                0.0081 Ry au,          0.0206 Debye
        Dipole field          0.0001 Ry au, 
 
        Potential amp.       -0.0105 Ry
        Total length         56.7860 bohr
 

     total cpu time spent up to now is      667.8 secs

     total energy              =    -184.52403609 Ry
     estimated scf accuracy    <       0.00000014 Ry

     iteration #173     ecut=    52.00 Ry     beta= 0.30
     Davidson diagonalization with overlap
     ethr =  4.06E-11,  avg # of iterations =  1.0

     negative rho (up, down):  6.886E-05 0.000E+00
 
     Adding external electric field

     Computed dipole along edir(3) : 
        Dipole                0.0082 Ry au,          0.0208 Debye
        Dipole field          0.0001 Ry au, 
 
        Potential amp.       -0.0106 Ry
        Total length         56.7860 bohr
 

     total cpu time spent up to now is      671.3 secs

     End of self-consistent calculation

     Number of k-points >= 100: set verbosity='high' to print the bands.

     the Fermi energy is     1.8800 ev

!    total energy              =    -184.52403610 Ry
     total all-electron energy =      -762.165014 Ry
     estimated scf accuracy    <          6.2E-11 Ry
     smearing contrib. (-TS)   =      -0.00005656 Ry
     internal energy E=F+TS    =    -184.52397954 Ry

     The total energy is F=E-TS. E is the sum of the following terms:
     one-electron contribution =   -1272.02052231 Ry
     hartree contribution      =     649.37554159 Ry
     xc contribution           =     -46.39038926 Ry
     ewald contribution        =     546.27484628 Ry
     DFT-D3 Dispersion         =      -0.09437653 Ry
     electric field correction =       0.00000076 Ry
     one-center paw contrib.   =     -61.66908008 Ry

     convergence has been achieved in 173 iterations

     negative rho (up, down):  6.886E-05 0.000E+00

     Forces acting on atoms (cartesian axes, Ry/au):

     atom    1 type  1   force =     0.00000000    0.00000000   -0.00058526
     atom    2 type  1   force =     0.00000000    0.00000000    0.00010560
     atom    3 type  1   force =     0.00000000    0.00000000   -0.00005971
     atom    4 type  1   force =     0.00000000    0.00000000    0.00012401
     atom    5 type  1   force =    -0.00000000    0.00000000   -0.00013591
     atom    6 type  1   force =    -0.00000000    0.00000000    0.00004241
     atom    7 type  1   force =     0.00000000    0.00000000   -0.00009011
     atom    8 type  1   force =    -0.00000000    0.00000000    0.00060411
     atom    9 type  1   force =    -0.00000230   -0.00001442   -0.00000402
     atom   10 type  1   force =     0.00000230    0.00001441   -0.00000113

     Total force =     0.000875     Total SCF correction =     0.000017

     Writing all to output data dir ./tmp/CC_M41_AB_dft_far.save/ :
     XML data file, charge density, pseudopotentials, collected wavefunctions
 
     init_run     :      3.28s CPU      3.09s WALL (       1 calls)
     electrons    :    720.29s CPU    668.05s WALL (       1 calls)
     forces       :      0.67s CPU      0.63s WALL (       1 calls)
     force_dftd3  :      0.04s CPU      0.03s WALL (       1 calls)

     Called by init_run:
     wfcinit      :      1.17s CPU      1.41s WALL (       1 calls)
     potinit      :      1.62s CPU      1.19s WALL (       1 calls)
     hinit0       :      0.28s CPU      0.27s WALL (       1 calls)

     Called by electrons:
     c_bands      :    333.60s CPU    374.85s WALL (     173 calls)
     sum_band     :     68.82s CPU     82.52s WALL (     173 calls)
     v_of_rho     :     29.85s CPU     21.05s WALL (     174 calls)
     newd         :      0.92s CPU      0.94s WALL (     174 calls)
                                        0.94s GPU  (     174 calls)
     PAW_pot      :    267.10s CPU    168.30s WALL (     174 calls)
     mix_rho      :     15.21s CPU     15.63s WALL (     173 calls)
     energy_dftd3 :      0.00s CPU      0.00s WALL (       1 calls)

     Called by c_bands:
     init_us_2    :     16.80s CPU     21.01s WALL (   57072 calls)
     cegterg      :    261.96s CPU    278.61s WALL (   28372 calls)

     Called by *egterg:
     cdiaghg      :     64.49s CPU     66.72s WALL (   83163 calls)
                                       66.17s GPU  (   83163 calls)
     h_psi        :    140.57s CPU    155.26s WALL (   83327 calls)
                                      154.74s GPU  (   83327 calls)
     s_psi        :     21.40s CPU     22.04s WALL (   83327 calls)
     g_psi        :      0.26s CPU      1.52s WALL (   54791 calls)
                                        1.21s GPU  (   54791 calls)

     Called by h_psi:
     h_psi:calbec :      2.48s CPU      6.18s WALL (   83327 calls)
                                        5.70s GPU  (   83327 calls)
     vloc_psi     :    110.00s CPU    123.44s WALL (   83327 calls)
                                      122.98s GPU  (   83327 calls)
     add_vuspsi   :     17.49s CPU     21.23s WALL (   83327 calls)
                                       20.73s GPU  (   83327 calls)

     General routines
     calbec       :      2.99s CPU      3.21s WALL (  112355 calls)
     fft          :      2.11s CPU      2.32s WALL (    2271 calls)
                                        0.23s GPU  (    2097 calls)
     ffts         :      0.83s CPU      1.33s WALL (   21121 calls)
                                        0.71s GPU  (   20947 calls)
     fftw         :      4.03s CPU     89.24s WALL (  338378 calls)
                                       87.42s GPU  (  338378 calls)
     interpolate  :      2.98s CPU      3.01s WALL (     174 calls)
     davcio       :     39.68s CPU     54.78s WALL (   88974 calls)
 
     Parallel routines
 
     PWSCF        :  12m11.22s CPU  11m16.48s WALL

 
   This run was terminated on:  20: 2:25  30Sep2026            

=------------------------------------------------------------------------------=
   JOB DONE.
=------------------------------------------------------------------------------=
