36
Lattice="4.985262761755894 -2.6594745695436836e-17 0.0 2.492631380877947 4.317364196221174 0.0 0.0 0.0 34.8484152751" Properties=species:S:1:pos:R:3 pbc="T T F"
Ag       1.66392878       2.87447640       2.85007540
Ag       4.15656016       4.31359780       2.85007540
Ag       0.82914125       1.43699101       5.18737356
Ag       2.49487530       1.45054077       0.50000000
Ag       4.15656016       1.43535500       2.85007540
Ag       3.32248498       2.87544017       5.18710946
Ag       2.49741043       1.43610067       7.53524969
Ag       4.98750668       2.88966217       0.50000000
Ag       4.99044599       2.87514910       7.53772962
Ag       3.32173529      -0.00330390       5.18680529
Ag       4.98750668       0.01141937       0.50000000
Ag       4.99009971      -0.00295410       7.53527854
C        3.32575243       3.84907643      10.76317715
C        4.57206812       4.56863713      10.76451072
C        4.57206812       6.00775853      10.76146082
C        5.81838381       6.72731923      10.76456780
C        5.81838381       3.84907643      10.76405964
C        7.06469950       4.56863713      10.76216091
C        7.06469950       6.00775853      10.76396795
C        8.31101519       6.72731923      10.76359606
C        4.57206812       4.56863713      14.17563833
C        5.81838381       5.28819783      14.17530936
C        5.81838381       6.72731923      14.17563309
C        7.06469950       7.44687993      14.17534329
C        7.06469950       4.56863713      14.17561668
C        8.31101519       5.28819783      14.17528899
C        8.31101519       6.72731923      14.17562645
C        9.55733088       7.44687993      14.17528680
C        3.32575243       3.84907643      17.57214410
C        4.57206812       4.56863713      17.57153586
C        4.57206812       6.00775853      17.57213967
C        5.81838381       6.72731923      17.57153521
C        5.81838381       3.84907643      17.57214648
C        7.06469950       4.56863713      17.57154441
C        7.06469950       6.00775853      17.57214614
C        8.31101519       6.72731923      17.57153868
