44
Lattice="4.985262761755894 -2.6594745695436836e-17 0.0 2.492631380877947 4.317364196221174 0.0 0.0 0.0 38.2109403897" Properties=species:S:1:pos:R:3 pbc="T T F"
Ag       1.66392878       2.87447640       2.85007540
Ag       4.15656016       4.31359780       2.85007540
Ag       0.83592445       1.43332185       5.18659463
Ag       2.49487530       1.45054077       0.50000000
Ag       4.15656016       1.43535500       2.85007540
Ag       3.32673566       2.87303437       5.18484974
Ag       2.49259893       1.43382447       7.53823901
Ag       4.98750668       2.88966217       0.50000000
Ag       4.98545755       2.87265748       7.52187206
Ag       3.32857525      -0.00439041       5.18628785
Ag       4.98750668       0.01141937       0.50000000
Ag       4.98526242      -0.00554762       7.53783184
C        2.49487530       1.45054077      17.53823901
C        3.74119099       2.17010147      17.54334993
C        3.74119099       3.60922287      17.54232507
C        4.98750668       4.32878357      17.54335456
C        4.98750668       1.45054077      17.54233459
C        6.23382237       2.17010147      17.54335993
C        6.23382237       3.60922287      17.54234007
C        7.48013806       4.32878357      17.53912289
C        3.74119099       2.17010147      20.93707667
C        4.98750668       2.88966217      20.93705048
C        4.98750668       4.32878357      20.93707694
C        6.23382237       5.04834427      20.93709733
C        6.23382237       2.17010147      20.93707690
C        7.48013806       2.88966217      20.93709728
C        7.48013806       4.32878357      20.93710524
C        8.72645375       5.04834427      20.93709744
C        2.49487530       1.45054077      24.32556384
C        3.74119099       2.17010147      24.32580698
C        3.74119099       3.60922287      24.32555586
C        4.98750668       4.32878357      24.32580683
C        4.98750668       1.45054077      24.32555584
C        6.23382237       2.17010147      24.32580707
C        6.23382237       3.60922287      24.32555584
C        7.48013806       4.32878357      24.32580209
C        3.74119099       2.17010147      27.71015231
C        4.98750668       2.88966217      27.71094039
C        4.98750668       4.32878357      27.71015237
C        6.23382237       5.04834427      27.71093951
C        6.23382237       2.17010147      27.71015218
C        7.48013806       2.88966217      27.71093932
C        7.48013806       4.32878357      27.71015130
C        8.72645375       5.04834427      27.71093933
