36
Lattice="4.985262761755894 -2.6594745695436836e-17 0.0 2.492631380877947 4.317364196221174 0.0 0.0 0.0 34.848510720099995" Properties=species:S:1:pos:R:3 pbc="T T F"
Ag       1.66392878       2.87447640       2.85007540
Ag       4.15656016       4.31359780       2.85007540
Ag       0.82910694       1.43689630       5.18726917
Ag       2.49487530       1.45054077       0.50000000
Ag       4.15656016       1.43535500       2.85007540
Ag       3.32283449       2.87550505       5.18723513
Ag       2.49781047       1.43621301       7.53507777
Ag       4.98750668       2.88966217       0.50000000
Ag       4.99052907       2.87521361       7.53777029
Ag       3.32201342      -0.00316598       5.18673363
Ag       4.98750668       0.01141937       0.50000000
Ag       4.99039699      -0.00257245       7.53533672
C        2.49487530       1.93024790      10.76139621
C        3.74119099       2.64980860      10.76441670
C        3.74119099       4.08893000      10.76394911
C        4.98750668       4.80849070      10.76360799
C        4.98750668       1.93024790      10.76292656
C        6.23382237       2.64980860      10.76439900
C        6.23382237       4.08893000      10.76399703
C        7.48013806       4.80849070      10.76201993
C        3.74119099       2.64980860      14.17554832
C        4.98750668       3.36936930      14.17526041
C        4.98750668       4.80849070      14.17554668
C        6.23382237       5.52805140      14.17520330
C        6.23382237       2.64980860      14.17555353
C        7.48013806       3.36936930      14.17522390
C        7.48013806       4.80849070      14.17553259
C        8.72645375       5.52805140      14.17520604
C        2.49487530       1.93024790      17.57212977
C        3.74119099       2.64980860      17.57152453
C        3.74119099       4.08893000      17.57213641
C        4.98750668       4.80849070      17.57152800
C        4.98750668       1.93024790      17.57213403
C        6.23382237       2.64980860      17.57152511
C        6.23382237       4.08893000      17.57213663
C        7.48013806       4.80849070      17.57153376
