36
Lattice="4.985262761755894 -2.6594745695436836e-17 0.0 2.492631380877947 4.317364196221174 0.0 0.0 0.0 34.848510720099995" Properties=species:S:1:pos:R:3 pbc="T T F"
Ag       1.66392878       2.87447640       2.85007540
Ag       4.15656016       4.31359780       2.85007540
Ag       0.82910694       1.43689630       5.18726917
Ag       2.49487530       1.45054077       0.50000000
Ag       4.15656016       1.43535500       2.85007540
Ag       3.32283449       2.87550505       5.18723513
Ag       2.49781047       1.43621301       7.53507777
Ag       4.98750668       2.88966217       0.50000000
Ag       4.99052907       2.87521361       7.53777029
Ag       3.32201342      -0.00316598       5.18673363
Ag       4.98750668       0.01141937       0.50000000
Ag       4.99039699      -0.00257245       7.53533672
C        2.49487530       1.93024790      15.53779621
C        3.74119099       2.64980860      15.54081670
C        3.74119099       4.08893000      15.54034911
C        4.98750668       4.80849070      15.54000799
C        4.98750668       1.93024790      15.53932656
C        6.23382237       2.64980860      15.54079900
C        6.23382237       4.08893000      15.54039703
C        7.48013806       4.80849070      15.53841993
C        3.74119099       2.64980860      18.95194832
C        4.98750668       3.36936930      18.95166041
C        4.98750668       4.80849070      18.95194668
C        6.23382237       5.52805140      18.95160330
C        6.23382237       2.64980860      18.95195353
C        7.48013806       3.36936930      18.95162390
C        7.48013806       4.80849070      18.95193259
C        8.72645375       5.52805140      18.95160604
C        2.49487530       1.93024790      22.34852977
C        3.74119099       2.64980860      22.34792453
C        3.74119099       4.08893000      22.34853641
C        4.98750668       4.80849070      22.34792800
C        4.98750668       1.93024790      22.34853403
C        6.23382237       2.64980860      22.34792511
C        6.23382237       4.08893000      22.34853663
C        7.48013806       4.80849070      22.34793376
