
     Program PWSCF v.7.4.1 starts on 30Sep2026 at 20: 6:45 

     This program is part of the open-source Quantum ESPRESSO suite
     for quantum simulation of materials; please cite
         "P. Giannozzi et al., J. Phys.:Condens. Matter 21 395502 (2009);
         "P. Giannozzi et al., J. Phys.:Condens. Matter 29 465901 (2017);
         "P. Giannozzi et al., J. Chem. Phys. 152 154105 (2020);
          URL http://www.quantum-espresso.org", 
     in publications or presentations arising from this work. More details at
     http://www.quantum-espresso.org/quote

     Parallel version (MPI & OpenMP), running on      16 processor cores
     Number of MPI processes:                 1
     Threads/MPI process:                    16

     MPI processes distributed on     1 nodes
     97880 MiB available memory on the printing compute node when the environment starts
 
     Reading input from pw.in

     Current dimensions of program PWSCF are:
     Max number of different atomic species (ntypx) = 10
     Max number of k-points (npk) =  40000
     Max angular momentum in pseudopotentials (lmaxx) =  4
     Presently no symmetry can be used with electric field

     file C.pbe-n-kjpaw_psl.1.0.0.UPF: wavefunction(s)  2S 2P renormalized
 
     Subspace diagonalization in iterative solution of the eigenvalue problem:
     a serial algorithm will be used

 
     G-vector sticks info
     --------------------
     sticks:   dense  smooth     PW     G-vecs:    dense   smooth      PW
     Sum         769     313    109               220793    56141   11415
 
     Using Slab Decomposition
 


     bravais-lattice index     =            0
     lattice parameter (alat)  =       4.6601  a.u.
     unit-cell volume          =    1103.5425 (a.u.)^3
     number of atoms/cell      =           10
     number of atomic types    =            1
     number of electrons       =        40.00
     number of Kohn-Sham states=           24
     kinetic-energy cutoff     =      52.0000  Ry
     charge density cutoff     =     520.0000  Ry
     scf convergence threshold =      1.0E-08
     mixing beta               =       0.3000
     number of iterations used =            8  local-TF  mixing
     Exchange-correlation= SLA  PW   PBX  PBC
                           (   1   4   3   4   0   0   0)

     GPU acceleration is ACTIVE.  1 visible GPUs per MPI rank


     celldm(1)=   4.660140  celldm(2)=   0.000000  celldm(3)=   0.000000
     celldm(4)=   0.000000  celldm(5)=   0.000000  celldm(6)=   0.000000

     crystal axes: (cart. coord. in units of alat)
               a(1) = (   1.000000   0.000000   0.000000 )  
               a(2) = (   0.500000   0.866025   0.000000 )  
               a(3) = (   0.000000   0.000000  12.591037 )  

     reciprocal axes: (cart. coord. in units 2 pi/alat)
               b(1) = (  1.000000 -0.577350  0.000000 )  
               b(2) = (  0.000000  1.154701  0.000000 )  
               b(3) = (  0.000000  0.000000  0.079422 )  


     PseudoPot. # 1 for C  read from file:
     /home/ubuntu/wad4l/pseudo_kgy/C.pbe-n-kjpaw_psl.1.0.0.UPF
     MD5 check sum: 5d2aebdfa2cae82b50a7e79e9516da0f
     Pseudo is Projector augmented-wave + core cor, Zval =  4.0
     Generated using "atomic" code by A. Dal Corso  v.5.1
     Shape of augmentation charge: PSQ
     Using radial grid of 1073 points,  4 beta functions with: 
                l(1) =   0
                l(2) =   0
                l(3) =   1
                l(4) =   1
     Q(r) pseudized with 0 coefficients 


     atomic species   valence    mass     pseudopotential
     C                 4.00    12.01100     C ( 1.00)

     No symmetry found



   Cartesian axes

     site n.     atom                  positions (alat units)
         1        C      tau(   1) = (   0.0000000   0.0000000   0.2027542  )
         2        C      tau(   2) = (   0.5000000   0.2886751   0.2027542  )
         3        C      tau(   3) = (   0.5000000   0.2886751   1.5612074  )
         4        C      tau(   4) = (   1.0000000   0.5773503   1.5612074  )
         5        C      tau(   5) = (   0.0000000   0.0000000   2.9196607  )
         6        C      tau(   6) = (   0.5000000   0.2886751   2.9196607  )
         7        C      tau(   7) = (   0.5000000   0.2886751   4.2781139  )
         8        C      tau(   8) = (   1.0000000   0.5773503   4.2781139  )
         9        C      tau(   9) = (   0.0000000   0.0000000   5.5149146  )
        10        C      tau(  10) = (   0.5000000   0.2886751   5.5149146  )

     --------------------------------------------
     DFT-D3 Dispersion Correction (no 3-body):
     --------------------------------------------
       Reference C6 values for interpolation: 

         atom   Coordination number   C6
         C          0.000            98.23
         C          0.987            86.49
         C          1.998            58.72
         C          2.999            51.56
         C          3.984            36.41

       Values used:

         atom   Coordination number  R0_AB[au]  C6      C8
         C          3.314            2.750     48.28   1396.43
         C          3.314            2.750     48.28   1396.30
         C          3.322            2.750     48.13   1391.99
         C          3.321            2.750     48.14   1392.24
         C          3.322            2.750     48.13   1391.98
         C          3.322            2.750     48.12   1391.73
         C          3.328            2.750     48.00   1388.21
         C          3.327            2.750     48.02   1388.93
         C          3.320            2.750     48.17   1393.14
         C          3.321            2.750     48.15   1392.57

         Molecular C6 ( Ry / a.u.^6 ) =      4814.20


     number of k points=   164  Marzari-Vanderbilt smearing, width (Ry)=  0.0100

     Number of k-points >= 100: set verbosity='high' to print them.

     Dense  grid:   220793 G-vectors     FFT dimensions: (  36,  36, 432)

     Smooth grid:    56141 G-vectors     FFT dimensions: (  24,  24, 270)

     Estimated max dynamical RAM per process >     381.50 MB

     Check: negative core charge=   -0.000002

     Initial potential from superposition of free atoms

     starting charge      39.9996, renormalised to      40.0000

     negative rho (up, down):  8.856E-05 0.000E+00
 
     Adding external electric field

     Computed dipole along edir(3) : 
        Dipole               -0.0000 Ry au,         -0.0000 Debye
        Dipole field         -0.0000 Ry au, 
 
        Potential amp.        0.0000 Ry
        Total length         56.7860 bohr
 
     Starting wfcs are   40 randomized atomic wfcs
     Checking if some PAW data can be deallocated... 

     total cpu time spent up to now is        3.3 secs

     Self-consistent Calculation

     iteration #  1     ecut=    52.00 Ry     beta= 0.30
     Davidson diagonalization with overlap
     ethr =  1.00E-02,  avg # of iterations =  2.1

     negative rho (up, down):  1.971E-07 0.000E+00
 
     Adding external electric field

     Computed dipole along edir(3) : 
        Dipole               -0.0262 Ry au,         -0.0667 Debye
        Dipole field         -0.0003 Ry au, 
 
        Potential amp.        0.0339 Ry
        Total length         56.7860 bohr
 

     total cpu time spent up to now is        7.7 secs

     total energy              =    -184.78668891 Ry
     estimated scf accuracy    <       0.88606338 Ry

     iteration #  2     ecut=    52.00 Ry     beta= 0.30
     Davidson diagonalization with overlap
     ethr =  2.22E-03,  avg # of iterations =  1.1

     negative rho (up, down):  3.082E-07 0.000E+00
 
     Adding external electric field

     Computed dipole along edir(3) : 
        Dipole               -0.1619 Ry au,         -0.4114 Debye
        Dipole field         -0.0018 Ry au, 
 
        Potential amp.        0.2093 Ry
        Total length         56.7860 bohr
 

     total cpu time spent up to now is       11.2 secs

     total energy              =    -184.43322004 Ry
     estimated scf accuracy    <       0.60331238 Ry

     iteration #  3     ecut=    52.00 Ry     beta= 0.30
     Davidson diagonalization with overlap
     ethr =  1.51E-03,  avg # of iterations =  2.8
 
     Adding external electric field

     Computed dipole along edir(3) : 
        Dipole               -0.1623 Ry au,         -0.4124 Debye
        Dipole field         -0.0018 Ry au, 
 
        Potential amp.        0.2098 Ry
        Total length         56.7860 bohr
 

     total cpu time spent up to now is       15.6 secs

     total energy              =    -184.53581806 Ry
     estimated scf accuracy    <       0.04507553 Ry

     iteration #  4     ecut=    52.00 Ry     beta= 0.30
     Davidson diagonalization with overlap
     ethr =  1.13E-04,  avg # of iterations =  5.7
 
     Adding external electric field

     Computed dipole along edir(3) : 
        Dipole               -0.2145 Ry au,         -0.5452 Debye
        Dipole field         -0.0024 Ry au, 
 
        Potential amp.        0.2774 Ry
        Total length         56.7860 bohr
 

     total cpu time spent up to now is       21.2 secs

     total energy              =    -184.54410781 Ry
     estimated scf accuracy    <       0.03761369 Ry

     iteration #  5     ecut=    52.00 Ry     beta= 0.30
     Davidson diagonalization with overlap
     ethr =  9.40E-05,  avg # of iterations =  2.7
 
     Adding external electric field

     Computed dipole along edir(3) : 
        Dipole               -0.2344 Ry au,         -0.5959 Debye
        Dipole field         -0.0027 Ry au, 
 
        Potential amp.        0.3032 Ry
        Total length         56.7860 bohr
 

     total cpu time spent up to now is       25.2 secs

     total energy              =    -184.54229110 Ry
     estimated scf accuracy    <       0.05140543 Ry

     iteration #  6     ecut=    52.00 Ry     beta= 0.30
     Davidson diagonalization with overlap
     ethr =  9.40E-05,  avg # of iterations =  1.3

     negative rho (up, down):  3.351E-08 0.000E+00
 
     Adding external electric field

     Computed dipole along edir(3) : 
        Dipole               -0.3356 Ry au,         -0.8529 Debye
        Dipole field         -0.0038 Ry au, 
 
        Potential amp.        0.4340 Ry
        Total length         56.7860 bohr
 

     total cpu time spent up to now is       28.8 secs

     total energy              =    -184.53638108 Ry
     estimated scf accuracy    <       0.08367683 Ry

     iteration #  7     ecut=    52.00 Ry     beta= 0.30
     Davidson diagonalization with overlap
     ethr =  9.40E-05,  avg # of iterations =  2.4

     negative rho (up, down):  1.088E-06 0.000E+00
 
     Adding external electric field

     Computed dipole along edir(3) : 
        Dipole               -0.3874 Ry au,         -0.9847 Debye
        Dipole field         -0.0044 Ry au, 
 
        Potential amp.        0.5010 Ry
        Total length         56.7860 bohr
 

     total cpu time spent up to now is       32.8 secs

     total energy              =    -184.54016647 Ry
     estimated scf accuracy    <       0.17347280 Ry

     iteration #  8     ecut=    52.00 Ry     beta= 0.30
     Davidson diagonalization with overlap
     ethr =  9.40E-05,  avg # of iterations =  1.1

     negative rho (up, down):  1.836E-06 0.000E+00
 
     Adding external electric field

     Computed dipole along edir(3) : 
        Dipole               -0.3936 Ry au,         -1.0003 Debye
        Dipole field         -0.0045 Ry au, 
 
        Potential amp.        0.5090 Ry
        Total length         56.7860 bohr
 

     total cpu time spent up to now is       36.4 secs

     total energy              =    -184.54221700 Ry
     estimated scf accuracy    <       0.21136802 Ry

     iteration #  9     ecut=    52.00 Ry     beta= 0.30
     Davidson diagonalization with overlap
     ethr =  9.40E-05,  avg # of iterations =  1.1

     negative rho (up, down):  1.375E-03 0.000E+00
 
     Adding external electric field

     Computed dipole along edir(3) : 
        Dipole               -0.3508 Ry au,         -0.8917 Debye
        Dipole field         -0.0040 Ry au, 
 
        Potential amp.        0.4537 Ry
        Total length         56.7860 bohr
 

     total cpu time spent up to now is       39.9 secs

     total energy              =    -184.53181540 Ry
     estimated scf accuracy    <       0.24270801 Ry

     iteration # 10     ecut=    52.00 Ry     beta= 0.30
     Davidson diagonalization with overlap
     ethr =  9.40E-05,  avg # of iterations =  1.4

     negative rho (up, down):  3.037E-03 0.000E+00
 
     Adding external electric field

     Computed dipole along edir(3) : 
        Dipole               -0.1352 Ry au,         -0.3436 Debye
        Dipole field         -0.0015 Ry au, 
 
        Potential amp.        0.1748 Ry
        Total length         56.7860 bohr
 

     total cpu time spent up to now is       43.6 secs

     total energy              =    -184.52637228 Ry
     estimated scf accuracy    <       0.03603295 Ry

     iteration # 11     ecut=    52.00 Ry     beta= 0.30
     Davidson diagonalization with overlap
     c_bands:  2 eigenvalues not converged
     c_bands:  1 eigenvalues not converged
     ethr =  9.01E-05,  avg # of iterations =  7.0

     negative rho (up, down):  3.148E-03 0.000E+00
 
     Adding external electric field

     Computed dipole along edir(3) : 
        Dipole               -0.0805 Ry au,         -0.2046 Debye
        Dipole field         -0.0009 Ry au, 
 
        Potential amp.        0.1041 Ry
        Total length         56.7860 bohr
 

     total cpu time spent up to now is       49.3 secs

     total energy              =    -184.53173988 Ry
     estimated scf accuracy    <       0.00600818 Ry

     iteration # 12     ecut=    52.00 Ry     beta= 0.30
     Davidson diagonalization with overlap
     ethr =  1.50E-05,  avg # of iterations =  8.5

     negative rho (up, down):  4.589E-04 0.000E+00
 
     Adding external electric field

     Computed dipole along edir(3) : 
        Dipole               -0.0359 Ry au,         -0.0912 Debye
        Dipole field         -0.0004 Ry au, 
 
        Potential amp.        0.0464 Ry
        Total length         56.7860 bohr
 

     total cpu time spent up to now is       55.4 secs

     total energy              =    -184.53175688 Ry
     estimated scf accuracy    <       0.00917916 Ry

     iteration # 13     ecut=    52.00 Ry     beta= 0.30
     Davidson diagonalization with overlap
     ethr =  1.50E-05,  avg # of iterations =  3.3

     negative rho (up, down):  1.426E-06 0.000E+00
 
     Adding external electric field

     Computed dipole along edir(3) : 
        Dipole               -0.0412 Ry au,         -0.1047 Debye
        Dipole field         -0.0005 Ry au, 
 
        Potential amp.        0.0533 Ry
        Total length         56.7860 bohr
 

     total cpu time spent up to now is       59.8 secs

     total energy              =    -184.53114876 Ry
     estimated scf accuracy    <       0.01339695 Ry

     iteration # 14     ecut=    52.00 Ry     beta= 0.30
     Davidson diagonalization with overlap
     ethr =  1.50E-05,  avg # of iterations =  2.2

     negative rho (up, down):  1.250E-06 0.000E+00
 
     Adding external electric field

     Computed dipole along edir(3) : 
        Dipole               -0.0567 Ry au,         -0.1440 Debye
        Dipole field         -0.0006 Ry au, 
 
        Potential amp.        0.0733 Ry
        Total length         56.7860 bohr
 

     total cpu time spent up to now is       63.7 secs

     total energy              =    -184.53106002 Ry
     estimated scf accuracy    <       0.00706771 Ry

     iteration # 15     ecut=    52.00 Ry     beta= 0.30
     Davidson diagonalization with overlap
     ethr =  1.50E-05,  avg # of iterations =  1.5

     negative rho (up, down):  1.467E-06 0.000E+00
 
     Adding external electric field

     Computed dipole along edir(3) : 
        Dipole               -0.0632 Ry au,         -0.1607 Debye
        Dipole field         -0.0007 Ry au, 
 
        Potential amp.        0.0818 Ry
        Total length         56.7860 bohr
 

     total cpu time spent up to now is       67.4 secs

     total energy              =    -184.53095907 Ry
     estimated scf accuracy    <       0.00659061 Ry

     iteration # 16     ecut=    52.00 Ry     beta= 0.30
     Davidson diagonalization with overlap
     ethr =  1.50E-05,  avg # of iterations =  1.1

     negative rho (up, down):  1.438E-06 0.000E+00
 
     Adding external electric field

     Computed dipole along edir(3) : 
        Dipole               -0.0563 Ry au,         -0.1431 Debye
        Dipole field         -0.0006 Ry au, 
 
        Potential amp.        0.0728 Ry
        Total length         56.7860 bohr
 

     total cpu time spent up to now is       71.0 secs

     total energy              =    -184.53088469 Ry
     estimated scf accuracy    <       0.00642386 Ry

     iteration # 17     ecut=    52.00 Ry     beta= 0.30
     Davidson diagonalization with overlap
     ethr =  1.50E-05,  avg # of iterations =  1.0

     negative rho (up, down):  4.032E-06 0.000E+00
 
     Adding external electric field

     Computed dipole along edir(3) : 
        Dipole               -0.0575 Ry au,         -0.1462 Debye
        Dipole field         -0.0007 Ry au, 
 
        Potential amp.        0.0744 Ry
        Total length         56.7860 bohr
 

     total cpu time spent up to now is       74.6 secs

     total energy              =    -184.53108220 Ry
     estimated scf accuracy    <       0.00649992 Ry

     iteration # 18     ecut=    52.00 Ry     beta= 0.30
     Davidson diagonalization with overlap
     ethr =  1.50E-05,  avg # of iterations =  1.3

     negative rho (up, down):  4.234E-04 0.000E+00
 
     Adding external electric field

     Computed dipole along edir(3) : 
        Dipole               -0.0964 Ry au,         -0.2449 Debye
        Dipole field         -0.0011 Ry au, 
 
        Potential amp.        0.1246 Ry
        Total length         56.7860 bohr
 

     total cpu time spent up to now is       78.2 secs

     total energy              =    -184.53079705 Ry
     estimated scf accuracy    <       0.00630381 Ry

     iteration # 19     ecut=    52.00 Ry     beta= 0.30
     Davidson diagonalization with overlap
     ethr =  1.50E-05,  avg # of iterations =  2.1

     negative rho (up, down):  1.207E-04 0.000E+00
 
     Adding external electric field

     Computed dipole along edir(3) : 
        Dipole               -0.0711 Ry au,         -0.1806 Debye
        Dipole field         -0.0008 Ry au, 
 
        Potential amp.        0.0919 Ry
        Total length         56.7860 bohr
 

     total cpu time spent up to now is       82.0 secs

     total energy              =    -184.53081402 Ry
     estimated scf accuracy    <       0.00587078 Ry

     iteration # 20     ecut=    52.00 Ry     beta= 0.30
     Davidson diagonalization with overlap
     ethr =  1.47E-05,  avg # of iterations =  1.2

     negative rho (up, down):  2.043E-03 0.000E+00
 
     Adding external electric field

     Computed dipole along edir(3) : 
        Dipole               -0.0295 Ry au,         -0.0750 Debye
        Dipole field         -0.0003 Ry au, 
 
        Potential amp.        0.0382 Ry
        Total length         56.7860 bohr
 

     total cpu time spent up to now is       85.6 secs

     total energy              =    -184.53094151 Ry
     estimated scf accuracy    <       0.00621531 Ry

     iteration # 21     ecut=    52.00 Ry     beta= 0.30
     Davidson diagonalization with overlap
     ethr =  1.47E-05,  avg # of iterations =  2.7

     negative rho (up, down):  5.035E-04 0.000E+00
 
     Adding external electric field

     Computed dipole along edir(3) : 
        Dipole               -0.0466 Ry au,         -0.1184 Debye
        Dipole field         -0.0005 Ry au, 
 
        Potential amp.        0.0603 Ry
        Total length         56.7860 bohr
 

     total cpu time spent up to now is       89.8 secs

     total energy              =    -184.53067842 Ry
     estimated scf accuracy    <       0.00596039 Ry

     iteration # 22     ecut=    52.00 Ry     beta= 0.30
     Davidson diagonalization with overlap
     ethr =  1.47E-05,  avg # of iterations =  1.6

     negative rho (up, down):  7.195E-03 0.000E+00
 
     Adding external electric field

     Computed dipole along edir(3) : 
        Dipole               -0.1092 Ry au,         -0.2775 Debye
        Dipole field         -0.0012 Ry au, 
 
        Potential amp.        0.1412 Ry
        Total length         56.7860 bohr
 

     total cpu time spent up to now is       93.5 secs

     total energy              =    -184.52990597 Ry
     estimated scf accuracy    <       0.00607949 Ry

     iteration # 23     ecut=    52.00 Ry     beta= 0.30
     Davidson diagonalization with overlap
     c_bands:  1 eigenvalues not converged
     c_bands:  1 eigenvalues not converged
     c_bands:  1 eigenvalues not converged
     ethr =  1.47E-05,  avg # of iterations =  8.2

     negative rho (up, down):  2.512E-03 0.000E+00
 
     Adding external electric field

     Computed dipole along edir(3) : 
        Dipole               -0.0597 Ry au,         -0.1517 Debye
        Dipole field         -0.0007 Ry au, 
 
        Potential amp.        0.0772 Ry
        Total length         56.7860 bohr
 

     total cpu time spent up to now is       99.7 secs

     total energy              =    -184.52987102 Ry
     estimated scf accuracy    <       0.00090174 Ry

     iteration # 24     ecut=    52.00 Ry     beta= 0.30
     Davidson diagonalization with overlap
     c_bands:  1 eigenvalues not converged
     c_bands:  1 eigenvalues not converged
     c_bands:  1 eigenvalues not converged
     c_bands:  1 eigenvalues not converged
     ethr =  2.25E-06,  avg # of iterations =  9.2

     negative rho (up, down):  2.393E-03 0.000E+00
 
     Adding external electric field

     Computed dipole along edir(3) : 
        Dipole               -0.0645 Ry au,         -0.1639 Debye
        Dipole field         -0.0007 Ry au, 
 
        Potential amp.        0.0834 Ry
        Total length         56.7860 bohr
 

     total cpu time spent up to now is      106.3 secs

     total energy              =    -184.52998659 Ry
     estimated scf accuracy    <       0.00392856 Ry

     iteration # 25     ecut=    52.00 Ry     beta= 0.30
     Davidson diagonalization with overlap
     ethr =  2.25E-06,  avg # of iterations =  6.4

     negative rho (up, down):  2.797E-03 0.000E+00
 
     Adding external electric field

     Computed dipole along edir(3) : 
        Dipole               -0.0412 Ry au,         -0.1047 Debye
        Dipole field         -0.0005 Ry au, 
 
        Potential amp.        0.0533 Ry
        Total length         56.7860 bohr
 

     total cpu time spent up to now is      111.5 secs

     total energy              =    -184.53003467 Ry
     estimated scf accuracy    <       0.00251753 Ry

     iteration # 26     ecut=    52.00 Ry     beta= 0.30
     Davidson diagonalization with overlap
     ethr =  2.25E-06,  avg # of iterations =  6.2

     negative rho (up, down):  1.867E-03 0.000E+00
 
     Adding external electric field

     Computed dipole along edir(3) : 
        Dipole                0.0033 Ry au,          0.0084 Debye
        Dipole field          0.0000 Ry au, 
 
        Potential amp.       -0.0043 Ry
        Total length         56.7860 bohr
 

     total cpu time spent up to now is      116.8 secs

     total energy              =    -184.53009105 Ry
     estimated scf accuracy    <       0.00350559 Ry

     iteration # 27     ecut=    52.00 Ry     beta= 0.30
     Davidson diagonalization with overlap
     ethr =  2.25E-06,  avg # of iterations =  7.3

     negative rho (up, down):  1.808E-03 0.000E+00
 
     Adding external electric field

     Computed dipole along edir(3) : 
        Dipole                0.0239 Ry au,          0.0608 Debye
        Dipole field          0.0003 Ry au, 
 
        Potential amp.       -0.0309 Ry
        Total length         56.7860 bohr
 

     total cpu time spent up to now is      122.4 secs

     total energy              =    -184.53023979 Ry
     estimated scf accuracy    <       0.00421482 Ry

     iteration # 28     ecut=    52.00 Ry     beta= 0.30
     Davidson diagonalization with overlap
     ethr =  2.25E-06,  avg # of iterations =  5.9

     negative rho (up, down):  1.810E-03 0.000E+00
 
     Adding external electric field

     Computed dipole along edir(3) : 
        Dipole                0.0239 Ry au,          0.0609 Debye
        Dipole field          0.0003 Ry au, 
 
        Potential amp.       -0.0310 Ry
        Total length         56.7860 bohr
 

     total cpu time spent up to now is      127.7 secs

     total energy              =    -184.53023895 Ry
     estimated scf accuracy    <       0.00474157 Ry

     iteration # 29     ecut=    52.00 Ry     beta= 0.30
     Davidson diagonalization with overlap
     ethr =  2.25E-06,  avg # of iterations =  1.0

     negative rho (up, down):  8.683E-04 0.000E+00
 
     Adding external electric field

     Computed dipole along edir(3) : 
        Dipole                0.0166 Ry au,          0.0422 Debye
        Dipole field          0.0002 Ry au, 
 
        Potential amp.       -0.0214 Ry
        Total length         56.7860 bohr
 

     total cpu time spent up to now is      131.2 secs

     total energy              =    -184.52999191 Ry
     estimated scf accuracy    <       0.00471055 Ry

     iteration # 30     ecut=    52.00 Ry     beta= 0.30
     Davidson diagonalization with overlap
     ethr =  2.25E-06,  avg # of iterations =  5.6

     negative rho (up, down):  1.085E-03 0.000E+00
 
     Adding external electric field

     Computed dipole along edir(3) : 
        Dipole               -0.0075 Ry au,         -0.0191 Debye
        Dipole field         -0.0001 Ry au, 
 
        Potential amp.        0.0097 Ry
        Total length         56.7860 bohr
 

     total cpu time spent up to now is      136.3 secs

     total energy              =    -184.52953206 Ry
     estimated scf accuracy    <       0.00363706 Ry

     iteration # 31     ecut=    52.00 Ry     beta= 0.30
     Davidson diagonalization with overlap
     c_bands:  1 eigenvalues not converged
     c_bands:  1 eigenvalues not converged
     c_bands:  1 eigenvalues not converged
     c_bands:  1 eigenvalues not converged
     c_bands:  1 eigenvalues not converged
     c_bands:  1 eigenvalues not converged
     c_bands:  1 eigenvalues not converged
     c_bands:  1 eigenvalues not converged
     c_bands:  1 eigenvalues not converged
     c_bands:  1 eigenvalues not converged
     c_bands:  1 eigenvalues not converged
     c_bands:  1 eigenvalues not converged
     ethr =  2.25E-06,  avg # of iterations = 11.0

     negative rho (up, down):  7.153E-04 0.000E+00
 
     Adding external electric field

     Computed dipole along edir(3) : 
        Dipole               -0.0035 Ry au,         -0.0089 Debye
        Dipole field         -0.0000 Ry au, 
 
        Potential amp.        0.0045 Ry
        Total length         56.7860 bohr
 

     total cpu time spent up to now is      143.6 secs

     total energy              =    -184.52965825 Ry
     estimated scf accuracy    <       0.00023263 Ry

     iteration # 32     ecut=    52.00 Ry     beta= 0.30
     Davidson diagonalization with overlap
     ethr =  5.82E-07,  avg # of iterations =  3.0

     negative rho (up, down):  6.528E-04 0.000E+00
 
     Adding external electric field

     Computed dipole along edir(3) : 
        Dipole                0.0033 Ry au,          0.0083 Debye
        Dipole field          0.0000 Ry au, 
 
        Potential amp.       -0.0042 Ry
        Total length         56.7860 bohr
 

     total cpu time spent up to now is      147.9 secs

     total energy              =    -184.52965656 Ry
     estimated scf accuracy    <       0.00017228 Ry

     iteration # 33     ecut=    52.00 Ry     beta= 0.30
     Davidson diagonalization with overlap
     ethr =  4.31E-07,  avg # of iterations =  3.5

     negative rho (up, down):  2.565E-04 0.000E+00
 
     Adding external electric field

     Computed dipole along edir(3) : 
        Dipole                0.0042 Ry au,          0.0107 Debye
        Dipole field          0.0000 Ry au, 
 
        Potential amp.       -0.0055 Ry
        Total length         56.7860 bohr
 

     total cpu time spent up to now is      152.3 secs

     total energy              =    -184.52964597 Ry
     estimated scf accuracy    <       0.00007295 Ry

     iteration # 34     ecut=    52.00 Ry     beta= 0.30
     Davidson diagonalization with overlap
     ethr =  1.82E-07,  avg # of iterations =  5.0

     negative rho (up, down):  2.074E-04 0.000E+00
 
     Adding external electric field

     Computed dipole along edir(3) : 
        Dipole               -0.0107 Ry au,         -0.0273 Debye
        Dipole field         -0.0001 Ry au, 
 
        Potential amp.        0.0139 Ry
        Total length         56.7860 bohr
 

     total cpu time spent up to now is      157.3 secs

     total energy              =    -184.52962105 Ry
     estimated scf accuracy    <       0.00037011 Ry

     iteration # 35     ecut=    52.00 Ry     beta= 0.30
     Davidson diagonalization with overlap
     ethr =  1.82E-07,  avg # of iterations =  7.6

     negative rho (up, down):  2.500E-05 0.000E+00
 
     Adding external electric field

     Computed dipole along edir(3) : 
        Dipole               -0.0025 Ry au,         -0.0064 Debye
        Dipole field         -0.0000 Ry au, 
 
        Potential amp.        0.0032 Ry
        Total length         56.7860 bohr
 

     total cpu time spent up to now is      163.1 secs

     total energy              =    -184.52962252 Ry
     estimated scf accuracy    <       0.00036862 Ry

     iteration # 36     ecut=    52.00 Ry     beta= 0.30
     Davidson diagonalization with overlap
     ethr =  1.82E-07,  avg # of iterations =  7.4

     negative rho (up, down):  7.082E-06 0.000E+00
 
     Adding external electric field

     Computed dipole along edir(3) : 
        Dipole               -0.0063 Ry au,         -0.0160 Debye
        Dipole field         -0.0001 Ry au, 
 
        Potential amp.        0.0082 Ry
        Total length         56.7860 bohr
 

     total cpu time spent up to now is      169.0 secs

     total energy              =    -184.52965824 Ry
     estimated scf accuracy    <       0.00013834 Ry

     iteration # 37     ecut=    52.00 Ry     beta= 0.30
     Davidson diagonalization with overlap
     ethr =  1.82E-07,  avg # of iterations =  2.0

     negative rho (up, down):  9.455E-05 0.000E+00
 
     Adding external electric field

     Computed dipole along edir(3) : 
        Dipole               -0.0071 Ry au,         -0.0182 Debye
        Dipole field         -0.0001 Ry au, 
 
        Potential amp.        0.0092 Ry
        Total length         56.7860 bohr
 

     total cpu time spent up to now is      172.8 secs

     total energy              =    -184.52965782 Ry
     estimated scf accuracy    <       0.00005374 Ry

     iteration # 38     ecut=    52.00 Ry     beta= 0.30
     Davidson diagonalization with overlap
     ethr =  1.34E-07,  avg # of iterations =  2.7

     negative rho (up, down):  6.487E-05 0.000E+00
 
     Adding external electric field

     Computed dipole along edir(3) : 
        Dipole               -0.0051 Ry au,         -0.0129 Debye
        Dipole field         -0.0001 Ry au, 
 
        Potential amp.        0.0066 Ry
        Total length         56.7860 bohr
 

     total cpu time spent up to now is      176.8 secs

     total energy              =    -184.52965929 Ry
     estimated scf accuracy    <       0.00002077 Ry

     iteration # 39     ecut=    52.00 Ry     beta= 0.30
     Davidson diagonalization with overlap
     ethr =  5.19E-08,  avg # of iterations =  1.1

     negative rho (up, down):  9.993E-05 0.000E+00
 
     Adding external electric field

     Computed dipole along edir(3) : 
        Dipole               -0.0039 Ry au,         -0.0100 Debye
        Dipole field         -0.0000 Ry au, 
 
        Potential amp.        0.0051 Ry
        Total length         56.7860 bohr
 

     total cpu time spent up to now is      180.4 secs

     total energy              =    -184.52965930 Ry
     estimated scf accuracy    <       0.00000654 Ry

     iteration # 40     ecut=    52.00 Ry     beta= 0.30
     Davidson diagonalization with overlap
     ethr =  1.63E-08,  avg # of iterations =  1.4

     negative rho (up, down):  1.351E-04 0.000E+00
 
     Adding external electric field

     Computed dipole along edir(3) : 
        Dipole               -0.0030 Ry au,         -0.0075 Debye
        Dipole field         -0.0000 Ry au, 
 
        Potential amp.        0.0038 Ry
        Total length         56.7860 bohr
 

     total cpu time spent up to now is      184.0 secs

     total energy              =    -184.52965943 Ry
     estimated scf accuracy    <       0.00000046 Ry

     iteration # 41     ecut=    52.00 Ry     beta= 0.30
     Davidson diagonalization with overlap
     ethr =  1.14E-09,  avg # of iterations =  2.6

     negative rho (up, down):  1.180E-04 0.000E+00
 
     Adding external electric field

     Computed dipole along edir(3) : 
        Dipole               -0.0027 Ry au,         -0.0069 Debye
        Dipole field         -0.0000 Ry au, 
 
        Potential amp.        0.0035 Ry
        Total length         56.7860 bohr
 

     total cpu time spent up to now is      188.3 secs

     total energy              =    -184.52965942 Ry
     estimated scf accuracy    <       0.00000031 Ry

     iteration # 42     ecut=    52.00 Ry     beta= 0.30
     Davidson diagonalization with overlap
     ethr =  7.70E-10,  avg # of iterations =  2.0

     negative rho (up, down):  1.224E-04 0.000E+00
 
     Adding external electric field

     Computed dipole along edir(3) : 
        Dipole               -0.0027 Ry au,         -0.0068 Debye
        Dipole field         -0.0000 Ry au, 
 
        Potential amp.        0.0035 Ry
        Total length         56.7860 bohr
 

     total cpu time spent up to now is      192.2 secs

     total energy              =    -184.52965945 Ry
     estimated scf accuracy    <       0.00000006 Ry

     iteration # 43     ecut=    52.00 Ry     beta= 0.30
     Davidson diagonalization with overlap
     ethr =  1.58E-10,  avg # of iterations =  1.2

     negative rho (up, down):  1.227E-04 0.000E+00
 
     Adding external electric field

     Computed dipole along edir(3) : 
        Dipole               -0.0026 Ry au,         -0.0067 Debye
        Dipole field         -0.0000 Ry au, 
 
        Potential amp.        0.0034 Ry
        Total length         56.7860 bohr
 

     total cpu time spent up to now is      195.8 secs

     total energy              =    -184.52965945 Ry
     estimated scf accuracy    <       0.00000002 Ry

     iteration # 44     ecut=    52.00 Ry     beta= 0.30
     Davidson diagonalization with overlap
     ethr =  6.24E-11,  avg # of iterations =  2.2

     negative rho (up, down):  1.151E-04 0.000E+00
 
     Adding external electric field

     Computed dipole along edir(3) : 
        Dipole               -0.0026 Ry au,         -0.0066 Debye
        Dipole field         -0.0000 Ry au, 
 
        Potential amp.        0.0034 Ry
        Total length         56.7860 bohr
 

     total cpu time spent up to now is      199.6 secs

     End of self-consistent calculation

     Number of k-points >= 100: set verbosity='high' to print the bands.

     the Fermi energy is     1.8122 ev

!    total energy              =    -184.52965946 Ry
     total all-electron energy =      -762.170638 Ry
     estimated scf accuracy    <          7.0E-09 Ry
     smearing contrib. (-TS)   =      -0.00011873 Ry
     internal energy E=F+TS    =    -184.52954074 Ry

     The total energy is F=E-TS. E is the sum of the following terms:
     one-electron contribution =   -2422.30816266 Ry
     hartree contribution      =    1224.50118424 Ry
     xc contribution           =     -46.40779885 Ry
     ewald contribution        =    1121.46105866 Ry
     DFT-D3 Dispersion         =      -0.10647184 Ry
     electric field correction =       0.00000008 Ry
     one-center paw contrib.   =     -61.66935037 Ry

     convergence has been achieved in  44 iterations

     negative rho (up, down):  1.151E-04 0.000E+00

     Forces acting on atoms (cartesian axes, Ry/au):

     atom    1 type  1   force =    -0.00000000    0.00000001   -0.00056438
     atom    2 type  1   force =    -0.00000000    0.00000000    0.00005979
     atom    3 type  1   force =    -0.00000000   -0.00000001    0.00008692
     atom    4 type  1   force =     0.00000002   -0.00000000    0.00011622
     atom    5 type  1   force =    -0.00000001   -0.00000001    0.00002331
     atom    6 type  1   force =    -0.00000000    0.00000001   -0.00004699
     atom    7 type  1   force =     0.00000001    0.00000000   -0.00327850
     atom    8 type  1   force =     0.00000001    0.00000000   -0.00451323
     atom    9 type  1   force =    -0.00000001    0.00000001    0.00491431
     atom   10 type  1   force =    -0.00000000   -0.00000001    0.00320255

     Total force =     0.008116     Total SCF correction =     0.000129

     Writing all to output data dir ./tmp/CC_M41_AB_Ed_m03.save/ :
     XML data file, charge density, pseudopotentials, collected wavefunctions
 
     init_run     :      3.52s CPU      3.16s WALL (       1 calls)
     electrons    :    209.14s CPU    196.32s WALL (       1 calls)
     forces       :      0.64s CPU      0.61s WALL (       1 calls)
     force_dftd3  :      0.04s CPU      0.03s WALL (       1 calls)

     Called by init_run:
     wfcinit      :      1.14s CPU      1.42s WALL (       1 calls)
     potinit      :      1.88s CPU      1.24s WALL (       1 calls)
     hinit0       :      0.29s CPU      0.27s WALL (       1 calls)

     Called by electrons:
     c_bands      :    110.65s CPU    121.68s WALL (      44 calls)
     sum_band     :     17.48s CPU     20.97s WALL (      44 calls)
     v_of_rho     :      7.81s CPU      5.56s WALL (      45 calls)
     newd         :      0.26s CPU      0.26s WALL (      45 calls)
                                        0.26s GPU  (      45 calls)
     PAW_pot      :     69.56s CPU     43.72s WALL (      45 calls)
     mix_rho      :      3.60s CPU      3.79s WALL (      44 calls)
     energy_dftd3 :      0.00s CPU      0.00s WALL (       1 calls)

     Called by c_bands:
     init_us_2    :      4.34s CPU      5.45s WALL (   14760 calls)
     cegterg      :     92.53s CPU     97.13s WALL (    7216 calls)

     Called by *egterg:
     cdiaghg      :     25.54s CPU     26.47s WALL (   33039 calls)
                                       26.26s GPU  (   33039 calls)
     h_psi        :     44.88s CPU     48.81s WALL (   33203 calls)
                                       48.62s GPU  (   33203 calls)
     s_psi        :      8.34s CPU      8.62s WALL (   33203 calls)
     g_psi        :      0.12s CPU      0.60s WALL (   25823 calls)
                                        0.46s GPU  (   25823 calls)

     Called by h_psi:
     h_psi:calbec :      0.91s CPU      2.25s WALL (   33203 calls)
                                        2.06s GPU  (   33203 calls)
     vloc_psi     :     33.25s CPU     36.69s WALL (   33203 calls)
                                       36.51s GPU  (   33203 calls)
     add_vuspsi   :      6.79s CPU      8.18s WALL (   33203 calls)
                                        7.99s GPU  (   33203 calls)

     General routines
     calbec       :      1.01s CPU      1.08s WALL (   41075 calls)
     fft          :      0.55s CPU      0.61s WALL (     594 calls)
                                        0.06s GPU  (     549 calls)
     ffts         :      0.20s CPU      0.32s WALL (    4962 calls)
                                        0.17s GPU  (    4917 calls)
     fftw         :      1.38s CPU     24.86s WALL (  111212 calls)
                                       24.27s GPU  (  111212 calls)
     interpolate  :      0.77s CPU      0.79s WALL (      45 calls)
     davcio       :     10.33s CPU     14.35s WALL (   22926 calls)
 
     Parallel routines
 
     PWSCF        :   3m40.32s CPU   3m24.80s WALL

 
   This run was terminated on:  20:10:10  30Sep2026            

=------------------------------------------------------------------------------=
   JOB DONE.
=------------------------------------------------------------------------------=
