
     Program PWSCF v.7.4.1 starts on  4Oct2026 at 11:37:52 

     This program is part of the open-source Quantum ESPRESSO suite
     for quantum simulation of materials; please cite
         "P. Giannozzi et al., J. Phys.:Condens. Matter 21 395502 (2009);
         "P. Giannozzi et al., J. Phys.:Condens. Matter 29 465901 (2017);
         "P. Giannozzi et al., J. Chem. Phys. 152 154105 (2020);
          URL http://www.quantum-espresso.org", 
     in publications or presentations arising from this work. More details at
     http://www.quantum-espresso.org/quote

     Parallel version (MPI & OpenMP), running on       1 processor cores
     Number of MPI processes:                 1
     Threads/MPI process:                     1

     MPI processes distributed on     1 nodes
     8251 MiB available memory on the printing compute node when the environment starts
 
     Reading input from pw.in

     Current dimensions of program PWSCF are:
     Max number of different atomic species (ntypx) = 10
     Max number of k-points (npk) =  40000
     Max angular momentum in pseudopotentials (lmaxx) =  4
     Presently no symmetry can be used with electric field

     file C.pbe-n-kjpaw_psl.1.0.0.UPF: wavefunction(s)  2S 2P renormalized
 
     Subspace diagonalization in iterative solution of the eigenvalue problem:
     a serial algorithm will be used

 
     G-vector sticks info
     --------------------
     sticks:   dense  smooth     PW     G-vecs:    dense   smooth      PW
     Sum        3193    1273    367              1013709   256635   40105
 
     Using Slab Decomposition
 


     bravais-lattice index     =            0
     lattice parameter (alat)  =       9.4208  a.u.
     unit-cell volume          =    5061.5040 (a.u.)^3
     number of atoms/cell      =           36
     number of atomic types    =            2
     number of electrons       =       324.00
     number of Kohn-Sham states=          194
     kinetic-energy cutoff     =      52.0000  Ry
     charge density cutoff     =     520.0000  Ry
     scf convergence threshold =      1.0E-08
     mixing beta               =       0.3000
     number of iterations used =            8  local-TF  mixing
     Exchange-correlation= SLA  PW   PBX  PBC
                           (   1   4   3   4   0   0   0)

     GPU acceleration is ACTIVE.  1 visible GPUs per MPI rank


     celldm(1)=   9.420781  celldm(2)=   0.000000  celldm(3)=   0.000000
     celldm(4)=   0.000000  celldm(5)=   0.000000  celldm(6)=   0.000000

     crystal axes: (cart. coord. in units of alat)
               a(1) = (   1.000000  -0.000000   0.000000 )  
               a(2) = (   0.500000   0.866025   0.000000 )  
               a(3) = (   0.000000   0.000000   6.990177 )  

     reciprocal axes: (cart. coord. in units 2 pi/alat)
               b(1) = (  1.000000 -0.577350  0.000000 )  
               b(2) = (  0.000000  1.154701 -0.000000 )  
               b(3) = ( -0.000000  0.000000  0.143058 )  


     PseudoPot. # 1 for Ag read from file:
     /home/kgy/work/pseudo/Ag_ONCV_PBE-1.0.oncvpsp.upf
     MD5 check sum: 94f47bd0669c641108e45594df92fabc
     Pseudo is Norm-conserving, Zval = 19.0
     Generated using ONCVPSP code by D. R. Hamann
     Using radial grid of 1398 points,  6 beta functions with: 
                l(1) =   0
                l(2) =   0
                l(3) =   1
                l(4) =   1
                l(5) =   2
                l(6) =   2

     PseudoPot. # 2 for C  read from file:
     /home/kgy/work/pseudo/C.pbe-n-kjpaw_psl.1.0.0.UPF
     MD5 check sum: 5d2aebdfa2cae82b50a7e79e9516da0f
     Pseudo is Projector augmented-wave + core cor, Zval =  4.0
     Generated using "atomic" code by A. Dal Corso  v.5.1
     Shape of augmentation charge: PSQ
     Using radial grid of 1073 points,  4 beta functions with: 
                l(1) =   0
                l(2) =   0
                l(3) =   1
                l(4) =   1
     Q(r) pseudized with 0 coefficients 


     atomic species   valence    mass     pseudopotential
     Ag               19.00   107.86820     Ag( 1.00)
     C                 4.00    12.01100     C ( 1.00)

     No symmetry found



   Cartesian axes

     site n.     atom                  positions (alat units)
         1        Ag     tau(   1) = (   0.3337695   0.5765948   0.5717001  )
         2        Ag     tau(   2) = (   0.8337695   0.8652699   0.5717001  )
         3        Ag     tau(   3) = (   0.1658131   0.2881628   1.0404978  )
         4        Ag     tau(   4) = (   0.5004501   0.2909658   0.1002956  )
         5        Ag     tau(   5) = (   0.8337695   0.2879196   0.5717001  )
         6        Ag     tau(   6) = (   0.6657286   0.5768865   1.0406295  )
         7        Ag     tau(   7) = (   0.5013979   0.2880440   1.5121792  )
         8        Ag     tau(   8) = (   1.0004501   0.5796409   0.1002956  )
         9        Ag     tau(   9) = (   1.0014376   0.5767316   1.5111335  )
        10        Ag     tau(  10) = (   0.6658079  -0.0004107   1.0405249  )
        11        Ag     tau(  11) = (   1.0004501   0.0022906   0.1002956  )
        12        Ag     tau(  12) = (   1.0014053  -0.0005819   1.5121715  )
        13        C      tau(  13) = (   0.5004501   0.2909658   2.0986838  )
        14        C      tau(  14) = (   0.7504501   0.4353033   2.0994507  )
        15        C      tau(  15) = (   0.7504501   0.7239785   2.0993439  )
        16        C      tau(  16) = (   1.0004501   0.8683160   2.0994495  )
        17        C      tau(  17) = (   1.0004501   0.2909658   2.0993429  )
        18        C      tau(  18) = (   1.2504501   0.4353033   2.0994494  )
        19        C      tau(  19) = (   1.2504501   0.7239785   2.0993441  )
        20        C      tau(  20) = (   1.5004501   0.8683160   2.0988323  )
        21        C      tau(  21) = (   0.7504501   0.4353033   2.7835184  )
        22        C      tau(  22) = (   1.0004501   0.5796409   2.7834601  )
        23        C      tau(  23) = (   1.0004501   0.8683160   2.7835183  )
        24        C      tau(  24) = (   1.2504501   1.0126536   2.7834479  )
        25        C      tau(  25) = (   1.2504501   0.4353033   2.7835183  )
        26        C      tau(  26) = (   1.5004501   0.5796409   2.7834479  )
        27        C      tau(  27) = (   1.5004501   0.8683160   2.7835130  )
        28        C      tau(  28) = (   1.7504501   1.0126536   2.7834479  )
        29        C      tau(  29) = (   0.5004501   0.2909658   3.4645601  )
        30        C      tau(  30) = (   0.7504501   0.4353033   3.4644330  )
        31        C      tau(  31) = (   0.7504501   0.7239785   3.4645616  )
        32        C      tau(  32) = (   1.0004501   0.8683160   3.4644330  )
        33        C      tau(  33) = (   1.0004501   0.2909658   3.4645616  )
        34        C      tau(  34) = (   1.2504501   0.4353033   3.4644330  )
        35        C      tau(  35) = (   1.2504501   0.7239785   3.4645616  )
        36        C      tau(  36) = (   1.5004501   0.8683160   3.4644350  )

     --------------------------------------------
     DFT-D3 Dispersion Correction (no 3-body):
     --------------------------------------------
       Reference C6 values for interpolation: 

         atom   Coordination number   C6
         C          0.000            98.23
         C          0.987            86.49
         C          1.998            58.72
         C          2.999            51.56
         C          3.984            36.41
         Ag         0.000           853.49
         Ag         0.968           537.23

       Values used:

         atom   Coordination number  R0_AB[au]  C6      C8
         Ag         9.096            3.147    537.23  47741.54
         Ag         9.096            3.147    537.23  47741.54
         Ag         9.101            3.147    537.23  47741.54
         Ag         6.767            3.147    537.23  47741.54
         Ag         9.096            3.147    537.23  47741.54
         Ag         9.101            3.147    537.23  47741.54
         Ag         6.993            3.147    537.23  47741.54
         Ag         6.767            3.147    537.23  47741.54
         Ag         6.963            3.147    537.23  47741.54
         Ag         9.101            3.147    537.23  47741.54
         Ag         6.767            3.147    537.23  47741.54
         Ag         6.993            3.147    537.23  47741.54
         C          3.396            2.750     46.32   1339.68
         C          3.342            2.750     47.67   1378.83
         C          3.342            2.750     47.68   1378.86
         C          3.342            2.750     47.67   1378.80
         C          3.342            2.750     47.68   1378.86
         C          3.342            2.750     47.67   1378.82
         C          3.342            2.750     47.68   1378.86
         C          3.396            2.750     46.33   1339.83
         C          3.281            2.750     48.91   1414.49
         C          3.281            2.750     48.91   1414.65
         C          3.281            2.750     48.91   1414.49
         C          3.281            2.750     48.91   1414.66
         C          3.281            2.750     48.91   1414.49
         C          3.281            2.750     48.91   1414.66
         C          3.281            2.750     48.91   1414.48
         C          3.281            2.750     48.91   1414.66
         C          3.274            2.750     49.03   1417.90
         C          3.275            2.750     49.02   1417.81
         C          3.274            2.750     49.03   1417.90
         C          3.275            2.750     49.02   1417.81
         C          3.274            2.750     49.03   1417.90
         C          3.275            2.750     49.02   1417.81
         C          3.274            2.750     49.03   1417.90
         C          3.275            2.750     49.02   1417.81

         Molecular C6 ( Ry / a.u.^6 ) =    198083.96


     number of k points=    20  Marzari-Vanderbilt smearing, width (Ry)=  0.0100
                       cart. coord. in units 2pi/alat
        k(    1) = (   0.0000000   0.0000000   0.0000000), wk =   0.0555556
        k(    2) = (   0.0000000   0.1924501   0.0000000), wk =   0.1111111
        k(    3) = (   0.0000000   0.3849002   0.0000000), wk =   0.1111111
        k(    4) = (   0.0000000  -0.5773503   0.0000000), wk =   0.0555556
        k(    5) = (   0.1666667  -0.0962250   0.0000000), wk =   0.1111111
        k(    6) = (   0.1666667   0.0962250   0.0000000), wk =   0.1111111
        k(    7) = (   0.1666667   0.2886751   0.0000000), wk =   0.1111111
        k(    8) = (   0.1666667  -0.6735753   0.0000000), wk =   0.1111111
        k(    9) = (   0.1666667  -0.4811252   0.0000000), wk =   0.1111111
        k(   10) = (   0.1666667  -0.2886751   0.0000000), wk =   0.1111111
        k(   11) = (   0.3333333  -0.1924501   0.0000000), wk =   0.1111111
        k(   12) = (   0.3333333  -0.0000000   0.0000000), wk =   0.1111111
        k(   13) = (   0.3333333   0.1924501   0.0000000), wk =   0.1111111
        k(   14) = (   0.3333333  -0.7698004   0.0000000), wk =   0.1111111
        k(   15) = (   0.3333333  -0.5773503   0.0000000), wk =   0.1111111
        k(   16) = (   0.3333333  -0.3849002   0.0000000), wk =   0.1111111
        k(   17) = (  -0.5000000   0.2886751   0.0000000), wk =   0.0555556
        k(   18) = (  -0.5000000   0.4811252   0.0000000), wk =   0.1111111
        k(   19) = (  -0.5000000   0.6735753   0.0000000), wk =   0.1111111
        k(   20) = (  -0.5000000  -0.2886751   0.0000000), wk =   0.0555556

     Dense  grid:  1013709 G-vectors     FFT dimensions: (  72,  72, 480)

     Smooth grid:   256635 G-vectors     FFT dimensions: (  45,  45, 320)

     Estimated max dynamical RAM per process >       2.73 GB

     Check: negative core charge=   -0.000002

     Initial potential from superposition of free atoms

     starting charge     323.9955, renormalised to     324.0000

     negative rho (up, down):  2.524E-04 0.000E+00
 
     Adding external electric field

     Computed dipole along edir(3) : 
        Dipole               -0.0063 Ry au,         -0.0159 Debye
        Dipole field         -0.0000 Ry au, 
 
        Potential amp.        0.0020 Ry
        Total length         63.9630 bohr
 
     Starting wfcs are  216 randomized atomic wfcs
     Checking if some PAW data can be deallocated... 

     total cpu time spent up to now is       28.9 secs

     Self-consistent Calculation

     iteration #  1     ecut=    52.00 Ry     beta= 0.30
     Davidson diagonalization with overlap
     ethr =  1.00E-02,  avg # of iterations =  8.0

     negative rho (up, down):  1.921E-07 0.000E+00
 
     Adding external electric field

     Computed dipole along edir(3) : 
        Dipole               -0.1400 Ry au,         -0.3558 Debye
        Dipole field         -0.0003 Ry au, 
 
        Potential amp.        0.0445 Ry
        Total length         63.9630 bohr
 

     total cpu time spent up to now is      119.1 secs

     total energy              =   -3891.66445224 Ry
     estimated scf accuracy    <       3.39651801 Ry

     iteration #  2     ecut=    52.00 Ry     beta= 0.30
     Davidson diagonalization with overlap
     ethr =  1.05E-03,  avg # of iterations =  2.0

     negative rho (up, down):  7.468E-08 0.000E+00
 
     Adding external electric field

     Computed dipole along edir(3) : 
        Dipole               -0.3943 Ry au,         -1.0023 Debye
        Dipole field         -0.0010 Ry au, 
 
        Potential amp.        0.1252 Ry
        Total length         63.9630 bohr
 

     total cpu time spent up to now is      179.9 secs

     total energy              =   -3891.18958142 Ry
     estimated scf accuracy    <       1.73241786 Ry

     iteration #  3     ecut=    52.00 Ry     beta= 0.30
     Davidson diagonalization with overlap
     ethr =  5.35E-04,  avg # of iterations =  5.3

     negative rho (up, down):  7.904E-08 0.000E+00
 
     Adding external electric field

     Computed dipole along edir(3) : 
        Dipole               -0.7039 Ry au,         -1.7892 Debye
        Dipole field         -0.0017 Ry au, 
 
        Potential amp.        0.2236 Ry
        Total length         63.9630 bohr
 

     total cpu time spent up to now is      248.9 secs

     total energy              =   -3891.07639848 Ry
     estimated scf accuracy    <       0.54064042 Ry

     iteration #  4     ecut=    52.00 Ry     beta= 0.30
     Davidson diagonalization with overlap
     c_bands:  2 eigenvalues not converged
     ethr =  1.67E-04,  avg # of iterations =  9.9

     negative rho (up, down):  3.242E-08 0.000E+00
 
     Adding external electric field

     Computed dipole along edir(3) : 
        Dipole               -0.7232 Ry au,         -1.8381 Debye
        Dipole field         -0.0018 Ry au, 
 
        Potential amp.        0.2297 Ry
        Total length         63.9630 bohr
 

     total cpu time spent up to now is      338.9 secs

     total energy              =   -3891.12544012 Ry
     estimated scf accuracy    <       0.62342889 Ry

     iteration #  5     ecut=    52.00 Ry     beta= 0.30
     Davidson diagonalization with overlap
     ethr =  1.67E-04,  avg # of iterations =  1.2

     negative rho (up, down):  3.154E-07 0.000E+00
 
     Adding external electric field

     Computed dipole along edir(3) : 
        Dipole               -1.0112 Ry au,         -2.5702 Debye
        Dipole field         -0.0025 Ry au, 
 
        Potential amp.        0.3212 Ry
        Total length         63.9630 bohr
 

     total cpu time spent up to now is      393.7 secs

     total energy              =   -3891.13141011 Ry
     estimated scf accuracy    <       0.61896738 Ry

     iteration #  6     ecut=    52.00 Ry     beta= 0.30
     Davidson diagonalization with overlap
     ethr =  1.67E-04,  avg # of iterations =  3.0

     negative rho (up, down):  3.344E-07 0.000E+00
 
     Adding external electric field

     Computed dipole along edir(3) : 
        Dipole               -1.1127 Ry au,         -2.8283 Debye
        Dipole field         -0.0028 Ry au, 
 
        Potential amp.        0.3534 Ry
        Total length         63.9630 bohr
 

     total cpu time spent up to now is      454.5 secs

     total energy              =   -3891.10970642 Ry
     estimated scf accuracy    <       0.45290586 Ry

     iteration #  7     ecut=    52.00 Ry     beta= 0.30
     Davidson diagonalization with overlap
     ethr =  1.40E-04,  avg # of iterations =  2.9

     negative rho (up, down):  2.841E-07 0.000E+00
 
     Adding external electric field

     Computed dipole along edir(3) : 
        Dipole               -1.1737 Ry au,         -2.9834 Debye
        Dipole field         -0.0029 Ry au, 
 
        Potential amp.        0.3728 Ry
        Total length         63.9630 bohr
 

     total cpu time spent up to now is      515.5 secs

     total energy              =   -3891.13421705 Ry
     estimated scf accuracy    <       1.07804575 Ry

     iteration #  8     ecut=    52.00 Ry     beta= 0.30
     Davidson diagonalization with overlap
     ethr =  1.40E-04,  avg # of iterations =  3.5

     negative rho (up, down):  4.517E-07 0.000E+00
 
     Adding external electric field

     Computed dipole along edir(3) : 
        Dipole               -1.2076 Ry au,         -3.0695 Debye
        Dipole field         -0.0030 Ry au, 
 
        Potential amp.        0.3836 Ry
        Total length         63.9630 bohr
 

     total cpu time spent up to now is      578.0 secs

     total energy              =   -3891.10385050 Ry
     estimated scf accuracy    <       3.00847451 Ry

     iteration #  9     ecut=    52.00 Ry     beta= 0.30
     Davidson diagonalization with overlap
     ethr =  1.40E-04,  avg # of iterations =  1.1

     negative rho (up, down):  1.219E-08 0.000E+00
 
     Adding external electric field

     Computed dipole along edir(3) : 
        Dipole               -1.0576 Ry au,         -2.6881 Debye
        Dipole field         -0.0026 Ry au, 
 
        Potential amp.        0.3359 Ry
        Total length         63.9630 bohr
 

     total cpu time spent up to now is      634.6 secs

     total energy              =   -3891.10368267 Ry
     estimated scf accuracy    <       0.53017433 Ry

     iteration # 10     ecut=    52.00 Ry     beta= 0.30
     Davidson diagonalization with overlap
     ethr =  1.40E-04,  avg # of iterations =  1.1
 
     Adding external electric field

     Computed dipole along edir(3) : 
        Dipole               -0.8989 Ry au,         -2.2849 Debye
        Dipole field         -0.0022 Ry au, 
 
        Potential amp.        0.2855 Ry
        Total length         63.9630 bohr
 

     total cpu time spent up to now is      690.8 secs

     total energy              =   -3891.09927327 Ry
     estimated scf accuracy    <       0.22260669 Ry

     iteration # 11     ecut=    52.00 Ry     beta= 0.30
     Davidson diagonalization with overlap
     ethr =  6.87E-05,  avg # of iterations =  3.2

     negative rho (up, down):  1.458E-04 0.000E+00
 
     Adding external electric field

     Computed dipole along edir(3) : 
        Dipole               -0.5623 Ry au,         -1.4293 Debye
        Dipole field         -0.0014 Ry au, 
 
        Potential amp.        0.1786 Ry
        Total length         63.9630 bohr
 

     total cpu time spent up to now is      756.2 secs

     total energy              =   -3891.08779356 Ry
     estimated scf accuracy    <       0.22153987 Ry

     iteration # 12     ecut=    52.00 Ry     beta= 0.30
     Davidson diagonalization with overlap
     ethr =  6.84E-05,  avg # of iterations =  9.5

     negative rho (up, down):  4.445E-08 0.000E+00
 
     Adding external electric field

     Computed dipole along edir(3) : 
        Dipole               -0.7561 Ry au,         -1.9219 Debye
        Dipole field         -0.0019 Ry au, 
 
        Potential amp.        0.2402 Ry
        Total length         63.9630 bohr
 

     total cpu time spent up to now is      838.0 secs

     total energy              =   -3891.09564583 Ry
     estimated scf accuracy    <       0.04199345 Ry

     iteration # 13     ecut=    52.00 Ry     beta= 0.30
     Davidson diagonalization with overlap
     ethr =  1.30E-05,  avg # of iterations = 10.7

     negative rho (up, down):  3.101E-03 0.000E+00
 
     Adding external electric field

     Computed dipole along edir(3) : 
        Dipole               -0.4413 Ry au,         -1.1216 Debye
        Dipole field         -0.0011 Ry au, 
 
        Potential amp.        0.1402 Ry
        Total length         63.9630 bohr
 

     total cpu time spent up to now is      921.8 secs

     total energy              =   -3891.09197209 Ry
     estimated scf accuracy    <       0.05631010 Ry

     iteration # 14     ecut=    52.00 Ry     beta= 0.30
     Davidson diagonalization with overlap
     ethr =  1.30E-05,  avg # of iterations = 10.3

     negative rho (up, down):  9.955E-04 0.000E+00
 
     Adding external electric field

     Computed dipole along edir(3) : 
        Dipole               -0.4014 Ry au,         -1.0202 Debye
        Dipole field         -0.0010 Ry au, 
 
        Potential amp.        0.1275 Ry
        Total length         63.9630 bohr
 

     total cpu time spent up to now is     1006.1 secs

     total energy              =   -3891.09267290 Ry
     estimated scf accuracy    <       0.03837585 Ry

     iteration # 15     ecut=    52.00 Ry     beta= 0.30
     Davidson diagonalization with overlap
     ethr =  1.18E-05,  avg # of iterations =  3.0

     negative rho (up, down):  2.467E-03 0.000E+00
 
     Adding external electric field

     Computed dipole along edir(3) : 
        Dipole               -0.4118 Ry au,         -1.0467 Debye
        Dipole field         -0.0010 Ry au, 
 
        Potential amp.        0.1308 Ry
        Total length         63.9630 bohr
 

     total cpu time spent up to now is     1069.1 secs

     total energy              =   -3891.09335960 Ry
     estimated scf accuracy    <       0.03546563 Ry

     iteration # 16     ecut=    52.00 Ry     beta= 0.30
     Davidson diagonalization with overlap
     ethr =  1.09E-05,  avg # of iterations =  1.1

     negative rho (up, down):  1.838E-03 0.000E+00
 
     Adding external electric field

     Computed dipole along edir(3) : 
        Dipole               -0.2731 Ry au,         -0.6942 Debye
        Dipole field         -0.0007 Ry au, 
 
        Potential amp.        0.0867 Ry
        Total length         63.9630 bohr
 

     total cpu time spent up to now is     1125.4 secs

     total energy              =   -3891.09151554 Ry
     estimated scf accuracy    <       0.03677124 Ry

     iteration # 17     ecut=    52.00 Ry     beta= 0.30
     Davidson diagonalization with overlap
     ethr =  1.09E-05,  avg # of iterations =  7.9

     negative rho (up, down):  7.845E-03 0.000E+00
 
     Adding external electric field

     Computed dipole along edir(3) : 
        Dipole               -0.2516 Ry au,         -0.6394 Debye
        Dipole field         -0.0006 Ry au, 
 
        Potential amp.        0.0799 Ry
        Total length         63.9630 bohr
 

     total cpu time spent up to now is     1202.6 secs

     total energy              =   -3891.09327609 Ry
     estimated scf accuracy    <       0.03022066 Ry

     iteration # 18     ecut=    52.00 Ry     beta= 0.30
     Davidson diagonalization with overlap
     ethr =  9.33E-06,  avg # of iterations =  6.7

     negative rho (up, down):  7.598E-07 0.000E+00
 
     Adding external electric field

     Computed dipole along edir(3) : 
        Dipole               -0.2150 Ry au,         -0.5466 Debye
        Dipole field         -0.0005 Ry au, 
 
        Potential amp.        0.0683 Ry
        Total length         63.9630 bohr
 

     total cpu time spent up to now is     1275.9 secs

     total energy              =   -3891.08934005 Ry
     estimated scf accuracy    <       0.06172951 Ry

     iteration # 19     ecut=    52.00 Ry     beta= 0.30
     Davidson diagonalization with overlap
     ethr =  9.33E-06,  avg # of iterations =  4.0

     negative rho (up, down):  3.744E-04 0.000E+00
 
     Adding external electric field

     Computed dipole along edir(3) : 
        Dipole               -0.2302 Ry au,         -0.5851 Debye
        Dipole field         -0.0006 Ry au, 
 
        Potential amp.        0.0731 Ry
        Total length         63.9630 bohr
 

     total cpu time spent up to now is     1341.5 secs

     total energy              =   -3891.09114646 Ry
     estimated scf accuracy    <       0.03986518 Ry

     iteration # 20     ecut=    52.00 Ry     beta= 0.30
     Davidson diagonalization with overlap
     ethr =  9.33E-06,  avg # of iterations =  3.5

     negative rho (up, down):  1.569E-06 0.000E+00
 
     Adding external electric field

     Computed dipole along edir(3) : 
        Dipole               -0.3348 Ry au,         -0.8510 Debye
        Dipole field         -0.0008 Ry au, 
 
        Potential amp.        0.1063 Ry
        Total length         63.9630 bohr
 

     total cpu time spent up to now is     1405.6 secs

     total energy              =   -3891.08765404 Ry
     estimated scf accuracy    <       0.04774091 Ry

     iteration # 21     ecut=    52.00 Ry     beta= 0.30
     Davidson diagonalization with overlap
     ethr =  9.33E-06,  avg # of iterations =  8.3

     negative rho (up, down):  6.464E-06 0.000E+00
 
     Adding external electric field

     Computed dipole along edir(3) : 
        Dipole               -0.2422 Ry au,         -0.6156 Debye
        Dipole field         -0.0006 Ry au, 
 
        Potential amp.        0.0769 Ry
        Total length         63.9630 bohr
 

     total cpu time spent up to now is     1483.8 secs

     total energy              =   -3891.08847317 Ry
     estimated scf accuracy    <       0.01633213 Ry

     iteration # 22     ecut=    52.00 Ry     beta= 0.30
     Davidson diagonalization with overlap
     ethr =  5.04E-06,  avg # of iterations =  7.8

     negative rho (up, down):  5.060E-08 0.000E+00
 
     Adding external electric field

     Computed dipole along edir(3) : 
        Dipole               -0.2036 Ry au,         -0.5175 Debye
        Dipole field         -0.0005 Ry au, 
 
        Potential amp.        0.0647 Ry
        Total length         63.9630 bohr
 

     total cpu time spent up to now is     1561.3 secs

     total energy              =   -3891.08861508 Ry
     estimated scf accuracy    <       0.05742380 Ry

     iteration # 23     ecut=    52.00 Ry     beta= 0.30
     Davidson diagonalization with overlap
     ethr =  5.04E-06,  avg # of iterations =  7.4

     negative rho (up, down):  1.309E-06 0.000E+00
 
     Adding external electric field

     Computed dipole along edir(3) : 
        Dipole               -0.1655 Ry au,         -0.4207 Debye
        Dipole field         -0.0004 Ry au, 
 
        Potential amp.        0.0526 Ry
        Total length         63.9630 bohr
 

     total cpu time spent up to now is     1636.8 secs

     total energy              =   -3891.08930334 Ry
     estimated scf accuracy    <       0.06808400 Ry

     iteration # 24     ecut=    52.00 Ry     beta= 0.30
     Davidson diagonalization with overlap
     c_bands:  2 eigenvalues not converged
     ethr =  5.04E-06,  avg # of iterations =  6.8

     negative rho (up, down):  2.860E-06 0.000E+00
 
     Adding external electric field

     Computed dipole along edir(3) : 
        Dipole               -0.1574 Ry au,         -0.4000 Debye
        Dipole field         -0.0004 Ry au, 
 
        Potential amp.        0.0500 Ry
        Total length         63.9630 bohr
 

     total cpu time spent up to now is     1710.8 secs

     total energy              =   -3891.08917753 Ry
     estimated scf accuracy    <       0.10429544 Ry

     iteration # 25     ecut=    52.00 Ry     beta= 0.30
     Davidson diagonalization with overlap
     ethr =  5.04E-06,  avg # of iterations =  1.9

     negative rho (up, down):  6.186E-07 0.000E+00
 
     Adding external electric field

     Computed dipole along edir(3) : 
        Dipole               -0.2668 Ry au,         -0.6781 Debye
        Dipole field         -0.0007 Ry au, 
 
        Potential amp.        0.0847 Ry
        Total length         63.9630 bohr
 

     total cpu time spent up to now is     1772.9 secs

     total energy              =   -3891.08792310 Ry
     estimated scf accuracy    <       0.08984895 Ry

     iteration # 26     ecut=    52.00 Ry     beta= 0.30
     Davidson diagonalization with overlap
     c_bands:  1 eigenvalues not converged
     ethr =  5.04E-06,  avg # of iterations = 10.9

     negative rho (up, down):  8.312E-08 0.000E+00
 
     Adding external electric field

     Computed dipole along edir(3) : 
        Dipole               -0.3909 Ry au,         -0.9936 Debye
        Dipole field         -0.0010 Ry au, 
 
        Potential amp.        0.1242 Ry
        Total length         63.9630 bohr
 

     total cpu time spent up to now is     1857.9 secs

     total energy              =   -3891.08745562 Ry
     estimated scf accuracy    <       0.03505221 Ry

     iteration # 27     ecut=    52.00 Ry     beta= 0.30
     Davidson diagonalization with overlap
     c_bands:  1 eigenvalues not converged
     ethr =  5.04E-06,  avg # of iterations =  9.3

     negative rho (up, down):  4.582E-07 0.000E+00
 
     Adding external electric field

     Computed dipole along edir(3) : 
        Dipole               -0.4488 Ry au,         -1.1408 Debye
        Dipole field         -0.0011 Ry au, 
 
        Potential amp.        0.1426 Ry
        Total length         63.9630 bohr
 

     total cpu time spent up to now is     1937.4 secs

     total energy              =   -3891.08811255 Ry
     estimated scf accuracy    <       0.01614267 Ry

     iteration # 28     ecut=    52.00 Ry     beta= 0.30
     Davidson diagonalization with overlap
     c_bands:  1 eigenvalues not converged
     c_bands:  1 eigenvalues not converged
     ethr =  4.98E-06,  avg # of iterations =  9.7

     negative rho (up, down):  2.833E-07 0.000E+00
 
     Adding external electric field

     Computed dipole along edir(3) : 
        Dipole               -0.4779 Ry au,         -1.2148 Debye
        Dipole field         -0.0012 Ry au, 
 
        Potential amp.        0.1518 Ry
        Total length         63.9630 bohr
 

     total cpu time spent up to now is     2017.7 secs

     total energy              =   -3891.08828722 Ry
     estimated scf accuracy    <       0.01592804 Ry

     iteration # 29     ecut=    52.00 Ry     beta= 0.30
     Davidson diagonalization with overlap
     c_bands:  1 eigenvalues not converged
     ethr =  4.92E-06,  avg # of iterations =  4.5

     negative rho (up, down):  2.014E-04 0.000E+00
 
     Adding external electric field

     Computed dipole along edir(3) : 
        Dipole               -0.1671 Ry au,         -0.4248 Debye
        Dipole field         -0.0004 Ry au, 
 
        Potential amp.        0.0531 Ry
        Total length         63.9630 bohr
 

     total cpu time spent up to now is     2084.5 secs

     total energy              =   -3891.08593590 Ry
     estimated scf accuracy    <       0.01696621 Ry

     iteration # 30     ecut=    52.00 Ry     beta= 0.30
     Davidson diagonalization with overlap
     c_bands:  1 eigenvalues not converged
     c_bands:  1 eigenvalues not converged
     ethr =  4.92E-06,  avg # of iterations = 11.1

     negative rho (up, down):  1.917E-06 0.000E+00
 
     Adding external electric field

     Computed dipole along edir(3) : 
        Dipole               -0.3561 Ry au,         -0.9051 Debye
        Dipole field         -0.0009 Ry au, 
 
        Potential amp.        0.1131 Ry
        Total length         63.9630 bohr
 

     total cpu time spent up to now is     2173.1 secs

     total energy              =   -3891.08546530 Ry
     estimated scf accuracy    <       0.04988295 Ry

     iteration # 31     ecut=    52.00 Ry     beta= 0.30
     Davidson diagonalization with overlap
     c_bands:  1 eigenvalues not converged
     c_bands:  1 eigenvalues not converged
     c_bands:  1 eigenvalues not converged
     ethr =  4.92E-06,  avg # of iterations = 11.0

     negative rho (up, down):  1.885E-06 0.000E+00
 
     Adding external electric field

     Computed dipole along edir(3) : 
        Dipole               -0.3643 Ry au,         -0.9259 Debye
        Dipole field         -0.0009 Ry au, 
 
        Potential amp.        0.1157 Ry
        Total length         63.9630 bohr
 

     total cpu time spent up to now is     2260.9 secs

     total energy              =   -3891.08720780 Ry
     estimated scf accuracy    <       0.00709363 Ry

     iteration # 32     ecut=    52.00 Ry     beta= 0.30
     Davidson diagonalization with overlap
     ethr =  2.19E-06,  avg # of iterations =  1.6

     negative rho (up, down):  6.800E-06 0.000E+00
 
     Adding external electric field

     Computed dipole along edir(3) : 
        Dipole               -0.3710 Ry au,         -0.9430 Debye
        Dipole field         -0.0009 Ry au, 
 
        Potential amp.        0.1178 Ry
        Total length         63.9630 bohr
 

     total cpu time spent up to now is     2318.7 secs

     total energy              =   -3891.08741477 Ry
     estimated scf accuracy    <       0.00901963 Ry

     iteration # 33     ecut=    52.00 Ry     beta= 0.30
     Davidson diagonalization with overlap
     ethr =  2.19E-06,  avg # of iterations =  1.6

     negative rho (up, down):  8.632E-06 0.000E+00
 
     Adding external electric field

     Computed dipole along edir(3) : 
        Dipole               -0.3879 Ry au,         -0.9858 Debye
        Dipole field         -0.0010 Ry au, 
 
        Potential amp.        0.1232 Ry
        Total length         63.9630 bohr
 

     total cpu time spent up to now is     2377.0 secs

     total energy              =   -3891.08754573 Ry
     estimated scf accuracy    <       0.01114092 Ry

     iteration # 34     ecut=    52.00 Ry     beta= 0.30
     Davidson diagonalization with overlap
     ethr =  2.19E-06,  avg # of iterations =  2.0

     negative rho (up, down):  5.124E-06 0.000E+00
 
     Adding external electric field

     Computed dipole along edir(3) : 
        Dipole               -0.4006 Ry au,         -1.0182 Debye
        Dipole field         -0.0010 Ry au, 
 
        Potential amp.        0.1272 Ry
        Total length         63.9630 bohr
 

     total cpu time spent up to now is     2437.7 secs

     total energy              =   -3891.08761976 Ry
     estimated scf accuracy    <       0.01142151 Ry

     iteration # 35     ecut=    52.00 Ry     beta= 0.30
     Davidson diagonalization with overlap
     ethr =  2.19E-06,  avg # of iterations =  3.4

     negative rho (up, down):  1.023E-05 0.000E+00
 
     Adding external electric field

     Computed dipole along edir(3) : 
        Dipole               -0.3857 Ry au,         -0.9803 Debye
        Dipole field         -0.0010 Ry au, 
 
        Potential amp.        0.1225 Ry
        Total length         63.9630 bohr
 

     total cpu time spent up to now is     2502.4 secs

     total energy              =   -3891.08659150 Ry
     estimated scf accuracy    <       0.01355136 Ry

     iteration # 36     ecut=    52.00 Ry     beta= 0.30
     Davidson diagonalization with overlap
     ethr =  2.19E-06,  avg # of iterations =  7.0

     negative rho (up, down):  1.691E-05 0.000E+00
 
     Adding external electric field

     Computed dipole along edir(3) : 
        Dipole               -0.3827 Ry au,         -0.9726 Debye
        Dipole field         -0.0010 Ry au, 
 
        Potential amp.        0.1215 Ry
        Total length         63.9630 bohr
 

     total cpu time spent up to now is     2577.8 secs

     total energy              =   -3891.08653075 Ry
     estimated scf accuracy    <       0.00563109 Ry

     iteration # 37     ecut=    52.00 Ry     beta= 0.30
     Davidson diagonalization with overlap
     ethr =  1.74E-06,  avg # of iterations =  3.8

     negative rho (up, down):  1.890E-06 0.000E+00
 
     Adding external electric field

     Computed dipole along edir(3) : 
        Dipole               -0.3081 Ry au,         -0.7832 Debye
        Dipole field         -0.0008 Ry au, 
 
        Potential amp.        0.0979 Ry
        Total length         63.9630 bohr
 

     total cpu time spent up to now is     2643.5 secs

     total energy              =   -3891.08612295 Ry
     estimated scf accuracy    <       0.00416569 Ry

     iteration # 38     ecut=    52.00 Ry     beta= 0.30
     Davidson diagonalization with overlap
     ethr =  1.29E-06,  avg # of iterations =  9.4

     negative rho (up, down):  6.341E-06 0.000E+00
 
     Adding external electric field

     Computed dipole along edir(3) : 
        Dipole               -0.2864 Ry au,         -0.7278 Debye
        Dipole field         -0.0007 Ry au, 
 
        Potential amp.        0.0909 Ry
        Total length         63.9630 bohr
 

     total cpu time spent up to now is     2724.2 secs

     total energy              =   -3891.08687883 Ry
     estimated scf accuracy    <       0.00750832 Ry

     iteration # 39     ecut=    52.00 Ry     beta= 0.30
     Davidson diagonalization with overlap
     c_bands:  1 eigenvalues not converged
     c_bands:  1 eigenvalues not converged
     ethr =  1.29E-06,  avg # of iterations = 11.8

     negative rho (up, down):  8.914E-06 0.000E+00
 
     Adding external electric field

     Computed dipole along edir(3) : 
        Dipole               -0.2896 Ry au,         -0.7362 Debye
        Dipole field         -0.0007 Ry au, 
 
        Potential amp.        0.0920 Ry
        Total length         63.9630 bohr
 

     total cpu time spent up to now is     2813.1 secs

     total energy              =   -3891.08669539 Ry
     estimated scf accuracy    <       0.01346188 Ry

     iteration # 40     ecut=    52.00 Ry     beta= 0.30
     Davidson diagonalization with overlap
     ethr =  1.29E-06,  avg # of iterations =  5.8

     negative rho (up, down):  2.356E-05 0.000E+00
 
     Adding external electric field

     Computed dipole along edir(3) : 
        Dipole               -0.2929 Ry au,         -0.7446 Debye
        Dipole field         -0.0007 Ry au, 
 
        Potential amp.        0.0930 Ry
        Total length         63.9630 bohr
 

     total cpu time spent up to now is     2882.4 secs

     total energy              =   -3891.08645414 Ry
     estimated scf accuracy    <       0.01302457 Ry

     iteration # 41     ecut=    52.00 Ry     beta= 0.30
     Davidson diagonalization with overlap
     ethr =  1.29E-06,  avg # of iterations =  7.2

     negative rho (up, down):  2.985E-05 0.000E+00
 
     Adding external electric field

     Computed dipole along edir(3) : 
        Dipole               -0.2665 Ry au,         -0.6773 Debye
        Dipole field         -0.0007 Ry au, 
 
        Potential amp.        0.0846 Ry
        Total length         63.9630 bohr
 

     total cpu time spent up to now is     2958.5 secs

     total energy              =   -3891.08639920 Ry
     estimated scf accuracy    <       0.01907423 Ry

     iteration # 42     ecut=    52.00 Ry     beta= 0.30
     Davidson diagonalization with overlap
     c_bands:  1 eigenvalues not converged
     c_bands:  1 eigenvalues not converged
     ethr =  1.29E-06,  avg # of iterations = 10.4

     negative rho (up, down):  2.259E-05 0.000E+00
 
     Adding external electric field

     Computed dipole along edir(3) : 
        Dipole               -0.2906 Ry au,         -0.7385 Debye
        Dipole field         -0.0007 Ry au, 
 
        Potential amp.        0.0923 Ry
        Total length         63.9630 bohr
 

     total cpu time spent up to now is     3041.4 secs

     total energy              =   -3891.08633867 Ry
     estimated scf accuracy    <       0.02205203 Ry

     iteration # 43     ecut=    52.00 Ry     beta= 0.30
     Davidson diagonalization with overlap
     ethr =  1.29E-06,  avg # of iterations =  2.8

     negative rho (up, down):  3.031E-05 0.000E+00
 
     Adding external electric field

     Computed dipole along edir(3) : 
        Dipole               -0.2990 Ry au,         -0.7601 Debye
        Dipole field         -0.0007 Ry au, 
 
        Potential amp.        0.0950 Ry
        Total length         63.9630 bohr
 

     total cpu time spent up to now is     3104.6 secs

     total energy              =   -3891.08623298 Ry
     estimated scf accuracy    <       0.01544797 Ry

     iteration # 44     ecut=    52.00 Ry     beta= 0.30
     Davidson diagonalization with overlap
     ethr =  1.29E-06,  avg # of iterations =  2.5

     negative rho (up, down):  1.814E-05 0.000E+00
 
     Adding external electric field

     Computed dipole along edir(3) : 
        Dipole               -0.2968 Ry au,         -0.7543 Debye
        Dipole field         -0.0007 Ry au, 
 
        Potential amp.        0.0943 Ry
        Total length         63.9630 bohr
 

     total cpu time spent up to now is     3167.9 secs

     total energy              =   -3891.08640217 Ry
     estimated scf accuracy    <       0.00900794 Ry

     iteration # 45     ecut=    52.00 Ry     beta= 0.30
     Davidson diagonalization with overlap
     ethr =  1.29E-06,  avg # of iterations =  1.3

     negative rho (up, down):  1.853E-03 0.000E+00
 
     Adding external electric field

     Computed dipole along edir(3) : 
        Dipole               -0.2071 Ry au,         -0.5265 Debye
        Dipole field         -0.0005 Ry au, 
 
        Potential amp.        0.0658 Ry
        Total length         63.9630 bohr
 

     total cpu time spent up to now is     3223.4 secs

     total energy              =   -3891.08515503 Ry
     estimated scf accuracy    <       0.01157030 Ry

     iteration # 46     ecut=    52.00 Ry     beta= 0.30
     Davidson diagonalization with overlap
     ethr =  1.29E-06,  avg # of iterations = 11.4

     negative rho (up, down):  2.449E-03 0.000E+00
 
     Adding external electric field

     Computed dipole along edir(3) : 
        Dipole               -0.0629 Ry au,         -0.1598 Debye
        Dipole field         -0.0002 Ry au, 
 
        Potential amp.        0.0200 Ry
        Total length         63.9630 bohr
 

     total cpu time spent up to now is     3310.5 secs

     total energy              =   -3891.08418428 Ry
     estimated scf accuracy    <       0.00603919 Ry

     iteration # 47     ecut=    52.00 Ry     beta= 0.30
     Davidson diagonalization with overlap
     c_bands:  1 eigenvalues not converged
     c_bands:  1 eigenvalues not converged
     c_bands:  1 eigenvalues not converged
     ethr =  1.29E-06,  avg # of iterations = 13.4

     negative rho (up, down):  2.887E-03 0.000E+00
 
     Adding external electric field

     Computed dipole along edir(3) : 
        Dipole               -0.0275 Ry au,         -0.0700 Debye
        Dipole field         -0.0001 Ry au, 
 
        Potential amp.        0.0087 Ry
        Total length         63.9630 bohr
 

     total cpu time spent up to now is     3407.8 secs

     total energy              =   -3891.08484321 Ry
     estimated scf accuracy    <       0.01660049 Ry

     iteration # 48     ecut=    52.00 Ry     beta= 0.30
     Davidson diagonalization with overlap
     ethr =  1.29E-06,  avg # of iterations = 12.9

     negative rho (up, down):  6.571E-04 0.000E+00
 
     Adding external electric field

     Computed dipole along edir(3) : 
        Dipole               -0.0684 Ry au,         -0.1737 Debye
        Dipole field         -0.0002 Ry au, 
 
        Potential amp.        0.0217 Ry
        Total length         63.9630 bohr
 

     total cpu time spent up to now is     3501.3 secs

     total energy              =   -3891.08480194 Ry
     estimated scf accuracy    <       0.00185735 Ry

     iteration # 49     ecut=    52.00 Ry     beta= 0.30
     Davidson diagonalization with overlap
     ethr =  5.73E-07,  avg # of iterations = 10.8

     negative rho (up, down):  4.770E-04 0.000E+00
 
     Adding external electric field

     Computed dipole along edir(3) : 
        Dipole               -0.0209 Ry au,         -0.0532 Debye
        Dipole field         -0.0001 Ry au, 
 
        Potential amp.        0.0066 Ry
        Total length         63.9630 bohr
 

     total cpu time spent up to now is     3588.8 secs

     total energy              =   -3891.08409247 Ry
     estimated scf accuracy    <       0.00734641 Ry

     iteration # 50     ecut=    52.00 Ry     beta= 0.30
     Davidson diagonalization with overlap
     ethr =  5.73E-07,  avg # of iterations = 10.4

     negative rho (up, down):  1.293E-04 0.000E+00
 
     Adding external electric field

     Computed dipole along edir(3) : 
        Dipole               -0.0226 Ry au,         -0.0575 Debye
        Dipole field         -0.0001 Ry au, 
 
        Potential amp.        0.0072 Ry
        Total length         63.9630 bohr
 

     total cpu time spent up to now is     3678.3 secs

     total energy              =   -3891.08544126 Ry
     estimated scf accuracy    <       0.00437993 Ry

     iteration # 51     ecut=    52.00 Ry     beta= 0.30
     Davidson diagonalization with overlap
     ethr =  5.73E-07,  avg # of iterations =  2.0

     negative rho (up, down):  1.531E-05 0.000E+00
 
     Adding external electric field

     Computed dipole along edir(3) : 
        Dipole               -0.0259 Ry au,         -0.0657 Debye
        Dipole field         -0.0001 Ry au, 
 
        Potential amp.        0.0082 Ry
        Total length         63.9630 bohr
 

     total cpu time spent up to now is     3738.7 secs

     total energy              =   -3891.08481928 Ry
     estimated scf accuracy    <       0.00419648 Ry

     iteration # 52     ecut=    52.00 Ry     beta= 0.30
     Davidson diagonalization with overlap
     ethr =  5.73E-07,  avg # of iterations = 10.3

     negative rho (up, down):  6.406E-05 0.000E+00
 
     Adding external electric field

     Computed dipole along edir(3) : 
        Dipole               -0.0131 Ry au,         -0.0334 Debye
        Dipole field         -0.0000 Ry au, 
 
        Potential amp.        0.0042 Ry
        Total length         63.9630 bohr
 

     total cpu time spent up to now is     3824.4 secs

     total energy              =   -3891.08490706 Ry
     estimated scf accuracy    <       0.00046615 Ry

     iteration # 53     ecut=    52.00 Ry     beta= 0.30
     Davidson diagonalization with overlap
     c_bands:  1 eigenvalues not converged
     ethr =  1.44E-07,  avg # of iterations =  2.9

     negative rho (up, down):  3.430E-04 0.000E+00
 
     Adding external electric field

     Computed dipole along edir(3) : 
        Dipole                0.0123 Ry au,          0.0312 Debye
        Dipole field          0.0000 Ry au, 
 
        Potential amp.       -0.0039 Ry
        Total length         63.9630 bohr
 

     total cpu time spent up to now is     3887.3 secs

     total energy              =   -3891.08492591 Ry
     estimated scf accuracy    <       0.00023442 Ry

     iteration # 54     ecut=    52.00 Ry     beta= 0.30
     Davidson diagonalization with overlap
     ethr =  7.24E-08,  avg # of iterations =  5.0

     negative rho (up, down):  1.927E-04 0.000E+00
 
     Adding external electric field

     Computed dipole along edir(3) : 
        Dipole                0.0095 Ry au,          0.0242 Debye
        Dipole field          0.0000 Ry au, 
 
        Potential amp.       -0.0030 Ry
        Total length         63.9630 bohr
 

     total cpu time spent up to now is     3957.4 secs

     total energy              =   -3891.08494076 Ry
     estimated scf accuracy    <       0.00028583 Ry

     iteration # 55     ecut=    52.00 Ry     beta= 0.30
     Davidson diagonalization with overlap
     ethr =  7.24E-08,  avg # of iterations =  1.0

     negative rho (up, down):  2.132E-04 0.000E+00
 
     Adding external electric field

     Computed dipole along edir(3) : 
        Dipole                0.0116 Ry au,          0.0295 Debye
        Dipole field          0.0000 Ry au, 
 
        Potential amp.       -0.0037 Ry
        Total length         63.9630 bohr
 

     total cpu time spent up to now is     4012.1 secs

     total energy              =   -3891.08494810 Ry
     estimated scf accuracy    <       0.00000603 Ry

     iteration # 56     ecut=    52.00 Ry     beta= 0.30
     Davidson diagonalization with overlap
     ethr =  1.86E-09,  avg # of iterations =  2.5

     negative rho (up, down):  2.197E-04 0.000E+00
 
     Adding external electric field

     Computed dipole along edir(3) : 
        Dipole                0.0123 Ry au,          0.0313 Debye
        Dipole field          0.0000 Ry au, 
 
        Potential amp.       -0.0039 Ry
        Total length         63.9630 bohr
 

     total cpu time spent up to now is     4078.3 secs

     total energy              =   -3891.08493484 Ry
     estimated scf accuracy    <       0.00011476 Ry

     iteration # 57     ecut=    52.00 Ry     beta= 0.30
     Davidson diagonalization with overlap
     ethr =  1.86E-09,  avg # of iterations =  3.0

     negative rho (up, down):  1.338E-04 0.000E+00
 
     Adding external electric field

     Computed dipole along edir(3) : 
        Dipole                0.0105 Ry au,          0.0267 Debye
        Dipole field          0.0000 Ry au, 
 
        Potential amp.       -0.0033 Ry
        Total length         63.9630 bohr
 

     total cpu time spent up to now is     4145.1 secs

     total energy              =   -3891.08494271 Ry
     estimated scf accuracy    <       0.00014948 Ry

     iteration # 58     ecut=    52.00 Ry     beta= 0.30
     Davidson diagonalization with overlap
     ethr =  1.86E-09,  avg # of iterations =  2.0

     negative rho (up, down):  1.792E-04 0.000E+00
 
     Adding external electric field

     Computed dipole along edir(3) : 
        Dipole                0.0121 Ry au,          0.0308 Debye
        Dipole field          0.0000 Ry au, 
 
        Potential amp.       -0.0039 Ry
        Total length         63.9630 bohr
 

     total cpu time spent up to now is     4206.5 secs

     total energy              =   -3891.08494716 Ry
     estimated scf accuracy    <       0.00000308 Ry

     iteration # 59     ecut=    52.00 Ry     beta= 0.30
     Davidson diagonalization with overlap
     ethr =  9.52E-10,  avg # of iterations =  2.0

     negative rho (up, down):  1.815E-04 0.000E+00
 
     Adding external electric field

     Computed dipole along edir(3) : 
        Dipole                0.0122 Ry au,          0.0311 Debye
        Dipole field          0.0000 Ry au, 
 
        Potential amp.       -0.0039 Ry
        Total length         63.9630 bohr
 

     total cpu time spent up to now is     4266.8 secs

     total energy              =   -3891.08494880 Ry
     estimated scf accuracy    <       0.00003507 Ry

     iteration # 60     ecut=    52.00 Ry     beta= 0.30
     Davidson diagonalization with overlap
     ethr =  9.52E-10,  avg # of iterations =  1.0

     negative rho (up, down):  2.113E-04 0.000E+00
 
     Adding external electric field

     Computed dipole along edir(3) : 
        Dipole                0.0135 Ry au,          0.0344 Debye
        Dipole field          0.0000 Ry au, 
 
        Potential amp.       -0.0043 Ry
        Total length         63.9630 bohr
 

     total cpu time spent up to now is     4320.0 secs

     total energy              =   -3891.08494739 Ry
     estimated scf accuracy    <       0.00003551 Ry

     iteration # 61     ecut=    52.00 Ry     beta= 0.30
     Davidson diagonalization with overlap
     ethr =  9.52E-10,  avg # of iterations =  2.0

     negative rho (up, down):  2.020E-04 0.000E+00
 
     Adding external electric field

     Computed dipole along edir(3) : 
        Dipole                0.0134 Ry au,          0.0340 Debye
        Dipole field          0.0000 Ry au, 
 
        Potential amp.       -0.0043 Ry
        Total length         63.9630 bohr
 

     total cpu time spent up to now is     4381.3 secs

     total energy              =   -3891.08494793 Ry
     estimated scf accuracy    <       0.00000207 Ry

     iteration # 62     ecut=    52.00 Ry     beta= 0.30
     Davidson diagonalization with overlap
     ethr =  6.38E-10,  avg # of iterations =  1.5

     negative rho (up, down):  2.468E-04 0.000E+00
 
     Adding external electric field

     Computed dipole along edir(3) : 
        Dipole                0.0145 Ry au,          0.0369 Debye
        Dipole field          0.0000 Ry au, 
 
        Potential amp.       -0.0046 Ry
        Total length         63.9630 bohr
 

     total cpu time spent up to now is     4437.9 secs

     total energy              =   -3891.08494790 Ry
     estimated scf accuracy    <       0.00000060 Ry

     iteration # 63     ecut=    52.00 Ry     beta= 0.30
     Davidson diagonalization with overlap
     ethr =  1.85E-10,  avg # of iterations =  2.0

     negative rho (up, down):  2.883E-04 0.000E+00
 
     Adding external electric field

     Computed dipole along edir(3) : 
        Dipole                0.0148 Ry au,          0.0376 Debye
        Dipole field          0.0000 Ry au, 
 
        Potential amp.       -0.0047 Ry
        Total length         63.9630 bohr
 

     total cpu time spent up to now is     4498.1 secs

     total energy              =   -3891.08494779 Ry
     estimated scf accuracy    <       0.00000034 Ry

     iteration # 64     ecut=    52.00 Ry     beta= 0.30
     Davidson diagonalization with overlap
     ethr =  1.06E-10,  avg # of iterations =  2.0

     negative rho (up, down):  2.780E-04 0.000E+00
 
     Adding external electric field

     Computed dipole along edir(3) : 
        Dipole                0.0145 Ry au,          0.0368 Debye
        Dipole field          0.0000 Ry au, 
 
        Potential amp.       -0.0046 Ry
        Total length         63.9630 bohr
 

     total cpu time spent up to now is     4559.4 secs

     total energy              =   -3891.08494778 Ry
     estimated scf accuracy    <       0.00000124 Ry

     iteration # 65     ecut=    52.00 Ry     beta= 0.30
     Davidson diagonalization with overlap
     ethr =  1.06E-10,  avg # of iterations =  2.0

     negative rho (up, down):  2.772E-04 0.000E+00
 
     Adding external electric field

     Computed dipole along edir(3) : 
        Dipole                0.0143 Ry au,          0.0364 Debye
        Dipole field          0.0000 Ry au, 
 
        Potential amp.       -0.0045 Ry
        Total length         63.9630 bohr
 

     total cpu time spent up to now is     4620.6 secs

     total energy              =   -3891.08494783 Ry
     estimated scf accuracy    <       0.00000003 Ry

     iteration # 66     ecut=    52.00 Ry     beta= 0.30
     Davidson diagonalization with overlap
     ethr =  9.95E-12,  avg # of iterations =  2.0

     negative rho (up, down):  2.758E-04 0.000E+00
 
     Adding external electric field

     Computed dipole along edir(3) : 
        Dipole                0.0142 Ry au,          0.0362 Debye
        Dipole field          0.0000 Ry au, 
 
        Potential amp.       -0.0045 Ry
        Total length         63.9630 bohr
 

     total cpu time spent up to now is     4682.8 secs

     total energy              =   -3891.08494783 Ry
     estimated scf accuracy    <       0.00000009 Ry

     iteration # 67     ecut=    52.00 Ry     beta= 0.30
     Davidson diagonalization with overlap
     ethr =  9.95E-12,  avg # of iterations =  2.0

     negative rho (up, down):  2.852E-04 0.000E+00
 
     Adding external electric field

     Computed dipole along edir(3) : 
        Dipole                0.0136 Ry au,          0.0345 Debye
        Dipole field          0.0000 Ry au, 
 
        Potential amp.       -0.0043 Ry
        Total length         63.9630 bohr
 

     total cpu time spent up to now is     4741.8 secs

     End of self-consistent calculation

          k = 0.0000 0.0000 0.0000 ( 32011 PWs)   bands (ev):

   -87.0997 -87.0868 -87.0838 -87.0837 -87.0752 -87.0752 -87.0289 -87.0158
   -87.0155 -86.8674 -86.8540 -86.8538 -50.6112 -50.5838 -50.5838 -50.5828
   -50.5827 -50.5816 -50.5815 -50.5546 -50.5545 -50.5394 -50.5394 -50.5289
   -50.5259 -50.5259 -50.5092 -50.5091 -50.4981 -50.4980 -50.4821 -50.4820
   -50.4664 -50.4661 -50.4502 -50.4475 -50.4466 -50.4215 -50.4214 -50.3504
   -50.3503 -50.3482 -50.3481 -50.2866 -50.2747 -50.2745 -50.2603 -50.2599
   -14.9116 -14.3193 -14.1696  -9.8213  -9.7947  -9.7947  -9.1936  -9.1936
    -9.1934  -9.1117  -9.1117  -9.1117  -8.6786  -8.6627  -8.6627  -8.0536
    -8.0535  -8.0534  -7.9815  -7.9815  -7.9815  -3.5505  -2.7451  -2.4100
    -1.9597  -1.9597  -1.9445  -1.8630  -1.5206  -1.3436  -1.3435  -1.3435
    -1.3123  -1.2818  -1.2818  -1.2818  -1.1339  -0.6508  -0.6482  -0.6474
    -0.6470  -0.6393  -0.6387  -0.3159  -0.3157  -0.2883  -0.2882  -0.1384
    -0.1189  -0.0658  -0.0652   0.1474   0.2091   0.2095   0.2592   0.2602
     0.2636   0.2646   0.3160   0.3169   0.3508   0.3830   0.3840   0.4054
     0.4080   0.4980   0.4997   0.5365   0.5389   0.6855   0.6855   0.7029
     0.7030   1.0823   1.1089   1.1610   1.1618   1.2118   1.2148   1.2757
     1.2759   1.2885   1.3317   1.3318   1.3326   1.3465   1.5556   1.6620
     1.6690   1.7127   1.7922   1.8192   1.8599   1.8614   1.8998   1.9009
     1.9406   1.9406   1.9494   1.9583   1.9961   1.9961   2.1213   2.1222
     2.2620   2.5484   2.5485   2.5573   2.8647   2.8647   2.8652   4.2642
     5.5842   5.8407   5.9467   5.9468   6.5517   6.5554   6.5554   6.8865
     6.8901   6.8901   8.4275   8.4318   8.6256   8.6259   8.6420   8.6422
     8.6532   9.0541   9.4003   9.4024   9.4319   9.4331   9.5539   9.8178
     9.8315  10.0586  10.7335  11.0844  11.0868  11.1012  11.1034  11.1293
    11.4033  11.4299

          k = 0.0000 0.1925 0.0000 ( 32019 PWs)   bands (ev):

   -87.0985 -87.0858 -87.0845 -87.0842 -87.0757 -87.0756 -87.0279 -87.0164
   -87.0160 -86.8664 -86.8546 -86.8543 -50.6079 -50.6014 -50.5954 -50.5930
   -50.5888 -50.5654 -50.5613 -50.5511 -50.5491 -50.5344 -50.5331 -50.5303
   -50.5230 -50.5219 -50.5136 -50.5115 -50.4914 -50.4860 -50.4853 -50.4831
   -50.4781 -50.4691 -50.4493 -50.4476 -50.4467 -50.4324 -50.4243 -50.3681
   -50.3627 -50.3273 -50.3246 -50.2856 -50.2752 -50.2750 -50.2713 -50.2631
   -14.7504 -14.1578 -14.0094 -11.0076 -10.4085 -10.2893 -10.1751 -10.1588
    -9.5647  -9.5647  -9.4570  -9.4570  -8.0541  -8.0422  -7.4421  -7.4420
    -7.3483  -7.3483  -7.2316  -6.6267  -6.5317  -3.3549  -2.5494  -2.4393
    -2.4282  -2.1657  -1.8227  -1.8227  -1.7965  -1.7577  -1.7577  -1.6739
    -1.3065  -1.1854  -1.1337  -1.1238  -0.9481  -0.9381  -0.8040  -0.7591
    -0.7458  -0.6659  -0.5405  -0.4708  -0.3772  -0.3690  -0.2975  -0.2843
    -0.1913  -0.1475  -0.1379   0.0424   0.1209   0.1302   0.1686   0.1931
     0.3275   0.3415   0.3433   0.3576   0.3728   0.3800   0.4132   0.4239
     0.4857   0.5150   0.5357   0.5606   0.6569   0.6659   0.6833   0.8386
     0.8793   0.9419   0.9499   0.9555   1.0006   1.0740   1.1276   1.1379
     1.2071   1.2095   1.2661   1.2956   1.3125   1.3241   1.3532   1.4554
     1.4722   1.4976   1.5445   1.6128   1.6178   1.6694   1.6884   1.7096
     1.8145   1.8569   1.9094   1.9507   1.9519   2.0018   2.0317   2.0993
     2.1638   2.2840   2.4245   2.4262   2.4476   2.8621   2.8632   4.6100
     5.8659   6.0579   6.1557   6.1722   6.6732   6.7853   6.7878   7.0007
     7.0512   7.1624   7.1631   7.3939   7.5436   7.9665   8.0006   8.2524
     8.4260   8.8707   9.2702   9.7424   9.7703   9.9466  10.2475  10.2504
    10.4114  10.5402  10.9397  11.3062  11.3159  11.4037  11.4765  11.5109
    11.5272  12.0945

          k = 0.0000 0.3849 0.0000 ( 32055 PWs)   bands (ev):

   -87.0952 -87.0871 -87.0851 -87.0834 -87.0775 -87.0762 -87.0251 -87.0183
   -87.0168 -86.8635 -86.8567 -86.8551 -50.6147 -50.6053 -50.5994 -50.5920
   -50.5860 -50.5640 -50.5599 -50.5407 -50.5374 -50.5357 -50.5266 -50.5202
   -50.5172 -50.5121 -50.5108 -50.5072 -50.5054 -50.5051 -50.4928 -50.4784
   -50.4658 -50.4622 -50.4606 -50.4481 -50.4475 -50.4466 -50.4330 -50.3808
   -50.3572 -50.3054 -50.3017 -50.3000 -50.2829 -50.2770 -50.2757 -50.2720
   -14.2686 -13.6753 -13.5304 -12.3736 -11.7772 -11.6467 -10.5730 -10.5572
    -9.9653  -9.9652  -9.8496  -9.8495  -6.9262  -6.9143  -6.3136  -6.3136
    -6.2243  -6.2243  -5.1725  -4.5652  -4.4803  -3.5639  -3.5510  -2.9466
    -2.9466  -2.8755  -2.8755  -2.7780  -1.9735  -1.5238  -1.3364  -1.1867
    -1.1199  -1.0869  -1.0781  -0.9407  -0.8375  -0.8350  -0.8045  -0.7850
    -0.7249  -0.7076  -0.6960  -0.6639  -0.6252  -0.5793  -0.5632  -0.4948
    -0.3812  -0.3241  -0.2655  -0.2602  -0.2184  -0.1975  -0.1176  -0.1039
    -0.0608   0.0413   0.1331   0.1563   0.1800   0.2145   0.2290   0.2557
     0.2980   0.3440   0.3987   0.4698   0.5542   0.5655   0.5802   0.6407
     0.7089   0.7275   0.7308   0.7551   0.8439   0.8937   0.9025   0.9114
     0.9604   0.9955   1.0125   1.0960   1.1537   1.2206   1.2664   1.2970
     1.3579   1.3966   1.4289   1.5067   1.5899   1.6109   1.7060   1.8014
     1.8113   1.8504   1.9081   1.9451   1.9563   1.9925   2.0182   2.0376
     2.1147   2.1340   2.2380   2.3093   2.7950   2.7992   3.1747   3.6514
     4.3871   5.4242   5.7320   5.9321   6.3453   6.6833   6.6976   6.9534
     7.2299   7.2834   7.3166   7.3184   7.6623   7.6639   8.1284   9.0506
     9.2442   9.5218   9.6150   9.9036   9.9176  10.0298  10.4190  10.6529
    10.7814  10.8219  11.5546  11.7593  11.8933  11.9174  12.0850  12.3240
    12.3599  12.4297

          k = 0.0000-0.5774 0.0000 ( 32112 PWs)   bands (ev):

   -87.0910 -87.0909 -87.0855 -87.0802 -87.0802 -87.0765 -87.0217 -87.0214
   -87.0171 -86.8600 -86.8598 -86.8554 -50.6195 -50.6100 -50.5906 -50.5904
   -50.5675 -50.5661 -50.5658 -50.5438 -50.5438 -50.5353 -50.5193 -50.5190
   -50.5190 -50.5186 -50.5077 -50.5075 -50.4963 -50.4937 -50.4936 -50.4885
   -50.4881 -50.4532 -50.4492 -50.4487 -50.4479 -50.4460 -50.4457 -50.3853
   -50.3334 -50.3332 -50.2925 -50.2865 -50.2863 -50.2798 -50.2797 -50.2761
   -13.4745 -13.4696 -12.8776 -12.8774 -12.7388 -12.7387 -10.7157 -10.7000
   -10.1085 -10.1085  -9.9911  -9.9911  -6.0957  -6.0848  -5.4771  -5.4771
    -5.4078  -5.4078  -4.4296  -4.4153  -3.8073  -3.8072  -3.7431  -3.7431
    -3.0085  -3.0023  -2.3950  -2.3949  -2.3213  -2.3213  -1.8635  -1.8464
    -1.3384  -1.2460  -1.1813  -1.0473  -1.0445  -0.9920  -0.8860  -0.8849
    -0.8029  -0.6597  -0.6590  -0.6245  -0.6233  -0.5558  -0.4890  -0.4884
    -0.4579  -0.4575  -0.3542  -0.3530  -0.2401  -0.2386  -0.2090  -0.2050
    -0.0393  -0.0113  -0.0111   0.0093   0.0109   0.0489   0.0489   0.1127
     0.1226   0.1244   0.2550   0.2600   0.3254   0.3497   0.3499   0.4113
     0.4122   0.6287   0.6317   0.7123   0.7160   0.7453   0.8599   0.9523
     0.9567   1.0676   1.1647   1.1688   1.2591   1.2615   1.4196   1.4742
     1.5265   1.5291   1.6042   1.6125   1.6314   1.7444   1.7449   1.8565
     1.9025   1.9081   1.9091   2.0021   2.0461   2.0894   2.0895   2.1100
     2.1532   2.1724   2.2407   2.3077   2.6042   2.6074   2.7482   2.7553
     4.2456   4.2475   5.1257   5.9380   6.4716   6.5206   6.5607   6.6685
     7.0431   7.0526   7.6098   7.6112   7.8942   7.8952   8.8630   8.8832
     9.1182   9.7327  10.5276  10.5970  10.5972  10.9934  10.9944  11.3055
    11.3089  11.5022  11.5034  11.6854  11.7480  11.7523  11.9258  11.9278
    12.1227  12.1239

          k = 0.1667-0.0962 0.0000 ( 32019 PWs)   bands (ev):

   -87.0985 -87.0859 -87.0845 -87.0843 -87.0757 -87.0756 -87.0279 -87.0164
   -87.0160 -86.8664 -86.8546 -86.8543 -50.6079 -50.6013 -50.5954 -50.5929
   -50.5891 -50.5650 -50.5615 -50.5515 -50.5488 -50.5343 -50.5333 -50.5303
   -50.5228 -50.5220 -50.5133 -50.5119 -50.4914 -50.4859 -50.4853 -50.4830
   -50.4782 -50.4690 -50.4493 -50.4476 -50.4467 -50.4323 -50.4244 -50.3680
   -50.3629 -50.3271 -50.3248 -50.2856 -50.2752 -50.2749 -50.2715 -50.2629
   -14.7504 -14.1578 -14.0094 -11.0076 -10.4085 -10.2893 -10.1751 -10.1588
    -9.5647  -9.5647  -9.4570  -9.4570  -8.0541  -8.0422  -7.4421  -7.4420
    -7.3483  -7.3483  -7.2316  -6.6267  -6.5317  -3.3549  -2.5494  -2.4393
    -2.4283  -2.1657  -1.8227  -1.8227  -1.7965  -1.7577  -1.7577  -1.6739
    -1.3062  -1.1854  -1.1340  -1.1238  -0.9479  -0.9376  -0.8052  -0.7595
    -0.7451  -0.6662  -0.5395  -0.4718  -0.3778  -0.3704  -0.2957  -0.2836
    -0.1902  -0.1474  -0.1394   0.0427   0.1210   0.1290   0.1692   0.1948
     0.3267   0.3409   0.3437   0.3581   0.3715   0.3772   0.4141   0.4247
     0.4847   0.5161   0.5367   0.5613   0.6577   0.6626   0.6832   0.8394
     0.8791   0.9453   0.9519   0.9568   1.0007   1.0731   1.1268   1.1336
     1.2054   1.2106   1.2673   1.2956   1.3166   1.3243   1.3532   1.4567
     1.4677   1.4957   1.5438   1.6128   1.6215   1.6694   1.6900   1.7091
     1.8139   1.8556   1.9095   1.9471   1.9544   2.0020   2.0324   2.0974
     2.1637   2.2841   2.4258   2.4262   2.4476   2.8621   2.8632   4.6104
     5.8659   6.0579   6.1556   6.1722   6.6728   6.7854   6.7879   6.9994
     7.0495   7.1624   7.1630   7.3978   7.5437   7.9658   8.0006   8.2525
     8.4304   8.8707   9.2702   9.7359   9.7703   9.9446  10.2476  10.2526
    10.4142  10.5407  10.9397  11.3037  11.3159  11.4055  11.4713  11.5095
    11.5272  12.0945

          k = 0.1667 0.0962 0.0000 ( 32019 PWs)   bands (ev):

   -87.0985 -87.0859 -87.0845 -87.0843 -87.0757 -87.0756 -87.0279 -87.0164
   -87.0160 -86.8663 -86.8546 -86.8543 -50.6079 -50.6014 -50.5954 -50.5929
   -50.5890 -50.5651 -50.5614 -50.5518 -50.5486 -50.5343 -50.5331 -50.5303
   -50.5227 -50.5223 -50.5132 -50.5119 -50.4914 -50.4860 -50.4853 -50.4830
   -50.4779 -50.4693 -50.4493 -50.4476 -50.4467 -50.4322 -50.4244 -50.3682
   -50.3626 -50.3274 -50.3244 -50.2856 -50.2752 -50.2750 -50.2712 -50.2633
   -14.7504 -14.1578 -14.0094 -11.0076 -10.4085 -10.2893 -10.1751 -10.1588
    -9.5647  -9.5647  -9.4570  -9.4570  -8.0541  -8.0422  -7.4421  -7.4420
    -7.3483  -7.3483  -7.2316  -6.6267  -6.5317  -3.3549  -2.5494  -2.4393
    -2.4283  -2.1658  -1.8227  -1.8227  -1.7965  -1.7577  -1.7577  -1.6739
    -1.3062  -1.1854  -1.1343  -1.1238  -0.9487  -0.9388  -0.8052  -0.7573
    -0.7445  -0.6659  -0.5388  -0.4710  -0.3783  -0.3721  -0.2970  -0.2842
    -0.1906  -0.1459  -0.1380   0.0438   0.1207   0.1300   0.1672   0.1952
     0.3274   0.3399   0.3449   0.3565   0.3732   0.3799   0.4163   0.4275
     0.4828   0.5164   0.5316   0.5551   0.6578   0.6675   0.6832   0.8360
     0.8786   0.9499   0.9519   0.9552   1.0004   1.0727   1.1307   1.1351
     1.2049   1.2119   1.2639   1.2956   1.3083   1.3246   1.3532   1.4568
     1.4698   1.4966   1.5442   1.6128   1.6187   1.6694   1.6880   1.7093
     1.8156   1.8559   1.9083   1.9519   1.9540   2.0033   2.0321   2.0994
     2.1639   2.2841   2.4247   2.4262   2.4475   2.8621   2.8632   4.6094
     5.8663   6.0575   6.1556   6.1723   6.6728   6.7854   6.7879   6.9995
     7.0494   7.1623   7.1631   7.4008   7.5437   7.9598   8.0005   8.2542
     8.4199   8.8707   9.2702   9.7457   9.7703   9.9485  10.2477  10.2534
    10.4181  10.5337  10.9397  11.3077  11.3159  11.4005  11.4737  11.5100
    11.5269  12.0945

          k = 0.1667 0.2887 0.0000 ( 32043 PWs)   bands (ev):

   -87.0962 -87.0856 -87.0855 -87.0841 -87.0765 -87.0764 -87.0260 -87.0173
   -87.0170 -86.8644 -86.8555 -86.8553 -50.6032 -50.6032 -50.6021 -50.5960
   -50.5958 -50.5602 -50.5595 -50.5426 -50.5423 -50.5366 -50.5243 -50.5241
   -50.5171 -50.5166 -50.5094 -50.5089 -50.5066 -50.4988 -50.4914 -50.4738
   -50.4687 -50.4685 -50.4541 -50.4479 -50.4473 -50.4463 -50.4294 -50.3700
   -50.3699 -50.3086 -50.3084 -50.2919 -50.2837 -50.2760 -50.2759 -50.2684
   -14.4289 -13.8358 -13.6898 -11.6089 -11.6025 -11.0081 -11.0079 -10.8835
   -10.8834  -9.3853  -8.7752  -8.6948  -8.2897  -7.6745  -7.6053  -6.1568
    -6.1559  -5.5501  -5.5500  -5.4610  -5.4610  -3.7403  -3.1300  -3.0576
    -2.9688  -2.1640  -2.1172  -2.1087  -1.7292  -1.5016  -1.5016  -1.4373
    -1.4373  -1.3028  -1.0024  -1.0004  -0.9992  -0.8925  -0.8911  -0.8538
    -0.8516  -0.8426  -0.6667  -0.5756  -0.5722  -0.4579  -0.4460  -0.3570
    -0.3446  -0.3376  -0.1782  -0.1757  -0.1718  -0.0034   0.0436   0.1330
     0.1509   0.2520   0.2705   0.3008   0.3104   0.3294   0.3440   0.3647
     0.4441   0.4699   0.4806   0.5056   0.5241   0.5518   0.5827   0.6424
     0.6903   0.7000   0.7438   0.8575   0.9570   0.9984   1.0002   1.0026
     1.0136   1.0197   1.0461   1.1030   1.1125   1.1234   1.2535   1.2910
     1.2943   1.3598   1.4001   1.4194   1.5294   1.5367   1.6078   1.6150
     1.6647   1.6823   1.7537   1.7655   1.9423   1.9518   1.9785   2.0014
     2.0103   2.1570   2.1588   2.6619   2.9432   3.1256   3.4400   4.7340
     4.7429   5.1677   5.5009   5.5303   5.7763   6.3845   6.5541   6.9112
     6.9363   6.9654   7.8571   7.9077   8.4579   8.4629   8.7724   8.7950
     8.8806   8.8849   9.3052   9.7016   9.8239   9.8303  10.2027  10.6181
    10.6302  10.6304  11.3521  11.5451  11.5790  11.6994  12.3112  12.3279
    12.5742  12.6012

          k = 0.1667-0.6736 0.0000 ( 32075 PWs)   bands (ev):

   -87.0925 -87.0886 -87.0864 -87.0814 -87.0785 -87.0771 -87.0229 -87.0196
   -87.0178 -86.8612 -86.8579 -86.8561 -50.6102 -50.6026 -50.5936 -50.5919
   -50.5861 -50.5627 -50.5592 -50.5556 -50.5359 -50.5326 -50.5294 -50.5186
   -50.5163 -50.5142 -50.5135 -50.5045 -50.5015 -50.4966 -50.4962 -50.4843
   -50.4816 -50.4533 -50.4527 -50.4484 -50.4478 -50.4468 -50.4388 -50.3763
   -50.3544 -50.3243 -50.2926 -50.2916 -50.2810 -50.2781 -50.2780 -50.2766
   -13.7897 -13.1956 -13.0545 -12.8419 -12.2463 -12.1123 -11.9116 -11.3145
   -11.1875  -9.3228  -8.7191  -8.6175  -7.4731  -6.8628  -6.7822  -5.1205
    -5.0520  -4.5082  -4.4416  -4.4357  -4.3662  -4.0717  -3.4622  -3.3851
    -2.9876  -2.3749  -2.3086  -2.2189  -2.0322  -1.4933  -1.4242  -1.4084
    -1.3535  -1.2262  -1.1947  -1.1636  -1.1579  -1.0908  -0.9318  -0.9038
    -0.8910  -0.8809  -0.8554  -0.8370  -0.8182  -0.6995  -0.6922  -0.6336
    -0.5973  -0.5732  -0.5213  -0.5136  -0.4006  -0.3541  -0.3159  -0.2606
    -0.1674  -0.1541  -0.0147  -0.0037   0.0450   0.0575   0.1311   0.2157
     0.2491   0.2922   0.3630   0.3761   0.4028   0.4165   0.4979   0.5129
     0.6004   0.6985   0.7043   0.7822   0.8190   0.8691   0.8949   0.9195
     0.9718   1.0831   1.0941   1.1393   1.1411   1.2060   1.2792   1.2973
     1.4177   1.4308   1.4451   1.4851   1.5732   1.5773   1.6114   1.6694
     1.7976   1.8208   1.8496   1.8793   1.9161   1.9413   1.9584   2.0174
     2.0342   2.1026   2.1566   2.7397   2.9656   3.4141   3.4926   3.7633
     3.8700   3.9516   4.6310   5.0709   5.5607   6.1073   6.1096   6.1615
     6.4219   7.3747   7.9695   8.2585   8.6006   9.1752   9.4697   9.5476
     9.8449  10.0747  10.1711  10.2696  10.5610  10.6210  10.9473  11.0641
    11.0837  11.4064  11.4676  11.7564  12.0457  12.1142  12.2010  12.2165
    12.3600  12.4860

          k = 0.1667-0.4811 0.0000 ( 32075 PWs)   bands (ev):

   -87.0925 -87.0886 -87.0864 -87.0814 -87.0785 -87.0771 -87.0229 -87.0196
   -87.0178 -86.8612 -86.8579 -86.8561 -50.6102 -50.6026 -50.5935 -50.5919
   -50.5861 -50.5627 -50.5593 -50.5553 -50.5359 -50.5327 -50.5293 -50.5186
   -50.5164 -50.5142 -50.5136 -50.5045 -50.5014 -50.4966 -50.4964 -50.4842
   -50.4815 -50.4534 -50.4527 -50.4484 -50.4478 -50.4468 -50.4387 -50.3763
   -50.3542 -50.3245 -50.2926 -50.2919 -50.2810 -50.2781 -50.2777 -50.2766
   -13.7897 -13.1956 -13.0545 -12.8419 -12.2463 -12.1123 -11.9116 -11.3145
   -11.1875  -9.3228  -8.7191  -8.6175  -7.4731  -6.8628  -6.7822  -5.1205
    -5.0520  -4.5082  -4.4416  -4.4357  -4.3662  -4.0717  -3.4622  -3.3851
    -2.9876  -2.3749  -2.3086  -2.2189  -2.0322  -1.4933  -1.4242  -1.4084
    -1.3535  -1.2261  -1.1947  -1.1637  -1.1573  -1.0909  -0.9322  -0.9048
    -0.8908  -0.8809  -0.8546  -0.8364  -0.8182  -0.6994  -0.6909  -0.6337
    -0.5975  -0.5732  -0.5209  -0.5133  -0.4022  -0.3546  -0.3148  -0.2622
    -0.1683  -0.1552  -0.0147  -0.0045   0.0450   0.0581   0.1268   0.2201
     0.2490   0.2933   0.3651   0.3751   0.3982   0.4147   0.4984   0.5128
     0.5999   0.7029   0.7082   0.7845   0.8172   0.8737   0.8914   0.9195
     0.9726   1.0823   1.0921   1.1395   1.1418   1.2038   1.2796   1.2975
     1.4190   1.4307   1.4461   1.4853   1.5749   1.5782   1.6081   1.6699
     1.7942   1.8197   1.8501   1.8808   1.9203   1.9420   1.9579   2.0161
     2.0343   2.1022   2.1523   2.7399   2.9656   3.4143   3.4926   3.7627
     3.8701   3.9516   4.6310   5.0727   5.5608   6.1091   6.1101   6.1617
     6.4219   7.3734   7.9698   8.2612   8.6006   9.1752   9.4697   9.5476
     9.8409  10.0741  10.1711  10.2695  10.5610  10.6210  10.9473  11.0641
    11.0837  11.4065  11.4675  11.7567  12.0437  12.1140  12.2012  12.2167
    12.3594  12.4863

          k = 0.1667-0.2887 0.0000 ( 32043 PWs)   bands (ev):

   -87.0962 -87.0856 -87.0855 -87.0841 -87.0765 -87.0764 -87.0260 -87.0173
   -87.0170 -86.8644 -86.8555 -86.8553 -50.6032 -50.6031 -50.6020 -50.5961
   -50.5959 -50.5600 -50.5596 -50.5426 -50.5423 -50.5366 -50.5243 -50.5242
   -50.5172 -50.5168 -50.5091 -50.5089 -50.5064 -50.4993 -50.4913 -50.4735
   -50.4687 -50.4685 -50.4541 -50.4479 -50.4473 -50.4464 -50.4293 -50.3700
   -50.3698 -50.3087 -50.3085 -50.2923 -50.2837 -50.2760 -50.2759 -50.2681
   -14.4289 -13.8358 -13.6898 -11.6089 -11.6025 -11.0081 -11.0079 -10.8835
   -10.8834  -9.3853  -8.7752  -8.6948  -8.2897  -7.6745  -7.6053  -6.1568
    -6.1559  -5.5501  -5.5500  -5.4610  -5.4610  -3.7403  -3.1300  -3.0576
    -2.9688  -2.1640  -2.1172  -2.1087  -1.7290  -1.5016  -1.5016  -1.4373
    -1.4373  -1.3028  -1.0023  -1.0000  -0.9989  -0.8932  -0.8918  -0.8542
    -0.8519  -0.8419  -0.6628  -0.5746  -0.5718  -0.4580  -0.4458  -0.3582
    -0.3468  -0.3381  -0.1794  -0.1780  -0.1739  -0.0044   0.0432   0.1344
     0.1510   0.2521   0.2705   0.2994   0.3091   0.3294   0.3441   0.3615
     0.4409   0.4677   0.4819   0.5094   0.5255   0.5581   0.5822   0.6392
     0.6957   0.7045   0.7437   0.8575   0.9570   0.9953   0.9995   1.0014
     1.0136   1.0217   1.0475   1.1029   1.1132   1.1221   1.2499   1.2909
     1.2945   1.3658   1.4030   1.4220   1.5290   1.5359   1.6045   1.6112
     1.6648   1.6863   1.7541   1.7662   1.9428   1.9518   1.9734   2.0023
     2.0108   2.1540   2.1564   2.6619   2.9434   3.1256   3.4400   4.7340
     4.7428   5.1696   5.5011   5.5305   5.7764   6.3845   6.5541   6.9128
     6.9382   6.9676   7.8576   7.9076   8.4579   8.4629   8.7759   8.7980
     8.8806   8.8850   9.3052   9.7015   9.8198   9.8244  10.2027  10.6164
    10.6274  10.6302  11.3521  11.5445  11.5785  11.6993  12.3111  12.3278
    12.5713  12.5932

          k = 0.3333-0.1925 0.0000 ( 32055 PWs)   bands (ev):

   -87.0952 -87.0870 -87.0852 -87.0834 -87.0775 -87.0762 -87.0251 -87.0183
   -87.0168 -86.8635 -86.8567 -86.8551 -50.6146 -50.6051 -50.5994 -50.5920
   -50.5863 -50.5644 -50.5596 -50.5409 -50.5376 -50.5354 -50.5267 -50.5204
   -50.5166 -50.5119 -50.5107 -50.5074 -50.5057 -50.5051 -50.4928 -50.4783
   -50.4658 -50.4621 -50.4605 -50.4482 -50.4475 -50.4466 -50.4331 -50.3807
   -50.3573 -50.3053 -50.3019 -50.3002 -50.2830 -50.2770 -50.2757 -50.2717
   -14.2686 -13.6753 -13.5304 -12.3736 -11.7772 -11.6467 -10.5729 -10.5572
    -9.9653  -9.9652  -9.8496  -9.8495  -6.9262  -6.9143  -6.3136  -6.3136
    -6.2243  -6.2243  -5.1725  -4.5652  -4.4803  -3.5638  -3.5510  -2.9466
    -2.9466  -2.8755  -2.8755  -2.7781  -1.9735  -1.5235  -1.3364  -1.1867
    -1.1198  -1.0872  -1.0779  -0.9407  -0.8367  -0.8340  -0.8043  -0.7861
    -0.7249  -0.7096  -0.6979  -0.6639  -0.6249  -0.5784  -0.5626  -0.4947
    -0.3807  -0.3241  -0.2645  -0.2602  -0.2178  -0.1990  -0.1178  -0.1077
    -0.0579   0.0396   0.1326   0.1587   0.1809   0.2142   0.2288   0.2551
     0.2988   0.3439   0.4017   0.4660   0.5548   0.5664   0.5817   0.6387
     0.7120   0.7286   0.7342   0.7510   0.8439   0.8937   0.9025   0.9117
     0.9612   0.9958   1.0119   1.0948   1.1521   1.2204   1.2653   1.2943
     1.3576   1.3976   1.4310   1.5071   1.5941   1.6104   1.7049   1.7983
     1.8106   1.8510   1.9077   1.9430   1.9581   1.9951   2.0176   2.0374
     2.1117   2.1342   2.2382   2.3092   2.7950   2.7992   3.1759   3.6515
     4.3865   5.4247   5.7288   5.9326   6.3507   6.6834   6.6942   6.9554
     7.2343   7.2836   7.3165   7.3184   7.6623   7.6639   8.1287   9.0506
     9.2371   9.5218   9.6150   9.9069   9.9176  10.0299  10.4190  10.6540
    10.7727  10.8219  11.5546  11.7593  11.8932  11.9190  12.0850  12.3212
    12.3586  12.4336

          k = 0.3333-0.0000 0.0000 ( 32043 PWs)   bands (ev):

   -87.0962 -87.0856 -87.0855 -87.0842 -87.0765 -87.0764 -87.0260 -87.0173
   -87.0170 -86.8644 -86.8555 -86.8553 -50.6032 -50.6031 -50.6020 -50.5960
   -50.5959 -50.5599 -50.5597 -50.5425 -50.5424 -50.5367 -50.5245 -50.5244
   -50.5169 -50.5167 -50.5092 -50.5089 -50.5065 -50.4989 -50.4913 -50.4737
   -50.4686 -50.4685 -50.4540 -50.4480 -50.4473 -50.4464 -50.4295 -50.3701
   -50.3698 -50.3087 -50.3083 -50.2921 -50.2837 -50.2760 -50.2759 -50.2682
   -14.4289 -13.8358 -13.6898 -11.6089 -11.6025 -11.0081 -11.0079 -10.8835
   -10.8834  -9.3853  -8.7752  -8.6948  -8.2897  -7.6745  -7.6053  -6.1568
    -6.1559  -5.5501  -5.5500  -5.4610  -5.4610  -3.7403  -3.1300  -3.0576
    -2.9688  -2.1640  -2.1172  -2.1087  -1.7290  -1.5016  -1.5016  -1.4373
    -1.4373  -1.3028  -1.0012  -1.0005  -0.9990  -0.8927  -0.8911  -0.8539
    -0.8517  -0.8443  -0.6663  -0.5765  -0.5730  -0.4570  -0.4449  -0.3568
    -0.3445  -0.3376  -0.1782  -0.1765  -0.1722  -0.0023   0.0426   0.1334
     0.1511   0.2513   0.2705   0.2997   0.3091   0.3294   0.3441   0.3627
     0.4420   0.4712   0.4812   0.5087   0.5234   0.5546   0.5825   0.6430
     0.6906   0.6995   0.7438   0.8583   0.9570   0.9983   1.0000   1.0010
     1.0136   1.0224   1.0496   1.1032   1.1109   1.1233   1.2521   1.2907
     1.2945   1.3602   1.3996   1.4192   1.5282   1.5349   1.6083   1.6156
     1.6685   1.6798   1.7541   1.7658   1.9422   1.9520   1.9756   2.0025
     2.0113   2.1546   2.1580   2.6619   2.9445   3.1256   3.4400   4.7339
     4.7427   5.1682   5.5012   5.5307   5.7764   6.3845   6.5541   6.9114
     6.9364   6.9654   7.8575   7.9077   8.4579   8.4629   8.7735   8.7964
     8.8806   8.8849   9.3052   9.7015   9.8200   9.8302  10.2027  10.6196
    10.6302  10.6309  11.3521  11.5420  11.5749  11.6993  12.3112  12.3279
    12.5756  12.6011

          k = 0.3333 0.1925 0.0000 ( 32055 PWs)   bands (ev):

   -87.0952 -87.0870 -87.0852 -87.0834 -87.0775 -87.0762 -87.0251 -87.0183
   -87.0168 -86.8635 -86.8567 -86.8551 -50.6147 -50.6052 -50.5994 -50.5920
   -50.5862 -50.5646 -50.5595 -50.5408 -50.5377 -50.5353 -50.5267 -50.5202
   -50.5164 -50.5118 -50.5112 -50.5073 -50.5058 -50.5048 -50.4928 -50.4786
   -50.4659 -50.4621 -50.4605 -50.4482 -50.4475 -50.4466 -50.4331 -50.3809
   -50.3571 -50.3056 -50.3016 -50.2999 -50.2829 -50.2769 -50.2758 -50.2721
   -14.2686 -13.6753 -13.5304 -12.3736 -11.7772 -11.6467 -10.5729 -10.5572
    -9.9653  -9.9652  -9.8496  -9.8495  -6.9262  -6.9143  -6.3136  -6.3136
    -6.2243  -6.2243  -5.1725  -4.5652  -4.4803  -3.5638  -3.5510  -2.9466
    -2.9466  -2.8755  -2.8755  -2.7781  -1.9735  -1.5237  -1.3364  -1.1865
    -1.1199  -1.0868  -1.0785  -0.9406  -0.8368  -0.8335  -0.8034  -0.7846
    -0.7249  -0.7103  -0.6982  -0.6639  -0.6233  -0.5785  -0.5649  -0.4929
    -0.3818  -0.3241  -0.2641  -0.2602  -0.2156  -0.1986  -0.1180  -0.1115
    -0.0559   0.0394   0.1290   0.1553   0.1804   0.2149   0.2292   0.2527
     0.2994   0.3426   0.4033   0.4726   0.5549   0.5661   0.5770   0.6410
     0.7108   0.7320   0.7380   0.7551   0.8439   0.8870   0.9025   0.9070
     0.9610   0.9943   1.0141   1.0918   1.1542   1.2225   1.2642   1.2930
     1.3578   1.4002   1.4281   1.5075   1.5949   1.6088   1.7080   1.7983
     1.8107   1.8507   1.9070   1.9460   1.9572   1.9948   2.0168   2.0367
     2.1165   2.1352   2.2382   2.3090   2.7950   2.7992   3.1747   3.6517
     4.3867   5.4227   5.7325   5.9326   6.3584   6.6825   6.6938   6.9427
     7.2165   7.2824   7.3164   7.3182   7.6623   7.6639   8.1270   9.0506
     9.2524   9.5218   9.6151   9.9128   9.9179  10.0299  10.4190  10.6506
    10.7756  10.8219  11.5547  11.7593  11.8934  11.9434  12.0850  12.3224
    12.3592  12.4335

          k = 0.3333-0.7698 0.0000 ( 32075 PWs)   bands (ev):

   -87.0925 -87.0885 -87.0864 -87.0814 -87.0785 -87.0770 -87.0229 -87.0196
   -87.0178 -86.8612 -86.8579 -86.8561 -50.6102 -50.6025 -50.5936 -50.5919
   -50.5862 -50.5633 -50.5593 -50.5551 -50.5361 -50.5324 -50.5291 -50.5185
   -50.5162 -50.5137 -50.5135 -50.5048 -50.5016 -50.4965 -50.4964 -50.4844
   -50.4815 -50.4532 -50.4527 -50.4485 -50.4478 -50.4468 -50.4388 -50.3764
   -50.3543 -50.3242 -50.2925 -50.2918 -50.2809 -50.2781 -50.2781 -50.2767
   -13.7897 -13.1956 -13.0545 -12.8419 -12.2463 -12.1123 -11.9116 -11.3145
   -11.1875  -9.3228  -8.7191  -8.6175  -7.4731  -6.8628  -6.7822  -5.1205
    -5.0520  -4.5082  -4.4416  -4.4357  -4.3662  -4.0717  -3.4622  -3.3851
    -2.9876  -2.3749  -2.3086  -2.2189  -2.0322  -1.4934  -1.4242  -1.4084
    -1.3535  -1.2255  -1.1946  -1.1637  -1.1578  -1.0917  -0.9308  -0.9046
    -0.8895  -0.8809  -0.8556  -0.8372  -0.8182  -0.6973  -0.6928  -0.6339
    -0.5995  -0.5732  -0.5207  -0.5126  -0.4018  -0.3535  -0.3163  -0.2606
    -0.1703  -0.1547  -0.0147  -0.0040   0.0450   0.0640   0.1264   0.2136
     0.2500   0.2885   0.3596   0.3753   0.4044   0.4216   0.4994   0.5150
     0.5988   0.6963   0.7070   0.7820   0.8217   0.8745   0.8892   0.9156
     0.9747   1.0846   1.0926   1.1373   1.1415   1.2000   1.2795   1.3006
     1.4172   1.4293   1.4459   1.4873   1.5742   1.5784   1.6116   1.6698
     1.7973   1.8217   1.8495   1.8786   1.9179   1.9439   1.9579   2.0195
     2.0330   2.1006   2.1558   2.7401   2.9654   3.4131   3.4926   3.7628
     3.8699   3.9516   4.6333   5.0726   5.5607   6.1023   6.1069   6.1615
     6.4219   7.3726   7.9665   8.2580   8.6005   9.1752   9.4697   9.5540
     9.8414  10.0743  10.1711  10.2775  10.5610  10.6211  10.9472  11.0636
    11.0778  11.4064  11.4676  11.7551  12.0455  12.1142  12.2012  12.2400
    12.3607  12.4862

          k = 0.3333-0.5774 0.0000 ( 32121 PWs)   bands (ev):

   -87.0892 -87.0892 -87.0891 -87.0790 -87.0790 -87.0790 -87.0204 -87.0199
   -87.0199 -86.8585 -86.8585 -86.8582 -50.5932 -50.5932 -50.5931 -50.5879
   -50.5876 -50.5876 -50.5544 -50.5540 -50.5540 -50.5273 -50.5272 -50.5270
   -50.5098 -50.5097 -50.5095 -50.5047 -50.5045 -50.5044 -50.4888 -50.4887
   -50.4886 -50.4487 -50.4481 -50.4472 -50.4455 -50.4453 -50.4449 -50.3549
   -50.3547 -50.3545 -50.2847 -50.2844 -50.2842 -50.2787 -50.2786 -50.2784
   -13.0018 -13.0015 -12.9940 -12.4040 -12.4039 -12.4036 -12.2687 -12.2686
   -12.2685  -8.1406  -8.1349  -7.5417  -7.5134  -7.4557  -7.4344  -5.9569
    -5.3381  -5.2781  -3.3587  -3.3512  -3.3512  -2.7399  -2.7398  -2.7396
    -2.6763  -2.6763  -2.6763  -1.9536  -1.9534  -1.9485  -1.3715  -1.3713
    -1.3500  -1.3366  -1.3365  -1.3365  -1.2767  -1.2767  -1.2767  -1.0997
    -1.0981  -1.0977  -1.0812  -1.0802  -1.0758  -0.9014  -0.8989  -0.8979
    -0.7652  -0.7647  -0.7559  -0.5756  -0.5750  -0.5728  -0.4918  -0.4914
    -0.4821  -0.2883  -0.2875  -0.2798   0.1220   0.1255   0.1284   0.2838
     0.2857   0.2887   0.3594   0.3638   0.3663   0.4369   0.4383   0.4396
     0.5541   0.5555   0.5588   0.9117   0.9127   0.9164   0.9941   0.9999
     1.0013   1.2897   1.2908   1.3015   1.3589   1.3605   1.3615   1.5626
     1.5645   1.5668   1.6025   1.6030   1.6039   1.6561   1.6574   1.6580
     1.7409   1.7418   1.7424   1.8314   1.8323   1.8326   2.0251   2.0260
     2.0271   2.0677   2.0689   2.0734   2.8812   2.8837   2.8844   4.2023
     4.3343   4.7111   4.7190   4.7270   4.7873   4.9558   5.0409   5.3736
     7.0721   7.0953   7.0968   9.5565   9.5770   9.5809  10.4864  10.4867
    10.4968  11.0791  11.0793  11.0798  11.2466  11.2468  11.2468  11.3142
    11.3144  11.3145  11.5219  11.5321  11.5332  11.8393  11.8942  11.8954
    12.1243  12.1547

          k = 0.3333-0.3849 0.0000 ( 32075 PWs)   bands (ev):

   -87.0925 -87.0885 -87.0864 -87.0814 -87.0785 -87.0770 -87.0229 -87.0196
   -87.0178 -86.8612 -86.8579 -86.8561 -50.6101 -50.6025 -50.5935 -50.5919
   -50.5862 -50.5630 -50.5594 -50.5552 -50.5361 -50.5327 -50.5291 -50.5186
   -50.5163 -50.5138 -50.5137 -50.5048 -50.5015 -50.4967 -50.4963 -50.4842
   -50.4815 -50.4533 -50.4527 -50.4485 -50.4478 -50.4468 -50.4388 -50.3762
   -50.3544 -50.3246 -50.2928 -50.2917 -50.2810 -50.2781 -50.2776 -50.2766
   -13.7897 -13.1956 -13.0545 -12.8419 -12.2463 -12.1123 -11.9116 -11.3145
   -11.1875  -9.3228  -8.7191  -8.6175  -7.4731  -6.8628  -6.7822  -5.1205
    -5.0520  -4.5082  -4.4416  -4.4357  -4.3662  -4.0717  -3.4622  -3.3851
    -2.9876  -2.3749  -2.3086  -2.2189  -2.0322  -1.4934  -1.4242  -1.4084
    -1.3535  -1.2262  -1.1946  -1.1642  -1.1572  -1.0906  -0.9313  -0.9044
    -0.8901  -0.8809  -0.8546  -0.8381  -0.8182  -0.6995  -0.6913  -0.6338
    -0.5982  -0.5731  -0.5209  -0.5133  -0.4020  -0.3544  -0.3146  -0.2619
    -0.1703  -0.1556  -0.0147  -0.0052   0.0450   0.0600   0.1303   0.2189
     0.2494   0.2919   0.3663   0.3748   0.3978   0.4149   0.5013   0.5129
     0.5986   0.7023   0.7080   0.7841   0.8180   0.8739   0.8915   0.9191
     0.9729   1.0836   1.0900   1.1388   1.1409   1.2025   1.2794   1.2991
     1.4189   1.4298   1.4458   1.4852   1.5753   1.5784   1.6087   1.6709
     1.7943   1.8204   1.8500   1.8812   1.9201   1.9397   1.9584   2.0138
     2.0340   2.1026   2.1533   2.7404   2.9654   3.4130   3.4926   3.7632
     3.8688   3.9515   4.6337   5.0736   5.5608   6.1088   6.1100   6.1617
     6.4219   7.3738   7.9721   8.2614   8.6006   9.1752   9.4697   9.5432
     9.8423  10.0741  10.1711  10.2722  10.5610  10.6211  10.9472  11.0633
    11.0761  11.4065  11.4676  11.7553  12.0449  12.1141  12.2009  12.2176
    12.3601  12.4862

          k =-0.5000 0.2887 0.0000 ( 32112 PWs)   bands (ev):

   -87.0910 -87.0909 -87.0856 -87.0803 -87.0802 -87.0764 -87.0217 -87.0214
   -87.0171 -86.8600 -86.8598 -86.8554 -50.6194 -50.6098 -50.5905 -50.5904
   -50.5679 -50.5662 -50.5660 -50.5438 -50.5437 -50.5356 -50.5191 -50.5187
   -50.5187 -50.5182 -50.5080 -50.5077 -50.4965 -50.4936 -50.4935 -50.4885
   -50.4882 -50.4531 -50.4490 -50.4486 -50.4481 -50.4461 -50.4459 -50.3852
   -50.3336 -50.3333 -50.2927 -50.2863 -50.2861 -50.2798 -50.2797 -50.2760
   -13.4744 -13.4696 -12.8776 -12.8774 -12.7388 -12.7387 -10.7157 -10.7000
   -10.1085 -10.1085  -9.9911  -9.9911  -6.0957  -6.0848  -5.4771  -5.4771
    -5.4078  -5.4078  -4.4296  -4.4153  -3.8073  -3.8072  -3.7431  -3.7431
    -3.0085  -3.0023  -2.3950  -2.3949  -2.3213  -2.3213  -1.8635  -1.8465
    -1.3385  -1.2465  -1.1811  -1.0473  -1.0446  -0.9914  -0.8853  -0.8844
    -0.8030  -0.6619  -0.6611  -0.6245  -0.6233  -0.5554  -0.4883  -0.4875
    -0.4574  -0.4569  -0.3552  -0.3541  -0.2402  -0.2388  -0.2090  -0.2048
    -0.0472  -0.0113  -0.0111   0.0128   0.0140   0.0489   0.0489   0.1201
     0.1205   0.1219   0.2569   0.2612   0.3244   0.3520   0.3522   0.4105
     0.4114   0.6274   0.6306   0.7122   0.7159   0.7478   0.8603   0.9520
     0.9558   1.0680   1.1636   1.1680   1.2579   1.2606   1.4160   1.4730
     1.5295   1.5325   1.6045   1.6140   1.6317   1.7430   1.7434   1.8579
     1.9029   1.9055   1.9066   2.0021   2.0464   2.0899   2.0900   2.1094
     2.1536   2.1736   2.2402   2.3073   2.6035   2.6069   2.7483   2.7552
     4.2466   4.2484   5.1217   5.9454   6.4644   6.5213   6.5610   6.6775
     7.0431   7.0526   7.6098   7.6112   7.8942   7.8952   8.8634   8.8840
     9.1115   9.7359  10.5187  10.5970  10.5972  10.9933  10.9942  11.3056
    11.3089  11.5021  11.5032  11.6870  11.7480  11.7523  11.9258  11.9278
    12.1227  12.1240

          k =-0.5000 0.4811 0.0000 ( 32075 PWs)   bands (ev):

   -87.0925 -87.0886 -87.0864 -87.0814 -87.0785 -87.0770 -87.0229 -87.0196
   -87.0178 -86.8612 -86.8579 -86.8561 -50.6101 -50.6025 -50.5935 -50.5919
   -50.5862 -50.5630 -50.5594 -50.5554 -50.5360 -50.5326 -50.5291 -50.5187
   -50.5162 -50.5138 -50.5137 -50.5047 -50.5015 -50.4967 -50.4961 -50.4842
   -50.4815 -50.4532 -50.4526 -50.4485 -50.4478 -50.4468 -50.4389 -50.3762
   -50.3544 -50.3245 -50.2928 -50.2916 -50.2810 -50.2781 -50.2777 -50.2766
   -13.7897 -13.1956 -13.0545 -12.8419 -12.2463 -12.1123 -11.9116 -11.3145
   -11.1875  -9.3228  -8.7191  -8.6175  -7.4731  -6.8628  -6.7822  -5.1205
    -5.0520  -4.5082  -4.4416  -4.4357  -4.3662  -4.0717  -3.4622  -3.3851
    -2.9876  -2.3749  -2.3086  -2.2189  -2.0322  -1.4934  -1.4242  -1.4084
    -1.3535  -1.2263  -1.1946  -1.1641  -1.1566  -1.0906  -0.9319  -0.9036
    -0.8905  -0.8809  -0.8545  -0.8376  -0.8182  -0.6995  -0.6951  -0.6337
    -0.5982  -0.5732  -0.5218  -0.5137  -0.3995  -0.3539  -0.3141  -0.2609
    -0.1692  -0.1545  -0.0147  -0.0046   0.0450   0.0570   0.1319   0.2167
     0.2505   0.2905   0.3683   0.3751   0.4043   0.4148   0.5002   0.5128
     0.5949   0.6987   0.7044   0.7845   0.8216   0.8691   0.8935   0.9188
     0.9726   1.0840   1.0928   1.1393   1.1420   1.2052   1.2770   1.2982
     1.4171   1.4294   1.4447   1.4846   1.5731   1.5774   1.6131   1.6726
     1.7976   1.8209   1.8497   1.8805   1.9178   1.9381   1.9578   2.0144
     2.0354   2.1008   2.1553   2.7399   2.9655   3.4139   3.4926   3.7648
     3.8688   3.9515   4.6336   5.0712   5.5607   6.1079   6.1091   6.1616
     6.4219   7.3750   7.9719   8.2592   8.6006   9.1752   9.4697   9.5432
     9.8452  10.0746  10.1711  10.2723  10.5609  10.6211  10.9472  11.0633
    11.0761  11.4065  11.4676  11.7564  12.0455  12.1140  12.2011  12.2171
    12.3601  12.4861

          k =-0.5000 0.6736 0.0000 ( 32075 PWs)   bands (ev):

   -87.0925 -87.0886 -87.0864 -87.0814 -87.0785 -87.0770 -87.0229 -87.0196
   -87.0178 -86.8612 -86.8579 -86.8561 -50.6102 -50.6025 -50.5935 -50.5918
   -50.5861 -50.5633 -50.5594 -50.5551 -50.5361 -50.5325 -50.5291 -50.5186
   -50.5162 -50.5137 -50.5136 -50.5048 -50.5015 -50.4965 -50.4964 -50.4843
   -50.4815 -50.4532 -50.4526 -50.4485 -50.4478 -50.4469 -50.4389 -50.3764
   -50.3541 -50.3244 -50.2925 -50.2920 -50.2810 -50.2780 -50.2779 -50.2767
   -13.7897 -13.1956 -13.0545 -12.8419 -12.2463 -12.1123 -11.9116 -11.3145
   -11.1875  -9.3228  -8.7191  -8.6175  -7.4731  -6.8628  -6.7822  -5.1205
    -5.0520  -4.5082  -4.4416  -4.4357  -4.3662  -4.0717  -3.4622  -3.3851
    -2.9876  -2.3749  -2.3086  -2.2189  -2.0322  -1.4934  -1.4242  -1.4084
    -1.3535  -1.2254  -1.1946  -1.1637  -1.1565  -1.0918  -0.9319  -0.9048
    -0.8896  -0.8809  -0.8547  -0.8361  -0.8182  -0.6972  -0.6953  -0.6340
    -0.5997  -0.5733  -0.5210  -0.5128  -0.4008  -0.3535  -0.3147  -0.2613
    -0.1698  -0.1550  -0.0147  -0.0042   0.0450   0.0616   0.1238   0.2157
     0.2510   0.2881   0.3639   0.3747   0.4065   0.4197   0.4986   0.5147
     0.5946   0.6979   0.7067   0.7848   0.8234   0.8740   0.8878   0.9153
     0.9752   1.0842   1.0933   1.1381   1.1431   1.2005   1.2777   1.2999
     1.4167   1.4287   1.4458   1.4869   1.5741   1.5779   1.6126   1.6719
     1.7972   1.8212   1.8496   1.8793   1.9199   1.9431   1.9567   2.0188
     2.0346   2.0984   2.1534   2.7398   2.9655   3.4143   3.4926   3.7638
     3.8699   3.9516   4.6332   5.0721   5.5607   6.1023   6.1074   6.1615
     6.4219   7.3725   7.9667   8.2585   8.6005   9.1752   9.4697   9.5540
     9.8403  10.0742  10.1711  10.2775  10.5609  10.6210  10.9472  11.0636
    11.0779  11.4065  11.4675  11.7567  12.0441  12.1142  12.2011  12.2399
    12.3593  12.4860

          k =-0.5000-0.2887 0.0000 ( 32112 PWs)   bands (ev):

   -87.0910 -87.0909 -87.0856 -87.0803 -87.0802 -87.0764 -87.0217 -87.0214
   -87.0171 -86.8600 -86.8598 -86.8554 -50.6195 -50.6099 -50.5905 -50.5905
   -50.5682 -50.5662 -50.5660 -50.5435 -50.5434 -50.5358 -50.5190 -50.5187
   -50.5186 -50.5179 -50.5079 -50.5077 -50.4962 -50.4940 -50.4940 -50.4885
   -50.4881 -50.4531 -50.4490 -50.4485 -50.4481 -50.4462 -50.4459 -50.3854
   -50.3333 -50.3331 -50.2923 -50.2866 -50.2864 -50.2798 -50.2797 -50.2762
   -13.4744 -13.4696 -12.8776 -12.8774 -12.7388 -12.7387 -10.7157 -10.7000
   -10.1085 -10.1085  -9.9911  -9.9911  -6.0957  -6.0848  -5.4771  -5.4771
    -5.4078  -5.4078  -4.4296  -4.4153  -3.8073  -3.8072  -3.7431  -3.7431
    -3.0085  -3.0023  -2.3950  -2.3949  -2.3213  -2.3213  -1.8635  -1.8465
    -1.3377  -1.2461  -1.1822  -1.0473  -1.0446  -0.9907  -0.8845  -0.8837
    -0.8006  -0.6614  -0.6607  -0.6245  -0.6233  -0.5534  -0.4892  -0.4884
    -0.4578  -0.4574  -0.3570  -0.3559  -0.2405  -0.2392  -0.2091  -0.2050
    -0.0497  -0.0113  -0.0111   0.0135   0.0146   0.0489   0.0489   0.1093
     0.1225   0.1242   0.2554   0.2594   0.3264   0.3493   0.3498   0.4141
     0.4148   0.6273   0.6306   0.7166   0.7208   0.7537   0.8639   0.9416
     0.9455   1.0628   1.1649   1.1688   1.2585   1.2613   1.4232   1.4721
     1.5301   1.5343   1.6057   1.6163   1.6298   1.7415   1.7418   1.8620
     1.9019   1.9105   1.9117   2.0003   2.0462   2.0892   2.0893   2.1081
     2.1542   2.1729   2.2395   2.3081   2.6035   2.6068   2.7483   2.7552
     4.2453   4.2471   5.1281   5.9557   6.4509   6.5193   6.5587   6.6531
     7.0430   7.0524   7.6098   7.6112   7.8942   7.8952   8.8609   8.8816
     9.1273   9.7433  10.5212  10.5970  10.5972  10.9934  10.9942  11.3059
    11.3089  11.5022  11.5033  11.7157  11.7479  11.7523  11.9258  11.9278
    12.1227  12.1240

     the Fermi energy is     5.0589 ev

!    total energy              =   -3891.08494780 Ry
     estimated scf accuracy    <          6.3E-09 Ry
     smearing contrib. (-TS)   =      -0.00115787 Ry
     internal energy E=F+TS    =   -3891.08378994 Ry

     The total energy is F=E-TS. E is the sum of the following terms:
     one-electron contribution =  -49404.96326030 Ry
     hartree contribution      =   24750.50704177 Ry
     xc contribution           =    -436.10888722 Ry
     ewald contribution        =   21348.16160476 Ry
     DFT-D3 Dispersion         =      -0.69819627 Ry
     electric field correction =       0.00000046 Ry
     one-center paw contrib.   =    -147.98209313 Ry

     convergence has been achieved in  67 iterations

     negative rho (up, down):  2.852E-04 0.000E+00

     Forces acting on atoms (cartesian axes, Ry/au):

     atom    1 type  1   force =    -0.00013952    0.00040144    0.00195225
     atom    2 type  1   force =    -0.00017585    0.00038388    0.00195009
     atom    3 type  1   force =     0.00052202   -0.00023112    0.00050977
     atom    4 type  1   force =     0.00001020   -0.00033393   -0.00120387
     atom    5 type  1   force =    -0.00018974    0.00040692    0.00195047
     atom    6 type  1   force =     0.00021172   -0.00004895    0.00040361
     atom    7 type  1   force =    -0.00024278    0.00004419   -0.00988965
     atom    8 type  1   force =     0.00000755   -0.00033265   -0.00121337
     atom    9 type  1   force =    -0.00027019    0.00001474   -0.01196734
     atom   10 type  1   force =     0.00052619    0.00013112    0.00049043
     atom   11 type  1   force =     0.00000903   -0.00033615   -0.00120619
     atom   12 type  1   force =    -0.00024436    0.00000849   -0.00993942
     atom   13 type  2   force =     0.00000259   -0.00001476    0.00111089
     atom   14 type  2   force =     0.00205497    0.00115383    0.00476195
     atom   15 type  2   force =     0.00198410   -0.00113728    0.00463243
     atom   16 type  2   force =    -0.00001531   -0.00234474    0.00476092
     atom   17 type  2   force =    -0.00002087    0.00231717    0.00463160
     atom   18 type  2   force =    -0.00204119    0.00119069    0.00476249
     atom   19 type  2   force =    -0.00197738   -0.00117249    0.00463451
     atom   20 type  2   force =     0.00000371   -0.00002383    0.00129105
     atom   21 type  2   force =     0.00003971    0.00001947    0.00007722
     atom   22 type  2   force =     0.00000010   -0.00000735   -0.00041184
     atom   23 type  2   force =    -0.00000307   -0.00004939    0.00007733
     atom   24 type  2   force =     0.00002165   -0.00001792   -0.00043761
     atom   25 type  2   force =    -0.00004217    0.00002200    0.00007732
     atom   26 type  2   force =    -0.00000152    0.00001844   -0.00043758
     atom   27 type  2   force =    -0.00000171   -0.00000337    0.00010434
     atom   28 type  2   force =    -0.00002060   -0.00002061   -0.00043765
     atom   29 type  2   force =    -0.00000176   -0.00000272   -0.00007777
     atom   30 type  2   force =     0.00000070   -0.00000640   -0.00017983
     atom   31 type  2   force =    -0.00000315   -0.00000188   -0.00007910
     atom   32 type  2   force =    -0.00000013   -0.00000749   -0.00017988
     atom   33 type  2   force =    -0.00000193   -0.00000431   -0.00007897
     atom   34 type  2   force =    -0.00000067   -0.00000617   -0.00017985
     atom   35 type  2   force =    -0.00000031   -0.00000211   -0.00007907
     atom   36 type  2   force =    -0.00000005   -0.00000674   -0.00017967

     Total force =     0.022952     Total SCF correction =     0.000562

     Writing all to output data dir ./tmp/AGC_N3_top_fcc_Ed_m03.save/ :
     XML data file, charge density, pseudopotentials, collected wavefunctions
 
     init_run     :     27.69s CPU     28.76s WALL (       1 calls)
     electrons    :   4632.01s CPU   4712.87s WALL (       1 calls)
     forces       :     13.54s CPU     13.90s WALL (       1 calls)
     force_dftd3  :      0.02s CPU      0.02s WALL (       1 calls)

     Called by init_run:
     wfcinit      :     19.54s CPU     20.42s WALL (       1 calls)
     potinit      :      7.21s CPU      7.27s WALL (       1 calls)
     hinit0       :      0.38s CPU      0.41s WALL (       1 calls)

     Called by electrons:
     c_bands      :   3536.60s CPU   3594.64s WALL (      67 calls)
     sum_band     :    666.03s CPU    684.97s WALL (      67 calls)
     v_of_rho     :     11.73s CPU     12.80s WALL (      68 calls)
     newd         :      9.91s CPU      9.95s WALL (      68 calls)
                                        9.95s GPU  (      68 calls)
     PAW_pot      :    290.66s CPU    290.60s WALL (      68 calls)
     mix_rho      :    118.49s CPU    120.76s WALL (      67 calls)
     energy_dftd3 :      0.01s CPU      0.01s WALL (       1 calls)

     Called by c_bands:
     init_us_2    :    159.61s CPU    160.11s WALL (    2720 calls)
     cegterg      :   3305.57s CPU   3307.27s WALL (    1340 calls)

     Called by *egterg:
     cdiaghg      :    224.46s CPU    225.04s WALL (    8569 calls)
                                      216.86s GPU  (    8569 calls)
     h_psi        :   1640.05s CPU   1651.26s WALL (    8589 calls)
                                     1646.28s GPU  (    8589 calls)
     s_psi        :    212.70s CPU    212.86s WALL (    8589 calls)
     g_psi        :      0.03s CPU      7.53s WALL (    7229 calls)
                                        2.01s GPU  (    7229 calls)

     Called by h_psi:
     h_psi:calbec :      0.51s CPU    311.06s WALL (    8589 calls)
                                      306.73s GPU  (    8589 calls)
     vloc_psi     :    933.09s CPU    937.92s WALL (    8589 calls)
                                      933.17s GPU  (    8589 calls)
     add_vuspsi   :    142.58s CPU    371.12s WALL (    8589 calls)
                                      366.39s GPU  (    8589 calls)

     General routines
     calbec       :      0.56s CPU      0.58s WALL (   10009 calls)
     fft          :      2.84s CPU      4.46s WALL (     893 calls)
                                        0.87s GPU  (     825 calls)
     ffts         :      1.09s CPU      8.01s WALL (    8203 calls)
                                        2.81s GPU  (    8135 calls)
     fftw         :      1.79s CPU    555.09s WALL (  100566 calls)
                                      490.97s GPU  (  100566 calls)
     interpolate  :      4.12s CPU      4.67s WALL (      68 calls)
     davcio       :      3.38s CPU     77.28s WALL (    5326 calls)
 
     Parallel routines
 
     PWSCF        :      1h17m CPU      1h19m WALL

 
   This run was terminated on:  12:57: 9   4Oct2026            

=------------------------------------------------------------------------------=
   JOB DONE.
=------------------------------------------------------------------------------=
