
     Program PWSCF v.7.4.1 starts on 30Sep2026 at 19:16:22 

     This program is part of the open-source Quantum ESPRESSO suite
     for quantum simulation of materials; please cite
         "P. Giannozzi et al., J. Phys.:Condens. Matter 21 395502 (2009);
         "P. Giannozzi et al., J. Phys.:Condens. Matter 29 465901 (2017);
         "P. Giannozzi et al., J. Chem. Phys. 152 154105 (2020);
          URL http://www.quantum-espresso.org", 
     in publications or presentations arising from this work. More details at
     http://www.quantum-espresso.org/quote

     Parallel version (MPI & OpenMP), running on      16 processor cores
     Number of MPI processes:                 1
     Threads/MPI process:                    16

     MPI processes distributed on     1 nodes
     97938 MiB available memory on the printing compute node when the environment starts
 
     Reading input from pw.in

     Current dimensions of program PWSCF are:
     Max number of different atomic species (ntypx) = 10
     Max number of k-points (npk) =  40000
     Max angular momentum in pseudopotentials (lmaxx) =  4
     Presently no symmetry can be used with electric field

     file C.pbe-n-kjpaw_psl.1.0.0.UPF: wavefunction(s)  2S 2P renormalized
 
     Subspace diagonalization in iterative solution of the eigenvalue problem:
     a serial algorithm will be used

 
     G-vector sticks info
     --------------------
     sticks:   dense  smooth     PW     G-vecs:    dense   smooth      PW
     Sum        1039     421    139               382345    97019   18433
 
     Using Slab Decomposition
 


     bravais-lattice index     =            0
     lattice parameter (alat)  =       4.6601  a.u.
     unit-cell volume          =    1222.6043 (a.u.)^3
     number of atoms/cell      =           12
     number of atomic types    =            1
     number of electrons       =        48.00
     number of Kohn-Sham states=           29
     kinetic-energy cutoff     =      70.0000  Ry
     charge density cutoff     =     700.0000  Ry
     scf convergence threshold =      1.0E-08
     mixing beta               =       0.3000
     number of iterations used =            8  local-TF  mixing
     Exchange-correlation= SLA  PW   PBX  PBC
                           (   1   4   3   4   0   0   0)

     GPU acceleration is ACTIVE.  1 visible GPUs per MPI rank


     celldm(1)=   4.660140  celldm(2)=   0.000000  celldm(3)=   0.000000
     celldm(4)=   0.000000  celldm(5)=   0.000000  celldm(6)=   0.000000

     crystal axes: (cart. coord. in units of alat)
               a(1) = (   1.000000   0.000000   0.000000 )  
               a(2) = (   0.500000   0.866025   0.000000 )  
               a(3) = (   0.000000   0.000000  13.949490 )  

     reciprocal axes: (cart. coord. in units 2 pi/alat)
               b(1) = (  1.000000 -0.577350  0.000000 )  
               b(2) = (  0.000000  1.154701  0.000000 )  
               b(3) = (  0.000000  0.000000  0.071687 )  


     PseudoPot. # 1 for C  read from file:
     /home/ubuntu/wad4l/pseudo_kgy/C.pbe-n-kjpaw_psl.1.0.0.UPF
     MD5 check sum: 5d2aebdfa2cae82b50a7e79e9516da0f
     Pseudo is Projector augmented-wave + core cor, Zval =  4.0
     Generated using "atomic" code by A. Dal Corso  v.5.1
     Shape of augmentation charge: PSQ
     Using radial grid of 1073 points,  4 beta functions with: 
                l(1) =   0
                l(2) =   0
                l(3) =   1
                l(4) =   1
     Q(r) pseudized with 0 coefficients 


     atomic species   valence    mass     pseudopotential
     C                 4.00    12.01100     C ( 1.00)

     No symmetry found



   Cartesian axes

     site n.     atom                  positions (alat units)
         1        C      tau(   1) = (   0.0000000   0.0000000   0.2027542  )
         2        C      tau(   2) = (   0.5000000   0.2886751   0.2027542  )
         3        C      tau(   3) = (   0.5000000   0.2886751   1.5612074  )
         4        C      tau(   4) = (   1.0000000   0.5773503   1.5612074  )
         5        C      tau(   5) = (   0.0000000   0.0000000   2.9196607  )
         6        C      tau(   6) = (   0.5000000   0.2886751   2.9196607  )
         7        C      tau(   7) = (   0.5000000   0.2886751   6.9747449  )
         8        C      tau(   8) = (   1.0000000   0.5773503   6.9747449  )
         9        C      tau(   9) = (   0.0000000   0.0000000   8.3331982  )
        10        C      tau(  10) = (   0.5000000   0.2886751   8.3331982  )
        11        C      tau(  11) = (   0.5000000   0.2886751   9.6916514  )
        12        C      tau(  12) = (   1.0000000   0.5773503   9.6916514  )

     --------------------------------------------
     DFT-D3 Dispersion Correction (no 3-body):
     --------------------------------------------
       Reference C6 values for interpolation: 

         atom   Coordination number   C6
         C          0.000            98.23
         C          0.987            86.49
         C          1.998            58.72
         C          2.999            51.56
         C          3.984            36.41

       Values used:

         atom   Coordination number  R0_AB[au]  C6      C8
         C          3.314            2.750     48.28   1396.39
         C          3.314            2.750     48.28   1396.27
         C          3.321            2.750     48.14   1392.31
         C          3.321            2.750     48.15   1392.56
         C          3.314            2.750     48.28   1396.35
         C          3.315            2.750     48.28   1396.23
         C          3.315            2.750     48.28   1396.23
         C          3.314            2.750     48.28   1396.35
         C          3.321            2.750     48.15   1392.56
         C          3.321            2.750     48.14   1392.31
         C          3.314            2.750     48.28   1396.27
         C          3.314            2.750     48.28   1396.39

         Molecular C6 ( Ry / a.u.^6 ) =      6945.72


     number of k points=   164  Marzari-Vanderbilt smearing, width (Ry)=  0.0100

     Number of k-points >= 100: set verbosity='high' to print them.

     Dense  grid:   382345 G-vectors     FFT dimensions: (  40,  40, 576)

     Smooth grid:    97019 G-vectors     FFT dimensions: (  25,  25, 360)

     Estimated max dynamical RAM per process >     695.91 MB

     Initial potential from superposition of free atoms

     starting charge      47.9995, renormalised to      48.0000

     negative rho (up, down):  8.290E-06 0.000E+00
 
     Adding external electric field

     Computed dipole along edir(3) : 
        Dipole               -0.0000 Ry au,         -0.0000 Debye
        Dipole field         -0.0000 Ry au, 
 
        Potential amp.        0.0000 Ry
        Total length         63.1168 bohr
 
     Starting wfcs are   48 randomized atomic wfcs
     Checking if some PAW data can be deallocated... 

     total cpu time spent up to now is        4.6 secs

     Self-consistent Calculation

     iteration #  1     ecut=    70.00 Ry     beta= 0.30
     Davidson diagonalization with overlap
     ethr =  1.00E-02,  avg # of iterations =  2.1

     negative rho (up, down):  2.901E-08 0.000E+00
 
     Adding external electric field

     Computed dipole along edir(3) : 
        Dipole               -0.0001 Ry au,         -0.0002 Debye
        Dipole field         -0.0000 Ry au, 
 
        Potential amp.        0.0001 Ry
        Total length         63.1168 bohr
 

     total cpu time spent up to now is       11.0 secs

     total energy              =    -221.75206375 Ry
     estimated scf accuracy    <       1.05820304 Ry

     iteration #  2     ecut=    70.00 Ry     beta= 0.30
     Davidson diagonalization with overlap
     ethr =  2.20E-03,  avg # of iterations =  1.0
 
     Adding external electric field

     Computed dipole along edir(3) : 
        Dipole               -0.0004 Ry au,         -0.0011 Debye
        Dipole field         -0.0000 Ry au, 
 
        Potential amp.        0.0006 Ry
        Total length         63.1168 bohr
 

     total cpu time spent up to now is       16.2 secs

     total energy              =    -221.30806948 Ry
     estimated scf accuracy    <       0.74084277 Ry

     iteration #  3     ecut=    70.00 Ry     beta= 0.30
     Davidson diagonalization with overlap
     ethr =  1.54E-03,  avg # of iterations =  2.8
 
     Adding external electric field

     Computed dipole along edir(3) : 
        Dipole               -0.0004 Ry au,         -0.0009 Debye
        Dipole field         -0.0000 Ry au, 
 
        Potential amp.        0.0005 Ry
        Total length         63.1168 bohr
 

     total cpu time spent up to now is       22.9 secs

     total energy              =    -221.43884270 Ry
     estimated scf accuracy    <       0.07487850 Ry

     iteration #  4     ecut=    70.00 Ry     beta= 0.30
     Davidson diagonalization with overlap
     ethr =  1.56E-04,  avg # of iterations =  3.5
 
     Adding external electric field

     Computed dipole along edir(3) : 
        Dipole               -0.0003 Ry au,         -0.0008 Debye
        Dipole field         -0.0000 Ry au, 
 
        Potential amp.        0.0004 Ry
        Total length         63.1168 bohr
 

     total cpu time spent up to now is       29.4 secs

     total energy              =    -221.43832992 Ry
     estimated scf accuracy    <       0.02591445 Ry

     iteration #  5     ecut=    70.00 Ry     beta= 0.30
     Davidson diagonalization with overlap
     c_bands:  1 eigenvalues not converged
     ethr =  5.40E-05,  avg # of iterations =  2.4
 
     Adding external electric field

     Computed dipole along edir(3) : 
        Dipole               -0.0002 Ry au,         -0.0005 Debye
        Dipole field         -0.0000 Ry au, 
 
        Potential amp.        0.0003 Ry
        Total length         63.1168 bohr
 

     total cpu time spent up to now is       35.2 secs

     total energy              =    -221.43800420 Ry
     estimated scf accuracy    <       0.01050941 Ry

     iteration #  6     ecut=    70.00 Ry     beta= 0.30
     Davidson diagonalization with overlap
     c_bands:  1 eigenvalues not converged
     c_bands:  1 eigenvalues not converged
     c_bands:  1 eigenvalues not converged
     c_bands:  1 eigenvalues not converged
     c_bands:  1 eigenvalues not converged
     ethr =  2.19E-05,  avg # of iterations =  2.1

     negative rho (up, down):  6.164E-03 0.000E+00
 
     Adding external electric field

     Computed dipole along edir(3) : 
        Dipole                0.0004 Ry au,          0.0011 Debye
        Dipole field          0.0000 Ry au, 
 
        Potential amp.       -0.0005 Ry
        Total length         63.1168 bohr
 

     total cpu time spent up to now is       40.9 secs

     total energy              =    -221.43653484 Ry
     estimated scf accuracy    <       0.00821934 Ry

     iteration #  7     ecut=    70.00 Ry     beta= 0.30
     Davidson diagonalization with overlap
     ethr =  1.71E-05,  avg # of iterations =  4.1

     negative rho (up, down):  1.641E-04 0.000E+00
 
     Adding external electric field

     Computed dipole along edir(3) : 
        Dipole                0.0006 Ry au,          0.0015 Debye
        Dipole field          0.0000 Ry au, 
 
        Potential amp.       -0.0008 Ry
        Total length         63.1168 bohr
 

     total cpu time spent up to now is       48.1 secs

     total energy              =    -221.43485482 Ry
     estimated scf accuracy    <       0.00400428 Ry

     iteration #  8     ecut=    70.00 Ry     beta= 0.30
     Davidson diagonalization with overlap
     ethr =  8.34E-06,  avg # of iterations =  3.2

     negative rho (up, down):  2.376E-03 0.000E+00
 
     Adding external electric field

     Computed dipole along edir(3) : 
        Dipole                0.0007 Ry au,          0.0017 Debye
        Dipole field          0.0000 Ry au, 
 
        Potential amp.       -0.0009 Ry
        Total length         63.1168 bohr
 

     total cpu time spent up to now is       54.9 secs

     total energy              =    -221.43635265 Ry
     estimated scf accuracy    <       0.00142847 Ry

     iteration #  9     ecut=    70.00 Ry     beta= 0.30
     Davidson diagonalization with overlap
     c_bands:  3 eigenvalues not converged
     c_bands:  5 eigenvalues not converged
     c_bands:  4 eigenvalues not converged
     ethr =  2.98E-06,  avg # of iterations =  3.0

     negative rho (up, down):  2.523E-03 0.000E+00
 
     Adding external electric field

     Computed dipole along edir(3) : 
        Dipole                0.0003 Ry au,          0.0007 Debye
        Dipole field          0.0000 Ry au, 
 
        Potential amp.       -0.0003 Ry
        Total length         63.1168 bohr
 

     total cpu time spent up to now is       61.1 secs

     total energy              =    -221.43525013 Ry
     estimated scf accuracy    <       0.00097909 Ry

     iteration # 10     ecut=    70.00 Ry     beta= 0.30
     Davidson diagonalization with overlap
     c_bands:  1 eigenvalues not converged
     ethr =  2.04E-06,  avg # of iterations =  5.0

     negative rho (up, down):  2.979E-03 0.000E+00
 
     Adding external electric field

     Computed dipole along edir(3) : 
        Dipole                0.0002 Ry au,          0.0006 Debye
        Dipole field          0.0000 Ry au, 
 
        Potential amp.       -0.0003 Ry
        Total length         63.1168 bohr
 

     total cpu time spent up to now is       68.8 secs

     total energy              =    -221.43543877 Ry
     estimated scf accuracy    <       0.00014175 Ry

     iteration # 11     ecut=    70.00 Ry     beta= 0.30
     Davidson diagonalization with overlap
     ethr =  2.95E-07,  avg # of iterations =  2.4

     negative rho (up, down):  1.272E-03 0.000E+00
 
     Adding external electric field

     Computed dipole along edir(3) : 
        Dipole               -0.0000 Ry au,         -0.0000 Debye
        Dipole field         -0.0000 Ry au, 
 
        Potential amp.        0.0000 Ry
        Total length         63.1168 bohr
 

     total cpu time spent up to now is       74.5 secs

     total energy              =    -221.43537984 Ry
     estimated scf accuracy    <       0.00013146 Ry

     iteration # 12     ecut=    70.00 Ry     beta= 0.30
     Davidson diagonalization with overlap
     c_bands:  1 eigenvalues not converged
     c_bands:  1 eigenvalues not converged
     ethr =  2.74E-07,  avg # of iterations =  3.4

     negative rho (up, down):  2.205E-03 0.000E+00
 
     Adding external electric field

     Computed dipole along edir(3) : 
        Dipole               -0.0002 Ry au,         -0.0006 Debye
        Dipole field         -0.0000 Ry au, 
 
        Potential amp.        0.0003 Ry
        Total length         63.1168 bohr
 

     total cpu time spent up to now is       80.7 secs

     total energy              =    -221.43543963 Ry
     estimated scf accuracy    <       0.00003587 Ry

     iteration # 13     ecut=    70.00 Ry     beta= 0.30
     Davidson diagonalization with overlap
     ethr =  7.47E-08,  avg # of iterations =  4.4

     negative rho (up, down):  3.160E-04 0.000E+00
 
     Adding external electric field

     Computed dipole along edir(3) : 
        Dipole               -0.0002 Ry au,         -0.0005 Debye
        Dipole field         -0.0000 Ry au, 
 
        Potential amp.        0.0003 Ry
        Total length         63.1168 bohr
 

     total cpu time spent up to now is       87.4 secs

     total energy              =    -221.43537146 Ry
     estimated scf accuracy    <       0.00003009 Ry

     iteration # 14     ecut=    70.00 Ry     beta= 0.30
     Davidson diagonalization with overlap
     c_bands:  1 eigenvalues not converged
     c_bands:  1 eigenvalues not converged
     c_bands:  1 eigenvalues not converged
     c_bands:  1 eigenvalues not converged
     c_bands:  1 eigenvalues not converged
     ethr =  6.27E-08,  avg # of iterations =  4.1

     negative rho (up, down):  8.976E-05 0.000E+00
 
     Adding external electric field

     Computed dipole along edir(3) : 
        Dipole               -0.0003 Ry au,         -0.0007 Debye
        Dipole field         -0.0000 Ry au, 
 
        Potential amp.        0.0003 Ry
        Total length         63.1168 bohr
 

     total cpu time spent up to now is       94.1 secs

     total energy              =    -221.43536256 Ry
     estimated scf accuracy    <       0.00002845 Ry

     iteration # 15     ecut=    70.00 Ry     beta= 0.30
     Davidson diagonalization with overlap
     ethr =  5.93E-08,  avg # of iterations =  2.3

     negative rho (up, down):  7.250E-06 0.000E+00
 
     Adding external electric field

     Computed dipole along edir(3) : 
        Dipole               -0.0000 Ry au,         -0.0000 Debye
        Dipole field         -0.0000 Ry au, 
 
        Potential amp.        0.0000 Ry
        Total length         63.1168 bohr
 

     total cpu time spent up to now is       99.7 secs

     total energy              =    -221.43534768 Ry
     estimated scf accuracy    <       0.00002279 Ry

     iteration # 16     ecut=    70.00 Ry     beta= 0.30
     Davidson diagonalization with overlap
     ethr =  4.75E-08,  avg # of iterations =  3.6

     negative rho (up, down):  4.626E-06 0.000E+00
 
     Adding external electric field

     Computed dipole along edir(3) : 
        Dipole               -0.0000 Ry au,         -0.0000 Debye
        Dipole field         -0.0000 Ry au, 
 
        Potential amp.        0.0000 Ry
        Total length         63.1168 bohr
 

     total cpu time spent up to now is      106.6 secs

     total energy              =    -221.43535578 Ry
     estimated scf accuracy    <       0.00000627 Ry

     iteration # 17     ecut=    70.00 Ry     beta= 0.30
     Davidson diagonalization with overlap
     ethr =  1.31E-08,  avg # of iterations =  2.9

     negative rho (up, down):  3.885E-06 0.000E+00
 
     Adding external electric field

     Computed dipole along edir(3) : 
        Dipole                0.0000 Ry au,          0.0001 Debye
        Dipole field          0.0000 Ry au, 
 
        Potential amp.       -0.0001 Ry
        Total length         63.1168 bohr
 

     total cpu time spent up to now is      112.7 secs

     total energy              =    -221.43535894 Ry
     estimated scf accuracy    <       0.00000315 Ry

     iteration # 18     ecut=    70.00 Ry     beta= 0.30
     Davidson diagonalization with overlap
     ethr =  6.57E-09,  avg # of iterations =  2.0

     negative rho (up, down):  1.207E-05 0.000E+00
 
     Adding external electric field

     Computed dipole along edir(3) : 
        Dipole                0.0001 Ry au,          0.0003 Debye
        Dipole field          0.0000 Ry au, 
 
        Potential amp.       -0.0001 Ry
        Total length         63.1168 bohr
 

     total cpu time spent up to now is      118.3 secs

     total energy              =    -221.43535922 Ry
     estimated scf accuracy    <       0.00000229 Ry

     iteration # 19     ecut=    70.00 Ry     beta= 0.30
     Davidson diagonalization with overlap
     ethr =  4.76E-09,  avg # of iterations =  1.7

     negative rho (up, down):  2.040E-05 0.000E+00
 
     Adding external electric field

     Computed dipole along edir(3) : 
        Dipole                0.0001 Ry au,          0.0002 Debye
        Dipole field          0.0000 Ry au, 
 
        Potential amp.       -0.0001 Ry
        Total length         63.1168 bohr
 

     total cpu time spent up to now is      123.6 secs

     total energy              =    -221.43535882 Ry
     estimated scf accuracy    <       0.00000122 Ry

     iteration # 20     ecut=    70.00 Ry     beta= 0.30
     Davidson diagonalization with overlap
     ethr =  2.53E-09,  avg # of iterations =  1.9

     negative rho (up, down):  2.127E-05 0.000E+00
 
     Adding external electric field

     Computed dipole along edir(3) : 
        Dipole                0.0001 Ry au,          0.0001 Debye
        Dipole field          0.0000 Ry au, 
 
        Potential amp.       -0.0001 Ry
        Total length         63.1168 bohr
 

     total cpu time spent up to now is      129.2 secs

     total energy              =    -221.43535910 Ry
     estimated scf accuracy    <       0.00000018 Ry

     iteration # 21     ecut=    70.00 Ry     beta= 0.30
     Davidson diagonalization with overlap
     ethr =  3.80E-10,  avg # of iterations =  1.3

     negative rho (up, down):  3.898E-05 0.000E+00
 
     Adding external electric field

     Computed dipole along edir(3) : 
        Dipole                0.0000 Ry au,          0.0001 Debye
        Dipole field          0.0000 Ry au, 
 
        Potential amp.       -0.0000 Ry
        Total length         63.1168 bohr
 

     total cpu time spent up to now is      134.5 secs

     total energy              =    -221.43535960 Ry
     estimated scf accuracy    <       0.00000015 Ry

     iteration # 22     ecut=    70.00 Ry     beta= 0.30
     Davidson diagonalization with overlap
     ethr =  3.18E-10,  avg # of iterations =  1.4

     negative rho (up, down):  4.525E-05 0.000E+00
 
     Adding external electric field

     Computed dipole along edir(3) : 
        Dipole                0.0000 Ry au,          0.0001 Debye
        Dipole field          0.0000 Ry au, 
 
        Potential amp.       -0.0000 Ry
        Total length         63.1168 bohr
 

     total cpu time spent up to now is      139.9 secs

     total energy              =    -221.43535961 Ry
     estimated scf accuracy    <       0.00000012 Ry

     iteration # 23     ecut=    70.00 Ry     beta= 0.30
     Davidson diagonalization with overlap
     ethr =  2.45E-10,  avg # of iterations =  1.0

     negative rho (up, down):  2.844E-05 0.000E+00
 
     Adding external electric field

     Computed dipole along edir(3) : 
        Dipole                0.0000 Ry au,          0.0000 Debye
        Dipole field          0.0000 Ry au, 
 
        Potential amp.       -0.0000 Ry
        Total length         63.1168 bohr
 

     total cpu time spent up to now is      145.1 secs

     total energy              =    -221.43535971 Ry
     estimated scf accuracy    <       0.00000012 Ry

     iteration # 24     ecut=    70.00 Ry     beta= 0.30
     Davidson diagonalization with overlap
     ethr =  2.45E-10,  avg # of iterations =  1.6

     negative rho (up, down):  2.941E-05 0.000E+00
 
     Adding external electric field

     Computed dipole along edir(3) : 
        Dipole                0.0000 Ry au,          0.0000 Debye
        Dipole field          0.0000 Ry au, 
 
        Potential amp.       -0.0000 Ry
        Total length         63.1168 bohr
 

     total cpu time spent up to now is      150.4 secs

     total energy              =    -221.43535969 Ry
     estimated scf accuracy    <       0.00000014 Ry

     iteration # 25     ecut=    70.00 Ry     beta= 0.30
     Davidson diagonalization with overlap
     ethr =  2.45E-10,  avg # of iterations =  1.0

     negative rho (up, down):  5.185E-05 0.000E+00
 
     Adding external electric field

     Computed dipole along edir(3) : 
        Dipole                0.0000 Ry au,          0.0001 Debye
        Dipole field          0.0000 Ry au, 
 
        Potential amp.       -0.0000 Ry
        Total length         63.1168 bohr
 

     total cpu time spent up to now is      155.7 secs

     total energy              =    -221.43535969 Ry
     estimated scf accuracy    <       0.00000013 Ry

     iteration # 26     ecut=    70.00 Ry     beta= 0.30
     Davidson diagonalization with overlap
     ethr =  2.45E-10,  avg # of iterations =  1.0

     negative rho (up, down):  2.884E-05 0.000E+00
 
     Adding external electric field

     Computed dipole along edir(3) : 
        Dipole                0.0000 Ry au,          0.0000 Debye
        Dipole field          0.0000 Ry au, 
 
        Potential amp.       -0.0000 Ry
        Total length         63.1168 bohr
 

     total cpu time spent up to now is      160.7 secs

     total energy              =    -221.43535966 Ry
     estimated scf accuracy    <       0.00000014 Ry

     iteration # 27     ecut=    70.00 Ry     beta= 0.30
     Davidson diagonalization with overlap
     ethr =  2.45E-10,  avg # of iterations =  1.0

     negative rho (up, down):  2.876E-05 0.000E+00
 
     Adding external electric field

     Computed dipole along edir(3) : 
        Dipole                0.0000 Ry au,          0.0000 Debye
        Dipole field          0.0000 Ry au, 
 
        Potential amp.       -0.0000 Ry
        Total length         63.1168 bohr
 

     total cpu time spent up to now is      165.9 secs

     total energy              =    -221.43535968 Ry
     estimated scf accuracy    <       0.00000013 Ry

     iteration # 28     ecut=    70.00 Ry     beta= 0.30
     Davidson diagonalization with overlap
     ethr =  2.45E-10,  avg # of iterations =  1.0

     negative rho (up, down):  2.706E-05 0.000E+00
 
     Adding external electric field

     Computed dipole along edir(3) : 
        Dipole               -0.0000 Ry au,         -0.0000 Debye
        Dipole field         -0.0000 Ry au, 
 
        Potential amp.        0.0000 Ry
        Total length         63.1168 bohr
 

     total cpu time spent up to now is      171.0 secs

     total energy              =    -221.43535965 Ry
     estimated scf accuracy    <       0.00000012 Ry

     iteration # 29     ecut=    70.00 Ry     beta= 0.30
     Davidson diagonalization with overlap
     ethr =  2.45E-10,  avg # of iterations =  1.0

     negative rho (up, down):  3.060E-05 0.000E+00
 
     Adding external electric field

     Computed dipole along edir(3) : 
        Dipole                0.0000 Ry au,          0.0001 Debye
        Dipole field          0.0000 Ry au, 
 
        Potential amp.       -0.0000 Ry
        Total length         63.1168 bohr
 

     total cpu time spent up to now is      176.2 secs

     total energy              =    -221.43535962 Ry
     estimated scf accuracy    <       0.00000015 Ry

     iteration # 30     ecut=    70.00 Ry     beta= 0.30
     Davidson diagonalization with overlap
     ethr =  2.45E-10,  avg # of iterations =  1.0

     negative rho (up, down):  3.677E-05 0.000E+00
 
     Adding external electric field

     Computed dipole along edir(3) : 
        Dipole               -0.0000 Ry au,         -0.0000 Debye
        Dipole field         -0.0000 Ry au, 
 
        Potential amp.        0.0000 Ry
        Total length         63.1168 bohr
 

     total cpu time spent up to now is      181.3 secs

     total energy              =    -221.43535975 Ry
     estimated scf accuracy    <       0.00000017 Ry

     iteration # 31     ecut=    70.00 Ry     beta= 0.30
     Davidson diagonalization with overlap
     ethr =  2.45E-10,  avg # of iterations =  1.9

     negative rho (up, down):  3.959E-05 0.000E+00
 
     Adding external electric field

     Computed dipole along edir(3) : 
        Dipole                0.0000 Ry au,          0.0000 Debye
        Dipole field          0.0000 Ry au, 
 
        Potential amp.       -0.0000 Ry
        Total length         63.1168 bohr
 

     total cpu time spent up to now is      186.9 secs

     total energy              =    -221.43535970 Ry
     estimated scf accuracy    <       0.00000010 Ry

     iteration # 32     ecut=    70.00 Ry     beta= 0.30
     Davidson diagonalization with overlap
     ethr =  2.01E-10,  avg # of iterations =  1.4

     negative rho (up, down):  4.494E-05 0.000E+00
 
     Adding external electric field

     Computed dipole along edir(3) : 
        Dipole                0.0000 Ry au,          0.0000 Debye
        Dipole field          0.0000 Ry au, 
 
        Potential amp.       -0.0000 Ry
        Total length         63.1168 bohr
 

     total cpu time spent up to now is      192.3 secs

     total energy              =    -221.43535969 Ry
     estimated scf accuracy    <       0.00000002 Ry

     iteration # 33     ecut=    70.00 Ry     beta= 0.30
     Davidson diagonalization with overlap
     ethr =  3.78E-11,  avg # of iterations =  3.7

     negative rho (up, down):  4.140E-05 0.000E+00
 
     Adding external electric field

     Computed dipole along edir(3) : 
        Dipole               -0.0000 Ry au,         -0.0000 Debye
        Dipole field         -0.0000 Ry au, 
 
        Potential amp.        0.0000 Ry
        Total length         63.1168 bohr
 

     total cpu time spent up to now is      199.4 secs

     total energy              =    -221.43535969 Ry
     estimated scf accuracy    <       0.00000002 Ry

     iteration # 34     ecut=    70.00 Ry     beta= 0.30
     Davidson diagonalization with overlap
     ethr =  3.38E-11,  avg # of iterations =  1.1

     negative rho (up, down):  3.558E-05 0.000E+00
 
     Adding external electric field

     Computed dipole along edir(3) : 
        Dipole               -0.0000 Ry au,         -0.0001 Debye
        Dipole field         -0.0000 Ry au, 
 
        Potential amp.        0.0000 Ry
        Total length         63.1168 bohr
 

     total cpu time spent up to now is      204.6 secs

     End of self-consistent calculation

     Number of k-points >= 100: set verbosity='high' to print the bands.

     the Fermi energy is     2.3450 ev

!    total energy              =    -221.43535970 Ry
     total all-electron energy =      -914.604534 Ry
     estimated scf accuracy    <          5.8E-09 Ry
     smearing contrib. (-TS)   =      -0.00016038 Ry
     internal energy E=F+TS    =    -221.43519932 Ry

     The total energy is F=E-TS. E is the sum of the following terms:
     one-electron contribution =    -857.19107720 Ry
     hartree contribution      =     445.50734819 Ry
     xc contribution           =     -55.67403093 Ry
     ewald contribution        =     320.04371486 Ry
     DFT-D3 Dispersion         =      -0.11657824 Ry
     electric field correction =       0.00000000 Ry
     one-center paw contrib.   =     -74.00457600 Ry

     convergence has been achieved in  34 iterations

     negative rho (up, down):  3.558E-05 0.000E+00

     Forces acting on atoms (cartesian axes, Ry/au):

     atom    1 type  1   force =    -0.00000001    0.00000003   -0.00058733
     atom    2 type  1   force =     0.00000000    0.00000004    0.00001593
     atom    3 type  1   force =     0.00000001   -0.00000004    0.00000211
     atom    4 type  1   force =    -0.00000002    0.00000001    0.00000216
     atom    5 type  1   force =     0.00000009   -0.00000001    0.00059629
     atom    6 type  1   force =     0.00000003   -0.00000001   -0.00000681
     atom    7 type  1   force =    -0.00000004   -0.00000001    0.00001146
     atom    8 type  1   force =     0.00000002   -0.00000003   -0.00059151
     atom    9 type  1   force =    -0.00000002   -0.00000001   -0.00000263
     atom   10 type  1   force =    -0.00000011   -0.00000001   -0.00000257
     atom   11 type  1   force =     0.00000003    0.00000004   -0.00002001
     atom   12 type  1   force =     0.00000001    0.00000000    0.00058290

     Total force =     0.001179     Total SCF correction =     0.000233
     SCF correction compared to forces is large: reduce conv_thr to get better values

     Writing all to output data dir ./tmp/CC_S33_AB_G4_e70_far.save/ :
     XML data file, charge density, pseudopotentials, collected wavefunctions
 
     init_run     :      4.63s CPU      4.43s WALL (       1 calls)
     electrons    :    200.26s CPU    199.99s WALL (       1 calls)
     forces       :      0.82s CPU      0.87s WALL (       1 calls)
     force_dftd3  :      0.04s CPU      0.03s WALL (       1 calls)

     Called by init_run:
     wfcinit      :      1.76s CPU      2.24s WALL (       1 calls)
     potinit      :      2.11s CPU      1.46s WALL (       1 calls)
     hinit0       :      0.41s CPU      0.34s WALL (       1 calls)

     Called by electrons:
     c_bands      :    105.99s CPU    123.59s WALL (      34 calls)
     sum_band     :     20.64s CPU     26.45s WALL (      34 calls)
     v_of_rho     :      7.12s CPU      5.54s WALL (      35 calls)
     newd         :      0.31s CPU      0.31s WALL (      35 calls)
                                        0.31s GPU  (      35 calls)
     PAW_pot      :     62.41s CPU     39.52s WALL (      35 calls)
     mix_rho      :      3.77s CPU      3.97s WALL (      34 calls)
     energy_dftd3 :      0.00s CPU      0.00s WALL (       1 calls)

     Called by c_bands:
     init_us_2    :      3.48s CPU      5.34s WALL (   11480 calls)
     cegterg      :     87.07s CPU     89.60s WALL (    5576 calls)

     Called by *egterg:
     cdiaghg      :     17.25s CPU     17.64s WALL (   18266 calls)
                                       17.52s GPU  (   18266 calls)
     h_psi        :     53.12s CPU     55.40s WALL (   18430 calls)
                                       55.24s GPU  (   18430 calls)
     s_psi        :      5.79s CPU      5.89s WALL (   18430 calls)
     g_psi        :      0.06s CPU      0.58s WALL (   12690 calls)
                                        0.51s GPU  (   12690 calls)

     Called by h_psi:
     h_psi:calbec :      0.60s CPU      2.02s WALL (   18430 calls)
                                        1.91s GPU  (   18430 calls)
     vloc_psi     :     43.99s CPU     46.00s WALL (   18430 calls)
                                       45.90s GPU  (   18430 calls)
     add_vuspsi   :      4.56s CPU      6.22s WALL (   18430 calls)
                                        6.11s GPU  (   18430 calls)

     General routines
     calbec       :      0.75s CPU      0.78s WALL (   24662 calls)
     fft          :      0.82s CPU      0.89s WALL (     464 calls)
                                        0.08s GPU  (     429 calls)
     ffts         :      0.21s CPU      0.33s WALL (    3814 calls)
                                        0.16s GPU  (    3779 calls)
     fftw         :      0.93s CPU     36.72s WALL (   73286 calls)
                                       36.31s GPU  (   73286 calls)
     interpolate  :      1.11s CPU      1.13s WALL (      35 calls)
     davcio       :     12.00s CPU     24.35s WALL (   17806 calls)
 
     Parallel routines
 
     PWSCF        :   3m38.24s CPU   3m34.00s WALL

 
   This run was terminated on:  19:19:56  30Sep2026            

=------------------------------------------------------------------------------=
   JOB DONE.
=------------------------------------------------------------------------------=
