gas-phase sdcp_neutral (+20 A box)      
   1.00000000000000     
    28.6376847125999987    0.0000000000000000    0.0000000000000000
     0.0000000000000000   25.2881174794000003    0.0000000000000000
     0.0000000000000000    0.0000000000000000   25.6984086719999993
   O    S    C    H 
     6     2    11    16
Direct
  0.3502054547582674  0.4909591565767499  0.4700541377630714
  0.3964519574064838  0.4131256012002638  0.5072793565036520
  0.4173283495729549  0.4533657320256950  0.4211132319290698
  0.4900417580065550  0.5547637457564036  0.4189734164875034
  0.6154042767970651  0.4842199799678610  0.4663830318240159
  0.5442257589086026  0.5487942869138109  0.5152433890129089
  0.3943445792540388  0.4637289899990691  0.4795275780023971
  0.6016460397519268  0.4514621926483926  0.6133670716418465
  0.4284901909231849  0.5088308698218427  0.5677577516423113
  0.4360901461145446  0.5101171065030243  0.5089655764425203
  0.4304344331955221  0.5658334845785262  0.4868265728426664
  0.4436739319331124  0.5726101472597094  0.4297559361110643
  0.5261503257967846  0.5899476680402529  0.4343441190178297
  0.5634571425391925  0.5605766305952926  0.4645828189201566
  0.5788418001161446  0.5099341491870462  0.4376496768243143
  0.6041287089800207  0.4794003884660683  0.5177865544685645
  0.6248175001182048  0.4448060870273594  0.5514381578864160
  0.5638264319110888  0.5011060207238742  0.5937372745311151
  0.5693856276420917  0.5116560381625916  0.5419809911216618
  0.4541901479967478  0.5351079384269397  0.5857649931492190
  0.4331712595202220  0.4690694412291805  0.5834697130658171
  0.3935624273927800  0.5230636701951070  0.5779994648067088
  0.4705319842763416  0.4941610837018473  0.4990142588895949
  0.4336743027705623  0.4197626592626804  0.4226383623019387
  0.4526769351782249  0.5914311251592181  0.5108361188334385
  0.3942987825280397  0.5791204679996369  0.4923241270688123
  0.4208873852499977  0.5493082448867810  0.4044937350041380
  0.4397427583473359  0.6144430128046281  0.4186595410330796
  0.5128608190744544  0.6222403161927019  0.4588640321355086
  0.5422314297869164  0.6077766290954685  0.3995526109282963
  0.5939850872796200  0.5866513655982928  0.4697360676831579
  0.5488667931588864  0.4832268089846750  0.4333333755966535
  0.5933281473807170  0.5187937795799584  0.3992596085172906
  0.6518249746037270  0.4162200427957572  0.5430559871166452
  0.5404727128548217  0.5200140741481576  0.6210013025159782
 
  0.00000000E+00  0.00000000E+00  0.00000000E+00
  0.00000000E+00  0.00000000E+00  0.00000000E+00
  0.00000000E+00  0.00000000E+00  0.00000000E+00
  0.00000000E+00  0.00000000E+00  0.00000000E+00
  0.00000000E+00  0.00000000E+00  0.00000000E+00
  0.00000000E+00  0.00000000E+00  0.00000000E+00
  0.00000000E+00  0.00000000E+00  0.00000000E+00
  0.00000000E+00  0.00000000E+00  0.00000000E+00
  0.00000000E+00  0.00000000E+00  0.00000000E+00
  0.00000000E+00  0.00000000E+00  0.00000000E+00
  0.00000000E+00  0.00000000E+00  0.00000000E+00
  0.00000000E+00  0.00000000E+00  0.00000000E+00
  0.00000000E+00  0.00000000E+00  0.00000000E+00
  0.00000000E+00  0.00000000E+00  0.00000000E+00
  0.00000000E+00  0.00000000E+00  0.00000000E+00
  0.00000000E+00  0.00000000E+00  0.00000000E+00
  0.00000000E+00  0.00000000E+00  0.00000000E+00
  0.00000000E+00  0.00000000E+00  0.00000000E+00
  0.00000000E+00  0.00000000E+00  0.00000000E+00
  0.00000000E+00  0.00000000E+00  0.00000000E+00
  0.00000000E+00  0.00000000E+00  0.00000000E+00
  0.00000000E+00  0.00000000E+00  0.00000000E+00
  0.00000000E+00  0.00000000E+00  0.00000000E+00
  0.00000000E+00  0.00000000E+00  0.00000000E+00
  0.00000000E+00  0.00000000E+00  0.00000000E+00
  0.00000000E+00  0.00000000E+00  0.00000000E+00
  0.00000000E+00  0.00000000E+00  0.00000000E+00
  0.00000000E+00  0.00000000E+00  0.00000000E+00
  0.00000000E+00  0.00000000E+00  0.00000000E+00
  0.00000000E+00  0.00000000E+00  0.00000000E+00
  0.00000000E+00  0.00000000E+00  0.00000000E+00
  0.00000000E+00  0.00000000E+00  0.00000000E+00
  0.00000000E+00  0.00000000E+00  0.00000000E+00
  0.00000000E+00  0.00000000E+00  0.00000000E+00
  0.00000000E+00  0.00000000E+00  0.00000000E+00
