gas-phase ptfe_c10 (+24 A box)
1.0
  27.2560975464 0.0000000000 0.0000000000
  0.0000000000 27.2445446504 0.0000000000
  0.0000000000 0.0000000000 37.8666709914
  C  F
  10  22
Cartesian
  13.9992132576 13.6521199069 13.0569098031
  13.1390270472 13.6336632302 14.3635343703
  13.9744308345 13.4214775509 15.6722035029
  13.1993244855 13.8272775412 16.9752214439
  13.8380934705 13.2309223337 18.2812918971
  13.3782686121 13.9766096670 19.5847532840
  13.6513230233 13.1525593435 20.8940120467
  13.6260440218 14.0360979746 22.1914903936
  13.4520677692 13.1998652334 23.5048134494
  13.8407219482 13.9726807353 24.8082987532
  13.1782014760 13.6091714677 12.0002149754
  14.7336073446 14.7659683520 12.9810114782
  14.8101330704 12.5855175764 13.0202665721
  12.2417267308 12.6332970245 14.2489736252
  12.4821086802 14.8139566439 14.4367550059
  15.1004439197 14.1643236642 15.5910637990
  14.3121019094 12.1149597428 15.7532315567
  11.9266227674 13.3854535558 16.8760231404
  13.1971942130 15.1752092161 17.0695909591
  15.1827203138 13.3217099609 18.1852646244
  13.4844713938 11.9306645657 18.3785571200
  12.0523493094 14.2208734009 19.4978756988
  14.0444741679 15.1492693355 19.6669730639
  14.8669736090 12.5711739712 20.7945841426
  12.7067351200 12.1935390474 21.0070565919
  12.5976025304 14.9093760340 22.1057078364
  14.7853074689 14.7262345256 22.2683747499
  14.2291365145 12.0943350184 23.4401690110
  12.1604542668 12.8285511371 23.6188698300
  15.1631141839 14.1493403043 24.8864112298
  13.2334585945 15.1669531005 24.8400421415
  13.4431809288 13.2556309498 25.8668859668
