dp6_gs0_neutral_start | nat=200 | cell a=34.161 b=39.963 c=30.186 A | z-span=14.186 A | vertical vacuum=16.000 A | NON-PERIODIC molecule from /home/user/Yonghoon-DEM-DFT/runs/sdcp_orca_stageA_2026_08_30/gs0/dp6_gs0_neutral_start.xyz | cell below is a VIEWING BOX (pad 8.00 A per side), NOT a calculation cell - the source calculation has no lattice | source comment: DP6 neutral, geometry seed g0 (lcg 0; torsions [130, 80, 30, 150] deg) — UNRELAXED, ORCA Opt 대상
1.0
     34.160645420600     0.000000000000     0.000000000000
      0.000000000000    39.962842911300     0.000000000000
      0.000000000000     0.000000000000    30.185723649200
  C  S  O  H
  66  12  36  86
Cartesian
      9.993025434100    29.032120415100    17.410999484700
     10.355811710200    29.145600757100    15.932354487400
     10.296060296600    30.590518115600    15.438868489300
     10.828881571300    30.830416928800    14.030347928100
     13.172511573100    31.186238464000    14.421955519600
     14.147760151600    30.361340008700    15.236159766800
     14.647246117700    29.136229788000    14.487618422500
     15.177880465200    28.211071176600    16.542777879700
     15.684569521900    27.245401061100    17.382193375700
     13.792155527000    28.567974715600    18.387431503300
     14.114152682900    28.964152075300    17.120775465600
     21.758763399900    23.418008474900    18.520884926800
     22.277110006200    24.800725690400    18.132873912900
     23.165961889800    24.749439554100    16.891174322400
     23.589578001400    26.098175659600    16.320313726300
     21.770407522700    26.625217772200    14.840882772200
     20.279277374900    26.579746544400    15.104918303500
     19.785122397900    27.793500720800    15.875032697700
     17.952521276500    26.529609159500    16.509527905900
     16.743615959800    26.308526483300    17.128880249200
     18.201856787100    24.259860083400    16.996344312900
     18.768931067300    25.363684203600    16.426142354500
     18.403802894600    16.981966589500    16.869140827500
     17.748838631400    17.296412488800    18.212006509400
     18.543892885000    16.721774111200    19.383409634000
     18.069201489600    17.130227001400    20.773465686100
     19.258229745200    19.186394411900    21.139877959700
     19.395236370000    20.387515533100    20.226757623100
     18.169253033100    21.285642117900    20.255006820900
     18.837519280500    22.106910652100    18.196519236400
     18.751137953500    22.921229834400    17.090467937800
     19.797853170800    20.680316344300    16.617435077800
     19.442118577500    20.844373946200    17.925742841100
     21.392613759700    13.692301721100    15.333267271100
     22.176350076900    14.008340814700    16.604888018700
     23.676562611200    13.784304121300    16.421378554400
     24.562997695400    14.238931134500    17.575488008800
     24.969857724300    16.544954890400    17.034572191800
     23.981826637400    17.622747435500    16.637823766500
     23.243273079800    18.206187842200    17.831390043000
     21.598895230200    18.900340436300    16.357413590700
     20.427836189200    19.529095181800    16.000741287100
     20.998745860700    17.553802040300    14.547006354300
     21.923721259300    17.790402246800    15.523516495200
     21.987817893200    10.971959119200    11.593063744400
     23.402057682400    11.541492496000    11.674918497100
     24.065995282700    11.620680451000    10.301083739100
     25.410649344600    12.337599314200    10.252562508000
     24.761012301000    14.628869665300     9.930192446200
     23.726114517000    15.443711304400    10.678705099400
     24.238475973500    15.951500969900    12.016651255100
     22.029974520300    16.172423384500    12.674030548900
     21.013168203400    16.514470466100    13.536025704100
     20.442528174500    14.594511649000    12.009855923000
     21.697167706200    15.093096649900    11.803885432100
     15.149660436500    10.904421235400     8.634432910500
     14.788183805000    10.773595870400    10.112053300800
     14.729273222300     9.313475494400    10.558241425400
     14.549675056700     9.081961708400    12.054425698200
     16.815912273000     9.102734002900    12.854180634400
     17.918368041600    10.104404128600    12.577594753000
     17.786726523700    11.364645599500    13.417193745300
     19.096176120700    12.440824098600    11.840610570000
     19.788146656500    13.505798382100    11.310578973900
     18.855201891300    11.940084917100     9.572988253000
     18.580792577300    11.550963103000    10.852994090100
      9.197165612800    28.070386791300    14.993497818500
     14.822699097200    27.274950137700    18.908123636700
     23.185511114600    25.478764117300    19.580286235000
     16.626022212000    24.629232992600    17.617039815700
     16.039235581300    16.621772954000    18.166729343800
     19.426835134400    22.101269467000    15.696461842000
     21.500277138700    12.952856022800    17.949807476700
     19.721579231000    18.724022065200    14.613220813200
     24.363447014700    10.475892874600    12.823900268500
     19.628675307700    15.475218722900    13.261635625100
     13.174721454200    11.617755977900    10.365162107300
     19.791697298700    13.398779127500     9.561096492800
      8.000000000000    28.834028769000    14.654023821900
      9.120409066600    26.757045052100    15.640587012400
     10.000121723500    27.846198160100    13.558021567900
     12.166358404300    30.354036422700    13.863978642200
     15.614318508900    28.417594034800    15.269723755900
     13.465219428400    29.961069454300    16.444235162400
     24.577345926300    25.041659158400    19.524309682500
     22.369153562900    25.312812674300    20.786703515400
     23.218658848100    27.105201685800    19.249851613500
     22.473528143500    26.943759841700    16.032611921400
     18.360028933100    27.743925393600    16.047849298700
     20.013251543900    25.375256926200    15.856485831100
     16.058257086300    15.229430225100    18.605384299300
     15.388538553700    17.032154530700    16.918689870000
     15.292825004400    17.460878448500    19.389168788200
     18.006201247600    18.549306166200    20.933457925100
     18.364717753000    22.443752259900    19.428091398200
     19.610917791300    19.887037340400    18.889064895000
     22.194452776900    11.668520318800    17.950302476600
     20.036944187100    13.042720982900    17.948032625100
     22.022242295400    13.738711900200    19.315665408800
     24.357418306000    15.612653310500    17.913092393800
     22.365780961100    19.266784374200    17.421076441000
     23.041632678700    17.025342001300    15.718279967300
     24.951037998500     9.367890785900    12.076594126600
     23.587366228200    10.259196874300    14.048711945600
     25.637668138400    11.456420014900    13.236831292500
     25.343412819800    13.660502446600    10.789925304500
     23.252583769900    16.771502618300    12.663820888000
     22.575087628400    14.594556628100    10.879931760200
     12.090929585600    10.673373841100    10.110337014400
     13.214647463500    12.940214637200     9.733552103900
     13.161017124300    11.875357495000    12.004990947500
     15.549241637500     9.743949872300    12.832879643200
     18.884273584500    12.258538421700    13.173143042400
     17.853663010600    10.436686812200    11.173379595400
     10.701720730700    29.640068816900    17.981751016300
     10.054696505900    27.999913985200    17.761300156900
      8.984054624400    29.413031972700    17.601647553400
     11.348944565600    28.721301362000    15.744897851300
     10.424336510400    26.973917860900    13.602871388400
     10.884852335600    31.177577446300    16.156051213300
      9.263236881600    30.956107753500    15.494365895400
     10.231656142800    30.297867780600    13.285713250400
     10.772829289900    31.905223308300    13.796357009000
     12.747681261700    31.962842911300    15.073938435200
     13.725540163600    31.691835553600    13.613482522300
     15.009505492700    30.992306096800    15.512269716300
     13.802301337300    28.480976889000    14.238254013700
     15.159318170900    29.433050752200    13.568218515400
     13.029698293400    28.971837471200    19.037375095900
     21.188618002300    23.020102482600    17.675745275700
     21.104326055500    23.464780755900    19.393608809100
     22.583942574500    22.729436135400    18.731514171500
     21.442110654400    25.493876577600    17.978728476900
     22.514565492000    27.516794403900    19.776808194400
     22.592401068800    24.198699056800    16.134059262300
     24.064556592800    24.158096879500    17.107122562000
     24.205191013900    26.653913512300    17.032152759900
     24.192256559500    25.937554127200    15.412533572200
     22.079525531400    25.653747406700    14.429501585400
     21.971223905400    27.393588719700    14.076503269500
     19.743819677800    26.518757004300    14.142469141200
     20.282537653900    27.839077248500    16.852676352200
     19.992515535400    28.711372361100    15.318255983400
     19.411545685000    17.408668389900    16.875142900700
     17.844658345100    17.416466720900    16.038063293600
     18.490635293700    15.901435158200    16.713162700500
     17.618083001300    18.378177659000    18.330876048400
     14.785830505600    18.177353242500    18.973886106800
     19.578283693200    17.060397893100    19.238910792100
     18.552033254400    15.626497297500    19.319419970400
     17.057599978000    16.765882165100    20.969562534600
     18.735389989700    16.688709114400    21.531318156600
     20.100795769500    18.506877896400    20.947828760100
     19.331972282300    19.526638425400    22.185723649200
     20.279906826000    20.972517154600    20.529865436500
     17.290306001700    20.722757858300    19.914566373400
     17.991727813000    21.660401872300    21.266708602000
     21.766917446200    14.339913241700    14.534423073800
     20.324585032100    13.878257693100    15.463105140100
     21.537658490000    12.651166787000    15.025993304100
     21.978917588500    15.035830131900    16.931582067100
     21.273301275500    14.260114275100    19.647427627800
     23.953216553900    14.334616890200    15.512462289100
     23.867766155200    12.721922575900    16.224963437600
     24.346888830600    13.675499009900    18.486739868300
     25.618862641300    14.062167175500    17.316665197000
     25.342780163200    16.062617941900    16.119791880500
     25.827729012700    17.019387698900    17.538524093800
     24.519932509700    18.430959909300    16.114394949100
     22.670803234200    17.416037302400    18.334606370700
     23.948549352300    18.651023652000    18.538643217600
     21.398983923400    11.619395770600    10.935982074100
     21.509792178700    10.941322336700    12.574224109700
     21.990190547700     9.963122438500    11.166847674900
     23.391184765300    12.527637143400    12.153294290400
     25.434648488300    11.834835320200    14.107706792300
     23.351665447500    12.144421747300     9.652286185000
     24.188802536600    10.609304471100     9.893862365800
     26.160645420600    11.813831904200    10.850653084900
     25.772834924600    12.364684338800     9.212767558800
     24.274419999300    14.165244696800     9.060236748500
     25.543439364200    15.308826813000     9.555408075200
     23.424196844200    16.303120887900    10.056608687300
     24.502471349100    15.100995178200    12.658704689000
     25.117103447000    16.586618342400    11.874734881500
     16.125042756000    10.432517764600     8.480834642100
     15.214709026500    11.950353368100     8.327973266600
     14.418210770300    10.392665938900     8.000000000000
     15.496595158200    11.335821242500    10.731326157600
     13.418401897700    12.800380672400    12.149643833500
     15.675179180300     8.861532043300    10.231868386300
     13.923878384900     8.797556327900    10.020692533800
     13.592892061200     9.477651976900    12.404474641700
     14.558423634900     8.000000000000    12.260260226800
     16.881613831000     8.299470158400    12.106521890900
     16.986392929300     8.653742726100    13.846319906800
     18.894344492300     9.632965654900    12.782433207800
     16.835726638400    11.863519599600    13.189136248000
     17.823463734400    11.121205292600    14.482504857400
     18.578087857200    11.445736560600     8.653351488100
