
     Program PWSCF v.7.4.1 starts on  6Oct2026 at  8:58:25 

     This program is part of the open-source Quantum ESPRESSO suite
     for quantum simulation of materials; please cite
         "P. Giannozzi et al., J. Phys.:Condens. Matter 21 395502 (2009);
         "P. Giannozzi et al., J. Phys.:Condens. Matter 29 465901 (2017);
         "P. Giannozzi et al., J. Chem. Phys. 152 154105 (2020);
          URL http://www.quantum-espresso.org", 
     in publications or presentations arising from this work. More details at
     http://www.quantum-espresso.org/quote

     Parallel version (MPI & OpenMP), running on       1 processor cores
     Number of MPI processes:                 1
     Threads/MPI process:                     1

     MPI processes distributed on     1 nodes
     12650 MiB available memory on the printing compute node when the environment starts
 
     Reading input from pw.in

     Current dimensions of program PWSCF are:
     Max number of different atomic species (ntypx) = 10
     Max number of k-points (npk) =  40000
     Max angular momentum in pseudopotentials (lmaxx) =  4
     Presently no symmetry can be used with electric field

     file C.pbe-n-kjpaw_psl.1.0.0.UPF: wavefunction(s)  2S 2P renormalized
 
     Subspace diagonalization in iterative solution of the eigenvalue problem:
     a serial algorithm will be used

 
     G-vector sticks info
     --------------------
     sticks:   dense  smooth     PW     G-vecs:    dense   smooth      PW
     Sum        3193    1273    367              1013735   256635   40609
 
     Using Slab Decomposition
 


     bravais-lattice index     =            0
     lattice parameter (alat)  =       9.4208  a.u.
     unit-cell volume          =    5061.5970 (a.u.)^3
     number of atoms/cell      =           36
     number of atomic types    =            2
     number of electrons       =       324.00
     number of Kohn-Sham states=          194
     kinetic-energy cutoff     =      52.0000  Ry
     charge density cutoff     =     520.0000  Ry
     scf convergence threshold =      1.0E-08
     mixing beta               =       0.3000
     number of iterations used =            8  local-TF  mixing
     Exchange-correlation= SLA  PW   PBX  PBC
                           (   1   4   3   4   0   0   0)

     GPU acceleration is ACTIVE.  1 visible GPUs per MPI rank


     celldm(1)=   9.420781  celldm(2)=   0.000000  celldm(3)=   0.000000
     celldm(4)=   0.000000  celldm(5)=   0.000000  celldm(6)=   0.000000

     crystal axes: (cart. coord. in units of alat)
               a(1) = (   1.000000  -0.000000   0.000000 )  
               a(2) = (   0.500000   0.866025   0.000000 )  
               a(3) = (   0.000000   0.000000   6.990306 )  

     reciprocal axes: (cart. coord. in units 2 pi/alat)
               b(1) = (  1.000000 -0.577350  0.000000 )  
               b(2) = (  0.000000  1.154701 -0.000000 )  
               b(3) = ( -0.000000  0.000000  0.143055 )  


     PseudoPot. # 1 for Ag read from file:
     /home/kgy/work/pseudo/Ag_ONCV_PBE-1.0.oncvpsp.upf
     MD5 check sum: 94f47bd0669c641108e45594df92fabc
     Pseudo is Norm-conserving, Zval = 19.0
     Generated using ONCVPSP code by D. R. Hamann
     Using radial grid of 1398 points,  6 beta functions with: 
                l(1) =   0
                l(2) =   0
                l(3) =   1
                l(4) =   1
                l(5) =   2
                l(6) =   2

     PseudoPot. # 2 for C  read from file:
     /home/kgy/work/pseudo/C.pbe-n-kjpaw_psl.1.0.0.UPF
     MD5 check sum: 5d2aebdfa2cae82b50a7e79e9516da0f
     Pseudo is Projector augmented-wave + core cor, Zval =  4.0
     Generated using "atomic" code by A. Dal Corso  v.5.1
     Shape of augmentation charge: PSQ
     Using radial grid of 1073 points,  4 beta functions with: 
                l(1) =   0
                l(2) =   0
                l(3) =   1
                l(4) =   1
     Q(r) pseudized with 0 coefficients 


     atomic species   valence    mass     pseudopotential
     Ag               19.00   107.86820     Ag( 1.00)
     C                 4.00    12.01100     C ( 1.00)

     No symmetry found



   Cartesian axes

     site n.     atom                  positions (alat units)
         1        Ag     tau(   1) = (   0.3337695   0.5765948   0.5717001  )
         2        Ag     tau(   2) = (   0.8337695   0.8652699   0.5717001  )
         3        Ag     tau(   3) = (   0.1663116   0.2882288   1.0405207  )
         4        Ag     tau(   4) = (   0.5004501   0.2909658   0.1002956  )
         5        Ag     tau(   5) = (   0.8337695   0.2879196   0.5717001  )
         6        Ag     tau(   6) = (   0.6665315   0.5768011   1.0405139  )
         7        Ag     tau(   7) = (   0.5010389   0.2880917   1.5114705  )
         8        Ag     tau(   8) = (   1.0004501   0.5796409   0.1002956  )
         9        Ag     tau(   9) = (   1.0010564   0.5767426   1.5120106  )
        10        Ag     tau(  10) = (   0.6663668  -0.0006351   1.0404133  )
        11        Ag     tau(  11) = (   1.0004501   0.0022906   0.1002956  )
        12        Ag     tau(  12) = (   1.0010299  -0.0005160   1.5115225  )
        13        C      tau(  13) = (   0.5004501   0.3871908   3.5179230  )
        14        C      tau(  14) = (   0.7504501   0.5315284   3.5185288  )
        15        C      tau(  15) = (   0.7504501   0.8202035   3.5184350  )
        16        C      tau(  16) = (   1.0004501   0.9645411   3.5183666  )
        17        C      tau(  17) = (   1.0004501   0.3871908   3.5182299  )
        18        C      tau(  18) = (   1.2504501   0.5315284   3.5185253  )
        19        C      tau(  19) = (   1.2504501   0.8202035   3.5184447  )
        20        C      tau(  20) = (   1.5004501   0.9645411   3.5180481  )
        21        C      tau(  21) = (   0.7504501   0.5315284   4.2027719  )
        22        C      tau(  22) = (   1.0004501   0.6758659   4.2027142  )
        23        C      tau(  23) = (   1.0004501   0.9645411   4.2027716  )
        24        C      tau(  24) = (   1.2504501   1.1088786   4.2027027  )
        25        C      tau(  25) = (   1.2504501   0.5315284   4.2027730  )
        26        C      tau(  26) = (   1.5004501   0.6758659   4.2027069  )
        27        C      tau(  27) = (   1.5004501   0.9645411   4.2027688  )
        28        C      tau(  28) = (   1.7504501   1.1088786   4.2027033  )
        29        C      tau(  29) = (   0.5004501   0.3871908   4.8840964  )
        30        C      tau(  30) = (   0.7504501   0.5315284   4.8839750  )
        31        C      tau(  31) = (   0.7504501   0.8202035   4.8840977  )
        32        C      tau(  32) = (   1.0004501   0.9645411   4.8839757  )
        33        C      tau(  33) = (   1.0004501   0.3871908   4.8840972  )
        34        C      tau(  34) = (   1.2504501   0.5315284   4.8839751  )
        35        C      tau(  35) = (   1.2504501   0.8202035   4.8840978  )
        36        C      tau(  36) = (   1.5004501   0.9645411   4.8839768  )

     --------------------------------------------
     DFT-D3 Dispersion Correction (no 3-body):
     --------------------------------------------
       Reference C6 values for interpolation: 

         atom   Coordination number   C6
         C          0.000            98.23
         C          0.987            86.49
         C          1.998            58.72
         C          2.999            51.56
         C          3.984            36.41
         Ag         0.000           853.49
         Ag         0.968           537.23

       Values used:

         atom   Coordination number  R0_AB[au]  C6      C8
         Ag         9.096            3.147    537.23  47741.54
         Ag         9.096            3.147    537.23  47741.54
         Ag         9.099            3.147    537.23  47741.54
         Ag         6.766            3.147    537.23  47741.54
         Ag         9.096            3.147    537.23  47741.54
         Ag         9.099            3.147    537.23  47741.54
         Ag         6.772            3.147    537.23  47741.54
         Ag         6.766            3.147    537.23  47741.54
         Ag         6.766            3.147    537.23  47741.54
         Ag         9.099            3.147    537.23  47741.54
         Ag         6.766            3.147    537.23  47741.54
         Ag         6.772            3.147    537.23  47741.54
         C          3.274            2.750     49.03   1418.01
         C          3.274            2.750     49.03   1417.91
         C          3.274            2.750     49.03   1417.99
         C          3.274            2.750     49.03   1417.92
         C          3.274            2.750     49.03   1418.00
         C          3.274            2.750     49.03   1417.91
         C          3.274            2.750     49.03   1418.00
         C          3.274            2.750     49.03   1417.92
         C          3.280            2.750     48.93   1415.02
         C          3.280            2.750     48.93   1415.19
         C          3.280            2.750     48.93   1415.02
         C          3.280            2.750     48.93   1415.19
         C          3.280            2.750     48.93   1415.02
         C          3.280            2.750     48.93   1415.19
         C          3.280            2.750     48.93   1415.02
         C          3.280            2.750     48.93   1415.19
         C          3.274            2.750     49.03   1417.96
         C          3.274            2.750     49.02   1417.87
         C          3.274            2.750     49.03   1417.96
         C          3.274            2.750     49.02   1417.87
         C          3.274            2.750     49.03   1417.96
         C          3.274            2.750     49.02   1417.87
         C          3.274            2.750     49.03   1417.96
         C          3.274            2.750     49.02   1417.87

         Molecular C6 ( Ry / a.u.^6 ) =    198712.46


     number of k points=    41  Marzari-Vanderbilt smearing, width (Ry)=  0.0100
                       cart. coord. in units 2pi/alat
        k(    1) = (   0.0000000   0.0000000   0.0000000), wk =   0.0246914
        k(    2) = (   0.0000000   0.1283001   0.0000000), wk =   0.0493827
        k(    3) = (   0.0000000   0.2566001   0.0000000), wk =   0.0493827
        k(    4) = (   0.0000000   0.3849002   0.0000000), wk =   0.0493827
        k(    5) = (   0.0000000   0.5132002   0.0000000), wk =   0.0493827
        k(    6) = (   0.1111111  -0.0641500   0.0000000), wk =   0.0493827
        k(    7) = (   0.1111111   0.0641500   0.0000000), wk =   0.0493827
        k(    8) = (   0.1111111   0.1924501   0.0000000), wk =   0.0493827
        k(    9) = (   0.1111111   0.3207501   0.0000000), wk =   0.0493827
        k(   10) = (   0.1111111   0.4490502   0.0000000), wk =   0.0493827
        k(   11) = (   0.1111111  -0.5773503   0.0000000), wk =   0.0493827
        k(   12) = (   0.1111111  -0.4490502   0.0000000), wk =   0.0493827
        k(   13) = (   0.1111111  -0.3207501   0.0000000), wk =   0.0493827
        k(   14) = (   0.1111111  -0.1924501   0.0000000), wk =   0.0493827
        k(   15) = (   0.2222222  -0.1283001   0.0000000), wk =   0.0493827
        k(   16) = (   0.2222222   0.0000000   0.0000000), wk =   0.0493827
        k(   17) = (   0.2222222   0.1283001   0.0000000), wk =   0.0493827
        k(   18) = (   0.2222222   0.2566001   0.0000000), wk =   0.0493827
        k(   19) = (   0.2222222   0.3849002   0.0000000), wk =   0.0493827
        k(   20) = (   0.2222222  -0.6415003   0.0000000), wk =   0.0493827
        k(   21) = (   0.2222222  -0.5132002   0.0000000), wk =   0.0493827
        k(   22) = (   0.2222222  -0.3849002   0.0000000), wk =   0.0493827
        k(   23) = (   0.2222222  -0.2566001   0.0000000), wk =   0.0493827
        k(   24) = (   0.3333333  -0.1924501   0.0000000), wk =   0.0493827
        k(   25) = (   0.3333333  -0.0641500   0.0000000), wk =   0.0493827
        k(   26) = (   0.3333333   0.0641500   0.0000000), wk =   0.0493827
        k(   27) = (   0.3333333   0.1924501   0.0000000), wk =   0.0493827
        k(   28) = (   0.3333333   0.3207501   0.0000000), wk =   0.0493827
        k(   29) = (   0.3333333  -0.7056503   0.0000000), wk =   0.0493827
        k(   30) = (   0.3333333  -0.5773503   0.0000000), wk =   0.0493827
        k(   31) = (   0.3333333  -0.4490502   0.0000000), wk =   0.0493827
        k(   32) = (   0.3333333  -0.3207501   0.0000000), wk =   0.0493827
        k(   33) = (   0.4444444  -0.2566001   0.0000000), wk =   0.0493827
        k(   34) = (   0.4444444  -0.1283001   0.0000000), wk =   0.0493827
        k(   35) = (   0.4444444   0.0000000   0.0000000), wk =   0.0493827
        k(   36) = (   0.4444444   0.1283001   0.0000000), wk =   0.0493827
        k(   37) = (   0.4444444   0.2566001   0.0000000), wk =   0.0493827
        k(   38) = (   0.4444444  -0.7698004   0.0000000), wk =   0.0493827
        k(   39) = (   0.4444444  -0.6415003   0.0000000), wk =   0.0493827
        k(   40) = (   0.4444444  -0.5132002   0.0000000), wk =   0.0493827
        k(   41) = (   0.4444444  -0.3849002   0.0000000), wk =   0.0493827

     Dense  grid:  1013735 G-vectors     FFT dimensions: (  72,  72, 480)

     Smooth grid:   256635 G-vectors     FFT dimensions: (  45,  45, 320)

     Estimated max dynamical RAM per process >       2.73 GB

     Check: negative core charge=   -0.000002

     Initial potential from superposition of free atoms

     starting charge     323.9955, renormalised to     324.0000

     negative rho (up, down):  4.603E-05 0.000E+00
 
     Adding external electric field

     Computed dipole along edir(3) : 
        Dipole               -0.0107 Ry au,         -0.0271 Debye
        Dipole field         -0.0000 Ry au, 
 
        Potential amp.        0.0034 Ry
        Total length         63.9641 bohr
 
     Starting wfcs are  216 randomized atomic wfcs
     Checking if some PAW data can be deallocated... 

     total cpu time spent up to now is       66.0 secs

     Self-consistent Calculation

     iteration #  1     ecut=    52.00 Ry     beta= 0.30
     Davidson diagonalization with overlap
     ethr =  1.00E-02,  avg # of iterations =  8.1
 
     Adding external electric field

     Computed dipole along edir(3) : 
        Dipole               -0.0296 Ry au,         -0.0752 Debye
        Dipole field         -0.0001 Ry au, 
 
        Potential amp.        0.0094 Ry
        Total length         63.9641 bohr
 

     total cpu time spent up to now is      302.6 secs

     total energy              =   -3891.67723501 Ry
     estimated scf accuracy    <       6.69970507 Ry

     iteration #  2     ecut=    52.00 Ry     beta= 0.30
     Davidson diagonalization with overlap
     ethr =  2.07E-03,  avg # of iterations =  1.5
 
     Adding external electric field

     Computed dipole along edir(3) : 
        Dipole               -0.0566 Ry au,         -0.1438 Debye
        Dipole field         -0.0001 Ry au, 
 
        Potential amp.        0.0180 Ry
        Total length         63.9641 bohr
 

     total cpu time spent up to now is      444.5 secs

     total energy              =   -3891.12646049 Ry
     estimated scf accuracy    <       2.84218867 Ry

     iteration #  3     ecut=    52.00 Ry     beta= 0.30
     Davidson diagonalization with overlap
     c_bands:  1 eigenvalues not converged
     ethr =  8.77E-04,  avg # of iterations =  5.3
 
     Adding external electric field

     Computed dipole along edir(3) : 
        Dipole               -0.0744 Ry au,         -0.1890 Debye
        Dipole field         -0.0002 Ry au, 
 
        Potential amp.        0.0236 Ry
        Total length         63.9641 bohr
 

     total cpu time spent up to now is      621.1 secs

     total energy              =   -3891.01316815 Ry
     estimated scf accuracy    <       0.53471839 Ry

     iteration #  4     ecut=    52.00 Ry     beta= 0.30
     Davidson diagonalization with overlap
     c_bands:  1 eigenvalues not converged
     c_bands:  1 eigenvalues not converged
     c_bands:  1 eigenvalues not converged
     ethr =  1.65E-04,  avg # of iterations = 13.8
 
     Adding external electric field

     Computed dipole along edir(3) : 
        Dipole               -0.0753 Ry au,         -0.1913 Debye
        Dipole field         -0.0002 Ry au, 
 
        Potential amp.        0.0239 Ry
        Total length         63.9641 bohr
 

     total cpu time spent up to now is      886.6 secs

     total energy              =   -3891.06429363 Ry
     estimated scf accuracy    <       0.11076243 Ry

     iteration #  5     ecut=    52.00 Ry     beta= 0.30
     Davidson diagonalization with overlap
     c_bands:  3 eigenvalues not converged
     ethr =  3.42E-05,  avg # of iterations =  3.5
 
     Adding external electric field

     Computed dipole along edir(3) : 
        Dipole               -0.0641 Ry au,         -0.1629 Debye
        Dipole field         -0.0002 Ry au, 
 
        Potential amp.        0.0204 Ry
        Total length         63.9641 bohr
 

     total cpu time spent up to now is     1047.8 secs

     total energy              =   -3891.04286793 Ry
     estimated scf accuracy    <       0.08889036 Ry

     iteration #  6     ecut=    52.00 Ry     beta= 0.30
     Davidson diagonalization with overlap
     ethr =  2.74E-05,  avg # of iterations =  8.1
 
     Adding external electric field

     Computed dipole along edir(3) : 
        Dipole               -0.0547 Ry au,         -0.1389 Debye
        Dipole field         -0.0001 Ry au, 
 
        Potential amp.        0.0174 Ry
        Total length         63.9641 bohr
 

     total cpu time spent up to now is     1252.7 secs

     total energy              =   -3891.04529756 Ry
     estimated scf accuracy    <       0.03529446 Ry

     iteration #  7     ecut=    52.00 Ry     beta= 0.30
     Davidson diagonalization with overlap
     c_bands:  3 eigenvalues not converged
     c_bands:  2 eigenvalues not converged
     ethr =  1.09E-05,  avg # of iterations =  6.2
 
     Adding external electric field

     Computed dipole along edir(3) : 
        Dipole                0.0014 Ry au,          0.0036 Debye
        Dipole field          0.0000 Ry au, 
 
        Potential amp.       -0.0004 Ry
        Total length         63.9641 bohr
 

     total cpu time spent up to now is     1437.4 secs

     total energy              =   -3891.04083415 Ry
     estimated scf accuracy    <       0.02385038 Ry

     iteration #  8     ecut=    52.00 Ry     beta= 0.30
     Davidson diagonalization with overlap
     ethr =  7.36E-06,  avg # of iterations =  9.7
 
     Adding external electric field

     Computed dipole along edir(3) : 
        Dipole                0.0086 Ry au,          0.0219 Debye
        Dipole field          0.0000 Ry au, 
 
        Potential amp.       -0.0027 Ry
        Total length         63.9641 bohr
 

     total cpu time spent up to now is     1653.1 secs

     total energy              =   -3891.04131118 Ry
     estimated scf accuracy    <       0.05308851 Ry

     iteration #  9     ecut=    52.00 Ry     beta= 0.30
     Davidson diagonalization with overlap
     ethr =  7.36E-06,  avg # of iterations =  1.8

     negative rho (up, down):  3.490E-08 0.000E+00
 
     Adding external electric field

     Computed dipole along edir(3) : 
        Dipole                0.0564 Ry au,          0.1434 Debye
        Dipole field          0.0001 Ry au, 
 
        Potential amp.       -0.0179 Ry
        Total length         63.9641 bohr
 

     total cpu time spent up to now is     1799.9 secs

     total energy              =   -3891.04124718 Ry
     estimated scf accuracy    <       0.04796772 Ry

     iteration # 10     ecut=    52.00 Ry     beta= 0.30
     Davidson diagonalization with overlap
     ethr =  7.36E-06,  avg # of iterations =  6.5

     negative rho (up, down):  4.872E-03 0.000E+00
 
     Adding external electric field

     Computed dipole along edir(3) : 
        Dipole                0.0597 Ry au,          0.1518 Debye
        Dipole field          0.0001 Ry au, 
 
        Potential amp.       -0.0190 Ry
        Total length         63.9641 bohr
 

     total cpu time spent up to now is     1987.6 secs

     total energy              =   -3891.04132142 Ry
     estimated scf accuracy    <       0.03908966 Ry

     iteration # 11     ecut=    52.00 Ry     beta= 0.30
     Davidson diagonalization with overlap
     ethr =  7.36E-06,  avg # of iterations =  4.5

     negative rho (up, down):  3.402E-04 0.000E+00
 
     Adding external electric field

     Computed dipole along edir(3) : 
        Dipole                0.0307 Ry au,          0.0780 Debye
        Dipole field          0.0001 Ry au, 
 
        Potential amp.       -0.0097 Ry
        Total length         63.9641 bohr
 

     total cpu time spent up to now is     2159.0 secs

     total energy              =   -3891.04080745 Ry
     estimated scf accuracy    <       0.02263612 Ry

     iteration # 12     ecut=    52.00 Ry     beta= 0.30
     Davidson diagonalization with overlap
     ethr =  6.99E-06,  avg # of iterations =  7.0

     negative rho (up, down):  1.039E-03 0.000E+00
 
     Adding external electric field

     Computed dipole along edir(3) : 
        Dipole                0.0330 Ry au,          0.0838 Debye
        Dipole field          0.0001 Ry au, 
 
        Potential amp.       -0.0105 Ry
        Total length         63.9641 bohr
 

     total cpu time spent up to now is     2350.6 secs

     total energy              =   -3891.04100952 Ry
     estimated scf accuracy    <       0.00076486 Ry

     iteration # 13     ecut=    52.00 Ry     beta= 0.30
     Davidson diagonalization with overlap
     c_bands:  1 eigenvalues not converged
     c_bands:  1 eigenvalues not converged
     ethr =  2.36E-07,  avg # of iterations =  6.4

     negative rho (up, down):  1.148E-03 0.000E+00
 
     Adding external electric field

     Computed dipole along edir(3) : 
        Dipole                0.0238 Ry au,          0.0605 Debye
        Dipole field          0.0001 Ry au, 
 
        Potential amp.       -0.0076 Ry
        Total length         63.9641 bohr
 

     total cpu time spent up to now is     2537.3 secs

     total energy              =   -3891.04098223 Ry
     estimated scf accuracy    <       0.00221679 Ry

     iteration # 14     ecut=    52.00 Ry     beta= 0.30
     Davidson diagonalization with overlap
     c_bands:  1 eigenvalues not converged
     c_bands:  1 eigenvalues not converged
     ethr =  2.36E-07,  avg # of iterations =  7.5

     negative rho (up, down):  8.476E-04 0.000E+00
 
     Adding external electric field

     Computed dipole along edir(3) : 
        Dipole                0.0205 Ry au,          0.0520 Debye
        Dipole field          0.0001 Ry au, 
 
        Potential amp.       -0.0065 Ry
        Total length         63.9641 bohr
 

     total cpu time spent up to now is     2733.1 secs

     total energy              =   -3891.04099756 Ry
     estimated scf accuracy    <       0.00045556 Ry

     iteration # 15     ecut=    52.00 Ry     beta= 0.30
     Davidson diagonalization with overlap
     ethr =  1.41E-07,  avg # of iterations =  6.6

     negative rho (up, down):  1.919E-03 0.000E+00
 
     Adding external electric field

     Computed dipole along edir(3) : 
        Dipole                0.0227 Ry au,          0.0577 Debye
        Dipole field          0.0001 Ry au, 
 
        Potential amp.       -0.0072 Ry
        Total length         63.9641 bohr
 

     total cpu time spent up to now is     2920.5 secs

     total energy              =   -3891.04102250 Ry
     estimated scf accuracy    <       0.00003374 Ry

     iteration # 16     ecut=    52.00 Ry     beta= 0.30
     Davidson diagonalization with overlap
     ethr =  1.04E-08,  avg # of iterations =  4.6

     negative rho (up, down):  1.641E-03 0.000E+00
 
     Adding external electric field

     Computed dipole along edir(3) : 
        Dipole                0.0233 Ry au,          0.0592 Debye
        Dipole field          0.0001 Ry au, 
 
        Potential amp.       -0.0074 Ry
        Total length         63.9641 bohr
 

     total cpu time spent up to now is     3103.1 secs

     total energy              =   -3891.04102073 Ry
     estimated scf accuracy    <       0.00003464 Ry

     iteration # 17     ecut=    52.00 Ry     beta= 0.30
     Davidson diagonalization with overlap
     ethr =  1.04E-08,  avg # of iterations =  1.3

     negative rho (up, down):  6.532E-04 0.000E+00
 
     Adding external electric field

     Computed dipole along edir(3) : 
        Dipole                0.0245 Ry au,          0.0623 Debye
        Dipole field          0.0001 Ry au, 
 
        Potential amp.       -0.0078 Ry
        Total length         63.9641 bohr
 

     total cpu time spent up to now is     3243.0 secs

     total energy              =   -3891.04100607 Ry
     estimated scf accuracy    <       0.00002278 Ry

     iteration # 18     ecut=    52.00 Ry     beta= 0.30
     Davidson diagonalization with overlap
     ethr =  7.03E-09,  avg # of iterations =  3.7

     negative rho (up, down):  5.168E-04 0.000E+00
 
     Adding external electric field

     Computed dipole along edir(3) : 
        Dipole                0.0245 Ry au,          0.0622 Debye
        Dipole field          0.0001 Ry au, 
 
        Potential amp.       -0.0078 Ry
        Total length         63.9641 bohr
 

     total cpu time spent up to now is     3406.8 secs

     total energy              =   -3891.04100565 Ry
     estimated scf accuracy    <       0.00000149 Ry

     iteration # 19     ecut=    52.00 Ry     beta= 0.30
     Davidson diagonalization with overlap
     ethr =  4.59E-10,  avg # of iterations =  2.0

     negative rho (up, down):  1.412E-04 0.000E+00
 
     Adding external electric field

     Computed dipole along edir(3) : 
        Dipole                0.0245 Ry au,          0.0622 Debye
        Dipole field          0.0001 Ry au, 
 
        Potential amp.       -0.0078 Ry
        Total length         63.9641 bohr
 

     total cpu time spent up to now is     3558.2 secs

     total energy              =   -3891.04100499 Ry
     estimated scf accuracy    <       0.00000062 Ry

     iteration # 20     ecut=    52.00 Ry     beta= 0.30
     Davidson diagonalization with overlap
     ethr =  1.93E-10,  avg # of iterations =  2.4

     negative rho (up, down):  1.015E-04 0.000E+00
 
     Adding external electric field

     Computed dipole along edir(3) : 
        Dipole                0.0245 Ry au,          0.0623 Debye
        Dipole field          0.0001 Ry au, 
 
        Potential amp.       -0.0078 Ry
        Total length         63.9641 bohr
 

     total cpu time spent up to now is     3722.3 secs

     total energy              =   -3891.04100523 Ry
     estimated scf accuracy    <       0.00000018 Ry

     iteration # 21     ecut=    52.00 Ry     beta= 0.30
     Davidson diagonalization with overlap
     ethr =  5.52E-11,  avg # of iterations =  2.0

     negative rho (up, down):  8.926E-05 0.000E+00
 
     Adding external electric field

     Computed dipole along edir(3) : 
        Dipole                0.0245 Ry au,          0.0623 Debye
        Dipole field          0.0001 Ry au, 
 
        Potential amp.       -0.0078 Ry
        Total length         63.9641 bohr
 

     total cpu time spent up to now is     3873.8 secs

     total energy              =   -3891.04100532 Ry
     estimated scf accuracy    <       0.00000008 Ry

     iteration # 22     ecut=    52.00 Ry     beta= 0.30
     Davidson diagonalization with overlap
     ethr =  2.60E-11,  avg # of iterations =  2.3

     negative rho (up, down):  8.281E-05 0.000E+00
 
     Adding external electric field

     Computed dipole along edir(3) : 
        Dipole                0.0245 Ry au,          0.0622 Debye
        Dipole field          0.0001 Ry au, 
 
        Potential amp.       -0.0078 Ry
        Total length         63.9641 bohr
 

     total cpu time spent up to now is     4027.3 secs

     total energy              =   -3891.04100534 Ry
     estimated scf accuracy    <       0.00000020 Ry

     iteration # 23     ecut=    52.00 Ry     beta= 0.30
     Davidson diagonalization with overlap
     ethr =  2.60E-11,  avg # of iterations =  1.5

     negative rho (up, down):  8.369E-05 0.000E+00
 
     Adding external electric field

     Computed dipole along edir(3) : 
        Dipole                0.0245 Ry au,          0.0622 Debye
        Dipole field          0.0001 Ry au, 
 
        Potential amp.       -0.0078 Ry
        Total length         63.9641 bohr
 

     total cpu time spent up to now is     4171.3 secs

     total energy              =   -3891.04100534 Ry
     estimated scf accuracy    <       0.00000005 Ry

     iteration # 24     ecut=    52.00 Ry     beta= 0.30
     Davidson diagonalization with overlap
     ethr =  1.68E-11,  avg # of iterations =  2.0

     negative rho (up, down):  8.537E-05 0.000E+00
 
     Adding external electric field

     Computed dipole along edir(3) : 
        Dipole                0.0245 Ry au,          0.0622 Debye
        Dipole field          0.0001 Ry au, 
 
        Potential amp.       -0.0078 Ry
        Total length         63.9641 bohr
 

     total cpu time spent up to now is     4322.8 secs

     total energy              =   -3891.04100534 Ry
     estimated scf accuracy    <       0.00000004 Ry

     iteration # 25     ecut=    52.00 Ry     beta= 0.30
     Davidson diagonalization with overlap
     ethr =  1.16E-11,  avg # of iterations =  1.0

     negative rho (up, down):  9.082E-05 0.000E+00
 
     Adding external electric field

     Computed dipole along edir(3) : 
        Dipole                0.0244 Ry au,          0.0620 Debye
        Dipole field          0.0001 Ry au, 
 
        Potential amp.       -0.0078 Ry
        Total length         63.9641 bohr
 

     total cpu time spent up to now is     4460.4 secs

     total energy              =   -3891.04100532 Ry
     estimated scf accuracy    <       0.00000003 Ry

     iteration # 26     ecut=    52.00 Ry     beta= 0.30
     Davidson diagonalization with overlap
     ethr =  7.96E-12,  avg # of iterations =  2.0

     negative rho (up, down):  8.614E-05 0.000E+00
 
     Adding external electric field

     Computed dipole along edir(3) : 
        Dipole                0.0240 Ry au,          0.0609 Debye
        Dipole field          0.0001 Ry au, 
 
        Potential amp.       -0.0076 Ry
        Total length         63.9641 bohr
 

     total cpu time spent up to now is     4615.6 secs

     End of self-consistent calculation

          k = 0.0000 0.0000 0.0000 ( 32011 PWs)   bands (ev):

   -87.2625 -87.2529 -87.2442 -87.2442 -87.2438 -87.2438 -86.9988 -86.9979
   -86.9857 -86.9849 -86.9844 -86.9843 -50.7623 -50.7479 -50.7477 -50.7469
   -50.7468 -50.7465 -50.7465 -50.7225 -50.7223 -50.6860 -50.6860 -50.6854
   -50.6854 -50.6760 -50.6494 -50.6492 -50.6359 -50.6356 -50.4861 -50.4860
   -50.4852 -50.4852 -50.4841 -50.4839 -50.4832 -50.4832 -50.4123 -50.4102
   -50.3996 -50.3987 -50.3981 -50.3980 -50.3958 -50.3956 -50.3950 -50.3946
   -14.3808 -14.2862 -14.1882  -9.2271  -9.2271  -9.2270  -9.1897  -9.1897
    -9.1896  -9.1548  -9.1548  -9.1547  -8.0823  -8.0823  -8.0823  -8.0592
    -8.0592  -8.0592  -8.0272  -8.0272  -8.0272  -3.0462  -2.5980  -2.4333
    -1.7489  -1.7003  -1.4072  -1.3708  -1.3708  -1.3708  -1.3549  -1.3549
    -1.3549  -1.3346  -1.3346  -1.3345  -1.2366  -0.7997  -0.7983  -0.7712
    -0.7707  -0.7679  -0.7677  -0.4157  -0.4155  -0.4137  -0.4136  -0.2399
    -0.2396  -0.2135  -0.2133   0.0236   0.0535   0.0542   0.1011   0.1021
     0.1983   0.1990   0.2010   0.2019   0.2284   0.3636   0.3642   0.4175
     0.4194   0.5520   0.5524   0.5533   0.5534   0.5710   0.5713   0.5717
     0.5718   0.9511   0.9521   1.0788   1.0831   1.1318   1.1322   1.1329
     1.1333   1.2474   1.2600   1.5074   1.5629   1.5632   1.6100   1.6148
     1.7326   1.7329   1.7565   1.7574   1.7581   1.7591   1.8350   1.8418
     1.9209   1.9209   1.9257   1.9258   1.9345   1.9345   2.4104   2.4106
     2.4110   2.6779   2.6779   2.6780   2.8768   2.8770   2.8771   3.9360
     5.1436   6.4759   6.4759   6.4759   6.6288   6.6289   6.6289   6.9283
     6.9287   6.9289   8.2840   8.2862   8.4809   8.4812   8.4824   8.4829
     8.5120   8.6064   9.2325   9.2909   9.2909   9.2919   9.2928   9.4689
     9.6885   9.6894  10.5582  10.7732  10.9636  10.9647  10.9663  10.9671
    11.2245  11.2248

          k = 0.0000 0.1283 0.0000 ( 32037 PWs)   bands (ev):

   -87.2619 -87.2525 -87.2450 -87.2448 -87.2436 -87.2435 -86.9983 -86.9974
   -86.9859 -86.9851 -86.9847 -86.9846 -50.7610 -50.7606 -50.7577 -50.7530
   -50.7517 -50.7336 -50.7315 -50.7144 -50.7140 -50.6903 -50.6889 -50.6820
   -50.6808 -50.6772 -50.6532 -50.6510 -50.6409 -50.6369 -50.4982 -50.4974
   -50.4961 -50.4952 -50.4704 -50.4696 -50.4691 -50.4681 -50.4118 -50.4098
   -50.4009 -50.3999 -50.3998 -50.3989 -50.3984 -50.3983 -50.3969 -50.3961
   -14.3089 -14.2146 -14.1171  -9.9648  -9.8989  -9.8304  -9.4451  -9.4450
    -9.3893  -9.3893  -9.3322  -9.3322  -7.7869  -7.7869  -7.7425  -7.7425
    -7.6931  -7.6931  -7.2944  -7.2434  -7.1887  -2.9597  -2.4848  -2.3484
    -1.6662  -1.6002  -1.5929  -1.5928  -1.5749  -1.5749  -1.5525  -1.5525
    -1.3251  -1.3002  -1.2844  -1.2641  -1.1503  -0.9814  -0.9114  -0.8459
    -0.7981  -0.6772  -0.6364  -0.5471  -0.4968  -0.4957  -0.4392  -0.2698
    -0.2391  -0.2285  -0.1756  -0.0128   0.0103   0.0309   0.1131   0.1451
     0.1482   0.1576   0.2327   0.2388   0.2761   0.3310   0.3844   0.3912
     0.4174   0.4335   0.4740   0.4761   0.5230   0.6588   0.7314   0.7792
     0.8468   0.8753   0.9166   0.9637   1.0497   1.1039   1.1351   1.1779
     1.1817   1.2514   1.2536   1.5005   1.5029   1.5598   1.5708   1.6035
     1.6243   1.6311   1.6422   1.7196   1.7287   1.7684   1.7739   1.7745
     1.7849   1.7960   1.8376   1.8553   1.8799   1.8941   2.0203   2.2674
     2.3152   2.3157   2.6290   2.6291   2.6382   2.8921   2.8925   4.1037
     5.3876   6.5680   6.5681   6.5900   6.7519   6.7520   6.8934   7.0593
     7.0598   7.1483   7.3602   7.4979   7.5222   7.6315   8.2836   8.6087
     8.7013   8.7143   8.8608   9.3155   9.4686   9.5308   9.5664   9.9084
    10.3496  10.4532  10.5074  10.6484  10.7299  10.8538  10.9963  11.5013
    11.9726  12.0956

          k = 0.0000 0.2566 0.0000 ( 32017 PWs)   bands (ev):

   -87.2602 -87.2513 -87.2466 -87.2457 -87.2437 -87.2436 -86.9970 -86.9960
   -86.9867 -86.9857 -86.9855 -86.9850 -50.7718 -50.7631 -50.7603 -50.7571
   -50.7550 -50.7223 -50.7140 -50.7049 -50.7002 -50.6929 -50.6854 -50.6834
   -50.6796 -50.6761 -50.6612 -50.6588 -50.6520 -50.6407 -50.5091 -50.5083
   -50.4991 -50.4982 -50.4554 -50.4546 -50.4519 -50.4509 -50.4153 -50.4143
   -50.4102 -50.4085 -50.4008 -50.4005 -50.4001 -50.3995 -50.3992 -50.3987
   -14.0934 -14.0004 -13.9041 -10.9434 -10.8692 -10.7920  -9.7706  -9.7705
    -9.7060  -9.7060  -9.6386  -9.6386  -7.1326  -7.1326  -7.0834  -7.0834
    -7.0305  -7.0305  -6.0057  -5.9580  -5.9066  -2.7008  -2.1862  -2.1862
    -2.1634  -2.1634  -2.1621  -2.1364  -2.1364  -2.0947  -1.4192  -1.3329
    -1.1582  -1.0979  -1.0910  -1.0755  -1.0555  -0.9945  -0.9748  -0.9632
    -0.9239  -0.9117  -0.7168  -0.6470  -0.4901  -0.4548  -0.4504  -0.3684
    -0.3258  -0.3012  -0.2588  -0.1953  -0.0883  -0.0062   0.0633   0.1415
     0.2205   0.2233   0.2674   0.2705   0.3153   0.3166   0.3517   0.4357
     0.4432   0.4826   0.5221   0.5810   0.6394   0.6466   0.6909   0.7376
     0.8114   0.8233   0.8398   0.8750   0.9233   0.9241   0.9889   1.0688
     1.0899   1.1574   1.1694   1.2188   1.2232   1.3307   1.3322   1.3637
     1.3725   1.3821   1.3858   1.4071   1.4728   1.5503   1.5793   1.6459
     1.7606   1.7735   1.8114   1.8230   1.9063   1.9184   1.9458   2.0124
     2.1276   2.1282   2.4412   2.5142   2.5143   2.8846   2.8852   4.5374
     4.9397   5.7960   6.0256   6.4193   6.8373   6.8376   6.8624   7.0652
     7.0653   7.2535   7.3665   7.3669   7.4177   7.8655   8.0240   8.3265
     8.6791   8.8987   8.9853   9.2270   9.3649   9.5642   9.8602  10.0182
    10.7394  10.8094  10.9191  10.9454  11.1009  11.4289  11.7771  12.0910
    12.2069  12.3199

          k = 0.0000 0.3849 0.0000 ( 32055 PWs)   bands (ev):

   -87.2578 -87.2497 -87.2489 -87.2466 -87.2446 -87.2438 -86.9949 -86.9940
   -86.9881 -86.9871 -86.9863 -86.9855 -50.7799 -50.7711 -50.7551 -50.7517
   -50.7503 -50.7178 -50.7045 -50.6986 -50.6986 -50.6887 -50.6860 -50.6791
   -50.6788 -50.6740 -50.6714 -50.6665 -50.6598 -50.6473 -50.5168 -50.5160
   -50.4932 -50.4922 -50.4410 -50.4402 -50.4375 -50.4365 -50.4356 -50.4348
   -50.4082 -50.4074 -50.4069 -50.4065 -50.4018 -50.4006 -50.4001 -50.3992
   -13.7353 -13.6445 -13.5503 -11.8330 -11.7533 -11.6704 -10.0163 -10.0162
    -9.9484  -9.9484  -9.8775  -9.8775  -6.3550  -6.3550  -6.3099  -6.3099
    -6.2614  -6.2614  -4.6053  -4.5640  -4.5191  -2.9796  -2.9795  -2.9526
    -2.9525  -2.9214  -2.9214  -2.2725  -1.6899  -1.6755  -1.3248  -1.2274
    -1.2205  -1.0117  -0.9962  -0.9396  -0.9175  -0.8713  -0.8205  -0.7543
    -0.7517  -0.7367  -0.7173  -0.7032  -0.6748  -0.5594  -0.5044  -0.3759
    -0.3531  -0.3467  -0.3450  -0.3342  -0.3111  -0.2425  -0.1832  -0.1727
    -0.0819  -0.0521   0.0395   0.0521   0.1110   0.1362   0.2142   0.2535
     0.2679   0.3447   0.4609   0.4694   0.4814   0.5124   0.5813   0.6016
     0.6179   0.6584   0.6918   0.7998   0.8195   0.8249   0.8306   0.8463
     0.8569   0.8859   1.0612   1.0779   1.0816   1.1429   1.2179   1.2600
     1.2937   1.3163   1.3530   1.5146   1.5408   1.6034   1.6581   1.6680
     1.7729   1.7947   1.8023   1.8658   1.8925   1.9350   1.9598   1.9604
     1.9782   2.0200   2.3962   2.3963   2.8433   2.8441   2.9596   3.5137
     4.2533   5.1400   5.5912   5.7643   6.2299   6.7623   6.9096   7.0879
     7.1965   7.1969   7.4303   7.4304   7.6880   7.6884   7.9071   9.0966
     9.3811   9.4563   9.4740   9.7268   9.7522   9.9818  10.0631  10.3035
    10.3527  10.5286  11.3676  11.5270  11.7331  11.9327  11.9637  12.2187
    12.2961  12.3346

          k = 0.0000 0.5132 0.0000 ( 32106 PWs)   bands (ev):

   -87.2548 -87.2518 -87.2478 -87.2470 -87.2460 -87.2439 -86.9926 -86.9916
   -86.9901 -86.9892 -86.9867 -86.9858 -50.7841 -50.7753 -50.7471 -50.7466
   -50.7374 -50.7187 -50.7147 -50.7056 -50.7005 -50.6881 -50.6808 -50.6790
   -50.6751 -50.6699 -50.6686 -50.6662 -50.6653 -50.6561 -50.5209 -50.5201
   -50.4788 -50.4778 -50.4584 -50.4574 -50.4293 -50.4283 -50.4278 -50.4270
   -50.4165 -50.4157 -50.4059 -50.4047 -50.4036 -50.4025 -50.4005 -50.3996
   -13.2368 -13.1488 -13.0577 -12.6009 -12.5167 -12.4292 -10.1440 -10.1440
   -10.0748 -10.0748 -10.0026 -10.0026  -5.6483  -5.6483  -5.6166  -5.6166
    -5.5824  -5.5824  -3.6993  -3.6993  -3.6773  -3.6773  -3.6504  -3.6504
    -3.1561  -3.1222  -3.0844  -1.7134  -1.6911  -1.6761  -1.6567  -1.4626
    -1.3716  -1.3096  -1.2011  -1.0966  -1.0202  -0.9337  -0.9318  -0.8707
    -0.8562  -0.7639  -0.6972  -0.6969  -0.6049  -0.5979  -0.5272  -0.4709
    -0.4507  -0.4438  -0.3702  -0.3572  -0.3491  -0.2984  -0.2843  -0.2656
    -0.1039  -0.0628  -0.0387  -0.0172   0.0351   0.0393   0.1412   0.1469
     0.1991   0.2223   0.2408   0.2496   0.2537   0.2711   0.2996   0.3190
     0.4091   0.4974   0.5492   0.5704   0.6562   0.7571   0.8183   0.8318
     0.8493   1.0059   1.0146   1.0793   1.1487   1.2357   1.3322   1.4050
     1.4107   1.4757   1.5304   1.6188   1.6453   1.6865   1.7011   1.7615
     1.7669   1.8389   1.8457   1.8652   1.8659   1.8874   1.9594   2.0558
     2.1331   2.1384   2.3250   2.3251   2.3893   2.8085   2.8093   2.9641
     3.6247   4.5414   5.0541   5.8493   5.8801   6.3898   6.6060   6.7866
     7.4679   7.4683   7.6781   7.6782   7.8801   7.8805   7.9491   8.9898
     9.0968   9.5882  10.0541  10.1123  10.3207  10.5789  10.8902  10.9092
    11.0421  11.0650  11.2432  11.3923  11.5111  11.5277  11.9197  11.9654
    12.1356  12.5208

          k = 0.1111-0.0642 0.0000 ( 32037 PWs)   bands (ev):

   -87.2619 -87.2525 -87.2450 -87.2448 -87.2436 -87.2436 -86.9983 -86.9974
   -86.9859 -86.9851 -86.9847 -86.9846 -50.7610 -50.7604 -50.7578 -50.7531
   -50.7518 -50.7333 -50.7316 -50.7143 -50.7141 -50.6903 -50.6890 -50.6818
   -50.6809 -50.6772 -50.6533 -50.6508 -50.6410 -50.6369 -50.4983 -50.4973
   -50.4960 -50.4953 -50.4705 -50.4694 -50.4690 -50.4683 -50.4118 -50.4098
   -50.4007 -50.4001 -50.3998 -50.3989 -50.3984 -50.3982 -50.3970 -50.3959
   -14.3089 -14.2146 -14.1171  -9.9648  -9.8989  -9.8304  -9.4451  -9.4450
    -9.3893  -9.3893  -9.3322  -9.3322  -7.7869  -7.7869  -7.7425  -7.7425
    -7.6931  -7.6931  -7.2944  -7.2434  -7.1887  -2.9597  -2.4848  -2.3484
    -1.6662  -1.6001  -1.5929  -1.5928  -1.5749  -1.5749  -1.5525  -1.5525
    -1.3251  -1.3002  -1.2844  -1.2642  -1.1502  -0.9806  -0.9121  -0.8468
    -0.7978  -0.6778  -0.6353  -0.5476  -0.4960  -0.4957  -0.4396  -0.2703
    -0.2385  -0.2294  -0.1747  -0.0125   0.0099   0.0304   0.1132   0.1451
     0.1482   0.1576   0.2337   0.2374   0.2764   0.3308   0.3843   0.3914
     0.4176   0.4334   0.4739   0.4766   0.5227   0.6587   0.7315   0.7793
     0.8472   0.8765   0.9158   0.9642   1.0477   1.1059   1.1355   1.1783
     1.1819   1.2512   1.2524   1.4998   1.5029   1.5600   1.5711   1.6034
     1.6243   1.6311   1.6422   1.7182   1.7295   1.7684   1.7745   1.7748
     1.7849   1.7968   1.8358   1.8556   1.8799   1.8929   2.0217   2.2674
     2.3154   2.3156   2.6290   2.6291   2.6382   2.8922   2.8924   4.1037
     5.3877   6.5680   6.5681   6.5899   6.7520   6.7520   6.8934   7.0595
     7.0597   7.1483   7.3594   7.4979   7.5219   7.6327   8.2841   8.6087
     8.7013   8.7173   8.8603   9.3155   9.4669   9.5321   9.5664   9.9039
    10.3499  10.4545  10.5072  10.6484  10.7300  10.8538  10.9964  11.5002
    11.6015  11.9726

          k = 0.1111 0.0642 0.0000 ( 32037 PWs)   bands (ev):

   -87.2619 -87.2525 -87.2450 -87.2449 -87.2436 -87.2436 -86.9983 -86.9974
   -86.9859 -86.9851 -86.9847 -86.9846 -50.7610 -50.7606 -50.7576 -50.7530
   -50.7517 -50.7336 -50.7314 -50.7143 -50.7142 -50.6900 -50.6891 -50.6816
   -50.6812 -50.6772 -50.6532 -50.6510 -50.6407 -50.6371 -50.4983 -50.4976
   -50.4960 -50.4950 -50.4705 -50.4697 -50.4690 -50.4680 -50.4118 -50.4098
   -50.4007 -50.3998 -50.3997 -50.3989 -50.3984 -50.3983 -50.3970 -50.3963
   -14.3089 -14.2146 -14.1171  -9.9648  -9.8989  -9.8304  -9.4451  -9.4450
    -9.3893  -9.3893  -9.3322  -9.3322  -7.7869  -7.7869  -7.7425  -7.7425
    -7.6931  -7.6931  -7.2944  -7.2434  -7.1887  -2.9597  -2.4848  -2.3484
    -1.6662  -1.6001  -1.5929  -1.5928  -1.5749  -1.5749  -1.5525  -1.5525
    -1.3253  -1.3002  -1.2844  -1.2642  -1.1505  -0.9821  -0.9122  -0.8441
    -0.7966  -0.6785  -0.6359  -0.5476  -0.4964  -0.4962  -0.4407  -0.2695
    -0.2395  -0.2282  -0.1742  -0.0115   0.0097   0.0310   0.1134   0.1445
     0.1472   0.1583   0.2332   0.2409   0.2773   0.3302   0.3842   0.3893
     0.4184   0.4334   0.4719   0.4750   0.5248   0.6574   0.7299   0.7793
     0.8454   0.8790   0.9156   0.9690   1.0487   1.1042   1.1369   1.1768
     1.1814   1.2453   1.2529   1.5004   1.5024   1.5555   1.5721   1.6074
     1.6243   1.6311   1.6422   1.7209   1.7285   1.7684   1.7730   1.7745
     1.7849   1.7953   1.8413   1.8547   1.8799   1.8956   2.0193   2.2674
     2.3154   2.3156   2.6290   2.6291   2.6382   2.8922   2.8924   4.1034
     5.3874   6.5680   6.5681   6.5903   6.7520   6.7520   6.8934   7.0595
     7.0597   7.1483   7.3587   7.4979   7.5219   7.6340   8.2805   8.6087
     8.7013   8.7117   8.8631   9.3155   9.4688   9.5315   9.5664   9.9096
    10.3505  10.4529  10.5097  10.6484  10.7275  10.8538  10.9960  11.4992
    11.6041  11.9733

          k = 0.1111 0.1925 0.0000 ( 31991 PWs)   bands (ev):

   -87.2608 -87.2517 -87.2458 -87.2458 -87.2436 -87.2436 -86.9974 -86.9965
   -86.9864 -86.9856 -86.9851 -86.9850 -50.7651 -50.7650 -50.7584 -50.7577
   -50.7576 -50.7216 -50.7215 -50.7056 -50.7053 -50.6899 -50.6898 -50.6810
   -50.6788 -50.6783 -50.6595 -50.6538 -50.6507 -50.6392 -50.5031 -50.5029
   -50.5022 -50.5020 -50.4578 -50.4576 -50.4569 -50.4567 -50.4113 -50.4104
   -50.4098 -50.4085 -50.4002 -50.3994 -50.3993 -50.3988 -50.3988 -50.3987
   -14.1651 -14.0717 -13.9751 -10.4110 -10.4109 -10.3406 -10.3406 -10.2672
   -10.2672  -9.0407  -9.0040  -8.9697  -7.9070  -7.8851  -7.8546  -6.6323
    -6.6322  -6.5825  -6.5825  -6.5292  -6.5292  -2.7870  -2.2675  -2.2601
    -2.2370  -2.2098  -2.1791  -1.5014  -1.4509  -1.4509  -1.4332  -1.4332
    -1.4185  -1.4111  -1.4111  -1.1722  -1.0538  -1.0527  -0.9953  -0.8945
    -0.8942  -0.8001  -0.7998  -0.5662  -0.5653  -0.4322  -0.4295  -0.3517
    -0.3513  -0.2436  -0.2420  -0.1453  -0.0507   0.0136   0.1254   0.1284
     0.2237   0.2316   0.2528   0.2753   0.2755   0.3037   0.3685   0.3697
     0.3775   0.5039   0.5065   0.5125   0.5804   0.7321   0.8049   0.8069
     0.9121   0.9138   0.9962   0.9985   1.0121   1.0364   1.0989   1.1059
     1.1167   1.2193   1.2202   1.2589   1.3090   1.3101   1.3532   1.4667
     1.4718   1.4785   1.4786   1.4817   1.4859   1.4874   1.4887   1.6099
     1.7480   1.7485   1.8501   1.8504   1.8507   1.9219   1.9220   1.9720
     1.9733   2.3128   2.3756   2.3758   2.6707   2.9372   3.1334   4.4007
     5.7622   5.7630   5.8244   6.4369   6.5474   6.6252   6.6258   6.7867
     7.3830   7.3832   7.6680   7.6680   7.9331   7.9370   8.0150   8.0151
     8.7746   8.7783   8.8021   8.8907   9.4812   9.7621   9.8231   9.8280
    10.4140  10.4175  10.8291  11.0177  11.3334  11.3343  11.4867  11.4880
    12.2734  12.3434

          k = 0.1111 0.3208 0.0000 ( 32047 PWs)   bands (ev):

   -87.2587 -87.2503 -87.2477 -87.2467 -87.2441 -87.2438 -86.9957 -86.9948
   -86.9873 -86.9863 -86.9862 -86.9856 -50.7733 -50.7652 -50.7627 -50.7568
   -50.7537 -50.7155 -50.7089 -50.7004 -50.6966 -50.6929 -50.6849 -50.6805
   -50.6767 -50.6739 -50.6700 -50.6650 -50.6585 -50.6436 -50.5106 -50.5098
   -50.5009 -50.5001 -50.4446 -50.4437 -50.4426 -50.4417 -50.4285 -50.4274
   -50.4089 -50.4075 -50.4042 -50.4036 -50.4011 -50.4000 -50.3998 -50.3993
   -13.8784 -13.7867 -13.6917 -11.3512 -11.2744 -11.1945 -10.7418 -10.6689
   -10.5929  -9.0673  -9.0137  -8.9587  -7.4590  -7.4179  -7.3719  -5.8730
    -5.8274  -5.7784  -5.2850  -5.2408  -5.1932  -3.1435  -3.1151  -3.0827
    -2.4433  -1.9657  -1.9438  -1.9176  -1.8754  -1.8425  -1.2078  -1.1740
    -1.1718  -1.1548  -1.1435  -1.1332  -1.1014  -1.0909  -1.0553  -0.9648
    -0.9268  -0.8890  -0.7577  -0.7410  -0.6065  -0.5484  -0.5011  -0.4103
    -0.3760  -0.3081  -0.2430  -0.2166  -0.1480  -0.0899   0.1047   0.1159
     0.1617   0.1741   0.1906   0.2062   0.2376   0.2648   0.2915   0.3416
     0.3724   0.3989   0.4543   0.4891   0.4893   0.5142   0.5479   0.5510
     0.7065   0.7832   0.7843   0.9094   0.9272   0.9396   0.9478   0.9607
     0.9952   0.9983   1.0001   1.0369   1.1430   1.1661   1.1715   1.2301
     1.2748   1.2819   1.3411   1.3946   1.4101   1.5256   1.5278   1.5493
     1.6038   1.6084   1.6450   1.7767   1.7799   1.8462   1.8955   1.9129
     2.0201   2.0242   2.1511   2.7540   2.8218   3.1357   3.3985   4.2065
     4.9076   5.0042   5.0225   5.8068   6.4216   6.4762   6.5419   6.5727
     6.7494   7.0608   7.9385   8.0950   8.2104   8.5108   8.5118   8.7027
     8.9901   9.1885   9.2682   9.3112   9.4084   9.8137  10.0299  10.1554
    10.2892  10.8950  10.9147  11.1899  11.3548  11.5652  12.2861  12.4666
    12.5770  12.6073

          k = 0.1111 0.4491 0.0000 ( 32081 PWs)   bands (ev):

   -87.2560 -87.2501 -87.2486 -87.2474 -87.2452 -87.2440 -86.9935 -86.9926
   -86.9889 -86.9880 -86.9869 -86.9861 -50.7789 -50.7706 -50.7534 -50.7486
   -50.7485 -50.7153 -50.7122 -50.7071 -50.6914 -50.6908 -50.6862 -50.6786
   -50.6761 -50.6689 -50.6683 -50.6681 -50.6654 -50.6506 -50.5159 -50.5150
   -50.4904 -50.4895 -50.4506 -50.4495 -50.4320 -50.4313 -50.4311 -50.4304
   -50.4114 -50.4107 -50.4068 -50.4055 -50.4026 -50.4014 -50.4006 -50.3997
   -13.4501 -13.3609 -13.2684 -12.1808 -12.0990 -12.0141 -10.9438 -10.8695
   -10.7921  -9.1965  -9.1356  -9.0719  -6.7351  -6.6941  -6.6499  -5.1041
    -5.0670  -5.0267  -4.0462  -4.0171  -3.9837  -3.8677  -3.8308  -3.7903
    -2.6433  -2.6198  -2.5918  -1.9328  -1.4188  -1.3746  -1.3435  -1.2959
    -1.2468  -1.0604  -1.0399  -1.0149  -0.9953  -0.9798  -0.9418  -0.9381
    -0.9088  -0.7819  -0.7787  -0.7664  -0.7503  -0.7297  -0.6891  -0.6153
    -0.5730  -0.5649  -0.4461  -0.4166  -0.4111  -0.3817  -0.2390  -0.2179
    -0.1051  -0.1046   0.0386   0.0676   0.1024   0.1654   0.1879   0.2373
     0.2419   0.3337   0.3354   0.3457   0.3615   0.3622   0.3927   0.5354
     0.5373   0.6932   0.7026   0.7271   0.7380   0.7455   0.8022   0.8281
     0.9291   0.9387   0.9417   0.9698   1.0972   1.1071   1.1546   1.2871
     1.3133   1.3651   1.4138   1.4445   1.4681   1.5110   1.5479   1.6738
     1.7232   1.7505   1.7513   1.8063   1.8228   1.8556   1.8593   1.9168
     1.9797   2.0025   2.0677   2.8444   2.9006   3.2259   3.3189   3.5755
     3.5959   4.4214   5.1383   5.1826   5.5621   6.4184   6.4585   6.6423
     6.8501   7.3521   7.5177   7.5834   8.4141   8.6405   8.8667   9.2113
     9.7480   9.7665   9.8108   9.8315  10.1959  10.3198  10.4421  10.6061
    10.7107  10.7468  11.4770  11.5096  11.7239  11.8520  11.8768  11.9606
    12.0221  12.5035

          k = 0.1111-0.5774 0.0000 ( 32048 PWs)   bands (ev):

   -87.2531 -87.2530 -87.2476 -87.2468 -87.2467 -87.2441 -86.9915 -86.9908
   -86.9902 -86.9902 -86.9871 -86.9862 -50.7808 -50.7725 -50.7464 -50.7463
   -50.7329 -50.7328 -50.7094 -50.7092 -50.7075 -50.6848 -50.6804 -50.6757
   -50.6756 -50.6709 -50.6708 -50.6642 -50.6595 -50.6594 -50.5177 -50.5168
   -50.4729 -50.4723 -50.4717 -50.4715 -50.4272 -50.4263 -50.4211 -50.4204
   -50.4201 -50.4198 -50.4049 -50.4042 -50.4035 -50.4034 -50.4009 -50.3999
   -12.8829 -12.8828 -12.7970 -12.7969 -12.7079 -12.7079 -11.0117 -10.9369
   -10.8590  -9.2484  -9.1860  -9.1206  -6.2745  -6.2485  -6.2209  -4.6592
    -4.6378  -4.6142  -4.5356  -4.5199  -4.4988  -3.0462  -3.0319  -3.0124
    -2.4366  -2.4365  -2.4076  -2.4076  -2.3747  -2.3747  -1.4512  -1.3707
    -1.2856  -1.2627  -1.2623  -1.0926  -1.0917  -1.0154  -0.8995  -0.8983
    -0.8655  -0.8526  -0.8523  -0.6896  -0.6895  -0.5902  -0.5897  -0.5847
    -0.4189  -0.4166  -0.3309  -0.3300  -0.2536  -0.2536  -0.2391  -0.2391
    -0.2201  -0.2201  -0.1071  -0.1065  -0.0575  -0.0571  -0.0516   0.0146
     0.0155   0.0197   0.2032   0.2778   0.2797   0.2991   0.3063   0.4780
     0.4791   0.6361   0.6374   0.7518   0.7551   0.7857   0.8064   0.8723
     0.8725   0.9031   1.0095   1.0127   1.1152   1.1790   1.1806   1.4075
     1.4120   1.4613   1.4640   1.5084   1.5091   1.5846   1.6319   1.6329
     1.7603   1.8139   1.8141   1.8283   1.8387   1.9379   1.9439   1.9444
     1.9507   2.1027   2.1197   2.4452   2.4455   2.8416   3.2487   3.6625
     4.0840   4.0849   4.1577   4.9337   6.1725   6.3641   6.3655   6.4893
     6.7002   6.9059   7.3933   8.5928   8.5954   8.6152   8.8085   8.9882
     9.1531   9.7398  10.5083  10.5322  10.5325  10.5764  10.5766  11.0063
    11.0067  11.5262  11.5267  11.7316  11.7319  11.8437  11.8784  11.8796
    12.1048  12.1065

          k = 0.1111-0.4491 0.0000 ( 32081 PWs)   bands (ev):

   -87.2560 -87.2501 -87.2486 -87.2474 -87.2452 -87.2440 -86.9935 -86.9926
   -86.9889 -86.9880 -86.9869 -86.9861 -50.7789 -50.7706 -50.7533 -50.7487
   -50.7485 -50.7152 -50.7124 -50.7071 -50.6914 -50.6908 -50.6861 -50.6786
   -50.6764 -50.6690 -50.6682 -50.6681 -50.6652 -50.6505 -50.5159 -50.5150
   -50.4904 -50.4893 -50.4506 -50.4497 -50.4320 -50.4313 -50.4313 -50.4304
   -50.4114 -50.4105 -50.4068 -50.4056 -50.4026 -50.4014 -50.4006 -50.3997
   -13.4501 -13.3609 -13.2684 -12.1808 -12.0990 -12.0141 -10.9438 -10.8695
   -10.7921  -9.1965  -9.1356  -9.0719  -6.7351  -6.6941  -6.6499  -5.1041
    -5.0670  -5.0267  -4.0462  -4.0171  -3.9837  -3.8677  -3.8308  -3.7903
    -2.6433  -2.6198  -2.5918  -1.9328  -1.4183  -1.3745  -1.3435  -1.2961
    -1.2469  -1.0604  -1.0399  -1.0149  -0.9960  -0.9790  -0.9410  -0.9378
    -0.9095  -0.7806  -0.7789  -0.7664  -0.7503  -0.7297  -0.6891  -0.6148
    -0.5710  -0.5653  -0.4461  -0.4193  -0.4131  -0.3824  -0.2385  -0.2189
    -0.1081  -0.1053   0.0422   0.0688   0.1024   0.1659   0.1866   0.2354
     0.2358   0.3337   0.3368   0.3457   0.3622   0.3625   0.3937   0.5388
     0.5409   0.7019   0.7026   0.7269   0.7329   0.7482   0.7992   0.8279
     0.9293   0.9380   0.9411   0.9698   1.0956   1.1040   1.1554   1.2904
     1.3134   1.3662   1.4150   1.4407   1.4681   1.5123   1.5487   1.6715
     1.7227   1.7512   1.7523   1.8068   1.8279   1.8534   1.8577   1.9159
     1.9791   2.0025   2.0646   2.8444   2.9007   3.2259   3.3186   3.5758
     3.5959   4.4215   5.1395   5.1826   5.5633   6.4186   6.4585   6.6423
     6.8501   7.3515   7.5196   7.5837   8.4141   8.6405   8.8667   9.2112
     9.7449   9.7665   9.8106   9.8315  10.1959  10.3198  10.4421  10.6061
    10.7107  10.7470  11.4768  11.5094  11.7239  11.8516  11.8768  11.9610
    12.0215  12.5021

          k = 0.1111-0.3208 0.0000 ( 32047 PWs)   bands (ev):

   -87.2587 -87.2503 -87.2477 -87.2467 -87.2441 -87.2438 -86.9957 -86.9948
   -86.9873 -86.9863 -86.9862 -86.9856 -50.7733 -50.7653 -50.7625 -50.7569
   -50.7537 -50.7155 -50.7087 -50.7005 -50.6964 -50.6930 -50.6852 -50.6809
   -50.6763 -50.6739 -50.6700 -50.6651 -50.6584 -50.6435 -50.5106 -50.5098
   -50.5009 -50.4999 -50.4446 -50.4439 -50.4426 -50.4416 -50.4285 -50.4277
   -50.4089 -50.4075 -50.4042 -50.4033 -50.4011 -50.4000 -50.3998 -50.3993
   -13.8784 -13.7867 -13.6917 -11.3512 -11.2744 -11.1945 -10.7418 -10.6689
   -10.5929  -9.0673  -9.0137  -8.9586  -7.4590  -7.4179  -7.3719  -5.8730
    -5.8274  -5.7784  -5.2850  -5.2408  -5.1932  -3.1435  -3.1151  -3.0827
    -2.4433  -1.9657  -1.9438  -1.9176  -1.8751  -1.8425  -1.2078  -1.1740
    -1.1718  -1.1548  -1.1433  -1.1332  -1.1023  -1.0906  -1.0541  -0.9659
    -0.9254  -0.8894  -0.7553  -0.7400  -0.6059  -0.5492  -0.5019  -0.4125
    -0.3759  -0.3114  -0.2446  -0.2169  -0.1495  -0.0895   0.1042   0.1192
     0.1617   0.1741   0.1906   0.2040   0.2367   0.2632   0.2858   0.3420
     0.3702   0.4032   0.4546   0.4889   0.4893   0.5148   0.5568   0.5580
     0.7058   0.7823   0.7842   0.9056   0.9278   0.9396   0.9478   0.9607
     0.9933   0.9978   1.0001   1.0386   1.1403   1.1661   1.1718   1.2263
     1.2797   1.2882   1.3437   1.3951   1.4049   1.5260   1.5309   1.5493
     1.6022   1.6053   1.6450   1.7770   1.7823   1.8431   1.8953   1.9130
     2.0194   2.0210   2.1511   2.7541   2.8218   3.1357   3.3985   4.2066
     4.9087   5.0045   5.0225   5.8068   6.4216   6.4783   6.5419   6.5741
     6.7494   7.0608   7.9385   8.0954   8.2104   8.5118   8.5122   8.7027
     8.9901   9.1885   9.2682   9.3112   9.4082   9.8137  10.0297  10.1555
    10.2851  10.8951  10.9101  11.1899  11.3547  11.5660  12.2873  12.4670
    12.5769  12.6065

          k = 0.1111-0.1925 0.0000 ( 31991 PWs)   bands (ev):

   -87.2608 -87.2517 -87.2458 -87.2458 -87.2436 -87.2436 -86.9974 -86.9965
   -86.9864 -86.9856 -86.9851 -86.9850 -50.7651 -50.7648 -50.7584 -50.7578
   -50.7577 -50.7217 -50.7213 -50.7055 -50.7053 -50.6901 -50.6900 -50.6810
   -50.6785 -50.6784 -50.6595 -50.6537 -50.6510 -50.6390 -50.5030 -50.5029
   -50.5022 -50.5020 -50.4578 -50.4577 -50.4570 -50.4568 -50.4113 -50.4105
   -50.4100 -50.4085 -50.4002 -50.3994 -50.3993 -50.3988 -50.3987 -50.3984
   -14.1651 -14.0717 -13.9751 -10.4110 -10.4109 -10.3406 -10.3406 -10.2672
   -10.2672  -9.0407  -9.0040  -8.9697  -7.9070  -7.8851  -7.8546  -6.6323
    -6.6322  -6.5825  -6.5825  -6.5292  -6.5292  -2.7870  -2.2674  -2.2601
    -2.2370  -2.2098  -2.1791  -1.5014  -1.4509  -1.4509  -1.4332  -1.4332
    -1.4185  -1.4111  -1.4111  -1.1714  -1.0532  -1.0522  -0.9944  -0.8962
    -0.8955  -0.8003  -0.7998  -0.5647  -0.5645  -0.4318  -0.4305  -0.3520
    -0.3516  -0.2440  -0.2430  -0.1479  -0.0510   0.0140   0.1263   0.1273
     0.2238   0.2316   0.2513   0.2734   0.2741   0.3028   0.3672   0.3674
     0.3821   0.5104   0.5110   0.5125   0.5792   0.7286   0.8072   0.8080
     0.9123   0.9136   0.9964   0.9970   1.0145   1.0312   1.0989   1.1059
     1.1167   1.2204   1.2208   1.2669   1.3089   1.3099   1.3529   1.4667
     1.4718   1.4785   1.4786   1.4817   1.4842   1.4851   1.4930   1.6068
     1.7482   1.7490   1.8455   1.8510   1.8516   1.9219   1.9220   1.9705
     1.9715   2.3136   2.3756   2.3758   2.6707   2.9372   3.1334   4.4016
     5.7623   5.7628   5.8254   6.4369   6.5474   6.6254   6.6260   6.7867
     7.3830   7.3832   7.6680   7.6680   7.9361   7.9374   8.0150   8.0151
     8.7783   8.7811   8.8021   8.8907   9.4812   9.7621   9.8185   9.8225
    10.4131  10.4143  10.8291  11.0177  11.3337  11.3352  11.4869  11.4878
    12.3421  12.3429

          k = 0.2222-0.1283 0.0000 ( 32017 PWs)   bands (ev):

   -87.2602 -87.2513 -87.2466 -87.2458 -87.2438 -87.2436 -86.9970 -86.9960
   -86.9867 -86.9857 -86.9855 -86.9850 -50.7716 -50.7631 -50.7604 -50.7571
   -50.7552 -50.7219 -50.7142 -50.7051 -50.7002 -50.6929 -50.6854 -50.6835
   -50.6794 -50.6761 -50.6612 -50.6588 -50.6520 -50.6407 -50.5092 -50.5081
   -50.4990 -50.4983 -50.4555 -50.4545 -50.4517 -50.4511 -50.4151 -50.4145
   -50.4102 -50.4085 -50.4010 -50.4005 -50.3999 -50.3995 -50.3992 -50.3987
   -14.0934 -14.0004 -13.9041 -10.9434 -10.8692 -10.7920  -9.7706  -9.7706
    -9.7060  -9.7060  -9.6386  -9.6386  -7.1326  -7.1326  -7.0834  -7.0834
    -7.0305  -7.0305  -6.0057  -5.9580  -5.9066  -2.7008  -2.1862  -2.1862
    -2.1634  -2.1634  -2.1621  -2.1364  -2.1364  -2.0947  -1.4192  -1.3326
    -1.1578  -1.0979  -1.0910  -1.0755  -1.0555  -0.9944  -0.9750  -0.9638
    -0.9238  -0.9128  -0.7162  -0.6471  -0.4904  -0.4552  -0.4506  -0.3667
    -0.3259  -0.3006  -0.2598  -0.1956  -0.0883  -0.0071   0.0637   0.1419
     0.2214   0.2227   0.2661   0.2719   0.3156   0.3161   0.3526   0.4352
     0.4429   0.4828   0.5221   0.5808   0.6395   0.6468   0.6910   0.7377
     0.8114   0.8234   0.8398   0.8747   0.9233   0.9255   0.9871   1.0702
     1.0901   1.1576   1.1696   1.2188   1.2230   1.3310   1.3324   1.3637
     1.3725   1.3814   1.3858   1.4071   1.4720   1.5502   1.5792   1.6461
     1.7613   1.7725   1.8118   1.8212   1.9070   1.9184   1.9460   2.0110
     2.1278   2.1281   2.4424   2.5142   2.5142   2.8847   2.8850   4.5377
     4.9396   5.7958   6.0259   6.4173   6.8374   6.8375   6.8645   7.0652
     7.0652   7.2536   7.3666   7.3668   7.4190   7.8704   8.0240   8.3265
     8.6791   8.8987   8.9853   9.2268   9.3586   9.5642   9.8602  10.0175
    10.7410  10.8085  10.9191  10.9422  11.1008  11.4291  11.7779  12.0910
    12.2069  12.3199

          k = 0.2222 0.0000 0.0000 ( 31991 PWs)   bands (ev):

   -87.2608 -87.2517 -87.2458 -87.2458 -87.2436 -87.2436 -86.9974 -86.9965
   -86.9864 -86.9856 -86.9851 -86.9850 -50.7651 -50.7648 -50.7584 -50.7578
   -50.7577 -50.7216 -50.7213 -50.7057 -50.7055 -50.6899 -50.6898 -50.6811
   -50.6787 -50.6784 -50.6596 -50.6537 -50.6507 -50.6392 -50.5030 -50.5029
   -50.5023 -50.5019 -50.4578 -50.4576 -50.4570 -50.4567 -50.4112 -50.4104
   -50.4099 -50.4085 -50.4002 -50.3996 -50.3993 -50.3988 -50.3987 -50.3986
   -14.1651 -14.0717 -13.9751 -10.4110 -10.4109 -10.3406 -10.3406 -10.2672
   -10.2672  -9.0407  -9.0040  -8.9697  -7.9070  -7.8851  -7.8546  -6.6323
    -6.6322  -6.5825  -6.5825  -6.5292  -6.5291  -2.7870  -2.2674  -2.2601
    -2.2370  -2.2098  -2.1791  -1.5014  -1.4509  -1.4509  -1.4332  -1.4332
    -1.4183  -1.4112  -1.4111  -1.1721  -1.0539  -1.0523  -0.9952  -0.8949
    -0.8944  -0.8002  -0.7998  -0.5667  -0.5658  -0.4309  -0.4295  -0.3518
    -0.3515  -0.2432  -0.2424  -0.1462  -0.0512   0.0141   0.1253   0.1289
     0.2235   0.2315   0.2526   0.2752   0.2761   0.3039   0.3676   0.3688
     0.3782   0.5044   0.5075   0.5129   0.5803   0.7324   0.8055   0.8070
     0.9126   0.9143   0.9966   0.9985   1.0130   1.0346   1.0989   1.1059
     1.1167   1.2192   1.2204   1.2597   1.3088   1.3091   1.3532   1.4667
     1.4719   1.4784   1.4787   1.4816   1.4859   1.4868   1.4884   1.6100
     1.7479   1.7492   1.8487   1.8507   1.8510   1.9219   1.9220   1.9707
     1.9731   2.3140   2.3755   2.3759   2.6707   2.9372   3.1334   4.4009
     5.7623   5.7628   5.8247   6.4369   6.5474   6.6254   6.6259   6.7867
     7.3829   7.3833   7.6679   7.6680   7.9332   7.9378   8.0149   8.0152
     8.7749   8.7808   8.8021   8.8907   9.4812   9.7621   9.8191   9.8278
    10.4132  10.4174  10.8291  11.0177  11.3323  11.3331  11.4873  11.4878
    12.3427  12.3428

          k = 0.2222 0.1283 0.0000 ( 32017 PWs)   bands (ev):

   -87.2602 -87.2513 -87.2466 -87.2458 -87.2438 -87.2436 -86.9970 -86.9960
   -86.9867 -86.9857 -86.9855 -86.9850 -50.7719 -50.7631 -50.7602 -50.7571
   -50.7550 -50.7222 -50.7140 -50.7054 -50.7001 -50.6927 -50.6853 -50.6834
   -50.6792 -50.6764 -50.6612 -50.6587 -50.6519 -50.6409 -50.5092 -50.5084
   -50.4990 -50.4981 -50.4556 -50.4548 -50.4517 -50.4507 -50.4151 -50.4141
   -50.4102 -50.4085 -50.4010 -50.4005 -50.4003 -50.3995 -50.3991 -50.3988
   -14.0934 -14.0004 -13.9041 -10.9434 -10.8692 -10.7920  -9.7706  -9.7706
    -9.7060  -9.7060  -9.6386  -9.6386  -7.1326  -7.1326  -7.0834  -7.0834
    -7.0305  -7.0305  -6.0057  -5.9580  -5.9066  -2.7008  -2.1862  -2.1862
    -2.1634  -2.1634  -2.1622  -2.1364  -2.1364  -2.0947  -1.4192  -1.3326
    -1.1588  -1.0988  -1.0910  -1.0755  -1.0555  -0.9941  -0.9746  -0.9634
    -0.9247  -0.9104  -0.7163  -0.6458  -0.4919  -0.4555  -0.4509  -0.3658
    -0.3261  -0.3011  -0.2595  -0.1939  -0.0887  -0.0062   0.0608   0.1429
     0.2217   0.2234   0.2642   0.2699   0.3148   0.3199   0.3502   0.4364
     0.4480   0.4780   0.5257   0.5826   0.6383   0.6436   0.6935   0.7362
     0.8114   0.8234   0.8398   0.8739   0.9226   0.9233   0.9896   1.0677
     1.0896   1.1591   1.1645   1.2185   1.2270   1.3299   1.3303   1.3637
     1.3725   1.3819   1.3858   1.4071   1.4723   1.5453   1.5834   1.6479
     1.7599   1.7740   1.8101   1.8263   1.9069   1.9184   1.9456   2.0142
     2.1278   2.1281   2.4412   2.5142   2.5142   2.8847   2.8850   4.5366
     4.9400   5.7959   6.0248   6.4186   6.8374   6.8375   6.8687   7.0652
     7.0652   7.2545   7.3666   7.3668   7.4102   7.8569   8.0240   8.3265
     8.6791   8.8987   8.9853   9.2269   9.3711   9.5642   9.8602  10.0232
    10.7412  10.8068  10.9191  10.9438  11.1009  11.4275  11.7776  12.0910
    12.2069  12.3199

          k = 0.2222 0.2566 0.0000 ( 32047 PWs)   bands (ev):

   -87.2587 -87.2503 -87.2476 -87.2468 -87.2441 -87.2438 -86.9957 -86.9948
   -86.9873 -86.9863 -86.9862 -86.9856 -50.7733 -50.7652 -50.7626 -50.7569
   -50.7537 -50.7153 -50.7092 -50.7006 -50.6964 -50.6929 -50.6850 -50.6804
   -50.6762 -50.6743 -50.6699 -50.6650 -50.6585 -50.6437 -50.5107 -50.5099
   -50.5008 -50.4999 -50.4448 -50.4439 -50.4425 -50.4415 -50.4284 -50.4274
   -50.4089 -50.4075 -50.4043 -50.4036 -50.4011 -50.4001 -50.3998 -50.3993
   -13.8784 -13.7867 -13.6917 -11.3512 -11.2744 -11.1945 -10.7418 -10.6689
   -10.5929  -9.0673  -9.0137  -8.9587  -7.4590  -7.4179  -7.3719  -5.8730
    -5.8274  -5.7784  -5.2850  -5.2408  -5.1932  -3.1435  -3.1151  -3.0827
    -2.4433  -1.9657  -1.9438  -1.9176  -1.8754  -1.8425  -1.2081  -1.1740
    -1.1719  -1.1548  -1.1434  -1.1333  -1.1015  -1.0908  -1.0545  -0.9648
    -0.9274  -0.8891  -0.7578  -0.7391  -0.6081  -0.5478  -0.5009  -0.4089
    -0.3753  -0.3078  -0.2466  -0.2156  -0.1483  -0.0899   0.1001   0.1167
     0.1617   0.1742   0.1906   0.2066   0.2386   0.2632   0.2870   0.3406
     0.3750   0.4016   0.4561   0.4893   0.4908   0.5193   0.5479   0.5522
     0.7042   0.7813   0.7817   0.9114   0.9277   0.9396   0.9478   0.9607
     0.9920   0.9984   1.0001   1.0375   1.1394   1.1661   1.1719   1.2288
     1.2750   1.2844   1.3438   1.3940   1.4083   1.5275   1.5293   1.5493
     1.6047   1.6058   1.6450   1.7757   1.7802   1.8472   1.8947   1.9142
     2.0218   2.0231   2.1511   2.7538   2.8218   3.1357   3.3985   4.2067
     4.9071   5.0040   5.0225   5.8079   6.4216   6.4780   6.5419   6.5723
     6.7494   7.0550   7.9385   8.0901   8.2103   8.5108   8.5118   8.7027
     8.9901   9.1885   9.2683   9.3111   9.4154   9.8137  10.0347  10.1554
    10.2870  10.8928  10.9102  11.1899  11.3548  11.5683  12.3087  12.4667
    12.5768  12.6065

          k = 0.2222 0.3849 0.0000 ( 32067 PWs)   bands (ev):

   -87.2565 -87.2488 -87.2486 -87.2485 -87.2445 -87.2444 -86.9939 -86.9929
   -86.9882 -86.9873 -86.9869 -86.9868 -50.7670 -50.7668 -50.7605 -50.7604
   -50.7493 -50.7117 -50.7113 -50.7107 -50.6906 -50.6905 -50.6875 -50.6764
   -50.6763 -50.6696 -50.6693 -50.6686 -50.6648 -50.6478 -50.5046 -50.5043
   -50.5037 -50.5035 -50.4483 -50.4472 -50.4328 -50.4325 -50.4319 -50.4316
   -50.4091 -50.4084 -50.4071 -50.4058 -50.4019 -50.4010 -50.4005 -50.4004
   -13.5213 -13.4317 -13.3388 -11.6264 -11.6263 -11.5479 -11.5478 -11.4662
   -11.4662  -8.4829  -8.4483  -8.4156  -7.4537  -7.4391  -7.4165  -4.5211
    -4.5210  -4.4829  -4.4829  -4.4413  -4.4413  -4.1531  -4.1220  -4.0867
    -2.0173  -1.6017  -1.6017  -1.5816  -1.5816  -1.5571  -1.5571  -1.5134
    -1.4258  -1.1969  -1.1959  -1.1563  -1.1562  -1.1103  -1.1094  -1.0413
    -0.8231  -0.7854  -0.7834  -0.7701  -0.7282  -0.7158  -0.7016  -0.6206
    -0.6006  -0.5993  -0.4859  -0.4856  -0.4320  -0.2129  -0.1523  -0.1359
    -0.1306   0.1382   0.1391   0.1884   0.1924   0.1926   0.2577   0.2650
     0.2770   0.2857   0.2904   0.3469   0.3889   0.4584   0.4637   0.5007
     0.6406   0.6433   0.6550   0.6690   0.7198   0.7198   0.8076   0.8469
     0.9888   1.0009   1.0034   1.0363   1.1379   1.1395   1.1630   1.2920
     1.2922   1.3090   1.3223   1.3242   1.3707   1.3721   1.4642   1.4648
     1.5708   1.5720   1.5968   1.6725   1.7859   1.7871   1.8707   1.8757
     1.8772   1.9963   1.9981   3.2062   3.4431   3.5520   3.5527   3.7094
     3.8935   4.3075   4.3079   5.4495   5.8252   5.8283   6.1122   6.1476
     6.1706   7.3646   7.9235   7.9243   9.3229   9.3231   9.5666   9.5667
     9.6707   9.7376   9.8216   9.8218   9.9579   9.9614  10.2335  10.5145
    10.5195  10.6479  11.2524  11.2549  11.6397  11.7889  12.2435  12.2440
    12.2871  12.2914

          k = 0.2222-0.6415 0.0000 ( 32050 PWs)   bands (ev):

   -87.2538 -87.2510 -87.2491 -87.2472 -87.2456 -87.2447 -86.9918 -86.9908
   -86.9896 -86.9886 -86.9880 -86.9872 -50.7695 -50.7629 -50.7538 -50.7500
   -50.7470 -50.7319 -50.7134 -50.7112 -50.7053 -50.6832 -50.6807 -50.6768
   -50.6731 -50.6724 -50.6704 -50.6626 -50.6611 -50.6537 -50.5067 -50.5058
   -50.4904 -50.4895 -50.4704 -50.4693 -50.4254 -50.4245 -50.4234 -50.4224
   -50.4154 -50.4148 -50.4052 -50.4039 -50.4032 -50.4021 -50.4016 -50.4008
   -13.0243 -12.9376 -12.8477 -12.3908 -12.3078 -12.2216 -11.7648 -11.6855
   -11.6030  -8.3332  -8.2834  -8.2318  -7.0665  -7.0373  -7.0048  -4.9603
    -4.9388  -4.9121  -3.8669  -3.8414  -3.8128  -3.1549  -3.1258  -3.0930
    -2.1115  -2.0946  -2.0728  -1.8559  -1.8371  -1.8146  -1.4279  -1.3441
    -1.2959  -1.2600  -1.1813  -1.1803  -1.1454  -1.0995  -1.0826  -1.0776
    -1.0611  -1.0186  -0.9261  -0.8801  -0.8504  -0.7689  -0.7657  -0.6960
    -0.6853  -0.5839  -0.5245  -0.5087  -0.4677  -0.4559  -0.4394  -0.4110
    -0.3064  -0.2121  -0.1280  -0.0405  -0.0315   0.0003   0.0420   0.1048
     0.1585   0.2079   0.2548   0.3087   0.3118   0.3222   0.3644   0.4838
     0.5772   0.6393   0.6455   0.6972   0.7812   0.8266   0.9166   0.9408
     0.9699   1.0192   1.0432   1.0466   1.1603   1.1669   1.2078   1.2316
     1.2978   1.3684   1.3795   1.4015   1.4438   1.5317   1.5566   1.6137
     1.6197   1.6647   1.6677   1.7049   1.7279   1.8180   1.8659   1.8901
     1.8975   1.9873   2.0775   2.3409   3.0024   3.0537   3.7771   3.8259
     3.8301   4.0988   4.3664   4.6887   5.4377   5.6732   5.8278   6.0302
     6.1363   6.9783   7.5968   8.3192   9.3701   9.7291   9.7806   9.9189
    10.0998  10.3224  10.3424  10.3899  10.7598  10.8309  10.9565  11.0870
    11.1566  11.1896  11.2208  11.3313  11.5676  11.8013  12.0546  12.0924
    12.1491  12.2467

          k = 0.2222-0.5132 0.0000 ( 32050 PWs)   bands (ev):

   -87.2538 -87.2510 -87.2491 -87.2472 -87.2456 -87.2447 -86.9918 -86.9908
   -86.9896 -86.9886 -86.9880 -86.9872 -50.7695 -50.7629 -50.7536 -50.7501
   -50.7469 -50.7321 -50.7132 -50.7111 -50.7056 -50.6832 -50.6808 -50.6768
   -50.6732 -50.6724 -50.6702 -50.6626 -50.6612 -50.6535 -50.5067 -50.5058
   -50.4904 -50.4892 -50.4705 -50.4696 -50.4254 -50.4244 -50.4234 -50.4227
   -50.4154 -50.4144 -50.4052 -50.4040 -50.4032 -50.4020 -50.4016 -50.4008
   -13.0243 -12.9376 -12.8477 -12.3908 -12.3078 -12.2216 -11.7648 -11.6855
   -11.6030  -8.3332  -8.2834  -8.2318  -7.0665  -7.0373  -7.0048  -4.9603
    -4.9388  -4.9121  -3.8669  -3.8414  -3.8128  -3.1549  -3.1258  -3.0930
    -2.1115  -2.0946  -2.0728  -1.8559  -1.8371  -1.8146  -1.4279  -1.3440
    -1.2960  -1.2590  -1.1824  -1.1804  -1.1462  -1.0995  -1.0825  -1.0766
    -1.0611  -1.0174  -0.9258  -0.8797  -0.8504  -0.7697  -0.7659  -0.6957
    -0.6853  -0.5868  -0.5219  -0.5090  -0.4677  -0.4559  -0.4394  -0.4118
    -0.3071  -0.2121  -0.1280  -0.0441  -0.0300  -0.0018   0.0420   0.1086
     0.1587   0.2151   0.2532   0.3020   0.3100   0.3194   0.3682   0.4838
     0.5772   0.6418   0.6428   0.7030   0.7822   0.8280   0.9143   0.9419
     0.9690   1.0173   1.0412   1.0464   1.1603   1.1678   1.2079   1.2340
     1.2986   1.3683   1.3782   1.4039   1.4452   1.5316   1.5543   1.6130
     1.6166   1.6643   1.6676   1.7053   1.7318   1.8168   1.8649   1.8899
     1.8969   1.9851   2.0783   2.3409   3.0027   3.0539   3.7771   3.8252
     3.8301   4.0988   4.3664   4.6906   5.4380   5.6732   5.8278   6.0302
     6.1385   6.9768   7.5971   8.3231   9.3649   9.7291   9.7806   9.9189
    10.0998  10.3224  10.3425  10.3899  10.7598  10.8310  10.9565  11.0870
    11.1566  11.1891  11.2208  11.3317  11.5672  11.8004  12.0546  12.0924
    12.1479  12.2446

          k = 0.2222-0.3849 0.0000 ( 32067 PWs)   bands (ev):

   -87.2565 -87.2488 -87.2486 -87.2485 -87.2445 -87.2444 -86.9939 -86.9929
   -86.9882 -86.9873 -86.9869 -86.9868 -50.7669 -50.7667 -50.7605 -50.7605
   -50.7493 -50.7115 -50.7112 -50.7109 -50.6906 -50.6906 -50.6877 -50.6767
   -50.6766 -50.6694 -50.6693 -50.6686 -50.6646 -50.6476 -50.5046 -50.5043
   -50.5036 -50.5034 -50.4483 -50.4476 -50.4328 -50.4326 -50.4320 -50.4318
   -50.4090 -50.4080 -50.4071 -50.4059 -50.4019 -50.4010 -50.4005 -50.4003
   -13.5213 -13.4317 -13.3388 -11.6264 -11.6263 -11.5479 -11.5478 -11.4662
   -11.4662  -8.4829  -8.4483  -8.4156  -7.4537  -7.4391  -7.4165  -4.5211
    -4.5210  -4.4829  -4.4829  -4.4413  -4.4413  -4.1531  -4.1220  -4.0867
    -2.0173  -1.6017  -1.6017  -1.5816  -1.5816  -1.5571  -1.5571  -1.5127
    -1.4258  -1.1969  -1.1961  -1.1571  -1.1568  -1.1097  -1.1092  -1.0405
    -0.8208  -0.7843  -0.7839  -0.7701  -0.7282  -0.7158  -0.7016  -0.6180
    -0.6017  -0.6013  -0.4872  -0.4867  -0.4341  -0.2140  -0.1537  -0.1350
    -0.1344   0.1444   0.1451   0.1850   0.1924   0.1926   0.2577   0.2650
     0.2770   0.2831   0.2837   0.3443   0.3914   0.4615   0.4618   0.5015
     0.6478   0.6485   0.6571   0.6686   0.7198   0.7198   0.8083   0.8421
     0.9891   1.0002   1.0012   1.0341   1.1379   1.1388   1.1633   1.2920
     1.2922   1.3125   1.3269   1.3273   1.3717   1.3717   1.4619   1.4627
     1.5682   1.5693   1.5952   1.6761   1.7882   1.7886   1.8675   1.8759
     1.8761   1.9936   1.9946   3.2064   3.4431   3.5520   3.5525   3.7094
     3.8935   4.3075   4.3084   5.4517   5.8284   5.8292   6.1122   6.1476
     6.1706   7.3676   7.9245   7.9254   9.3229   9.3231   9.5666   9.5667
     9.6707   9.7376   9.8216   9.8218   9.9552   9.9580  10.2335  10.5135
    10.5152  10.6481  11.2524  11.2547  11.6397  11.7887  12.2433  12.2436
    12.2860  12.2870

          k = 0.2222-0.2566 0.0000 ( 32047 PWs)   bands (ev):

   -87.2587 -87.2503 -87.2476 -87.2467 -87.2441 -87.2438 -86.9957 -86.9948
   -86.9873 -86.9863 -86.9862 -86.9856 -50.7731 -50.7652 -50.7627 -50.7570
   -50.7537 -50.7151 -50.7090 -50.7005 -50.6964 -50.6930 -50.6853 -50.6809
   -50.6762 -50.6739 -50.6700 -50.6651 -50.6583 -50.6435 -50.5107 -50.5097
   -50.5008 -50.5001 -50.4448 -50.4437 -50.4425 -50.4418 -50.4285 -50.4278
   -50.4089 -50.4075 -50.4043 -50.4032 -50.4011 -50.4001 -50.3998 -50.3993
   -13.8784 -13.7867 -13.6917 -11.3512 -11.2744 -11.1945 -10.7418 -10.6689
   -10.5929  -9.0673  -9.0137  -8.9586  -7.4590  -7.4179  -7.3719  -5.8730
    -5.8274  -5.7784  -5.2850  -5.2408  -5.1932  -3.1435  -3.1151  -3.0827
    -2.4433  -1.9657  -1.9438  -1.9176  -1.8751  -1.8425  -1.2076  -1.1740
    -1.1719  -1.1548  -1.1431  -1.1333  -1.1024  -1.0906  -1.0548  -0.9663
    -0.9255  -0.8891  -0.7552  -0.7398  -0.6058  -0.5492  -0.5023  -0.4119
    -0.3757  -0.3113  -0.2447  -0.2169  -0.1495  -0.0900   0.1056   0.1193
     0.1617   0.1742   0.1906   0.2035   0.2368   0.2634   0.2860   0.3427
     0.3694   0.4032   0.4543   0.4891   0.4893   0.5145   0.5566   0.5577
     0.7058   0.7826   0.7843   0.9048   0.9277   0.9396   0.9478   0.9607
     0.9942   0.9975   1.0001   1.0386   1.1406   1.1661   1.1718   1.2264
     1.2800   1.2881   1.3436   1.3954   1.4048   1.5253   1.5309   1.5493
     1.6027   1.6052   1.6450   1.7776   1.7817   1.8425   1.8948   1.9135
     2.0181   2.0219   2.1511   2.7547   2.8218   3.1357   3.3985   4.2066
     4.9089   5.0040   5.0220   5.8079   6.4216   6.4783   6.5419   6.5743
     6.7494   7.0619   7.9385   8.0991   8.2103   8.5118   8.5118   8.7027
     8.9901   9.1885   9.2683   9.3111   9.4026   9.8136  10.0287  10.1555
    10.2870  10.8920  10.9110  11.1899  11.3546  11.5677  12.2827  12.4668
    12.5767  12.6066

          k = 0.3333-0.1925 0.0000 ( 32055 PWs)   bands (ev):

   -87.2578 -87.2497 -87.2489 -87.2466 -87.2446 -87.2438 -86.9949 -86.9940
   -86.9881 -86.9871 -86.9863 -86.9855 -50.7797 -50.7711 -50.7552 -50.7516
   -50.7505 -50.7174 -50.7048 -50.6987 -50.6987 -50.6888 -50.6860 -50.6789
   -50.6787 -50.6741 -50.6714 -50.6665 -50.6597 -50.6473 -50.5169 -50.5159
   -50.4931 -50.4923 -50.4411 -50.4400 -50.4374 -50.4367 -50.4355 -50.4349
   -50.4082 -50.4075 -50.4071 -50.4062 -50.4017 -50.4006 -50.4001 -50.3992
   -13.7353 -13.6445 -13.5503 -11.8330 -11.7533 -11.6704 -10.0163 -10.0162
    -9.9484  -9.9484  -9.8775  -9.8775  -6.3550  -6.3550  -6.3099  -6.3099
    -6.2614  -6.2614  -4.6053  -4.5640  -4.5191  -2.9795  -2.9795  -2.9526
    -2.9525  -2.9214  -2.9214  -2.2725  -1.6897  -1.6755  -1.3249  -1.2276
    -1.2204  -1.0117  -0.9955  -0.9403  -0.9187  -0.8712  -0.8209  -0.7535
    -0.7517  -0.7367  -0.7173  -0.7032  -0.6747  -0.5597  -0.5044  -0.3757
    -0.3531  -0.3462  -0.3451  -0.3342  -0.3111  -0.2425  -0.1835  -0.1722
    -0.0823  -0.0521   0.0400   0.0538   0.1105   0.1369   0.2140   0.2528
     0.2692   0.3427   0.4635   0.4682   0.4813   0.5130   0.5807   0.6015
     0.6174   0.6583   0.6920   0.8004   0.8195   0.8252   0.8306   0.8463
     0.8567   0.8845   1.0612   1.0776   1.0824   1.1424   1.2181   1.2597
     1.2945   1.3166   1.3530   1.5138   1.5408   1.6036   1.6579   1.6676
     1.7733   1.7950   1.8008   1.8660   1.8930   1.9346   1.9599   1.9602
     1.9766   2.0202   2.3962   2.3962   2.8435   2.8439   2.9607   3.5136
     4.2531   5.1404   5.5884   5.7647   6.2323   6.7638   6.9101   7.0938
     7.1966   7.1968   7.4303   7.4304   7.6881   7.6883   7.9075   9.0895
     9.3812   9.4564   9.4739   9.7257   9.7522   9.9817  10.0630  10.3047
    10.3527  10.5250  11.3676  11.5269  11.7295  11.9329  11.9637  12.2177
    12.2958  12.3348

          k = 0.3333-0.0642 0.0000 ( 32047 PWs)   bands (ev):

   -87.2587 -87.2503 -87.2477 -87.2467 -87.2441 -87.2438 -86.9957 -86.9948
   -86.9873 -86.9863 -86.9862 -86.9856 -50.7731 -50.7652 -50.7627 -50.7570
   -50.7537 -50.7152 -50.7089 -50.7007 -50.6968 -50.6930 -50.6849 -50.6804
   -50.6766 -50.6739 -50.6700 -50.6650 -50.6583 -50.6436 -50.5107 -50.5097
   -50.5009 -50.5002 -50.4447 -50.4436 -50.4425 -50.4419 -50.4283 -50.4276
   -50.4089 -50.4075 -50.4044 -50.4033 -50.4011 -50.4001 -50.3998 -50.3992
   -13.8784 -13.7867 -13.6917 -11.3512 -11.2744 -11.1945 -10.7418 -10.6689
   -10.5929  -9.0673  -9.0137  -8.9586  -7.4590  -7.4179  -7.3719  -5.8730
    -5.8274  -5.7784  -5.2850  -5.2408  -5.1932  -3.1434  -3.1151  -3.0827
    -2.4433  -1.9657  -1.9438  -1.9176  -1.8752  -1.8425  -1.2076  -1.1740
    -1.1719  -1.1548  -1.1426  -1.1333  -1.1014  -1.0912  -1.0555  -0.9654
    -0.9269  -0.8889  -0.7576  -0.7410  -0.6069  -0.5485  -0.5014  -0.4099
    -0.3757  -0.3091  -0.2437  -0.2171  -0.1480  -0.0901   0.1063   0.1177
     0.1617   0.1742   0.1907   0.2052   0.2383   0.2647   0.2902   0.3425
     0.3705   0.3998   0.4542   0.4893   0.4894   0.5144   0.5494   0.5513
     0.7068   0.7833   0.7844   0.9074   0.9275   0.9396   0.9478   0.9607
     0.9963   0.9985   1.0001   1.0372   1.1429   1.1661   1.1717   1.2298
     1.2757   1.2814   1.3407   1.3946   1.4098   1.5252   1.5270   1.5493
     1.6038   1.6085   1.6450   1.7773   1.7803   1.8444   1.8954   1.9135
     2.0185   2.0238   2.1511   2.7554   2.8218   3.1357   3.3985   4.2065
     4.9079   5.0040   5.0221   5.8078   6.4216   6.4765   6.5419   6.5733
     6.7494   7.0620   7.9385   8.0989   8.2104   8.5111   8.5118   8.7027
     8.9901   9.1885   9.2683   9.3111   9.4027   9.8137  10.0289  10.1555
    10.2892  10.8919  10.9149  11.1899  11.3547  11.5653  12.2817  12.4666
    12.5771  12.6069

          k = 0.3333 0.0642 0.0000 ( 32047 PWs)   bands (ev):

   -87.2587 -87.2503 -87.2476 -87.2468 -87.2441 -87.2438 -86.9957 -86.9948
   -86.9873 -86.9863 -86.9862 -86.9856 -50.7734 -50.7652 -50.7625 -50.7570
   -50.7537 -50.7153 -50.7089 -50.7008 -50.6966 -50.6930 -50.6849 -50.6804
   -50.6762 -50.6743 -50.6699 -50.6650 -50.6584 -50.6437 -50.5107 -50.5100
   -50.5009 -50.4998 -50.4447 -50.4440 -50.4425 -50.4415 -50.4283 -50.4275
   -50.4089 -50.4075 -50.4044 -50.4035 -50.4011 -50.4001 -50.3998 -50.3993
   -13.8784 -13.7867 -13.6917 -11.3512 -11.2744 -11.1945 -10.7418 -10.6689
   -10.5929  -9.0673  -9.0137  -8.9586  -7.4590  -7.4179  -7.3719  -5.8730
    -5.8274  -5.7784  -5.2850  -5.2408  -5.1932  -3.1434  -3.1151  -3.0827
    -2.4433  -1.9657  -1.9438  -1.9176  -1.8752  -1.8425  -1.2081  -1.1740
    -1.1719  -1.1548  -1.1428  -1.1333  -1.1015  -1.0911  -1.0541  -0.9649
    -0.9275  -0.8894  -0.7579  -0.7394  -0.6086  -0.5478  -0.5008  -0.4091
    -0.3751  -0.3088  -0.2472  -0.2160  -0.1484  -0.0896   0.1004   0.1185
     0.1617   0.1742   0.1907   0.2060   0.2392   0.2630   0.2855   0.3410
     0.3740   0.4023   0.4564   0.4893   0.4909   0.5198   0.5496   0.5529
     0.7044   0.7813   0.7815   0.9102   0.9281   0.9396   0.9478   0.9607
     0.9922   0.9988   1.0001   1.0379   1.1391   1.1661   1.1721   1.2285
     1.2756   1.2840   1.3436   1.3938   1.4081   1.5274   1.5290   1.5493
     1.6043   1.6060   1.6450   1.7757   1.7811   1.8461   1.8951   1.9142
     2.0215   2.0218   2.1511   2.7546   2.8218   3.1357   3.3985   4.2067
     4.9073   5.0044   5.0225   5.8078   6.4216   6.4783   6.5419   6.5728
     6.7494   7.0551   7.9385   8.0903   8.2104   8.5115   8.5118   8.7027
     8.9901   9.1885   9.2683   9.3111   9.4153   9.8137  10.0347  10.1554
    10.2851  10.8927  10.9095  11.1899  11.3547  11.5667  12.3089  12.4670
    12.5767  12.6066

          k = 0.3333 0.1925 0.0000 ( 32055 PWs)   bands (ev):

   -87.2578 -87.2497 -87.2489 -87.2466 -87.2446 -87.2437 -86.9949 -86.9940
   -86.9881 -86.9871 -86.9863 -86.9855 -50.7800 -50.7711 -50.7550 -50.7516
   -50.7503 -50.7175 -50.7052 -50.6986 -50.6985 -50.6887 -50.6859 -50.6786
   -50.6785 -50.6739 -50.6718 -50.6665 -50.6598 -50.6475 -50.5169 -50.5162
   -50.4930 -50.4921 -50.4411 -50.4403 -50.4374 -50.4363 -50.4355 -50.4346
   -50.4082 -50.4076 -50.4068 -50.4067 -50.4017 -50.4006 -50.4001 -50.3993
   -13.7353 -13.6445 -13.5503 -11.8330 -11.7533 -11.6704 -10.0163 -10.0162
    -9.9484  -9.9484  -9.8775  -9.8775  -6.3550  -6.3550  -6.3099  -6.3099
    -6.2614  -6.2614  -4.6053  -4.5640  -4.5191  -2.9795  -2.9795  -2.9526
    -2.9525  -2.9214  -2.9214  -2.2725  -1.6900  -1.6755  -1.3245  -1.2273
    -1.2210  -1.0117  -0.9958  -0.9392  -0.9169  -0.8700  -0.8226  -0.7541
    -0.7517  -0.7367  -0.7173  -0.7017  -0.6761  -0.5580  -0.5061  -0.3751
    -0.3531  -0.3462  -0.3430  -0.3342  -0.3111  -0.2427  -0.1880  -0.1700
    -0.0830  -0.0521   0.0353   0.0503   0.1113   0.1363   0.2142   0.2517
     0.2708   0.3481   0.4584   0.4723   0.4813   0.5114   0.5839   0.6016
     0.6182   0.6590   0.6992   0.7945   0.8172   0.8195   0.8306   0.8463
     0.8564   0.8900   1.0612   1.0764   1.0796   1.1440   1.2147   1.2595
     1.2933   1.3150   1.3540   1.5214   1.5448   1.6018   1.6550   1.6674
     1.7712   1.7945   1.8047   1.8644   1.8943   1.9342   1.9599   1.9602
     1.9804   2.0210   2.3962   2.3962   2.8435   2.8439   2.9593   3.5138
     4.2533   5.1387   5.5924   5.7647   6.2395   6.7503   6.9084   7.0759
     7.1966   7.1968   7.4303   7.4304   7.6881   7.6883   7.9060   9.1046
     9.3812   9.4564   9.4739   9.7330   9.7522   9.9818  10.0630  10.3014
    10.3527  10.5261  11.3676  11.5271  11.7544  11.9326  11.9635  12.2177
    12.2963  12.3373

          k = 0.3333 0.3208 0.0000 ( 32081 PWs)   bands (ev):

   -87.2560 -87.2501 -87.2486 -87.2474 -87.2452 -87.2440 -86.9935 -86.9926
   -86.9889 -86.9880 -86.9869 -86.9861 -50.7790 -50.7705 -50.7534 -50.7487
   -50.7485 -50.7150 -50.7123 -50.7077 -50.6912 -50.6907 -50.6861 -50.6783
   -50.6761 -50.6689 -50.6686 -50.6681 -50.6654 -50.6507 -50.5160 -50.5152
   -50.4903 -50.4893 -50.4505 -50.4494 -50.4322 -50.4313 -50.4312 -50.4302
   -50.4115 -50.4108 -50.4068 -50.4055 -50.4025 -50.4014 -50.4007 -50.3998
   -13.4501 -13.3609 -13.2684 -12.1808 -12.0990 -12.0141 -10.9438 -10.8695
   -10.7921  -9.1965  -9.1356  -9.0719  -6.7351  -6.6941  -6.6499  -5.1041
    -5.0670  -5.0267  -4.0462  -4.0171  -3.9837  -3.8677  -3.8308  -3.7903
    -2.6433  -2.6198  -2.5918  -1.9328  -1.4188  -1.3740  -1.3435  -1.2959
    -1.2477  -1.0604  -1.0399  -1.0149  -0.9948  -0.9795  -0.9418  -0.9366
    -0.9090  -0.7829  -0.7770  -0.7664  -0.7503  -0.7298  -0.6891  -0.6174
    -0.5721  -0.5635  -0.4461  -0.4155  -0.4120  -0.3821  -0.2385  -0.2186
    -0.1114  -0.1014   0.0368   0.0639   0.1024   0.1670   0.1857   0.2356
     0.2421   0.3337   0.3376   0.3457   0.3622   0.3672   0.3912   0.5351
     0.5376   0.7002   0.7026   0.7309   0.7416   0.7427   0.7960   0.8271
     0.9256   0.9393   0.9420   0.9698   1.0908   1.1062   1.1575   1.2879
     1.3133   1.3643   1.4132   1.4443   1.4681   1.5162   1.5512   1.6723
     1.7244   1.7491   1.7513   1.8086   1.8228   1.8548   1.8577   1.9191
     1.9794   2.0025   2.0669   2.8444   2.9007   3.2259   3.3182   3.5755
     3.5959   4.4221   5.1391   5.1844   5.5612   6.4107   6.4585   6.6423
     6.8501   7.3506   7.5170   7.5782   8.4141   8.6405   8.8667   9.2189
     9.7450   9.7665   9.8165   9.8315  10.1959  10.3199  10.4420  10.6035
    10.7108  10.7468  11.4769  11.5093  11.7239  11.8513  11.8769  11.9863
    12.0226  12.5022

          k = 0.3333-0.7057 0.0000 ( 32050 PWs)   bands (ev):

   -87.2538 -87.2510 -87.2491 -87.2472 -87.2456 -87.2447 -86.9918 -86.9908
   -86.9896 -86.9886 -86.9880 -86.9872 -50.7696 -50.7628 -50.7538 -50.7500
   -50.7470 -50.7319 -50.7130 -50.7116 -50.7052 -50.6831 -50.6807 -50.6765
   -50.6732 -50.6725 -50.6703 -50.6625 -50.6613 -50.6538 -50.5068 -50.5059
   -50.4902 -50.4893 -50.4704 -50.4693 -50.4253 -50.4243 -50.4235 -50.4226
   -50.4155 -50.4148 -50.4052 -50.4039 -50.4032 -50.4020 -50.4017 -50.4008
   -13.0243 -12.9376 -12.8477 -12.3908 -12.3078 -12.2216 -11.7648 -11.6855
   -11.6030  -8.3332  -8.2834  -8.2318  -7.0665  -7.0373  -7.0048  -4.9603
    -4.9388  -4.9121  -3.8669  -3.8414  -3.8128  -3.1549  -3.1258  -3.0930
    -2.1115  -2.0945  -2.0728  -1.8559  -1.8371  -1.8146  -1.4279  -1.3433
    -1.2960  -1.2599  -1.1816  -1.1812  -1.1458  -1.0995  -1.0826  -1.0777
    -1.0611  -1.0180  -0.9245  -0.8800  -0.8504  -0.7708  -0.7638  -0.6963
    -0.6853  -0.5856  -0.5242  -0.5076  -0.4677  -0.4559  -0.4394  -0.4108
    -0.3062  -0.2121  -0.1280  -0.0464  -0.0262   0.0012   0.0421   0.1009
     0.1579   0.2083   0.2542   0.3064   0.3071   0.3266   0.3681   0.4838
     0.5772   0.6428   0.6474   0.6942   0.7838   0.8250   0.9164   0.9399
     0.9715   1.0135   1.0429   1.0466   1.1603   1.1655   1.2079   1.2336
     1.3000   1.3672   1.3774   1.4046   1.4447   1.5320   1.5567   1.6132
     1.6188   1.6661   1.6686   1.7044   1.7287   1.8165   1.8674   1.8918
     1.8972   1.9865   2.0769   2.3407   3.0020   3.0541   3.7771   3.8255
     3.8307   4.0988   4.3664   4.6903   5.4339   5.6732   5.8278   6.0302
     6.1360   6.9765   7.5968   8.3189   9.3663   9.7291   9.7848   9.9188
    10.0998  10.3271  10.3425  10.3899  10.7598  10.8309  10.9565  11.0850
    11.1566  11.1893  11.2207  11.3313  11.5670  11.8016  12.0555  12.0970
    12.1480  12.2450

          k = 0.3333-0.5774 0.0000 ( 32121 PWs)   bands (ev):

   -87.2513 -87.2513 -87.2513 -87.2458 -87.2458 -87.2458 -86.9902 -86.9901
   -86.9890 -86.9889 -86.9889 -86.9888 -50.7543 -50.7541 -50.7539 -50.7509
   -50.7508 -50.7508 -50.7130 -50.7127 -50.7127 -50.6770 -50.6769 -50.6768
   -50.6741 -50.6740 -50.6739 -50.6577 -50.6577 -50.6575 -50.4909 -50.4905
   -50.4903 -50.4898 -50.4896 -50.4894 -50.4204 -50.4199 -50.4198 -50.4193
   -50.4192 -50.4190 -50.4038 -50.4037 -50.4026 -50.4023 -50.4023 -50.4021
   -12.4610 -12.4610 -12.4610 -12.3776 -12.3776 -12.3776 -12.2910 -12.2910
   -12.2910  -7.5881  -7.5279  -7.5272  -7.5236  -7.5218  -7.4658  -5.3501
    -5.3460  -5.3448  -2.7654  -2.7654  -2.7654  -2.7490  -2.7490  -2.7489
    -2.7295  -2.7295  -2.7295  -1.3593  -1.3593  -1.3593  -1.3486  -1.3486
    -1.3486  -1.3330  -1.3330  -1.3330  -1.2676  -1.2668  -1.2660  -1.2273
    -1.2266  -1.2262  -1.0416  -1.0410  -1.0402  -0.8415  -0.8411  -0.8400
    -0.7657  -0.7654  -0.7652  -0.6738  -0.6734  -0.6712  -0.4067  -0.4062
    -0.4058  -0.2054  -0.2054  -0.2054   0.0102   0.0136   0.0150   0.2126
     0.2188   0.2200   0.2994   0.3013   0.3021   0.4100   0.4101   0.4105
     0.4369   0.4372   0.4415   0.8231   0.8234   0.8267   0.8735   0.8772
     0.8782   1.1926   1.1933   1.1937   1.2496   1.2509   1.2512   1.4515
     1.4518   1.4540   1.4785   1.4789   1.4797   1.5772   1.5774   1.5778
     1.6785   1.6787   1.6789   1.7121   1.7128   1.7129   1.9073   1.9081
     1.9089   1.9382   1.9391   1.9396   2.7211   2.7222   2.7225   4.5195
     4.5212   4.5220   4.5396   4.9584   4.9658   4.9717   4.9811   5.4278
     6.8437   6.8441   6.8458   9.2309   9.2333   9.2373  10.9974  10.9978
    10.9982  11.0835  11.0841  11.0844  11.1157  11.1166  11.1178  11.1611
    11.1621  11.1635  11.3109  11.3118  11.3124  11.4653  11.4660  11.4670
    11.7254  11.7264

          k = 0.3333-0.4491 0.0000 ( 32050 PWs)   bands (ev):

   -87.2538 -87.2510 -87.2491 -87.2472 -87.2456 -87.2447 -86.9918 -86.9908
   -86.9896 -86.9886 -86.9880 -86.9872 -50.7693 -50.7629 -50.7538 -50.7501
   -50.7470 -50.7321 -50.7130 -50.7113 -50.7055 -50.6833 -50.6807 -50.6767
   -50.6733 -50.6724 -50.6702 -50.6626 -50.6611 -50.6535 -50.5068 -50.5057
   -50.4903 -50.4894 -50.4704 -50.4696 -50.4253 -50.4246 -50.4235 -50.4225
   -50.4154 -50.4144 -50.4052 -50.4040 -50.4032 -50.4020 -50.4017 -50.4007
   -13.0243 -12.9376 -12.8477 -12.3908 -12.3078 -12.2216 -11.7648 -11.6855
   -11.6030  -8.3332  -8.2834  -8.2318  -7.0665  -7.0373  -7.0048  -4.9603
    -4.9388  -4.9121  -3.8669  -3.8414  -3.8128  -3.1549  -3.1258  -3.0930
    -2.1115  -2.0945  -2.0728  -1.8559  -1.8371  -1.8146  -1.4279  -1.3444
    -1.2966  -1.2590  -1.1817  -1.1799  -1.1455  -1.0995  -1.0826  -1.0765
    -1.0611  -1.0185  -0.9257  -0.8799  -0.8504  -0.7698  -0.7660  -0.6957
    -0.6853  -0.5865  -0.5219  -0.5093  -0.4677  -0.4559  -0.4394  -0.4113
    -0.3069  -0.2121  -0.1280  -0.0424  -0.0315  -0.0025   0.0421   0.1089
     0.1584   0.2162   0.2520   0.3048   0.3100   0.3197   0.3670   0.4838
     0.5772   0.6421   0.6430   0.7029   0.7818   0.8278   0.9139   0.9418
     0.9690   1.0178   1.0406   1.0464   1.1603   1.1674   1.2082   1.2335
     1.2988   1.3684   1.3783   1.4034   1.4451   1.5316   1.5542   1.6130
     1.6160   1.6643   1.6680   1.7056   1.7315   1.8173   1.8643   1.8888
     1.8967   1.9857   2.0785   2.3411   3.0019   3.0531   3.7771   3.8255
     3.8315   4.0988   4.3664   4.6912   5.4382   5.6732   5.8278   6.0302
     6.1386   6.9772   7.5979   8.3233   9.3669   9.7291   9.7773   9.9188
    10.0998  10.3215  10.3425  10.3899  10.7598  10.8310  10.9565  11.0846
    11.1566  11.1894  11.2207  11.3317  11.5670  11.8014  12.0542  12.0913
    12.1492  12.2449

          k = 0.3333-0.3208 0.0000 ( 32081 PWs)   bands (ev):

   -87.2560 -87.2501 -87.2486 -87.2474 -87.2452 -87.2440 -86.9935 -86.9926
   -86.9889 -86.9880 -86.9869 -86.9861 -50.7787 -50.7706 -50.7534 -50.7488
   -50.7484 -50.7150 -50.7125 -50.7074 -50.6914 -50.6909 -50.6860 -50.6785
   -50.6765 -50.6690 -50.6683 -50.6681 -50.6652 -50.6505 -50.5160 -50.5149
   -50.4903 -50.4895 -50.4505 -50.4498 -50.4322 -50.4312 -50.4311 -50.4306
   -50.4114 -50.4104 -50.4068 -50.4056 -50.4025 -50.4014 -50.4007 -50.3997
   -13.4501 -13.3609 -13.2684 -12.1808 -12.0990 -12.0141 -10.9438 -10.8695
   -10.7921  -9.1965  -9.1356  -9.0719  -6.7351  -6.6941  -6.6499  -5.1041
    -5.0670  -5.0267  -4.0462  -4.0171  -3.9837  -3.8677  -3.8308  -3.7903
    -2.6433  -2.6198  -2.5918  -1.9328  -1.4183  -1.3748  -1.3435  -1.2965
    -1.2466  -1.0603  -1.0399  -1.0149  -0.9959  -0.9799  -0.9408  -0.9377
    -0.9092  -0.7811  -0.7789  -0.7664  -0.7503  -0.7298  -0.6891  -0.6148
    -0.5707  -0.5655  -0.4461  -0.4184  -0.4125  -0.3826  -0.2389  -0.2189
    -0.1073  -0.1054   0.0431   0.0698   0.1024   0.1645   0.1874   0.2349
     0.2369   0.3337   0.3358   0.3457   0.3613   0.3622   0.3954   0.5391
     0.5406   0.7015   0.7026   0.7261   0.7329   0.7487   0.7992   0.8278
     0.9290   0.9382   0.9404   0.9698   1.0960   1.1035   1.1555   1.2902
     1.3135   1.3664   1.4152   1.4408   1.4681   1.5115   1.5486   1.6715
     1.7230   1.7514   1.7518   1.8071   1.8274   1.8531   1.8581   1.9145
     1.9790   2.0025   2.0651   2.8444   2.9007   3.2259   3.3193   3.5753
     3.5959   4.4203   5.1400   5.1843   5.5636   6.4199   6.4585   6.6423
     6.8501   7.3519   7.5199   7.5877   8.4141   8.6405   8.8667   9.2050
     9.7466   9.7666   9.8095   9.8315  10.1959  10.3198  10.4420  10.6027
    10.7108  10.7469  11.4769  11.5094  11.7239  11.8514  11.8767  11.9557
    12.0221  12.5022

          k = 0.4444-0.2566 0.0000 ( 32106 PWs)   bands (ev):

   -87.2548 -87.2517 -87.2478 -87.2471 -87.2460 -87.2439 -86.9926 -86.9916
   -86.9901 -86.9892 -86.9867 -86.9858 -50.7839 -50.7753 -50.7472 -50.7466
   -50.7376 -50.7189 -50.7145 -50.7059 -50.7004 -50.6881 -50.6806 -50.6789
   -50.6752 -50.6699 -50.6686 -50.6662 -50.6653 -50.6561 -50.5209 -50.5199
   -50.4787 -50.4779 -50.4583 -50.4576 -50.4291 -50.4285 -50.4279 -50.4268
   -50.4166 -50.4155 -50.4059 -50.4047 -50.4035 -50.4025 -50.4005 -50.3995
   -13.2368 -13.1488 -13.0577 -12.6009 -12.5167 -12.4292 -10.1440 -10.1440
   -10.0748 -10.0748 -10.0026 -10.0026  -5.6483  -5.6483  -5.6166  -5.6166
    -5.5824  -5.5824  -3.6993  -3.6993  -3.6773  -3.6773  -3.6504  -3.6504
    -3.1561  -3.1222  -3.0844  -1.7134  -1.6911  -1.6761  -1.6567  -1.4629
    -1.3721  -1.3094  -1.2009  -1.0966  -1.0202  -0.9337  -0.9322  -0.8707
    -0.8574  -0.7650  -0.6960  -0.6959  -0.6051  -0.5974  -0.5266  -0.4712
    -0.4507  -0.4442  -0.3702  -0.3569  -0.3488  -0.2984  -0.2843  -0.2656
    -0.1033  -0.0628  -0.0382  -0.0147   0.0350   0.0397   0.1413   0.1471
     0.1978   0.2217   0.2408   0.2496   0.2537   0.2711   0.2988   0.3195
     0.4089   0.4995   0.5475   0.5709   0.6547   0.7567   0.8195   0.8321
     0.8503   1.0051   1.0138   1.0785   1.1488   1.2351   1.3324   1.4050
     1.4109   1.4758   1.5303   1.6175   1.6455   1.6869   1.7013   1.7600
     1.7670   1.8373   1.8464   1.8654   1.8657   1.8878   1.9593   2.0557
     2.1331   2.1383   2.3250   2.3251   2.3893   2.8087   2.8091   2.9640
     3.6257   4.5421   5.0508   5.8517   5.8806   6.3912   6.6127   6.7871
     7.4680   7.4682   7.6782   7.6782   7.8802   7.8804   7.9498   8.9826
     9.0977   9.5870  10.0541  10.1123  10.3170  10.5788  10.8902  10.9092
    11.0423  11.0650  11.2432  11.3923  11.5111  11.5235  11.9199  11.9654
    12.1354  12.5209

          k = 0.4444-0.1283 0.0000 ( 32081 PWs)   bands (ev):

   -87.2560 -87.2501 -87.2486 -87.2474 -87.2452 -87.2440 -86.9935 -86.9926
   -86.9889 -86.9880 -86.9869 -86.9861 -50.7787 -50.7706 -50.7534 -50.7488
   -50.7484 -50.7151 -50.7125 -50.7073 -50.6914 -50.6909 -50.6863 -50.6784
   -50.6761 -50.6689 -50.6683 -50.6681 -50.6652 -50.6506 -50.5159 -50.5149
   -50.4904 -50.4896 -50.4504 -50.4497 -50.4321 -50.4312 -50.4310 -50.4306
   -50.4115 -50.4105 -50.4068 -50.4055 -50.4025 -50.4015 -50.4007 -50.3997
   -13.4501 -13.3609 -13.2684 -12.1808 -12.0990 -12.0141 -10.9438 -10.8695
   -10.7921  -9.1965  -9.1356  -9.0719  -6.7351  -6.6941  -6.6499  -5.1041
    -5.0670  -5.0267  -4.0462  -4.0171  -3.9837  -3.8677  -3.8308  -3.7903
    -2.6433  -2.6198  -2.5918  -1.9328  -1.4184  -1.3749  -1.3435  -1.2963
    -1.2467  -1.0603  -1.0399  -1.0149  -0.9957  -0.9800  -0.9406  -0.9381
    -0.9089  -0.7830  -0.7787  -0.7664  -0.7503  -0.7298  -0.6891  -0.6156
    -0.5735  -0.5652  -0.4461  -0.4161  -0.4101  -0.3816  -0.2393  -0.2180
    -0.1060  -0.1053   0.0414   0.0687   0.1024   0.1645   0.1900   0.2361
     0.2425   0.3337   0.3350   0.3457   0.3601   0.3622   0.3934   0.5362
     0.5379   0.6931   0.7026   0.7266   0.7382   0.7459   0.8017   0.8282
     0.9293   0.9386   0.9409   0.9698   1.0976   1.1062   1.1547   1.2868
     1.3132   1.3653   1.4142   1.4445   1.4681   1.5102   1.5481   1.6732
     1.7234   1.7497   1.7515   1.8069   1.8240   1.8546   1.8590   1.9150
     1.9796   2.0025   2.0672   2.8444   2.9006   3.2259   3.3201   3.5755
     3.5959   4.4203   5.1388   5.1842   5.5626   6.4198   6.4585   6.6423
     6.8501   7.3525   7.5187   7.5875   8.4141   8.6405   8.8667   9.2051
     9.7486   9.7665   9.8096   9.8315  10.1959  10.3198  10.4420  10.6027
    10.7108  10.7468  11.4771  11.5095  11.7239  11.8521  11.8766  11.9554
    12.0217  12.5036

          k = 0.4444 0.0000 0.0000 ( 32067 PWs)   bands (ev):

   -87.2565 -87.2488 -87.2486 -87.2486 -87.2445 -87.2444 -86.9939 -86.9929
   -86.9882 -86.9873 -86.9869 -86.9868 -50.7670 -50.7666 -50.7605 -50.7605
   -50.7493 -50.7115 -50.7113 -50.7109 -50.6907 -50.6907 -50.6875 -50.6763
   -50.6763 -50.6696 -50.6693 -50.6686 -50.6646 -50.6477 -50.5045 -50.5044
   -50.5037 -50.5034 -50.4482 -50.4474 -50.4328 -50.4325 -50.4320 -50.4316
   -50.4092 -50.4083 -50.4071 -50.4058 -50.4019 -50.4010 -50.4005 -50.4003
   -13.5213 -13.4317 -13.3388 -11.6264 -11.6263 -11.5479 -11.5478 -11.4662
   -11.4662  -8.4829  -8.4482  -8.4156  -7.4537  -7.4391  -7.4165  -4.5211
    -4.5210  -4.4829  -4.4829  -4.4413  -4.4413  -4.1531  -4.1220  -4.0867
    -2.0173  -1.6017  -1.6017  -1.5816  -1.5816  -1.5571  -1.5571  -1.5129
    -1.4258  -1.1968  -1.1958  -1.1566  -1.1562  -1.1107  -1.1094  -1.0403
    -0.8238  -0.7854  -0.7836  -0.7701  -0.7281  -0.7158  -0.7016  -0.6211
    -0.6007  -0.5994  -0.4861  -0.4855  -0.4316  -0.2133  -0.1526  -0.1375
    -0.1316   0.1411   0.1424   0.1875   0.1923   0.1927   0.2577   0.2650
     0.2770   0.2839   0.2886   0.3477   0.3906   0.4592   0.4644   0.4995
     0.6411   0.6442   0.6554   0.6685   0.7198   0.7198   0.8078   0.8457
     0.9889   1.0009   1.0041   1.0361   1.1379   1.1394   1.1630   1.2919
     1.2923   1.3096   1.3218   1.3238   1.3708   1.3722   1.4635   1.4647
     1.5710   1.5719   1.5971   1.6720   1.7859   1.7876   1.8694   1.8760
     1.8773   1.9946   1.9975   3.2073   3.4431   3.5520   3.5525   3.7094
     3.8935   4.3078   4.3085   5.4500   5.8255   5.8286   6.1122   6.1476
     6.1706   7.3656   7.9241   7.9249   9.3227   9.3232   9.5666   9.5667
     9.6707   9.7376   9.8215   9.8219   9.9552   9.9614  10.2335  10.5136
    10.5195  10.6480  11.2523  11.2529  11.6397  11.7887  12.2433  12.2440
    12.2861  12.2914

          k = 0.4444 0.1283 0.0000 ( 32081 PWs)   bands (ev):

   -87.2560 -87.2501 -87.2486 -87.2474 -87.2452 -87.2440 -86.9935 -86.9926
   -86.9889 -86.9880 -86.9869 -86.9861 -50.7790 -50.7706 -50.7532 -50.7487
   -50.7484 -50.7150 -50.7124 -50.7076 -50.6912 -50.6908 -50.6862 -50.6782
   -50.6761 -50.6689 -50.6686 -50.6681 -50.6653 -50.6507 -50.5160 -50.5152
   -50.4903 -50.4892 -50.4504 -50.4495 -50.4321 -50.4314 -50.4312 -50.4302
   -50.4116 -50.4107 -50.4068 -50.4056 -50.4025 -50.4014 -50.4007 -50.3998
   -13.4501 -13.3609 -13.2684 -12.1808 -12.0990 -12.0141 -10.9438 -10.8695
   -10.7921  -9.1965  -9.1356  -9.0719  -6.7351  -6.6941  -6.6499  -5.1041
    -5.0670  -5.0267  -4.0462  -4.0171  -3.9837  -3.8677  -3.8308  -3.7903
    -2.6433  -2.6198  -2.5918  -1.9328  -1.4184  -1.3740  -1.3435  -1.2959
    -1.2479  -1.0603  -1.0399  -1.0149  -0.9954  -0.9788  -0.9409  -0.9367
    -0.9095  -0.7836  -0.7771  -0.7664  -0.7503  -0.7298  -0.6891  -0.6177
    -0.5729  -0.5635  -0.4461  -0.4158  -0.4116  -0.3819  -0.2384  -0.2187
    -0.1129  -0.1022   0.0386   0.0639   0.1024   0.1675   0.1871   0.2354
     0.2413   0.3337   0.3381   0.3457   0.3622   0.3670   0.3902   0.5363
     0.5377   0.7004   0.7026   0.7311   0.7419   0.7426   0.7956   0.8273
     0.9260   0.9390   0.9419   0.9698   1.0908   1.1059   1.1574   1.2878
     1.3131   1.3643   1.4134   1.4442   1.4681   1.5162   1.5514   1.6718
     1.7242   1.7490   1.7511   1.8088   1.8246   1.8540   1.8570   1.9187
     1.9794   2.0025   2.0659   2.8444   2.9007   3.2259   3.3188   3.5758
     3.5959   4.4221   5.1391   5.1844   5.5615   6.4108   6.4585   6.6423
     6.8501   7.3505   7.5176   7.5783   8.4141   8.6405   8.8667   9.2189
     9.7438   9.7665   9.8165   9.8315  10.1959  10.3199  10.4420  10.6034
    10.7108  10.7468  11.4767  11.5094  11.7239  11.8514  11.8768  11.9864
    12.0218  12.5021

          k = 0.4444 0.2566 0.0000 ( 32106 PWs)   bands (ev):

   -87.2548 -87.2517 -87.2478 -87.2471 -87.2460 -87.2439 -86.9926 -86.9916
   -86.9901 -86.9892 -86.9867 -86.9858 -50.7842 -50.7753 -50.7471 -50.7466
   -50.7374 -50.7187 -50.7144 -50.7062 -50.7002 -50.6879 -50.6803 -50.6790
   -50.6749 -50.6698 -50.6687 -50.6660 -50.6657 -50.6564 -50.5210 -50.5202
   -50.4787 -50.4777 -50.4582 -50.4572 -50.4291 -50.4281 -50.4279 -50.4272
   -50.4166 -50.4159 -50.4059 -50.4047 -50.4035 -50.4025 -50.4005 -50.3996
   -13.2368 -13.1488 -13.0577 -12.6009 -12.5167 -12.4292 -10.1440 -10.1440
   -10.0748 -10.0748 -10.0026 -10.0026  -5.6483  -5.6483  -5.6166  -5.6166
    -5.5824  -5.5824  -3.6993  -3.6993  -3.6773  -3.6773  -3.6504  -3.6504
    -3.1561  -3.1222  -3.0844  -1.7134  -1.6911  -1.6761  -1.6567  -1.4619
    -1.3716  -1.3106  -1.2009  -1.0966  -1.0189  -0.9337  -0.9308  -0.8689
    -0.8563  -0.7652  -0.6971  -0.6966  -0.6029  -0.5987  -0.5277  -0.4728
    -0.4507  -0.4448  -0.3702  -0.3573  -0.3491  -0.2984  -0.2843  -0.2656
    -0.0998  -0.0708  -0.0374  -0.0200   0.0348   0.0384   0.1414   0.1442
     0.1992   0.2245   0.2408   0.2496   0.2537   0.2711   0.3017   0.3173
     0.4119   0.4944   0.5541   0.5704   0.6621   0.7601   0.8090   0.8396
     0.8408   1.0068   1.0134   1.0800   1.1406   1.2353   1.3348   1.4037
     1.4133   1.4793   1.5286   1.6261   1.6449   1.6893   1.6987   1.7640
     1.7662   1.8415   1.8452   1.8654   1.8657   1.8851   1.9577   2.0549
     2.1338   2.1384   2.3250   2.3251   2.3892   2.8087   2.8090   2.9642
     3.6242   4.5411   5.0568   5.8609   5.8786   6.3752   6.5925   6.7852
     7.4680   7.4682   7.6782   7.6782   7.8802   7.8804   7.9476   8.9983
     9.0949   9.5951  10.0541  10.1123  10.3178  10.5789  10.8901  10.9092
    11.0422  11.0650  11.2432  11.3923  11.5111  11.5520  11.9196  11.9654
    12.1356  12.5208

          k = 0.4444-0.7698 0.0000 ( 32048 PWs)   bands (ev):

   -87.2530 -87.2530 -87.2477 -87.2468 -87.2467 -87.2441 -86.9915 -86.9908
   -86.9902 -86.9902 -86.9871 -86.9862 -50.7809 -50.7725 -50.7464 -50.7463
   -50.7329 -50.7328 -50.7091 -50.7090 -50.7081 -50.6848 -50.6800 -50.6757
   -50.6756 -50.6709 -50.6708 -50.6641 -50.6597 -50.6597 -50.5178 -50.5170
   -50.4728 -50.4722 -50.4715 -50.4714 -50.4271 -50.4261 -50.4212 -50.4205
   -50.4202 -50.4201 -50.4049 -50.4042 -50.4035 -50.4034 -50.4009 -50.4000
   -12.8829 -12.8828 -12.7970 -12.7969 -12.7079 -12.7079 -11.0117 -10.9369
   -10.8590  -9.2484  -9.1860  -9.1206  -6.2745  -6.2485  -6.2209  -4.6592
    -4.6378  -4.6142  -4.5356  -4.5199  -4.4987  -3.0462  -3.0319  -3.0124
    -2.4365  -2.4365  -2.4076  -2.4076  -2.3747  -2.3747  -1.4505  -1.3707
    -1.2866  -1.2626  -1.2624  -1.0922  -1.0912  -1.0141  -0.8998  -0.8989
    -0.8636  -0.8532  -0.8522  -0.6896  -0.6895  -0.5921  -0.5916  -0.5828
    -0.4164  -0.4160  -0.3311  -0.3301  -0.2536  -0.2536  -0.2391  -0.2391
    -0.2201  -0.2201  -0.1091  -0.1089  -0.0577  -0.0574  -0.0572   0.0144
     0.0179   0.0189   0.2040   0.2778   0.2785   0.3041   0.3051   0.4779
     0.4790   0.6378   0.6384   0.7501   0.7510   0.7902   0.8140   0.8680
     0.8690   0.9031   1.0120   1.0123   1.1072   1.1785   1.1787   1.4075
     1.4107   1.4647   1.4650   1.5117   1.5120   1.5910   1.6303   1.6309
     1.7598   1.8161   1.8165   1.8285   1.8362   1.9363   1.9436   1.9442
     1.9507   2.1030   2.1199   2.4448   2.4454   2.8416   3.2487   3.6625
     4.0839   4.0846   4.1588   4.9358   6.1638   6.3630   6.3637   6.4893
     6.7002   6.9059   7.3879   8.5916   8.5932   8.6152   8.8085   8.9882
     9.1609   9.7459  10.5056  10.5323  10.5324  10.5764  10.5766  11.0062
    11.0068  11.5262  11.5265  11.7317  11.7318  11.8703  11.8787  11.8793
    12.1053  12.1060

          k = 0.4444-0.6415 0.0000 ( 32050 PWs)   bands (ev):

   -87.2537 -87.2510 -87.2491 -87.2472 -87.2456 -87.2447 -86.9918 -86.9908
   -86.9896 -86.9886 -86.9880 -86.9872 -50.7696 -50.7629 -50.7536 -50.7501
   -50.7470 -50.7320 -50.7130 -50.7116 -50.7053 -50.6832 -50.6808 -50.6765
   -50.6731 -50.6724 -50.6703 -50.6625 -50.6613 -50.6537 -50.5068 -50.5060
   -50.4903 -50.4892 -50.4703 -50.4694 -50.4253 -50.4242 -50.4234 -50.4228
   -50.4156 -50.4147 -50.4052 -50.4039 -50.4032 -50.4020 -50.4017 -50.4008
   -13.0243 -12.9376 -12.8477 -12.3908 -12.3078 -12.2216 -11.7648 -11.6855
   -11.6030  -8.3332  -8.2834  -8.2318  -7.0665  -7.0373  -7.0048  -4.9603
    -4.9388  -4.9121  -3.8669  -3.8414  -3.8128  -3.1549  -3.1258  -3.0930
    -2.1115  -2.0945  -2.0728  -1.8559  -1.8371  -1.8146  -1.4279  -1.3432
    -1.2960  -1.2591  -1.1822  -1.1814  -1.1464  -1.0995  -1.0826  -1.0768
    -1.0611  -1.0172  -0.9246  -0.8813  -0.8504  -0.7708  -0.7638  -0.6964
    -0.6853  -0.5860  -0.5234  -0.5075  -0.4677  -0.4559  -0.4394  -0.4110
    -0.3061  -0.2121  -0.1280  -0.0479  -0.0268  -0.0000   0.0420   0.1029
     0.1580   0.2113   0.2539   0.3050   0.3074   0.3250   0.3704   0.4838
     0.5772   0.6412   0.6477   0.6954   0.7840   0.8248   0.9164   0.9401
     0.9714   1.0134   1.0430   1.0464   1.1603   1.1660   1.2077   1.2338
     1.2998   1.3673   1.3770   1.4044   1.4448   1.5319   1.5568   1.6137
     1.6187   1.6662   1.6685   1.7040   1.7295   1.8160   1.8667   1.8919
     1.8972   1.9858   2.0761   2.3406   3.0028   3.0542   3.7771   3.8262
     3.8307   4.0988   4.3664   4.6901   5.4340   5.6732   5.8278   6.0302
     6.1364   6.9763   7.5969   8.3203   9.3644   9.7291   9.7848   9.9189
    10.0998  10.3271  10.3425  10.3899  10.7598  10.8309  10.9565  11.0850
    11.1566  11.1892  11.2208  11.3315  11.5671  11.8006  12.0556  12.0970
    12.1479  12.2447

          k = 0.4444-0.5132 0.0000 ( 32050 PWs)   bands (ev):

   -87.2537 -87.2510 -87.2491 -87.2472 -87.2456 -87.2447 -86.9918 -86.9908
   -86.9896 -86.9886 -86.9880 -86.9872 -50.7693 -50.7629 -50.7539 -50.7501
   -50.7470 -50.7321 -50.7133 -50.7113 -50.7053 -50.6833 -50.6808 -50.6767
   -50.6730 -50.6724 -50.6703 -50.6627 -50.6611 -50.6537 -50.5068 -50.5057
   -50.4904 -50.4895 -50.4703 -50.4695 -50.4253 -50.4246 -50.4234 -50.4224
   -50.4156 -50.4146 -50.4052 -50.4039 -50.4032 -50.4021 -50.4017 -50.4007
   -13.0243 -12.9376 -12.8477 -12.3908 -12.3078 -12.2216 -11.7648 -11.6855
   -11.6030  -8.3332  -8.2834  -8.2318  -7.0665  -7.0373  -7.0048  -4.9603
    -4.9388  -4.9121  -3.8669  -3.8414  -3.8128  -3.1549  -3.1258  -3.0930
    -2.1115  -2.0945  -2.0728  -1.8559  -1.8371  -1.8146  -1.4279  -1.3444
    -1.2965  -1.2592  -1.1813  -1.1799  -1.1452  -1.0995  -1.0826  -1.0767
    -1.0611  -1.0190  -0.9261  -0.8815  -0.8504  -0.7691  -0.7658  -0.6961
    -0.6853  -0.5840  -0.5237  -0.5090  -0.4677  -0.4559  -0.4394  -0.4107
    -0.3060  -0.2121  -0.1280  -0.0405  -0.0335  -0.0016   0.0420   0.1073
     0.1582   0.2118   0.2532   0.3102   0.3122   0.3208   0.3653   0.4838
     0.5772   0.6398   0.6443   0.6982   0.7810   0.8262   0.9162   0.9410
     0.9698   1.0196   1.0427   1.0464   1.1603   1.1670   1.2079   1.2313
     1.2979   1.3686   1.3794   1.4008   1.4438   1.5316   1.5565   1.6142
     1.6191   1.6648   1.6680   1.7048   1.7285   1.8180   1.8646   1.8891
     1.8974   1.9872   2.0769   2.3410   3.0024   3.0531   3.7771   3.8269
     3.8315   4.0988   4.3664   4.6891   5.4380   5.6732   5.8278   6.0302
     6.1369   6.9785   7.5977   8.3207   9.3703   9.7291   9.7773   9.9189
    10.0998  10.3214  10.3425  10.3899  10.7598  10.8309  10.9565  11.0847
    11.1566  11.1896  11.2208  11.3315  11.5677  11.8012  12.0543  12.0914
    12.1490  12.2469

          k = 0.4444-0.3849 0.0000 ( 32048 PWs)   bands (ev):

   -87.2531 -87.2530 -87.2477 -87.2468 -87.2467 -87.2441 -86.9915 -86.9908
   -86.9902 -86.9902 -86.9871 -86.9862 -50.7806 -50.7725 -50.7465 -50.7463
   -50.7330 -50.7330 -50.7093 -50.7091 -50.7077 -50.6849 -50.6802 -50.6757
   -50.6755 -50.6710 -50.6707 -50.6642 -50.6594 -50.6594 -50.5178 -50.5167
   -50.4729 -50.4722 -50.4718 -50.4717 -50.4271 -50.4265 -50.4212 -50.4205
   -50.4199 -50.4198 -50.4049 -50.4042 -50.4035 -50.4034 -50.4009 -50.3999
   -12.8829 -12.8828 -12.7970 -12.7969 -12.7079 -12.7079 -11.0117 -10.9369
   -10.8590  -9.2484  -9.1860  -9.1206  -6.2745  -6.2485  -6.2209  -4.6592
    -4.6378  -4.6142  -4.5356  -4.5199  -4.4987  -3.0462  -3.0319  -3.0124
    -2.4365  -2.4365  -2.4076  -2.4076  -2.3747  -2.3747  -1.4515  -1.3712
    -1.2853  -1.2626  -1.2624  -1.0923  -1.0915  -1.0154  -0.8988  -0.8979
    -0.8655  -0.8540  -0.8532  -0.6896  -0.6895  -0.5905  -0.5899  -0.5849
    -0.4176  -0.4157  -0.3314  -0.3300  -0.2536  -0.2536  -0.2391  -0.2391
    -0.2201  -0.2201  -0.1069  -0.1062  -0.0574  -0.0572  -0.0508   0.0140
     0.0149   0.0215   0.2017   0.2781   0.2802   0.3010   0.3069   0.4770
     0.4787   0.6360   0.6372   0.7520   0.7548   0.7854   0.8066   0.8725
     0.8734   0.9031   1.0087   1.0119   1.1153   1.1784   1.1800   1.4075
     1.4120   1.4614   1.4640   1.5086   1.5094   1.5834   1.6318   1.6329
     1.7603   1.8125   1.8129   1.8291   1.8388   1.9380   1.9439   1.9446
     1.9507   2.1027   2.1197   2.4448   2.4456   2.8416   3.2487   3.6625
     4.0847   4.0859   4.1561   4.9357   6.1739   6.3648   6.3658   6.4893
     6.7002   6.9059   7.3973   8.5939   8.5961   8.6152   8.8085   8.9882
     9.1468   9.7386  10.5048  10.5323  10.5325  10.5764  10.5766  11.0062
    11.0067  11.5264  11.5267  11.7317  11.7318  11.8383  11.8787  11.8793
    12.1053  12.1061

     the Fermi energy is     4.9865 ev

!    total energy              =   -3891.04100533 Ry
     estimated scf accuracy    <          5.1E-09 Ry
     smearing contrib. (-TS)   =      -0.00188193 Ry
     internal energy E=F+TS    =   -3891.03912340 Ry

     The total energy is F=E-TS. E is the sum of the following terms:
     one-electron contribution =  -27254.61839465 Ry
     hartree contribution      =   13674.99153619 Ry
     xc contribution           =    -435.95870705 Ry
     ewald contribution        =   10273.15812774 Ry
     DFT-D3 Dispersion         =      -0.63023701 Ry
     electric field correction =       0.00000142 Ry
     one-center paw contrib.   =    -147.98145004 Ry

     convergence has been achieved in  26 iterations

     negative rho (up, down):  8.614E-05 0.000E+00

     Forces acting on atoms (cartesian axes, Ry/au):

     atom    1 type  1   force =    -0.00006431    0.00036864    0.00197351
     atom    2 type  1   force =    -0.00011179    0.00040090    0.00197341
     atom    3 type  1   force =     0.00033682   -0.00011567   -0.00215640
     atom    4 type  1   force =     0.00000800   -0.00033292   -0.00359369
     atom    5 type  1   force =    -0.00008893    0.00038695    0.00195769
     atom    6 type  1   force =     0.00010774   -0.00000851   -0.00212827
     atom    7 type  1   force =    -0.00013871    0.00001715    0.00384691
     atom    8 type  1   force =     0.00000826   -0.00033306   -0.00359793
     atom    9 type  1   force =    -0.00015746    0.00008025    0.00359595
     atom   10 type  1   force =     0.00025576    0.00004002   -0.00202737
     atom   11 type  1   force =     0.00000888   -0.00033383   -0.00359428
     atom   12 type  1   force =    -0.00014394   -0.00006636    0.00382532
     atom   13 type  2   force =    -0.00000170   -0.00000284    0.00131058
     atom   14 type  2   force =    -0.00000212   -0.00000844   -0.00062582
     atom   15 type  2   force =    -0.00000458    0.00000117   -0.00046569
     atom   16 type  2   force =     0.00000001   -0.00000374   -0.00001263
     atom   17 type  2   force =    -0.00000160   -0.00000604    0.00022059
     atom   18 type  2   force =     0.00000214   -0.00000845   -0.00060855
     atom   19 type  2   force =     0.00000131    0.00000117   -0.00049489
     atom   20 type  2   force =    -0.00000003   -0.00000637    0.00110284
     atom   21 type  2   force =    -0.00000159   -0.00000265   -0.00026740
     atom   22 type  2   force =     0.00000004   -0.00000423    0.00010463
     atom   23 type  2   force =    -0.00000178   -0.00000322   -0.00026843
     atom   24 type  2   force =     0.00000237   -0.00000899    0.00012426
     atom   25 type  2   force =    -0.00000199   -0.00000264   -0.00026980
     atom   26 type  2   force =    -0.00000002   -0.00000168    0.00011703
     atom   27 type  2   force =    -0.00000175   -0.00000297   -0.00026625
     atom   28 type  2   force =    -0.00000234   -0.00000897    0.00012351
     atom   29 type  2   force =    -0.00000168   -0.00000262   -0.00009849
     atom   30 type  2   force =     0.00000006   -0.00000601    0.00012649
     atom   31 type  2   force =    -0.00000171   -0.00000256   -0.00010046
     atom   32 type  2   force =     0.00000003   -0.00000620    0.00012508
     atom   33 type  2   force =    -0.00000170   -0.00000267   -0.00009976
     atom   34 type  2   force =    -0.00000003   -0.00000601    0.00012621
     atom   35 type  2   force =    -0.00000168   -0.00000256   -0.00010044
     atom   36 type  2   force =     0.00000002   -0.00000604    0.00012255

     Total force =     0.010573     Total SCF correction =     0.000218

     Writing all to output data dir ./tmp/AGC_N3_s01_K9_far.save/ :
     XML data file, charge density, pseudopotentials, collected wavefunctions
 
     init_run     :     63.87s CPU     65.86s WALL (       1 calls)
     electrons    :   4496.02s CPU   4549.66s WALL (       1 calls)
     forces       :     33.81s CPU     34.38s WALL (       1 calls)
     force_dftd3  :      0.01s CPU      0.01s WALL (       1 calls)

     Called by init_run:
     wfcinit      :     54.13s CPU     55.94s WALL (       1 calls)
     potinit      :      8.78s CPU      8.84s WALL (       1 calls)
     hinit0       :      0.38s CPU      0.42s WALL (       1 calls)

     Called by electrons:
     c_bands      :   3516.24s CPU   3553.24s WALL (      26 calls)
     sum_band     :    725.57s CPU    740.90s WALL (      26 calls)
     v_of_rho     :      5.01s CPU      5.35s WALL (      27 calls)
     newd         :      5.93s CPU      5.98s WALL (      27 calls)
                                        5.98s GPU  (      27 calls)
     PAW_pot      :    187.49s CPU    187.50s WALL (      27 calls)
     mix_rho      :     61.54s CPU     62.28s WALL (      26 calls)
     energy_dftd3 :      0.00s CPU      0.00s WALL (       1 calls)

     Called by c_bands:
     init_us_2    :    200.25s CPU    200.60s WALL (    2214 calls)
     cegterg      :   3264.42s CPU   3266.16s WALL (    1066 calls)

     Called by *egterg:
     cdiaghg      :    177.59s CPU    177.95s WALL (    6035 calls)
                                      170.88s GPU  (    6035 calls)
     h_psi        :   1679.98s CPU   1688.97s WALL (    6076 calls)
                                     1683.66s GPU  (    6076 calls)
     s_psi        :    269.40s CPU    269.55s WALL (    6076 calls)
     g_psi        :      0.02s CPU      6.86s WALL (    4969 calls)
                                        1.65s GPU  (    4969 calls)

     Called by h_psi:
     h_psi:calbec :      0.39s CPU    275.25s WALL (    6076 calls)
                                      269.94s GPU  (    6076 calls)
     vloc_psi     :    947.95s CPU    953.72s WALL (    6076 calls)
                                      948.76s GPU  (    6076 calls)
     add_vuspsi   :    235.60s CPU    432.60s WALL (    6076 calls)
                                      426.38s GPU  (    6076 calls)

     General routines
     calbec       :      0.44s CPU      0.44s WALL (    7306 calls)
     fft          :      1.82s CPU      2.53s WALL (     360 calls)
                                        0.35s GPU  (     333 calls)
     ffts         :      0.63s CPU      3.88s WALL (    2690 calls)
                                        0.88s GPU  (    2663 calls)
     fftw         :      1.43s CPU    512.05s WALL (   79976 calls)
                                      428.54s GPU  (   79976 calls)
     interpolate  :      2.50s CPU      2.73s WALL (      27 calls)
     davcio       :      2.46s CPU     53.30s WALL (    3747 calls)
 
     Parallel routines
 
     PWSCF        :      1h16m CPU      1h17m WALL

 
   This run was terminated on:  10:15:57   6Oct2026            

=------------------------------------------------------------------------------=
   JOB DONE.
=------------------------------------------------------------------------------=
