
     Program PWSCF v.7.4.1 starts on  5Oct2026 at 10:50:24 

     This program is part of the open-source Quantum ESPRESSO suite
     for quantum simulation of materials; please cite
         "P. Giannozzi et al., J. Phys.:Condens. Matter 21 395502 (2009);
         "P. Giannozzi et al., J. Phys.:Condens. Matter 29 465901 (2017);
         "P. Giannozzi et al., J. Chem. Phys. 152 154105 (2020);
          URL http://www.quantum-espresso.org", 
     in publications or presentations arising from this work. More details at
     http://www.quantum-espresso.org/quote

     Parallel version (MPI & OpenMP), running on       1 processor cores
     Number of MPI processes:                 1
     Threads/MPI process:                     1

     MPI processes distributed on     1 nodes
     9033 MiB available memory on the printing compute node when the environment starts
 
     Reading input from pw.in

     Current dimensions of program PWSCF are:
     Max number of different atomic species (ntypx) = 10
     Max number of k-points (npk) =  40000
     Max angular momentum in pseudopotentials (lmaxx) =  4
     Presently no symmetry can be used with electric field

     file C.pbe-n-kjpaw_psl.1.0.0.UPF: wavefunction(s)  2S 2P renormalized
 
     Subspace diagonalization in iterative solution of the eigenvalue problem:
     a serial algorithm will be used

 
     G-vector sticks info
     --------------------
     sticks:   dense  smooth     PW     G-vecs:    dense   smooth      PW
     Sum        3193    1273    367              1013735   256635   40105
 
     Using Slab Decomposition
 


     bravais-lattice index     =            0
     lattice parameter (alat)  =       9.4208  a.u.
     unit-cell volume          =    5061.5970 (a.u.)^3
     number of atoms/cell      =           36
     number of atomic types    =            2
     number of electrons       =       324.00
     number of Kohn-Sham states=          194
     kinetic-energy cutoff     =      52.0000  Ry
     charge density cutoff     =     520.0000  Ry
     scf convergence threshold =      1.0E-08
     mixing beta               =       0.3000
     number of iterations used =            8  local-TF  mixing
     Exchange-correlation= SLA  PW   PBX  PBC
                           (   1   4   3   4   0   0   0)

     GPU acceleration is ACTIVE.  1 visible GPUs per MPI rank


     celldm(1)=   9.420781  celldm(2)=   0.000000  celldm(3)=   0.000000
     celldm(4)=   0.000000  celldm(5)=   0.000000  celldm(6)=   0.000000

     crystal axes: (cart. coord. in units of alat)
               a(1) = (   1.000000  -0.000000   0.000000 )  
               a(2) = (   0.500000   0.866025   0.000000 )  
               a(3) = (   0.000000   0.000000   6.990306 )  

     reciprocal axes: (cart. coord. in units 2 pi/alat)
               b(1) = (  1.000000 -0.577350  0.000000 )  
               b(2) = (  0.000000  1.154701 -0.000000 )  
               b(3) = ( -0.000000  0.000000  0.143055 )  


     PseudoPot. # 1 for Ag read from file:
     /home/kgy/work/pseudo/Ag_ONCV_PBE-1.0.oncvpsp.upf
     MD5 check sum: 94f47bd0669c641108e45594df92fabc
     Pseudo is Norm-conserving, Zval = 19.0
     Generated using ONCVPSP code by D. R. Hamann
     Using radial grid of 1398 points,  6 beta functions with: 
                l(1) =   0
                l(2) =   0
                l(3) =   1
                l(4) =   1
                l(5) =   2
                l(6) =   2

     PseudoPot. # 2 for C  read from file:
     /home/kgy/work/pseudo/C.pbe-n-kjpaw_psl.1.0.0.UPF
     MD5 check sum: 5d2aebdfa2cae82b50a7e79e9516da0f
     Pseudo is Projector augmented-wave + core cor, Zval =  4.0
     Generated using "atomic" code by A. Dal Corso  v.5.1
     Shape of augmentation charge: PSQ
     Using radial grid of 1073 points,  4 beta functions with: 
                l(1) =   0
                l(2) =   0
                l(3) =   1
                l(4) =   1
     Q(r) pseudized with 0 coefficients 


     atomic species   valence    mass     pseudopotential
     Ag               19.00   107.86820     Ag( 1.00)
     C                 4.00    12.01100     C ( 1.00)

     No symmetry found



   Cartesian axes

     site n.     atom                  positions (alat units)
         1        Ag     tau(   1) = (   0.3337695   0.5765948   0.5717001  )
         2        Ag     tau(   2) = (   0.8337695   0.8652699   0.5717001  )
         3        Ag     tau(   3) = (   0.1663116   0.2882288   1.0405207  )
         4        Ag     tau(   4) = (   0.5004501   0.2909658   0.1002956  )
         5        Ag     tau(   5) = (   0.8337695   0.2879196   0.5717001  )
         6        Ag     tau(   6) = (   0.6665315   0.5768011   1.0405139  )
         7        Ag     tau(   7) = (   0.5010389   0.2880917   1.5114705  )
         8        Ag     tau(   8) = (   1.0004501   0.5796409   0.1002956  )
         9        Ag     tau(   9) = (   1.0010564   0.5767426   1.5120106  )
        10        Ag     tau(  10) = (   0.6663668  -0.0006351   1.0404133  )
        11        Ag     tau(  11) = (   1.0004501   0.0022906   0.1002956  )
        12        Ag     tau(  12) = (   1.0010299  -0.0005160   1.5115225  )
        13        C      tau(  13) = (   0.5004501   0.3871908   3.1167457  )
        14        C      tau(  14) = (   0.7504501   0.5315284   3.1173516  )
        15        C      tau(  15) = (   0.7504501   0.8202035   3.1172578  )
        16        C      tau(  16) = (   1.0004501   0.9645411   3.1171894  )
        17        C      tau(  17) = (   1.0004501   0.3871908   3.1170527  )
        18        C      tau(  18) = (   1.2504501   0.5315284   3.1173480  )
        19        C      tau(  19) = (   1.2504501   0.8202035   3.1172674  )
        20        C      tau(  20) = (   1.5004501   0.9645411   3.1168708  )
        21        C      tau(  21) = (   0.7504501   0.5315284   3.8015947  )
        22        C      tau(  22) = (   1.0004501   0.6758659   3.8015369  )
        23        C      tau(  23) = (   1.0004501   0.9645411   3.8015943  )
        24        C      tau(  24) = (   1.2504501   1.1088786   3.8015255  )
        25        C      tau(  25) = (   1.2504501   0.5315284   3.8015957  )
        26        C      tau(  26) = (   1.5004501   0.6758659   3.8015296  )
        27        C      tau(  27) = (   1.5004501   0.9645411   3.8015915  )
        28        C      tau(  28) = (   1.7504501   1.1088786   3.8015260  )
        29        C      tau(  29) = (   0.5004501   0.3871908   4.4829191  )
        30        C      tau(  30) = (   0.7504501   0.5315284   4.4827977  )
        31        C      tau(  31) = (   0.7504501   0.8202035   4.4829205  )
        32        C      tau(  32) = (   1.0004501   0.9645411   4.4827984  )
        33        C      tau(  33) = (   1.0004501   0.3871908   4.4829200  )
        34        C      tau(  34) = (   1.2504501   0.5315284   4.4827978  )
        35        C      tau(  35) = (   1.2504501   0.8202035   4.4829205  )
        36        C      tau(  36) = (   1.5004501   0.9645411   4.4827996  )

     --------------------------------------------
     DFT-D3 Dispersion Correction (no 3-body):
     --------------------------------------------
       Reference C6 values for interpolation: 

         atom   Coordination number   C6
         C          0.000            98.23
         C          0.987            86.49
         C          1.998            58.72
         C          2.999            51.56
         C          3.984            36.41
         Ag         0.000           853.49
         Ag         0.968           537.23

       Values used:

         atom   Coordination number  R0_AB[au]  C6      C8
         Ag         9.096            3.147    537.23  47741.54
         Ag         9.096            3.147    537.23  47741.54
         Ag         9.100            3.147    537.23  47741.54
         Ag         6.766            3.147    537.23  47741.54
         Ag         9.096            3.147    537.23  47741.54
         Ag         9.099            3.147    537.23  47741.54
         Ag         6.773            3.147    537.23  47741.54
         Ag         6.766            3.147    537.23  47741.54
         Ag         6.767            3.147    537.23  47741.54
         Ag         9.099            3.147    537.23  47741.54
         Ag         6.766            3.147    537.23  47741.54
         Ag         6.772            3.147    537.23  47741.54
         C          3.274            2.750     49.02   1417.87
         C          3.275            2.750     49.02   1417.77
         C          3.275            2.750     49.02   1417.85
         C          3.275            2.750     49.02   1417.77
         C          3.275            2.750     49.02   1417.86
         C          3.275            2.750     49.02   1417.77
         C          3.275            2.750     49.02   1417.85
         C          3.275            2.750     49.02   1417.78
         C          3.280            2.750     48.92   1414.98
         C          3.280            2.750     48.93   1415.15
         C          3.280            2.750     48.92   1414.98
         C          3.280            2.750     48.93   1415.16
         C          3.280            2.750     48.92   1414.98
         C          3.280            2.750     48.93   1415.15
         C          3.280            2.750     48.92   1414.99
         C          3.280            2.750     48.93   1415.16
         C          3.274            2.750     49.03   1418.01
         C          3.274            2.750     49.03   1417.92
         C          3.274            2.750     49.03   1418.01
         C          3.274            2.750     49.03   1417.92
         C          3.274            2.750     49.03   1418.01
         C          3.274            2.750     49.03   1417.92
         C          3.274            2.750     49.03   1418.01
         C          3.274            2.750     49.03   1417.92

         Molecular C6 ( Ry / a.u.^6 ) =    198710.78


     number of k points=    20  Marzari-Vanderbilt smearing, width (Ry)=  0.0100
                       cart. coord. in units 2pi/alat
        k(    1) = (   0.0000000   0.0000000   0.0000000), wk =   0.0555556
        k(    2) = (   0.0000000   0.1924501   0.0000000), wk =   0.1111111
        k(    3) = (   0.0000000   0.3849002   0.0000000), wk =   0.1111111
        k(    4) = (   0.0000000  -0.5773503   0.0000000), wk =   0.0555556
        k(    5) = (   0.1666667  -0.0962250   0.0000000), wk =   0.1111111
        k(    6) = (   0.1666667   0.0962250   0.0000000), wk =   0.1111111
        k(    7) = (   0.1666667   0.2886751   0.0000000), wk =   0.1111111
        k(    8) = (   0.1666667  -0.6735753   0.0000000), wk =   0.1111111
        k(    9) = (   0.1666667  -0.4811252   0.0000000), wk =   0.1111111
        k(   10) = (   0.1666667  -0.2886751   0.0000000), wk =   0.1111111
        k(   11) = (   0.3333333  -0.1924501   0.0000000), wk =   0.1111111
        k(   12) = (   0.3333333  -0.0000000   0.0000000), wk =   0.1111111
        k(   13) = (   0.3333333   0.1924501   0.0000000), wk =   0.1111111
        k(   14) = (   0.3333333  -0.7698004   0.0000000), wk =   0.1111111
        k(   15) = (   0.3333333  -0.5773503   0.0000000), wk =   0.1111111
        k(   16) = (   0.3333333  -0.3849002   0.0000000), wk =   0.1111111
        k(   17) = (  -0.5000000   0.2886751   0.0000000), wk =   0.0555556
        k(   18) = (  -0.5000000   0.4811252   0.0000000), wk =   0.1111111
        k(   19) = (  -0.5000000   0.6735753   0.0000000), wk =   0.1111111
        k(   20) = (  -0.5000000  -0.2886751   0.0000000), wk =   0.0555556

     Dense  grid:  1013735 G-vectors     FFT dimensions: (  72,  72, 480)

     Smooth grid:   256635 G-vectors     FFT dimensions: (  45,  45, 320)

     Estimated max dynamical RAM per process >       2.73 GB

     Check: negative core charge=   -0.000002

     Initial potential from superposition of free atoms

     starting charge     323.9955, renormalised to     324.0000

     negative rho (up, down):  1.109E-04 0.000E+00
 
     Adding external electric field

     Computed dipole along edir(3) : 
        Dipole               -0.0094 Ry au,         -0.0240 Debye
        Dipole field         -0.0000 Ry au, 
 
        Potential amp.        0.0030 Ry
        Total length         63.9641 bohr
 
     Starting wfcs are  216 randomized atomic wfcs
     Checking if some PAW data can be deallocated... 

     total cpu time spent up to now is       28.3 secs

     Self-consistent Calculation

     iteration #  1     ecut=    52.00 Ry     beta= 0.30
     Davidson diagonalization with overlap
     ethr =  1.00E-02,  avg # of iterations =  7.8
 
     Adding external electric field

     Computed dipole along edir(3) : 
        Dipole               -0.0778 Ry au,         -0.1977 Debye
        Dipole field         -0.0002 Ry au, 
 
        Potential amp.        0.0247 Ry
        Total length         63.9641 bohr
 

     total cpu time spent up to now is      116.6 secs

     total energy              =   -3891.67922942 Ry
     estimated scf accuracy    <       3.96333647 Ry

     iteration #  2     ecut=    52.00 Ry     beta= 0.30
     Davidson diagonalization with overlap
     ethr =  1.22E-03,  avg # of iterations =  2.4
 
     Adding external electric field

     Computed dipole along edir(3) : 
        Dipole               -0.2676 Ry au,         -0.6801 Debye
        Dipole field         -0.0007 Ry au, 
 
        Potential amp.        0.0850 Ry
        Total length         63.9641 bohr
 

     total cpu time spent up to now is      177.6 secs

     total energy              =   -3891.03595803 Ry
     estimated scf accuracy    <       2.09467477 Ry

     iteration #  3     ecut=    52.00 Ry     beta= 0.30
     Davidson diagonalization with overlap
     ethr =  6.47E-04,  avg # of iterations = 10.3
 
     Adding external electric field

     Computed dipole along edir(3) : 
        Dipole               -0.4286 Ry au,         -1.0895 Debye
        Dipole field         -0.0011 Ry au, 
 
        Potential amp.        0.1361 Ry
        Total length         63.9641 bohr
 

     total cpu time spent up to now is      261.7 secs

     total energy              =   -3891.05149770 Ry
     estimated scf accuracy    <       0.36978012 Ry

     iteration #  4     ecut=    52.00 Ry     beta= 0.30
     Davidson diagonalization with overlap
     ethr =  1.14E-04,  avg # of iterations = 11.3
 
     Adding external electric field

     Computed dipole along edir(3) : 
        Dipole               -0.4767 Ry au,         -1.2116 Debye
        Dipole field         -0.0012 Ry au, 
 
        Potential amp.        0.1514 Ry
        Total length         63.9641 bohr
 

     total cpu time spent up to now is      351.6 secs

     total energy              =   -3891.08061774 Ry
     estimated scf accuracy    <       0.55189208 Ry

     iteration #  5     ecut=    52.00 Ry     beta= 0.30
     Davidson diagonalization with overlap
     ethr =  1.14E-04,  avg # of iterations =  1.4
 
     Adding external electric field

     Computed dipole along edir(3) : 
        Dipole               -0.5352 Ry au,         -1.3604 Debye
        Dipole field         -0.0013 Ry au, 
 
        Potential amp.        0.1700 Ry
        Total length         63.9641 bohr
 

     total cpu time spent up to now is      406.3 secs

     total energy              =   -3891.07859694 Ry
     estimated scf accuracy    <       0.60973957 Ry

     iteration #  6     ecut=    52.00 Ry     beta= 0.30
     Davidson diagonalization with overlap
     ethr =  1.14E-04,  avg # of iterations =  1.4
 
     Adding external electric field

     Computed dipole along edir(3) : 
        Dipole               -0.5016 Ry au,         -1.2749 Debye
        Dipole field         -0.0012 Ry au, 
 
        Potential amp.        0.1593 Ry
        Total length         63.9641 bohr
 

     total cpu time spent up to now is      461.1 secs

     total energy              =   -3891.06223813 Ry
     estimated scf accuracy    <       0.65784008 Ry

     iteration #  7     ecut=    52.00 Ry     beta= 0.30
     Davidson diagonalization with overlap
     c_bands:  1 eigenvalues not converged
     ethr =  1.14E-04,  avg # of iterations =  3.1
 
     Adding external electric field

     Computed dipole along edir(3) : 
        Dipole               -0.5554 Ry au,         -1.4116 Debye
        Dipole field         -0.0014 Ry au, 
 
        Potential amp.        0.1764 Ry
        Total length         63.9641 bohr
 

     total cpu time spent up to now is      523.5 secs

     total energy              =   -3891.04324361 Ry
     estimated scf accuracy    <       0.28625866 Ry

     iteration #  8     ecut=    52.00 Ry     beta= 0.30
     Davidson diagonalization with overlap
     ethr =  8.84E-05,  avg # of iterations =  5.0

     negative rho (up, down):  1.245E-07 0.000E+00
 
     Adding external electric field

     Computed dipole along edir(3) : 
        Dipole               -0.7409 Ry au,         -1.8831 Debye
        Dipole field         -0.0018 Ry au, 
 
        Potential amp.        0.2353 Ry
        Total length         63.9641 bohr
 

     total cpu time spent up to now is      591.4 secs

     total energy              =   -3891.06518697 Ry
     estimated scf accuracy    <       0.17742471 Ry

     iteration #  9     ecut=    52.00 Ry     beta= 0.30
     Davidson diagonalization with overlap
     c_bands:  2 eigenvalues not converged
     c_bands:  2 eigenvalues not converged
     ethr =  5.48E-05,  avg # of iterations =  7.7
 
     Adding external electric field

     Computed dipole along edir(3) : 
        Dipole               -0.4790 Ry au,         -1.2175 Debye
        Dipole field         -0.0012 Ry au, 
 
        Potential amp.        0.1521 Ry
        Total length         63.9641 bohr
 

     total cpu time spent up to now is      665.2 secs

     total energy              =   -3891.04744551 Ry
     estimated scf accuracy    <       0.29050146 Ry

     iteration # 10     ecut=    52.00 Ry     beta= 0.30
     Davidson diagonalization with overlap
     ethr =  5.48E-05,  avg # of iterations =  5.7
 
     Adding external electric field

     Computed dipole along edir(3) : 
        Dipole               -0.1747 Ry au,         -0.4441 Debye
        Dipole field         -0.0004 Ry au, 
 
        Potential amp.        0.0555 Ry
        Total length         63.9641 bohr
 

     total cpu time spent up to now is      734.1 secs

     total energy              =   -3891.03785633 Ry
     estimated scf accuracy    <       0.10516403 Ry

     iteration # 11     ecut=    52.00 Ry     beta= 0.30
     Davidson diagonalization with overlap
     ethr =  3.25E-05,  avg # of iterations =  7.7
 
     Adding external electric field

     Computed dipole along edir(3) : 
        Dipole               -0.3589 Ry au,         -0.9122 Debye
        Dipole field         -0.0009 Ry au, 
 
        Potential amp.        0.1140 Ry
        Total length         63.9641 bohr
 

     total cpu time spent up to now is      810.1 secs

     total energy              =   -3891.04433714 Ry
     estimated scf accuracy    <       0.23126963 Ry

     iteration # 12     ecut=    52.00 Ry     beta= 0.30
     Davidson diagonalization with overlap
     ethr =  3.25E-05,  avg # of iterations =  7.5
 
     Adding external electric field

     Computed dipole along edir(3) : 
        Dipole               -0.3836 Ry au,         -0.9750 Debye
        Dipole field         -0.0010 Ry au, 
 
        Potential amp.        0.1218 Ry
        Total length         63.9641 bohr
 

     total cpu time spent up to now is      884.3 secs

     total energy              =   -3891.04539112 Ry
     estimated scf accuracy    <       0.02286040 Ry

     iteration # 13     ecut=    52.00 Ry     beta= 0.30
     Davidson diagonalization with overlap
     ethr =  7.06E-06,  avg # of iterations =  4.9
 
     Adding external electric field

     Computed dipole along edir(3) : 
        Dipole                0.0460 Ry au,          0.1168 Debye
        Dipole field          0.0001 Ry au, 
 
        Potential amp.       -0.0146 Ry
        Total length         63.9641 bohr
 

     total cpu time spent up to now is      952.8 secs

     total energy              =   -3891.03831065 Ry
     estimated scf accuracy    <       0.02210939 Ry

     iteration # 14     ecut=    52.00 Ry     beta= 0.30
     Davidson diagonalization with overlap
     c_bands:  1 eigenvalues not converged
     ethr =  6.82E-06,  avg # of iterations = 12.8
 
     Adding external electric field

     Computed dipole along edir(3) : 
        Dipole                0.0060 Ry au,          0.0151 Debye
        Dipole field          0.0000 Ry au, 
 
        Potential amp.       -0.0019 Ry
        Total length         63.9641 bohr
 

     total cpu time spent up to now is     1047.4 secs

     total energy              =   -3891.05066221 Ry
     estimated scf accuracy    <       0.41661691 Ry

     iteration # 15     ecut=    52.00 Ry     beta= 0.30
     Davidson diagonalization with overlap
     ethr =  6.82E-06,  avg # of iterations =  5.1

     negative rho (up, down):  3.592E-08 0.000E+00
 
     Adding external electric field

     Computed dipole along edir(3) : 
        Dipole               -0.0032 Ry au,         -0.0082 Debye
        Dipole field         -0.0000 Ry au, 
 
        Potential amp.        0.0010 Ry
        Total length         63.9641 bohr
 

     total cpu time spent up to now is     1115.1 secs

     total energy              =   -3891.04667338 Ry
     estimated scf accuracy    <       0.29505929 Ry

     iteration # 16     ecut=    52.00 Ry     beta= 0.30
     Davidson diagonalization with overlap
     c_bands:  1 eigenvalues not converged
     ethr =  6.82E-06,  avg # of iterations =  8.7

     negative rho (up, down):  4.766E-07 0.000E+00
 
     Adding external electric field

     Computed dipole along edir(3) : 
        Dipole                0.0365 Ry au,          0.0927 Debye
        Dipole field          0.0001 Ry au, 
 
        Potential amp.       -0.0116 Ry
        Total length         63.9641 bohr
 

     total cpu time spent up to now is     1192.3 secs

     total energy              =   -3891.04693184 Ry
     estimated scf accuracy    <       0.21978222 Ry

     iteration # 17     ecut=    52.00 Ry     beta= 0.30
     Davidson diagonalization with overlap
     ethr =  6.82E-06,  avg # of iterations =  2.9

     negative rho (up, down):  2.878E-04 0.000E+00
 
     Adding external electric field

     Computed dipole along edir(3) : 
        Dipole                0.0795 Ry au,          0.2021 Debye
        Dipole field          0.0002 Ry au, 
 
        Potential amp.       -0.0253 Ry
        Total length         63.9641 bohr
 

     total cpu time spent up to now is     1255.8 secs

     total energy              =   -3891.04501548 Ry
     estimated scf accuracy    <       0.22323170 Ry

     iteration # 18     ecut=    52.00 Ry     beta= 0.30
     Davidson diagonalization with overlap
     ethr =  6.82E-06,  avg # of iterations =  6.5

     negative rho (up, down):  1.504E-03 0.000E+00
 
     Adding external electric field

     Computed dipole along edir(3) : 
        Dipole                0.0592 Ry au,          0.1506 Debye
        Dipole field          0.0001 Ry au, 
 
        Potential amp.       -0.0188 Ry
        Total length         63.9641 bohr
 

     total cpu time spent up to now is     1327.2 secs

     total energy              =   -3891.04191785 Ry
     estimated scf accuracy    <       0.24644795 Ry

     iteration # 19     ecut=    52.00 Ry     beta= 0.30
     Davidson diagonalization with overlap
     c_bands:  1 eigenvalues not converged
     c_bands:  2 eigenvalues not converged
     c_bands:  1 eigenvalues not converged
     ethr =  6.82E-06,  avg # of iterations =  9.5

     negative rho (up, down):  1.243E-03 0.000E+00
 
     Adding external electric field

     Computed dipole along edir(3) : 
        Dipole               -0.0021 Ry au,         -0.0053 Debye
        Dipole field         -0.0000 Ry au, 
 
        Potential amp.        0.0007 Ry
        Total length         63.9641 bohr
 

     total cpu time spent up to now is     1406.9 secs

     total energy              =   -3891.03980115 Ry
     estimated scf accuracy    <       0.09028767 Ry

     iteration # 20     ecut=    52.00 Ry     beta= 0.30
     Davidson diagonalization with overlap
     c_bands:  2 eigenvalues not converged
     ethr =  6.82E-06,  avg # of iterations = 10.5

     negative rho (up, down):  1.331E-03 0.000E+00
 
     Adding external electric field

     Computed dipole along edir(3) : 
        Dipole                0.0242 Ry au,          0.0615 Debye
        Dipole field          0.0001 Ry au, 
 
        Potential amp.       -0.0077 Ry
        Total length         63.9641 bohr
 

     total cpu time spent up to now is     1490.8 secs

     total energy              =   -3891.04147493 Ry
     estimated scf accuracy    <       0.07733453 Ry

     iteration # 21     ecut=    52.00 Ry     beta= 0.30
     Davidson diagonalization with overlap
     ethr =  6.82E-06,  avg # of iterations =  1.6

     negative rho (up, down):  1.284E-03 0.000E+00
 
     Adding external electric field

     Computed dipole along edir(3) : 
        Dipole                0.0196 Ry au,          0.0498 Debye
        Dipole field          0.0000 Ry au, 
 
        Potential amp.       -0.0062 Ry
        Total length         63.9641 bohr
 

     total cpu time spent up to now is     1548.9 secs

     total energy              =   -3891.04176602 Ry
     estimated scf accuracy    <       0.00918846 Ry

     iteration # 22     ecut=    52.00 Ry     beta= 0.30
     Davidson diagonalization with overlap
     ethr =  2.84E-06,  avg # of iterations =  1.5

     negative rho (up, down):  1.344E-03 0.000E+00
 
     Adding external electric field

     Computed dipole along edir(3) : 
        Dipole                0.0224 Ry au,          0.0570 Debye
        Dipole field          0.0001 Ry au, 
 
        Potential amp.       -0.0071 Ry
        Total length         63.9641 bohr
 

     total cpu time spent up to now is     1606.4 secs

     total energy              =   -3891.04173738 Ry
     estimated scf accuracy    <       0.01483459 Ry

     iteration # 23     ecut=    52.00 Ry     beta= 0.30
     Davidson diagonalization with overlap
     ethr =  2.84E-06,  avg # of iterations =  1.1

     negative rho (up, down):  1.393E-03 0.000E+00
 
     Adding external electric field

     Computed dipole along edir(3) : 
        Dipole                0.0216 Ry au,          0.0549 Debye
        Dipole field          0.0001 Ry au, 
 
        Potential amp.       -0.0069 Ry
        Total length         63.9641 bohr
 

     total cpu time spent up to now is     1662.1 secs

     total energy              =   -3891.04176479 Ry
     estimated scf accuracy    <       0.01004533 Ry

     iteration # 24     ecut=    52.00 Ry     beta= 0.30
     Davidson diagonalization with overlap
     ethr =  2.84E-06,  avg # of iterations =  1.0

     negative rho (up, down):  1.740E-03 0.000E+00
 
     Adding external electric field

     Computed dipole along edir(3) : 
        Dipole                0.0144 Ry au,          0.0366 Debye
        Dipole field          0.0000 Ry au, 
 
        Potential amp.       -0.0046 Ry
        Total length         63.9641 bohr
 

     total cpu time spent up to now is     1716.7 secs

     total energy              =   -3891.04191007 Ry
     estimated scf accuracy    <       0.01419007 Ry

     iteration # 25     ecut=    52.00 Ry     beta= 0.30
     Davidson diagonalization with overlap
     ethr =  2.84E-06,  avg # of iterations =  1.6

     negative rho (up, down):  1.562E-03 0.000E+00
 
     Adding external electric field

     Computed dipole along edir(3) : 
        Dipole                0.0101 Ry au,          0.0257 Debye
        Dipole field          0.0000 Ry au, 
 
        Potential amp.       -0.0032 Ry
        Total length         63.9641 bohr
 

     total cpu time spent up to now is     1775.2 secs

     total energy              =   -3891.04203386 Ry
     estimated scf accuracy    <       0.03888587 Ry

     iteration # 26     ecut=    52.00 Ry     beta= 0.30
     Davidson diagonalization with overlap
     ethr =  2.84E-06,  avg # of iterations =  1.0

     negative rho (up, down):  3.587E-03 0.000E+00
 
     Adding external electric field

     Computed dipole along edir(3) : 
        Dipole                0.0196 Ry au,          0.0498 Debye
        Dipole field          0.0000 Ry au, 
 
        Potential amp.       -0.0062 Ry
        Total length         63.9641 bohr
 

     total cpu time spent up to now is     1829.9 secs

     total energy              =   -3891.04205744 Ry
     estimated scf accuracy    <       0.04920263 Ry

     iteration # 27     ecut=    52.00 Ry     beta= 0.30
     Davidson diagonalization with overlap
     ethr =  2.84E-06,  avg # of iterations =  5.0

     negative rho (up, down):  2.703E-03 0.000E+00
 
     Adding external electric field

     Computed dipole along edir(3) : 
        Dipole                0.0334 Ry au,          0.0849 Debye
        Dipole field          0.0001 Ry au, 
 
        Potential amp.       -0.0106 Ry
        Total length         63.9641 bohr
 

     total cpu time spent up to now is     1898.7 secs

     total energy              =   -3891.04152718 Ry
     estimated scf accuracy    <       0.04756677 Ry

     iteration # 28     ecut=    52.00 Ry     beta= 0.30
     Davidson diagonalization with overlap
     ethr =  2.84E-06,  avg # of iterations =  5.8

     negative rho (up, down):  7.585E-04 0.000E+00
 
     Adding external electric field

     Computed dipole along edir(3) : 
        Dipole                0.0223 Ry au,          0.0567 Debye
        Dipole field          0.0001 Ry au, 
 
        Potential amp.       -0.0071 Ry
        Total length         63.9641 bohr
 

     total cpu time spent up to now is     1968.7 secs

     total energy              =   -3891.04165271 Ry
     estimated scf accuracy    <       0.00316571 Ry

     iteration # 29     ecut=    52.00 Ry     beta= 0.30
     Davidson diagonalization with overlap
     ethr =  9.77E-07,  avg # of iterations =  5.9

     negative rho (up, down):  3.493E-04 0.000E+00
 
     Adding external electric field

     Computed dipole along edir(3) : 
        Dipole                0.0196 Ry au,          0.0499 Debye
        Dipole field          0.0000 Ry au, 
 
        Potential amp.       -0.0062 Ry
        Total length         63.9641 bohr
 

     total cpu time spent up to now is     2040.6 secs

     total energy              =   -3891.04165164 Ry
     estimated scf accuracy    <       0.00073646 Ry

     iteration # 30     ecut=    52.00 Ry     beta= 0.30
     Davidson diagonalization with overlap
     ethr =  2.27E-07,  avg # of iterations =  2.4

     negative rho (up, down):  1.247E-04 0.000E+00
 
     Adding external electric field

     Computed dipole along edir(3) : 
        Dipole                0.0177 Ry au,          0.0450 Debye
        Dipole field          0.0000 Ry au, 
 
        Potential amp.       -0.0056 Ry
        Total length         63.9641 bohr
 

     total cpu time spent up to now is     2101.6 secs

     total energy              =   -3891.04164398 Ry
     estimated scf accuracy    <       0.00052836 Ry

     iteration # 31     ecut=    52.00 Ry     beta= 0.30
     Davidson diagonalization with overlap
     ethr =  1.63E-07,  avg # of iterations =  1.3

     negative rho (up, down):  1.567E-04 0.000E+00
 
     Adding external electric field

     Computed dipole along edir(3) : 
        Dipole                0.0190 Ry au,          0.0484 Debye
        Dipole field          0.0000 Ry au, 
 
        Potential amp.       -0.0060 Ry
        Total length         63.9641 bohr
 

     total cpu time spent up to now is     2158.2 secs

     total energy              =   -3891.04164650 Ry
     estimated scf accuracy    <       0.00002439 Ry

     iteration # 32     ecut=    52.00 Ry     beta= 0.30
     Davidson diagonalization with overlap
     ethr =  7.53E-09,  avg # of iterations =  1.0

     negative rho (up, down):  1.458E-04 0.000E+00
 
     Adding external electric field

     Computed dipole along edir(3) : 
        Dipole                0.0191 Ry au,          0.0486 Debye
        Dipole field          0.0000 Ry au, 
 
        Potential amp.       -0.0061 Ry
        Total length         63.9641 bohr
 

     total cpu time spent up to now is     2213.2 secs

     total energy              =   -3891.04164698 Ry
     estimated scf accuracy    <       0.00000194 Ry

     iteration # 33     ecut=    52.00 Ry     beta= 0.30
     Davidson diagonalization with overlap
     ethr =  5.98E-10,  avg # of iterations =  2.4

     negative rho (up, down):  1.442E-04 0.000E+00
 
     Adding external electric field

     Computed dipole along edir(3) : 
        Dipole                0.0191 Ry au,          0.0485 Debye
        Dipole field          0.0000 Ry au, 
 
        Potential amp.       -0.0061 Ry
        Total length         63.9641 bohr
 

     total cpu time spent up to now is     2277.9 secs

     total energy              =   -3891.04164713 Ry
     estimated scf accuracy    <       0.00000168 Ry

     iteration # 34     ecut=    52.00 Ry     beta= 0.30
     Davidson diagonalization with overlap
     ethr =  5.19E-10,  avg # of iterations =  1.3

     negative rho (up, down):  1.679E-04 0.000E+00
 
     Adding external electric field

     Computed dipole along edir(3) : 
        Dipole                0.0193 Ry au,          0.0491 Debye
        Dipole field          0.0000 Ry au, 
 
        Potential amp.       -0.0061 Ry
        Total length         63.9641 bohr
 

     total cpu time spent up to now is     2335.0 secs

     total energy              =   -3891.04164713 Ry
     estimated scf accuracy    <       0.00000011 Ry

     iteration # 35     ecut=    52.00 Ry     beta= 0.30
     Davidson diagonalization with overlap
     ethr =  3.53E-11,  avg # of iterations =  2.4

     negative rho (up, down):  1.453E-04 0.000E+00
 
     Adding external electric field

     Computed dipole along edir(3) : 
        Dipole                0.0191 Ry au,          0.0485 Debye
        Dipole field          0.0000 Ry au, 
 
        Potential amp.       -0.0061 Ry
        Total length         63.9641 bohr
 

     total cpu time spent up to now is     2396.7 secs

     total energy              =   -3891.04164718 Ry
     estimated scf accuracy    <       0.00000009 Ry

     iteration # 36     ecut=    52.00 Ry     beta= 0.30
     Davidson diagonalization with overlap
     ethr =  2.90E-11,  avg # of iterations =  2.0

     negative rho (up, down):  1.412E-04 0.000E+00
 
     Adding external electric field

     Computed dipole along edir(3) : 
        Dipole                0.0190 Ry au,          0.0484 Debye
        Dipole field          0.0000 Ry au, 
 
        Potential amp.       -0.0061 Ry
        Total length         63.9641 bohr
 

     total cpu time spent up to now is     2456.4 secs

     total energy              =   -3891.04164720 Ry
     estimated scf accuracy    <       0.00000003 Ry

     iteration # 37     ecut=    52.00 Ry     beta= 0.30
     Davidson diagonalization with overlap
     ethr =  9.07E-12,  avg # of iterations =  1.4

     negative rho (up, down):  1.389E-04 0.000E+00
 
     Adding external electric field

     Computed dipole along edir(3) : 
        Dipole                0.0190 Ry au,          0.0483 Debye
        Dipole field          0.0000 Ry au, 
 
        Potential amp.       -0.0060 Ry
        Total length         63.9641 bohr
 

     total cpu time spent up to now is     2514.3 secs

     total energy              =   -3891.04164721 Ry
     estimated scf accuracy    <       0.00000002 Ry

     iteration # 38     ecut=    52.00 Ry     beta= 0.30
     Davidson diagonalization with overlap
     ethr =  6.33E-12,  avg # of iterations =  2.0

     negative rho (up, down):  1.338E-04 0.000E+00
 
     Adding external electric field

     Computed dipole along edir(3) : 
        Dipole                0.0190 Ry au,          0.0482 Debye
        Dipole field          0.0000 Ry au, 
 
        Potential amp.       -0.0060 Ry
        Total length         63.9641 bohr
 

     total cpu time spent up to now is     2574.2 secs

     total energy              =   -3891.04164722 Ry
     estimated scf accuracy    <       0.00000002 Ry

     iteration # 39     ecut=    52.00 Ry     beta= 0.30
     Davidson diagonalization with overlap
     ethr =  6.29E-12,  avg # of iterations =  1.0

     negative rho (up, down):  1.337E-04 0.000E+00
 
     Adding external electric field

     Computed dipole along edir(3) : 
        Dipole                0.0190 Ry au,          0.0482 Debye
        Dipole field          0.0000 Ry au, 
 
        Potential amp.       -0.0060 Ry
        Total length         63.9641 bohr
 

     total cpu time spent up to now is     2628.1 secs

     total energy              =   -3891.04164722 Ry
     estimated scf accuracy    <       0.00000004 Ry

     iteration # 40     ecut=    52.00 Ry     beta= 0.30
     Davidson diagonalization with overlap
     ethr =  6.29E-12,  avg # of iterations =  1.4

     negative rho (up, down):  1.378E-04 0.000E+00
 
     Adding external electric field

     Computed dipole along edir(3) : 
        Dipole                0.0190 Ry au,          0.0483 Debye
        Dipole field          0.0000 Ry au, 
 
        Potential amp.       -0.0060 Ry
        Total length         63.9641 bohr
 

     total cpu time spent up to now is     2685.7 secs

     total energy              =   -3891.04164721 Ry
     estimated scf accuracy    <       0.00000004 Ry

     iteration # 41     ecut=    52.00 Ry     beta= 0.30
     Davidson diagonalization with overlap
     ethr =  6.29E-12,  avg # of iterations =  1.0

     negative rho (up, down):  1.370E-04 0.000E+00
 
     Adding external electric field

     Computed dipole along edir(3) : 
        Dipole                0.0190 Ry au,          0.0483 Debye
        Dipole field          0.0000 Ry au, 
 
        Potential amp.       -0.0060 Ry
        Total length         63.9641 bohr
 

     total cpu time spent up to now is     2739.3 secs

     total energy              =   -3891.04164721 Ry
     estimated scf accuracy    <       0.00000001 Ry

     iteration # 42     ecut=    52.00 Ry     beta= 0.30
     Davidson diagonalization with overlap
     ethr =  3.87E-12,  avg # of iterations =  1.0

     negative rho (up, down):  1.371E-04 0.000E+00
 
     Adding external electric field

     Computed dipole along edir(3) : 
        Dipole                0.0195 Ry au,          0.0496 Debye
        Dipole field          0.0000 Ry au, 
 
        Potential amp.       -0.0062 Ry
        Total length         63.9641 bohr
 

     total cpu time spent up to now is     2791.2 secs

     End of self-consistent calculation

          k = 0.0000 0.0000 0.0000 ( 32011 PWs)   bands (ev):

   -87.1315 -87.1219 -87.1132 -87.1132 -87.1128 -87.1128 -86.9182 -86.9174
   -86.9051 -86.9044 -86.9040 -86.9039 -50.6420 -50.6153 -50.6152 -50.6150
   -50.6150 -50.6129 -50.6127 -50.5875 -50.5873 -50.5617 -50.5617 -50.5613
   -50.5612 -50.5564 -50.5141 -50.5139 -50.5005 -50.5003 -50.4012 -50.4011
   -50.4004 -50.4004 -50.3988 -50.3986 -50.3980 -50.3980 -50.3392 -50.3365
   -50.3269 -50.3261 -50.3256 -50.3255 -50.3110 -50.3108 -50.3104 -50.3100
   -14.4084 -14.3168 -14.2157  -9.2547  -9.2547  -9.2547  -9.2203  -9.2203
    -9.2203  -9.1821  -9.1821  -9.1821  -8.1100  -8.1100  -8.1100  -8.0898
    -8.0898  -8.0898  -8.0545  -8.0545  -8.0545  -3.0736  -2.4783  -2.4635
    -1.7765  -1.5828  -1.3989  -1.3989  -1.3989  -1.3857  -1.3857  -1.3856
    -1.3614  -1.3614  -1.3614  -1.3089  -1.1414  -0.6777  -0.6763  -0.6575
    -0.6571  -0.6542  -0.6541  -0.3061  -0.3058  -0.3041  -0.3040  -0.1132
    -0.1129  -0.0983  -0.0981   0.1335   0.1856   0.1861   0.2319   0.2329
     0.3056   0.3064   0.3083   0.3093   0.3173   0.4572   0.4578   0.5099
     0.5119   0.6313   0.6317   0.6326   0.6326   0.6547   0.6550   0.6553
     0.6554   1.0808   1.0818   1.1977   1.2023   1.2343   1.2346   1.2354
     1.2358   1.3464   1.3588   1.5897   1.6469   1.6472   1.6920   1.6973
     1.8207   1.8210   1.8711   1.8720   1.8727   1.8736   1.8920   1.8920
     1.8948   1.8948   1.9087   1.9087   1.9375   1.9442   2.3830   2.3832
     2.3836   2.6475   2.6476   2.6476   2.8492   2.8494   2.8495   3.9876
     5.2018   6.4486   6.4486   6.4487   6.5986   6.5986   6.5986   6.9006
     6.9009   6.9011   8.4034   8.4057   8.4328   8.5688   8.5967   8.5970
     8.5982   8.5987   9.1169   9.3841   9.3841   9.3850   9.3859   9.7487
     9.7880   9.7889  10.4819  10.7118  11.0515  11.0527  11.0542  11.0551
    11.2845  11.2848

          k = 0.0000 0.1925 0.0000 ( 32019 PWs)   bands (ev):

   -87.1302 -87.1210 -87.1147 -87.1143 -87.1126 -87.1126 -86.9172 -86.9164
   -86.9056 -86.9049 -86.9046 -86.9044 -50.6389 -50.6326 -50.6270 -50.6259
   -50.6210 -50.5968 -50.5901 -50.5795 -50.5745 -50.5649 -50.5588 -50.5583
   -50.5564 -50.5538 -50.5232 -50.5181 -50.5114 -50.5031 -50.4187 -50.4180
   -50.4134 -50.4126 -50.3780 -50.3772 -50.3754 -50.3746 -50.3380 -50.3358
   -50.3274 -50.3265 -50.3261 -50.3260 -50.3222 -50.3213 -50.3138 -50.3131
   -14.2465 -14.1559 -14.0558 -10.4882 -10.4206 -10.3437  -9.6403  -9.6402
    -9.5819  -9.5819  -9.5150  -9.5150  -7.5124  -7.5123  -7.4668  -7.4668
    -7.4109  -7.4109  -6.6981  -6.6509  -6.5939  -2.8791  -2.2728  -2.2277
    -1.8804  -1.8803  -1.8629  -1.8629  -1.8347  -1.8347  -1.5907  -1.3621
    -1.2406  -1.2276  -1.2036  -1.1304  -0.9560  -0.9534  -0.8281  -0.7701
    -0.7623  -0.6866  -0.5518  -0.4511  -0.3772  -0.3524  -0.3238  -0.2590
    -0.1625  -0.1423  -0.1397   0.0151   0.0983   0.1288   0.2057   0.2538
     0.3172   0.3317   0.3441   0.3767   0.4015   0.4269   0.4344   0.4648
     0.5086   0.5737   0.5752   0.6370   0.6564   0.7501   0.8393   0.9051
     0.9696   1.0152   1.0228   1.1257   1.1318   1.2014   1.2418   1.2443
     1.2510   1.2689   1.3050   1.3148   1.3344   1.3898   1.4753   1.5041
     1.5336   1.5624   1.5675   1.5840   1.6242   1.6754   1.6921   1.8310
     1.8358   1.8365   1.8961   1.9360   1.9601   2.0152   2.0810   2.1968
     2.1974   2.2882   2.3087   2.5456   2.5457   2.8666   2.8671   4.3509
     5.7290   5.8585   6.6560   6.6562   6.7359   6.8618   6.8619   7.0024
     7.1730   7.1735   7.3461   7.3691   7.6580   7.9190   8.0202   8.1514
     8.3942   8.6476   8.7841   9.3282   9.6908   9.8630   9.9351  10.2233
    10.2915  10.4626  10.7002  10.8941  11.2573  11.2923  11.3360  11.4890
    11.9956  12.1154

          k = 0.0000 0.3849 0.0000 ( 32055 PWs)   bands (ev):

   -87.1268 -87.1187 -87.1179 -87.1156 -87.1136 -87.1128 -86.9144 -86.9135
   -86.9075 -86.9067 -86.9058 -86.9051 -50.6457 -50.6385 -50.6308 -50.6244
   -50.6170 -50.5910 -50.5813 -50.5701 -50.5685 -50.5575 -50.5553 -50.5528
   -50.5440 -50.5426 -50.5397 -50.5392 -50.5245 -50.5120 -50.4313 -50.4307
   -50.4079 -50.4071 -50.3561 -50.3554 -50.3526 -50.3517 -50.3508 -50.3500
   -50.3350 -50.3335 -50.3289 -50.3279 -50.3275 -50.3267 -50.3226 -50.3220
   -13.7629 -13.6751 -13.5778 -11.8605 -11.7839 -11.6979 -10.0439 -10.0438
    -9.9790  -9.9790  -9.9050  -9.9049  -6.3827  -6.3826  -6.3406  -6.3406
    -6.2888  -6.2888  -4.6330  -4.5947  -4.5464  -3.0074  -3.0073  -2.9833
    -2.9832  -2.9486  -2.9486  -2.2999  -1.7057  -1.5710  -1.2033  -1.1037
    -1.0979  -1.0392  -0.8722  -0.8215  -0.8008  -0.7798  -0.7703  -0.7674
    -0.7441  -0.7189  -0.6329  -0.6084  -0.5688  -0.4641  -0.3888  -0.3811
    -0.3650  -0.3381  -0.2635  -0.2413  -0.2311  -0.1246  -0.0803  -0.0795
    -0.0691   0.0296   0.1459   0.1615   0.2079   0.2409   0.3139   0.3550
     0.3708   0.4511   0.4550   0.5610   0.5713   0.6151   0.6942   0.7070
     0.7180   0.7526   0.7909   0.7912   0.7998   0.8197   0.9064   0.9220
     0.9678   0.9869   1.0337   1.1595   1.1778   1.2335   1.3092   1.3616
     1.4019   1.4053   1.4451   1.6073   1.6245   1.7122   1.7481   1.7831
     1.8705   1.8960   1.9085   1.9323   1.9330   1.9812   1.9944   2.0295
     2.0922   2.1241   2.3659   2.3659   2.8158   2.8165   3.0459   3.6310
     4.3481   5.2041   5.7061   5.8491   6.3387   6.8578   6.9719   7.1692
     7.1695   7.1888   7.3999   7.4000   7.6604   7.6608   7.9848   9.1952
     9.2893   9.4287   9.4464   9.7217   9.7876   9.9579  10.0354  10.3568
    10.5103  10.5897  11.3545  11.4530  11.8142  11.8193  11.9844  12.2645
    12.2897  12.3904

          k = 0.0000-0.5774 0.0000 ( 32112 PWs)   bands (ev):

   -87.1223 -87.1223 -87.1161 -87.1159 -87.1159 -87.1130 -86.9111 -86.9104
   -86.9100 -86.9099 -86.9062 -86.9054 -50.6504 -50.6432 -50.6224 -50.6224
   -50.5961 -50.5961 -50.5831 -50.5767 -50.5766 -50.5608 -50.5506 -50.5484
   -50.5483 -50.5387 -50.5386 -50.5298 -50.5264 -50.5264 -50.4358 -50.4351
   -50.3844 -50.3839 -50.3832 -50.3832 -50.3434 -50.3425 -50.3374 -50.3368
   -50.3364 -50.3364 -50.3320 -50.3313 -50.3306 -50.3306 -50.3279 -50.3270
   -12.9633 -12.9632 -12.8802 -12.8802 -12.7876 -12.7876 -10.1877 -10.1877
   -10.1215 -10.1215 -10.0459 -10.0459  -5.5340  -5.5340  -5.5131  -5.5131
    -5.4839  -5.4839  -3.8600  -3.8600  -3.8472  -3.8472  -3.8227  -3.8226
    -2.4577  -2.4576  -2.4305  -2.4304  -2.3929  -2.3928  -1.3567  -1.3529
    -1.3525  -1.2656  -1.2003  -0.9425  -0.9069  -0.9064  -0.7990  -0.7812
    -0.7811  -0.6914  -0.6910  -0.5147  -0.5105  -0.5096  -0.4718  -0.4714
    -0.3791  -0.3785  -0.2363  -0.2361  -0.1445  -0.1441  -0.0653  -0.0653
    -0.0544  -0.0543  -0.0323  -0.0323   0.0429   0.0431   0.0446   0.0849
     0.1185   0.1189   0.2945   0.2953   0.3062   0.3389   0.3392   0.3925
     0.3934   0.6373   0.6377   0.6974   0.6977   0.8763   0.9399   0.9403
     0.9419   1.1310   1.1315   1.2469   1.2611   1.2612   1.5013   1.5332
     1.5334   1.6266   1.6269   1.7215   1.7285   1.7290   1.8255   1.8262
     1.8897   1.8948   1.8953   1.9954   2.0173   2.0778   2.0783   2.1048
     2.2497   2.2645   2.2852   2.2853   2.5411   2.5415   2.7759   2.7767
     4.1301   4.1306   5.0877   5.9046   6.3804   6.3813   6.4376   6.6410
     7.4810   7.4814   7.6825   7.6826   7.8771   7.8774   8.5686   8.5697
     9.0776   9.6312  10.3496  10.3500  10.3552  10.4976  10.4976  10.9955
    10.9959  11.5086  11.5097  11.5867  11.7757  11.7763  11.9182  11.9191
    12.1673  12.1695

          k = 0.1667-0.0962 0.0000 ( 32019 PWs)   bands (ev):

   -87.1302 -87.1210 -87.1147 -87.1143 -87.1126 -87.1126 -86.9172 -86.9164
   -86.9056 -86.9049 -86.9046 -86.9044 -50.6389 -50.6323 -50.6271 -50.6260
   -50.6213 -50.5964 -50.5902 -50.5797 -50.5745 -50.5650 -50.5589 -50.5583
   -50.5563 -50.5538 -50.5233 -50.5180 -50.5114 -50.5031 -50.4188 -50.4179
   -50.4134 -50.4127 -50.3780 -50.3771 -50.3753 -50.3747 -50.3380 -50.3358
   -50.3274 -50.3266 -50.3261 -50.3259 -50.3221 -50.3215 -50.3139 -50.3129
   -14.2465 -14.1559 -14.0558 -10.4882 -10.4206 -10.3437  -9.6403  -9.6403
    -9.5819  -9.5819  -9.5150  -9.5150  -7.5124  -7.5123  -7.4668  -7.4668
    -7.4109  -7.4109  -6.6981  -6.6509  -6.5939  -2.8791  -2.2728  -2.2276
    -1.8804  -1.8803  -1.8629  -1.8629  -1.8347  -1.8347  -1.5907  -1.3619
    -1.2406  -1.2276  -1.2036  -1.1303  -0.9554  -0.9533  -0.8288  -0.7711
    -0.7619  -0.6869  -0.5511  -0.4514  -0.3779  -0.3527  -0.3222  -0.2593
    -0.1619  -0.1418  -0.1408   0.0150   0.0981   0.1280   0.2060   0.2536
     0.3169   0.3319   0.3451   0.3766   0.4020   0.4257   0.4345   0.4652
     0.5085   0.5742   0.5753   0.6369   0.6561   0.7500   0.8395   0.9052
     0.9712   1.0147   1.0230   1.1257   1.1299   1.2035   1.2423   1.2443
     1.2510   1.2689   1.3052   1.3147   1.3347   1.3898   1.4743   1.5042
     1.5328   1.5624   1.5675   1.5840   1.6242   1.6753   1.6923   1.8310
     1.8354   1.8365   1.8966   1.9342   1.9609   2.0155   2.0797   2.1970
     2.1972   2.2882   2.3100   2.5457   2.5457   2.8668   2.8670   4.3511
     5.7292   5.8584   6.6560   6.6561   6.7356   6.8618   6.8619   7.0010
     7.1732   7.1734   7.3478   7.3691   7.6580   7.9199   8.0202   8.1513
     8.3984   8.6476   8.7841   9.3282   9.6854   9.8610   9.9351  10.2247
    10.2912  10.4637  10.7002  10.8940  11.2579  11.2894  11.3358  11.4892
    11.9956  12.1154

          k = 0.1667 0.0962 0.0000 ( 32019 PWs)   bands (ev):

   -87.1302 -87.1210 -87.1147 -87.1143 -87.1126 -87.1125 -86.9172 -86.9164
   -86.9056 -86.9049 -86.9046 -86.9044 -50.6389 -50.6326 -50.6270 -50.6259
   -50.6211 -50.5966 -50.5900 -50.5801 -50.5744 -50.5648 -50.5587 -50.5583
   -50.5560 -50.5542 -50.5232 -50.5181 -50.5112 -50.5033 -50.4188 -50.4181
   -50.4134 -50.4125 -50.3781 -50.3773 -50.3753 -50.3744 -50.3380 -50.3358
   -50.3274 -50.3266 -50.3261 -50.3260 -50.3220 -50.3212 -50.3139 -50.3133
   -14.2465 -14.1559 -14.0558 -10.4882 -10.4206 -10.3437  -9.6403  -9.6403
    -9.5819  -9.5819  -9.5150  -9.5150  -7.5124  -7.5123  -7.4668  -7.4668
    -7.4109  -7.4109  -6.6981  -6.6509  -6.5939  -2.8791  -2.2728  -2.2277
    -1.8804  -1.8803  -1.8629  -1.8629  -1.8347  -1.8347  -1.5907  -1.3620
    -1.2406  -1.2276  -1.2036  -1.1308  -0.9567  -0.9539  -0.8287  -0.7685
    -0.7613  -0.6865  -0.5510  -0.4507  -0.3797  -0.3539  -0.3229  -0.2590
    -0.1627  -0.1409  -0.1396   0.0163   0.0979   0.1291   0.2040   0.2560
     0.3165   0.3307   0.3452   0.3774   0.4028   0.4302   0.4337   0.4631
     0.5086   0.5679   0.5761   0.6373   0.6584   0.7479   0.8377   0.9107
     0.9694   1.0142   1.0227   1.1285   1.1305   1.2002   1.2437   1.2443
     1.2510   1.2689   1.3048   1.3108   1.3323   1.3898   1.4748   1.5032
     1.5334   1.5624   1.5675   1.5840   1.6189   1.6799   1.6940   1.8310
     1.8355   1.8374   1.8950   1.9394   1.9600   2.0148   2.0824   2.1970
     2.1972   2.2882   2.3087   2.5457   2.5457   2.8668   2.8670   4.3504
     5.7285   5.8588   6.6560   6.6561   6.7357   6.8618   6.8619   7.0013
     7.1732   7.1734   7.3504   7.3691   7.6580   7.9137   8.0202   8.1528
     8.3883   8.6476   8.7841   9.3282   9.6949   9.8650   9.9351  10.2251
    10.2954  10.4578  10.7002  10.8941  11.2588  11.2914  11.3336  11.4888
    11.9956  12.1154

          k = 0.1667 0.2887 0.0000 ( 32043 PWs)   bands (ev):

   -87.1279 -87.1194 -87.1162 -87.1161 -87.1130 -87.1129 -86.9153 -86.9144
   -86.9066 -86.9059 -86.9055 -86.9054 -50.6345 -50.6343 -50.6333 -50.6288
   -50.6287 -50.5864 -50.5861 -50.5691 -50.5689 -50.5656 -50.5536 -50.5535
   -50.5457 -50.5454 -50.5378 -50.5321 -50.5234 -50.5077 -50.4207 -50.4205
   -50.4199 -50.4197 -50.3594 -50.3592 -50.3586 -50.3584 -50.3429 -50.3420
   -50.3358 -50.3340 -50.3282 -50.3274 -50.3270 -50.3269 -50.3190 -50.3184
   -13.9238 -13.8351 -13.7368 -11.0895 -11.0894 -11.0175 -11.0175 -10.9362
   -10.9362  -8.8357  -8.8029  -8.7659  -7.7290  -7.7122  -7.6806  -5.6193
    -5.6193  -5.5773  -5.5773  -5.5255  -5.5255  -3.1916  -3.1660  -3.1299
    -2.4921  -1.8937  -1.7812  -1.5587  -1.5587  -1.5422  -1.5422  -1.5148
    -1.5148  -1.2219  -1.0421  -1.0163  -1.0153  -0.9062  -0.9061  -0.8706
    -0.8704  -0.8475  -0.6713  -0.5616  -0.5597  -0.3676  -0.3662  -0.3542
    -0.3536  -0.1888  -0.1399  -0.1372  -0.0127   0.0272   0.2209   0.2276
     0.2375   0.2405   0.2448   0.3150   0.3823   0.4051   0.4115   0.4602
     0.4894   0.4940   0.5393   0.5605   0.6210   0.6461   0.6474   0.7729
     0.7842   0.7844   0.8578   0.9081   0.9119   0.9272   1.0081   1.0276
     1.0283   1.1184   1.1195   1.1202   1.2404   1.2775   1.2775   1.2923
     1.2937   1.3661   1.3924   1.3936   1.5093   1.5101   1.5769   1.5791
     1.6067   1.6905   1.8096   1.8098   1.8712   1.8717   1.9644   2.0092
     2.0101   2.1373   2.1387   2.8124   2.9668   3.2296   3.4245   4.7161
     4.7169   4.9389   5.5003   5.5008   6.3198   6.3684   6.5325   6.5912
     6.9024   6.9058   8.2904   8.2906   8.5702   8.5702   8.6749   8.6780
     8.8876   8.8877   9.0760   9.2141   9.7483   9.7619   9.7672  10.3159
    10.5388  10.5428  11.1367  11.2667  11.3479  11.3506  12.4504  12.4635
    12.5364  12.7858

          k = 0.1667-0.6736 0.0000 ( 32075 PWs)   bands (ev):

   -87.1240 -87.1197 -87.1172 -87.1169 -87.1144 -87.1133 -86.9121 -86.9112
   -86.9088 -86.9079 -86.9068 -86.9061 -50.6412 -50.6355 -50.6252 -50.6242
   -50.6169 -50.5895 -50.5865 -50.5856 -50.5651 -50.5592 -50.5545 -50.5490
   -50.5467 -50.5452 -50.5333 -50.5302 -50.5301 -50.5168 -50.4269 -50.4260
   -50.4051 -50.4042 -50.3752 -50.3742 -50.3435 -50.3426 -50.3425 -50.3417
   -50.3329 -50.3317 -50.3300 -50.3290 -50.3286 -50.3284 -50.3280 -50.3275
   -13.2821 -13.1972 -13.1028 -12.3307 -12.2513 -12.1625 -11.3967 -11.3229
   -11.2396  -8.7925  -8.7394  -8.6776  -6.9270  -6.8937  -6.8509  -4.5680
    -4.5437  -4.5084  -4.5042  -4.4755  -4.4373  -3.5265  -3.4957  -3.4549
    -2.4320  -2.4141  -2.3852  -1.7282  -1.4763  -1.4586  -1.4311  -1.2437
    -1.1950  -1.1797  -1.1464  -1.1057  -0.9684  -0.9367  -0.9287  -0.9224
    -0.8971  -0.8758  -0.8712  -0.8432  -0.7074  -0.6880  -0.6128  -0.5884
    -0.5102  -0.4971  -0.4478  -0.3884  -0.3413  -0.3143  -0.1663  -0.0676
    -0.0621  -0.0578  -0.0371  -0.0203   0.0274   0.0298   0.1707   0.2492
     0.2832   0.3473   0.3525   0.4003   0.4198   0.4659   0.4839   0.5477
     0.6192   0.7135   0.7875   0.7945   0.8508   0.9011   0.9391   0.9481
     0.9817   1.0548   1.1091   1.1124   1.1268   1.1608   1.2442   1.3228
     1.4167   1.4598   1.4625   1.5459   1.5642   1.5746   1.5976   1.6742
     1.7706   1.8264   1.8362   1.8551   1.8892   1.9204   1.9652   2.0008
     2.0211   2.0447   2.1401   2.7287   3.2810   3.3647   3.6290   3.6367
     3.8330   3.9546   4.5884   4.9695   5.9006   6.0333   6.0478   6.2090
     6.4063   7.2142   7.8852   7.9589   9.0432   9.2488   9.4545   9.4933
     9.5869   9.9263  10.0723  10.1714  10.4790  10.5802  10.6989  10.8814
    10.9386  11.1071  11.1843  11.3612  11.7507  11.9970  12.0222  12.0271
    12.0760  12.3577

          k = 0.1667-0.4811 0.0000 ( 32075 PWs)   bands (ev):

   -87.1240 -87.1197 -87.1172 -87.1169 -87.1144 -87.1133 -86.9121 -86.9112
   -86.9088 -86.9079 -86.9068 -86.9061 -50.6412 -50.6356 -50.6252 -50.6242
   -50.6168 -50.5897 -50.5863 -50.5855 -50.5652 -50.5592 -50.5545 -50.5490
   -50.5467 -50.5454 -50.5332 -50.5303 -50.5301 -50.5167 -50.4269 -50.4260
   -50.4051 -50.4040 -50.3753 -50.3744 -50.3435 -50.3426 -50.3425 -50.3419
   -50.3329 -50.3317 -50.3300 -50.3289 -50.3286 -50.3284 -50.3278 -50.3275
   -13.2821 -13.1972 -13.1028 -12.3307 -12.2513 -12.1625 -11.3967 -11.3229
   -11.2396  -8.7925  -8.7394  -8.6776  -6.9270  -6.8937  -6.8509  -4.5680
    -4.5437  -4.5084  -4.5042  -4.4755  -4.4373  -3.5265  -3.4957  -3.4549
    -2.4320  -2.4141  -2.3852  -1.7282  -1.4763  -1.4586  -1.4311  -1.2436
    -1.1942  -1.1799  -1.1464  -1.1058  -0.9693  -0.9367  -0.9292  -0.9224
    -0.8971  -0.8748  -0.8704  -0.8428  -0.7060  -0.6882  -0.6128  -0.5885
    -0.5097  -0.4971  -0.4481  -0.3914  -0.3401  -0.3149  -0.1673  -0.0676
    -0.0621  -0.0578  -0.0371  -0.0215   0.0235   0.0305   0.1743   0.2493
     0.2848   0.3491   0.3513   0.3938   0.4181   0.4659   0.4863   0.5477
     0.6195   0.7202   0.7944   0.7956   0.8480   0.8967   0.9394   0.9494
     0.9817   1.0534   1.1070   1.1125   1.1274   1.1591   1.2449   1.3238
     1.4179   1.4609   1.4633   1.5459   1.5658   1.5750   1.5939   1.6738
     1.7673   1.8258   1.8361   1.8562   1.8943   1.9216   1.9642   1.9999
     2.0199   2.0440   2.1368   2.7288   3.2810   3.3650   3.6290   3.6362
     3.8331   3.9546   4.5884   4.9712   5.9023   6.0336   6.0478   6.2090
     6.4063   7.2131   7.8855   7.9618   9.0432   9.2488   9.4545   9.4933
     9.5827   9.9263  10.0723  10.1713  10.4790  10.5802  10.6989  10.8815
    10.9386  11.1073  11.1838  11.3611  11.7510  11.9970  12.0196  12.0273
    12.0762  12.3578

          k = 0.1667-0.2887 0.0000 ( 32043 PWs)   bands (ev):

   -87.1279 -87.1194 -87.1161 -87.1161 -87.1129 -87.1129 -86.9153 -86.9144
   -86.9066 -86.9059 -86.9055 -86.9054 -50.6345 -50.6342 -50.6333 -50.6289
   -50.6288 -50.5863 -50.5860 -50.5690 -50.5690 -50.5657 -50.5539 -50.5538
   -50.5454 -50.5453 -50.5377 -50.5324 -50.5233 -50.5075 -50.4206 -50.4205
   -50.4198 -50.4197 -50.3594 -50.3592 -50.3587 -50.3585 -50.3429 -50.3423
   -50.3358 -50.3340 -50.3282 -50.3274 -50.3269 -50.3268 -50.3190 -50.3181
   -13.9238 -13.8351 -13.7368 -11.0895 -11.0894 -11.0175 -11.0175 -10.9362
   -10.9362  -8.8357  -8.8029  -8.7659  -7.7290  -7.7122  -7.6806  -5.6193
    -5.6193  -5.5773  -5.5773  -5.5255  -5.5255  -3.1916  -3.1660  -3.1299
    -2.4921  -1.8937  -1.7809  -1.5588  -1.5587  -1.5422  -1.5422  -1.5148
    -1.5148  -1.2219  -1.0419  -1.0159  -1.0150  -0.9070  -0.9068  -0.8708
    -0.8706  -0.8458  -0.6686  -0.5600  -0.5596  -0.3701  -0.3695  -0.3537
    -0.3535  -0.1929  -0.1391  -0.1388  -0.0141   0.0274   0.2209   0.2276
     0.2411   0.2422   0.2448   0.3116   0.3826   0.4035   0.4047   0.4617
     0.4901   0.4907   0.5437   0.5598   0.6186   0.6549   0.6554   0.7732
     0.7842   0.7844   0.8572   0.9081   0.9119   0.9272   1.0030   1.0280
     1.0289   1.1176   1.1188   1.1216   1.2388   1.2775   1.2775   1.2929
     1.2933   1.3722   1.3960   1.3962   1.5088   1.5095   1.5733   1.5743
     1.6108   1.6880   1.8096   1.8098   1.8726   1.8732   1.9605   2.0092
     2.0097   2.1352   2.1364   2.8128   2.9668   3.2296   3.4245   4.7162
     4.7166   4.9406   5.5004   5.5012   6.3198   6.3684   6.5325   6.5932
     6.9057   6.9067   8.2904   8.2906   8.5702   8.5702   8.6785   8.6812
     8.8876   8.8877   9.0761   9.2141   9.7482   9.7581   9.7620  10.3159
    10.5374  10.5386  11.1367  11.2666  11.3476  11.3509  12.4504  12.4520
    12.5362  12.7846

          k = 0.3333-0.1925 0.0000 ( 32055 PWs)   bands (ev):

   -87.1268 -87.1187 -87.1179 -87.1156 -87.1136 -87.1128 -86.9144 -86.9135
   -86.9075 -86.9067 -86.9058 -86.9051 -50.6455 -50.6385 -50.6308 -50.6245
   -50.6172 -50.5907 -50.5816 -50.5702 -50.5685 -50.5576 -50.5553 -50.5527
   -50.5439 -50.5425 -50.5398 -50.5392 -50.5244 -50.5120 -50.4314 -50.4305
   -50.4079 -50.4072 -50.3562 -50.3553 -50.3525 -50.3519 -50.3507 -50.3502
   -50.3350 -50.3335 -50.3289 -50.3279 -50.3275 -50.3266 -50.3227 -50.3218
   -13.7629 -13.6751 -13.5778 -11.8605 -11.7839 -11.6979 -10.0438 -10.0438
    -9.9790  -9.9790  -9.9050  -9.9049  -6.3826  -6.3826  -6.3406  -6.3406
    -6.2888  -6.2888  -4.6330  -4.5947  -4.5464  -3.0073  -3.0073  -2.9832
    -2.9832  -2.9486  -2.9486  -2.2999  -1.7057  -1.5709  -1.2033  -1.1040
    -1.0978  -1.0392  -0.8714  -0.8222  -0.8020  -0.7798  -0.7703  -0.7674
    -0.7441  -0.7193  -0.6320  -0.6084  -0.5686  -0.4643  -0.3888  -0.3811
    -0.3649  -0.3381  -0.2634  -0.2408  -0.2312  -0.1246  -0.0805  -0.0795
    -0.0686   0.0291   0.1465   0.1632   0.2075   0.2416   0.3136   0.3542
     0.3720   0.4511   0.4530   0.5598   0.5741   0.6156   0.6941   0.7065
     0.7175   0.7525   0.7910   0.7912   0.7998   0.8197   0.9069   0.9223
     0.9676   0.9855   1.0337   1.1593   1.1786   1.2329   1.3094   1.3614
     1.4028   1.4055   1.4451   1.6064   1.6245   1.7124   1.7478   1.7828
     1.8709   1.8963   1.9070   1.9325   1.9328   1.9814   1.9950   2.0289
     2.0905   2.1242   2.3659   2.3659   2.8160   2.8163   3.0471   3.6310
     4.3479   5.2045   5.7033   5.8494   6.3410   6.8593   6.9725   7.1693
     7.1694   7.1949   7.4000   7.4000   7.6605   7.6607   7.9851   9.1884
     9.2894   9.4287   9.4464   9.7217   9.7866   9.9578  10.0354  10.3579
    10.5103  10.5860  11.3545  11.4530  11.8144  11.8155  11.9844  12.2644
    12.2885  12.3890

          k = 0.3333-0.0000 0.0000 ( 32043 PWs)   bands (ev):

   -87.1279 -87.1194 -87.1162 -87.1161 -87.1129 -87.1129 -86.9153 -86.9144
   -86.9066 -86.9059 -86.9055 -86.9054 -50.6345 -50.6342 -50.6333 -50.6289
   -50.6288 -50.5862 -50.5861 -50.5692 -50.5691 -50.5657 -50.5536 -50.5534
   -50.5457 -50.5453 -50.5378 -50.5321 -50.5233 -50.5076 -50.4206 -50.4205
   -50.4199 -50.4197 -50.3594 -50.3592 -50.3587 -50.3584 -50.3428 -50.3421
   -50.3358 -50.3340 -50.3283 -50.3274 -50.3270 -50.3268 -50.3191 -50.3183
   -13.9238 -13.8351 -13.7368 -11.0895 -11.0894 -11.0175 -11.0175 -10.9363
   -10.9362  -8.8357  -8.8029  -8.7659  -7.7290  -7.7122  -7.6806  -5.6194
    -5.6193  -5.5773  -5.5773  -5.5255  -5.5255  -3.1916  -3.1660  -3.1299
    -2.4921  -1.8937  -1.7810  -1.5588  -1.5587  -1.5422  -1.5422  -1.5149
    -1.5148  -1.2219  -1.0413  -1.0163  -1.0150  -0.9064  -0.9062  -0.8709
    -0.8705  -0.8476  -0.6712  -0.5619  -0.5601  -0.3675  -0.3666  -0.3541
    -0.3533  -0.1901  -0.1404  -0.1379  -0.0128   0.0274   0.2209   0.2277
     0.2386   0.2427   0.2448   0.3142   0.3822   0.4032   0.4107   0.4609
     0.4893   0.4943   0.5406   0.5604   0.6211   0.6471   0.6486   0.7731
     0.7841   0.7845   0.8578   0.9081   0.9119   0.9272   1.0063   1.0278
     1.0292   1.1188   1.1197   1.1205   1.2402   1.2775   1.2775   1.2926
     1.2937   1.3671   1.3921   1.3934   1.5089   1.5092   1.5770   1.5787
     1.6061   1.6908   1.8095   1.8099   1.8714   1.8725   1.9629   2.0096
     2.0100   2.1358   2.1383   2.8136   2.9668   3.2296   3.4245   4.7162
     4.7166   4.9393   5.5006   5.5011   6.3198   6.3684   6.5325   6.5919
     6.9026   6.9065   8.2903   8.2908   8.5702   8.5703   8.6752   8.6807
     8.8875   8.8878   9.0760   9.2141   9.7482   9.7582   9.7671  10.3159
    10.5378  10.5426  11.1367  11.2666  11.3474  11.3483  12.4490  12.4637
    12.5362  12.7843

          k = 0.3333 0.1925 0.0000 ( 32055 PWs)   bands (ev):

   -87.1268 -87.1187 -87.1179 -87.1156 -87.1136 -87.1128 -86.9144 -86.9135
   -86.9075 -86.9067 -86.9058 -86.9051 -50.6458 -50.6384 -50.6308 -50.6244
   -50.6171 -50.5907 -50.5820 -50.5702 -50.5683 -50.5573 -50.5553 -50.5525
   -50.5438 -50.5430 -50.5397 -50.5390 -50.5245 -50.5122 -50.4314 -50.4308
   -50.4078 -50.4070 -50.3562 -50.3556 -50.3525 -50.3516 -50.3507 -50.3499
   -50.3350 -50.3334 -50.3289 -50.3279 -50.3275 -50.3267 -50.3228 -50.3221
   -13.7629 -13.6751 -13.5778 -11.8605 -11.7839 -11.6979 -10.0438 -10.0438
    -9.9790  -9.9790  -9.9050  -9.9049  -6.3826  -6.3826  -6.3406  -6.3406
    -6.2888  -6.2888  -4.6330  -4.5947  -4.5464  -3.0073  -3.0073  -2.9832
    -2.9832  -2.9486  -2.9486  -2.2999  -1.7057  -1.5711  -1.2031  -1.1036
    -1.0984  -1.0392  -0.8718  -0.8211  -0.8002  -0.7798  -0.7692  -0.7674
    -0.7441  -0.7210  -0.6325  -0.6070  -0.5701  -0.4626  -0.3904  -0.3811
    -0.3649  -0.3381  -0.2627  -0.2408  -0.2289  -0.1248  -0.0853  -0.0795
    -0.0663   0.0286   0.1414   0.1599   0.2080   0.2409   0.3141   0.3535
     0.3740   0.4511   0.4581   0.5635   0.5684   0.6139   0.6944   0.7098
     0.7183   0.7534   0.7912   0.7983   0.7998   0.8197   0.9011   0.9145
     0.9673   0.9906   1.0337   1.1612   1.1727   1.2345   1.3059   1.3613
     1.4014   1.4038   1.4462   1.6140   1.6287   1.7104   1.7449   1.7826
     1.8689   1.8961   1.9108   1.9325   1.9328   1.9799   1.9962   2.0285
     2.0942   2.1251   2.3659   2.3659   2.8160   2.8163   3.0457   3.6312
     4.3481   5.2028   5.7075   5.8494   6.3481   6.8457   6.9707   7.1693
     7.1694   7.1770   7.4000   7.4000   7.6605   7.6607   7.9836   9.2032
     9.2894   9.4287   9.4464   9.7217   9.7935   9.9579  10.0354  10.3547
    10.5103  10.5875  11.3546  11.4530  11.8140  11.8411  11.9844  12.2644
    12.2894  12.3900

          k = 0.3333-0.7698 0.0000 ( 32075 PWs)   bands (ev):

   -87.1240 -87.1196 -87.1172 -87.1169 -87.1145 -87.1133 -86.9121 -86.9112
   -86.9088 -86.9079 -86.9068 -86.9061 -50.6412 -50.6355 -50.6252 -50.6242
   -50.6169 -50.5895 -50.5861 -50.5860 -50.5650 -50.5589 -50.5545 -50.5489
   -50.5467 -50.5453 -50.5333 -50.5304 -50.5300 -50.5169 -50.4270 -50.4261
   -50.4050 -50.4041 -50.3752 -50.3742 -50.3433 -50.3426 -50.3425 -50.3418
   -50.3329 -50.3317 -50.3300 -50.3290 -50.3286 -50.3285 -50.3281 -50.3276
   -13.2821 -13.1972 -13.1028 -12.3307 -12.2513 -12.1625 -11.3967 -11.3229
   -11.2396  -8.7925  -8.7394  -8.6776  -6.9270  -6.8937  -6.8509  -4.5680
    -4.5437  -4.5084  -4.5042  -4.4755  -4.4373  -3.5265  -3.4957  -3.4549
    -2.4320  -2.4141  -2.3852  -1.7282  -1.4763  -1.4586  -1.4311  -1.2430
    -1.1949  -1.1797  -1.1464  -1.1066  -0.9681  -0.9367  -0.9293  -0.9224
    -0.8971  -0.8759  -0.8705  -0.8418  -0.7078  -0.6863  -0.6128  -0.5904
    -0.5099  -0.4971  -0.4464  -0.3894  -0.3413  -0.3138  -0.1663  -0.0675
    -0.0620  -0.0579  -0.0371  -0.0204   0.0204   0.0349   0.1680   0.2502
     0.2791   0.3445   0.3518   0.4004   0.4265   0.4659   0.4852   0.5477
     0.6181   0.7116   0.7953   0.7977   0.8514   0.8940   0.9360   0.9516
     0.9817   1.0543   1.1103   1.1126   1.1249   1.1548   1.2447   1.3254
     1.4162   1.4604   1.4615   1.5460   1.5686   1.5747   1.5975   1.6749
     1.7692   1.8253   1.8370   1.8565   1.8898   1.9229   1.9639   2.0029
     2.0193   2.0444   2.1390   2.7287   3.2810   3.3645   3.6290   3.6361
     3.8335   3.9546   4.5893   4.9707   5.9000   6.0279   6.0478   6.2090
     6.4063   7.2124   7.8824   7.9584   9.0432   9.2488   9.4545   9.4991
     9.5835   9.9263  10.0723  10.1768  10.4790  10.5802  10.6988  10.8788
    10.9386  11.1071  11.1841  11.3611  11.7502  11.9969  12.0217  12.0272
    12.0944  12.3574

          k = 0.3333-0.5774 0.0000 ( 32121 PWs)   bands (ev):

   -87.1204 -87.1203 -87.1203 -87.1148 -87.1148 -87.1148 -86.9096 -86.9095
   -86.9085 -86.9085 -86.9085 -86.9084 -50.6254 -50.6252 -50.6252 -50.6186
   -50.6186 -50.6185 -50.5850 -50.5847 -50.5847 -50.5524 -50.5523 -50.5522
   -50.5417 -50.5416 -50.5415 -50.5224 -50.5223 -50.5222 -50.4058 -50.4054
   -50.4053 -50.4046 -50.4044 -50.4043 -50.3355 -50.3351 -50.3350 -50.3346
   -50.3345 -50.3343 -50.3309 -50.3308 -50.3299 -50.3295 -50.3294 -50.3292
   -12.4886 -12.4885 -12.4885 -12.4082 -12.4082 -12.4082 -12.3185 -12.3185
   -12.3185  -7.6155  -7.5585  -7.5569  -7.5553  -7.5463  -7.4932  -5.3799
    -5.3774  -5.3692  -2.7935  -2.7934  -2.7934  -2.7797  -2.7797  -2.7796
    -2.7565  -2.7565  -2.7565  -1.3875  -1.3875  -1.3875  -1.3794  -1.3793
    -1.3793  -1.3597  -1.3597  -1.3597  -1.1413  -1.1406  -1.1399  -1.1043
    -1.1035  -1.1031  -0.9253  -0.9249  -0.9240  -0.7931  -0.7928  -0.7926
    -0.7430  -0.7426  -0.7417  -0.5752  -0.5748  -0.5727  -0.3077  -0.3073
    -0.3068  -0.2357  -0.2357  -0.2356   0.1142   0.1179   0.1192   0.3122
     0.3180   0.3192   0.3824   0.3826   0.3829   0.4167   0.4186   0.4195
     0.5378   0.5381   0.5424   0.9237   0.9240   0.9273   0.9600   0.9637
     0.9647   1.2931   1.2938   1.2942   1.3613   1.3628   1.3632   1.5488
     1.5491   1.5512   1.6063   1.6067   1.6075   1.6751   1.6754   1.6758
     1.7731   1.7733   1.7736   1.8084   1.8092   1.8094   2.0129   2.0137
     2.0145   2.0476   2.0485   2.0490   2.8148   2.8159   2.8162   4.5123
     4.6032   4.6050   4.6058   4.9336   4.9355   4.9415   4.9504   5.4004
     6.9191   6.9194   6.9212   9.2881   9.2906   9.2945  10.9534  10.9550
    10.9565  10.9711  10.9718  10.9735  11.1245  11.1251  11.1260  11.1397
    11.1403  11.1412  11.2857  11.2863  11.2868  11.5242  11.5249  11.5255
    11.8528  11.8555

          k = 0.3333-0.3849 0.0000 ( 32075 PWs)   bands (ev):

   -87.1240 -87.1196 -87.1172 -87.1169 -87.1145 -87.1133 -86.9121 -86.9112
   -86.9088 -86.9079 -86.9068 -86.9061 -50.6409 -50.6356 -50.6252 -50.6242
   -50.6170 -50.5897 -50.5862 -50.5857 -50.5652 -50.5591 -50.5545 -50.5491
   -50.5467 -50.5453 -50.5332 -50.5302 -50.5302 -50.5166 -50.4270 -50.4259
   -50.4050 -50.4041 -50.3752 -50.3745 -50.3434 -50.3428 -50.3426 -50.3417
   -50.3329 -50.3318 -50.3300 -50.3290 -50.3286 -50.3285 -50.3277 -50.3275
   -13.2821 -13.1972 -13.1028 -12.3307 -12.2513 -12.1625 -11.3967 -11.3229
   -11.2396  -8.7925  -8.7394  -8.6776  -6.9270  -6.8937  -6.8509  -4.5680
    -4.5437  -4.5084  -4.5042  -4.4755  -4.4373  -3.5265  -3.4957  -3.4549
    -2.4320  -2.4141  -2.3852  -1.7282  -1.4763  -1.4586  -1.4311  -1.2439
    -1.1942  -1.1804  -1.1464  -1.1054  -0.9688  -0.9367  -0.9288  -0.9224
    -0.8971  -0.8747  -0.8714  -0.8428  -0.7064  -0.6883  -0.6128  -0.5887
    -0.5097  -0.4971  -0.4483  -0.3911  -0.3398  -0.3144  -0.1670  -0.0675
    -0.0620  -0.0579  -0.0371  -0.0218   0.0247   0.0298   0.1751   0.2481
     0.2857   0.3500   0.3504   0.3953   0.4168   0.4659   0.4869   0.5477
     0.6197   0.7198   0.7945   0.7954   0.8475   0.8970   0.9398   0.9491
     0.9817   1.0527   1.1067   1.1123   1.1269   1.1596   1.2448   1.3240
     1.4178   1.4609   1.4634   1.5460   1.5651   1.5752   1.5938   1.6738
     1.7671   1.8260   1.8366   1.8565   1.8939   1.9207   1.9645   1.9985
     2.0201   2.0439   2.1374   2.7289   3.2810   3.3643   3.6290   3.6367
     3.8322   3.9546   4.5900   4.9717   5.9026   6.0343   6.0478   6.2090
     6.4063   7.2135   7.8880   7.9620   9.0432   9.2488   9.4545   9.4890
     9.5845   9.9264  10.0723  10.1701  10.4790  10.5802  10.6988  10.8780
    10.9386  11.1073  11.1841  11.3611  11.7502  11.9972  12.0213  12.0271
    12.0729  12.3574

          k =-0.5000 0.2887 0.0000 ( 32112 PWs)   bands (ev):

   -87.1223 -87.1223 -87.1161 -87.1159 -87.1159 -87.1129 -86.9111 -86.9104
   -86.9100 -86.9099 -86.9062 -86.9054 -50.6502 -50.6432 -50.6225 -50.6223
   -50.5963 -50.5963 -50.5833 -50.5766 -50.5765 -50.5606 -50.5507 -50.5484
   -50.5483 -50.5386 -50.5386 -50.5299 -50.5264 -50.5263 -50.4359 -50.4350
   -50.3844 -50.3838 -50.3834 -50.3832 -50.3433 -50.3427 -50.3375 -50.3368
   -50.3363 -50.3363 -50.3320 -50.3313 -50.3306 -50.3306 -50.3280 -50.3270
   -12.9633 -12.9633 -12.8802 -12.8802 -12.7876 -12.7876 -10.1877 -10.1877
   -10.1215 -10.1215 -10.0459 -10.0459  -5.5340  -5.5340  -5.5131  -5.5131
    -5.4839  -5.4839  -3.8600  -3.8600  -3.8472  -3.8472  -3.8226  -3.8226
    -2.4577  -2.4576  -2.4304  -2.4304  -2.3928  -2.3928  -1.3570  -1.3528
    -1.3526  -1.2661  -1.2001  -0.9425  -0.9071  -0.9062  -0.7991  -0.7812
    -0.7811  -0.6925  -0.6923  -0.5149  -0.5096  -0.5086  -0.4710  -0.4703
    -0.3797  -0.3792  -0.2360  -0.2359  -0.1444  -0.1442  -0.0653  -0.0653
    -0.0544  -0.0544  -0.0323  -0.0323   0.0434   0.0437   0.0445   0.0876
     0.1185   0.1194   0.2947   0.2949   0.3047   0.3391   0.3393   0.3918
     0.3934   0.6387   0.6389   0.6958   0.6960   0.8759   0.9409   0.9417
     0.9421   1.1303   1.1306   1.2470   1.2603   1.2605   1.5013   1.5335
     1.5336   1.6267   1.6272   1.7200   1.7285   1.7290   1.8257   1.8260
     1.8899   1.8933   1.8938   1.9958   2.0180   2.0777   2.0785   2.1047
     2.2496   2.2645   2.2852   2.2853   2.5408   2.5414   2.7761   2.7764
     4.1309   4.1315   5.0843   5.9069   6.3812   6.3815   6.4389   6.6480
     7.4811   7.4813   7.6825   7.6825   7.8771   7.8773   8.5692   8.5707
     9.0706   9.6300  10.3498  10.3499  10.3513  10.4976  10.4976  10.9954
    10.9958  11.5090  11.5096  11.5823  11.7758  11.7761  11.9184  11.9188
    12.1679  12.1689

          k =-0.5000 0.4811 0.0000 ( 32075 PWs)   bands (ev):

   -87.1239 -87.1197 -87.1172 -87.1169 -87.1144 -87.1133 -86.9121 -86.9112
   -86.9088 -86.9079 -86.9068 -86.9061 -50.6409 -50.6356 -50.6252 -50.6242
   -50.6170 -50.5897 -50.5863 -50.5857 -50.5652 -50.5591 -50.5546 -50.5491
   -50.5467 -50.5451 -50.5332 -50.5302 -50.5301 -50.5168 -50.4270 -50.4259
   -50.4051 -50.4042 -50.3751 -50.3744 -50.3434 -50.3428 -50.3425 -50.3416
   -50.3329 -50.3318 -50.3300 -50.3290 -50.3287 -50.3285 -50.3278 -50.3275
   -13.2821 -13.1972 -13.1028 -12.3307 -12.2513 -12.1625 -11.3967 -11.3229
   -11.2396  -8.7925  -8.7394  -8.6776  -6.9270  -6.8937  -6.8509  -4.5680
    -4.5437  -4.5084  -4.5042  -4.4755  -4.4373  -3.5265  -3.4957  -3.4549
    -2.4320  -2.4141  -2.3852  -1.7282  -1.4763  -1.4586  -1.4311  -1.2440
    -1.1943  -1.1802  -1.1464  -1.1055  -0.9685  -0.9367  -0.9284  -0.9224
    -0.8971  -0.8748  -0.8718  -0.8432  -0.7087  -0.6881  -0.6128  -0.5886
    -0.5107  -0.4971  -0.4480  -0.3885  -0.3400  -0.3139  -0.1662  -0.0675
    -0.0620  -0.0579  -0.0371  -0.0212   0.0269   0.0282   0.1735   0.2484
     0.2849   0.3508   0.3512   0.4010   0.4170   0.4659   0.4854   0.5477
     0.6182   0.7146   0.7879   0.7944   0.8506   0.9009   0.9392   0.9479
     0.9817   1.0542   1.1089   1.1126   1.1267   1.1613   1.2435   1.3229
     1.4164   1.4598   1.4626   1.5459   1.5634   1.5747   1.5975   1.6747
     1.7699   1.8263   1.8366   1.8556   1.8904   1.9190   1.9649   1.9991
     2.0205   2.0447   2.1396   2.7288   3.2810   3.3646   3.6290   3.6378
     3.8321   3.9546   4.5899   4.9700   5.9011   6.0342   6.0478   6.2090
     6.4063   7.2145   7.8878   7.9601   9.0432   9.2488   9.4545   9.4891
     9.5872   9.9263  10.0723  10.1702  10.4790  10.5801  10.6988  10.8780
    10.9386  11.1072  11.1843  11.3612  11.7508  11.9968  12.0219  12.0273
    12.0727  12.3579

          k =-0.5000 0.6736 0.0000 ( 32075 PWs)   bands (ev):

   -87.1239 -87.1196 -87.1172 -87.1169 -87.1144 -87.1133 -86.9121 -86.9112
   -86.9088 -86.9079 -86.9068 -86.9061 -50.6412 -50.6355 -50.6252 -50.6242
   -50.6168 -50.5897 -50.5861 -50.5860 -50.5651 -50.5590 -50.5545 -50.5489
   -50.5467 -50.5453 -50.5332 -50.5304 -50.5300 -50.5168 -50.4270 -50.4261
   -50.4050 -50.4040 -50.3751 -50.3743 -50.3434 -50.3425 -50.3425 -50.3420
   -50.3329 -50.3317 -50.3300 -50.3289 -50.3287 -50.3285 -50.3279 -50.3276
   -13.2821 -13.1972 -13.1028 -12.3307 -12.2513 -12.1625 -11.3967 -11.3229
   -11.2396  -8.7925  -8.7394  -8.6776  -6.9270  -6.8937  -6.8509  -4.5680
    -4.5437  -4.5084  -4.5042  -4.4755  -4.4373  -3.5265  -3.4957  -3.4549
    -2.4320  -2.4141  -2.3852  -1.7282  -1.4763  -1.4586  -1.4311  -1.2429
    -1.1942  -1.1797  -1.1464  -1.1068  -0.9688  -0.9367  -0.9294  -0.9224
    -0.8971  -0.8750  -0.8701  -0.8418  -0.7087  -0.6863  -0.6128  -0.5905
    -0.5104  -0.4971  -0.4464  -0.3897  -0.3403  -0.3140  -0.1665  -0.0675
    -0.0620  -0.0579  -0.0371  -0.0211   0.0188   0.0340   0.1699   0.2506
     0.2798   0.3470   0.3517   0.3997   0.4250   0.4659   0.4861   0.5477
     0.6170   0.7130   0.7954   0.7981   0.8515   0.8934   0.9357   0.9517
     0.9817   1.0545   1.1103   1.1131   1.1253   1.1547   1.2441   1.3254
     1.4160   1.4604   1.4615   1.5459   1.5685   1.5746   1.5974   1.6755
     1.7688   1.8250   1.8369   1.8567   1.8915   1.9225   1.9633   2.0026
     2.0185   2.0445   2.1379   2.7286   3.2810   3.3651   3.6290   3.6368
     3.8335   3.9546   4.5893   4.9707   5.9003   6.0280   6.0478   6.2090
     6.4063   7.2123   7.8825   7.9594   9.0432   9.2488   9.4545   9.4990
     9.5820   9.9263  10.0723  10.1768  10.4790  10.5802  10.6988  10.8788
    10.9386  11.1072  11.1838  11.3612  11.7510  11.9971  12.0198  12.0271
    12.0944  12.3578

          k =-0.5000-0.2887 0.0000 ( 32112 PWs)   bands (ev):

   -87.1223 -87.1223 -87.1162 -87.1159 -87.1159 -87.1129 -86.9111 -86.9104
   -86.9100 -86.9099 -86.9062 -86.9054 -50.6505 -50.6431 -50.6224 -50.6224
   -50.5962 -50.5962 -50.5837 -50.5764 -50.5764 -50.5604 -50.5505 -50.5483
   -50.5482 -50.5387 -50.5387 -50.5297 -50.5267 -50.5266 -50.4359 -50.4352
   -50.3843 -50.3837 -50.3831 -50.3830 -50.3432 -50.3424 -50.3375 -50.3369
   -50.3366 -50.3365 -50.3320 -50.3313 -50.3306 -50.3306 -50.3280 -50.3271
   -12.9633 -12.9633 -12.8802 -12.8802 -12.7876 -12.7876 -10.1877 -10.1877
   -10.1215 -10.1215 -10.0459 -10.0459  -5.5340  -5.5340  -5.5131  -5.5131
    -5.4839  -5.4839  -3.8600  -3.8600  -3.8472  -3.8472  -3.8226  -3.8226
    -2.4577  -2.4576  -2.4304  -2.4304  -2.3928  -2.3928  -1.3561  -1.3528
    -1.3526  -1.2657  -1.2012  -0.9414  -0.9062  -0.9056  -0.7972  -0.7812
    -0.7811  -0.6920  -0.6917  -0.5127  -0.5108  -0.5099  -0.4717  -0.4712
    -0.3810  -0.3804  -0.2367  -0.2365  -0.1444  -0.1442  -0.0653  -0.0653
    -0.0544  -0.0544  -0.0323  -0.0323   0.0358   0.0467   0.0470   0.0822
     0.1176   0.1182   0.2912   0.2918   0.3070   0.3399   0.3402   0.3954
     0.3967   0.6361   0.6362   0.7027   0.7029   0.8798   0.9301   0.9303
     0.9509   1.1318   1.1322   1.2384   1.2608   1.2609   1.5000   1.5365
     1.5368   1.6294   1.6298   1.7261   1.7266   1.7286   1.8257   1.8260
     1.8890   1.8973   1.8978   1.9924   2.0176   2.0774   2.0781   2.1029
     2.2500   2.2649   2.2852   2.2853   2.5409   2.5414   2.7761   2.7764
     4.1296   4.1303   5.0910   5.9163   6.3790   6.3796   6.4224   6.6276
     7.4811   7.4813   7.6825   7.6825   7.8771   7.8773   8.5668   8.5682
     9.0861   9.6377  10.3497  10.3499  10.3525  10.4976  10.4976  10.9954
    10.9960  11.5089  11.5095  11.6120  11.7758  11.7761  11.9184  11.9188
    12.1679  12.1689

     the Fermi energy is     4.9583 ev

!    total energy              =   -3891.04164721 Ry
     estimated scf accuracy    <          1.2E-09 Ry
     smearing contrib. (-TS)   =      -0.00140414 Ry
     internal energy E=F+TS    =   -3891.04024307 Ry

     The total energy is F=E-TS. E is the sum of the following terms:
     one-electron contribution =  -29578.60197378 Ry
     hartree contribution      =   14837.78129270 Ry
     xc contribution           =    -435.96849160 Ry
     ewald contribution        =   11434.36197845 Ry
     DFT-D3 Dispersion         =      -0.63158470 Ry
     electric field correction =       0.00000095 Ry
     one-center paw contrib.   =    -147.98146508 Ry

     convergence has been achieved in  42 iterations

     negative rho (up, down):  1.371E-04 0.000E+00

     Forces acting on atoms (cartesian axes, Ry/au):

     atom    1 type  1   force =    -0.00006404    0.00036797    0.00125548
     atom    2 type  1   force =    -0.00011583    0.00040297    0.00125540
     atom    3 type  1   force =     0.00034340   -0.00011197   -0.00138831
     atom    4 type  1   force =     0.00000702   -0.00033490   -0.00083753
     atom    5 type  1   force =    -0.00009300    0.00038511    0.00123939
     atom    6 type  1   force =     0.00010987   -0.00000261   -0.00135989
     atom    7 type  1   force =    -0.00013925    0.00001784    0.00124620
     atom    8 type  1   force =     0.00000680   -0.00033393   -0.00084095
     atom    9 type  1   force =    -0.00015726    0.00008207    0.00098221
     atom   10 type  1   force =     0.00025965    0.00004483   -0.00125837
     atom   11 type  1   force =     0.00000822   -0.00033820   -0.00083800
     atom   12 type  1   force =    -0.00014365   -0.00006684    0.00122342
     atom   13 type  2   force =    -0.00000184   -0.00000310    0.00120130
     atom   14 type  2   force =    -0.00000234   -0.00000927   -0.00057313
     atom   15 type  2   force =    -0.00000478    0.00000098   -0.00058661
     atom   16 type  2   force =    -0.00000011   -0.00000460    0.00004327
     atom   17 type  2   force =    -0.00000168   -0.00000634    0.00010439
     atom   18 type  2   force =     0.00000214   -0.00000931   -0.00055581
     atom   19 type  2   force =     0.00000125    0.00000092   -0.00061602
     atom   20 type  2   force =    -0.00000009   -0.00000717    0.00116499
     atom   21 type  2   force =    -0.00000163   -0.00000265   -0.00029422
     atom   22 type  2   force =    -0.00000005   -0.00000533    0.00006954
     atom   23 type  2   force =    -0.00000185   -0.00000330   -0.00029481
     atom   24 type  2   force =     0.00000254   -0.00001047    0.00008959
     atom   25 type  2   force =    -0.00000204   -0.00000266   -0.00029668
     atom   26 type  2   force =    -0.00000010   -0.00000225    0.00008217
     atom   27 type  2   force =    -0.00000181   -0.00000295   -0.00029170
     atom   28 type  2   force =    -0.00000264   -0.00001041    0.00008879
     atom   29 type  2   force =    -0.00000174   -0.00000237   -0.00002133
     atom   30 type  2   force =     0.00000008   -0.00000612    0.00002037
     atom   31 type  2   force =    -0.00000177   -0.00000232   -0.00002293
     atom   32 type  2   force =     0.00000006   -0.00000642    0.00001881
     atom   33 type  2   force =    -0.00000179   -0.00000240   -0.00002232
     atom   34 type  2   force =    -0.00000003   -0.00000610    0.00002010
     atom   35 type  2   force =    -0.00000169   -0.00000230   -0.00002300
     atom   36 type  2   force =    -0.00000001   -0.00000638    0.00001617

     Total force =     0.004672     Total SCF correction =     0.000304

     Writing all to output data dir ./tmp/AGC_N3_s01_far8.save/ :
     XML data file, charge density, pseudopotentials, collected wavefunctions
 
     init_run     :     27.00s CPU     28.12s WALL (       1 calls)
     electrons    :   2707.62s CPU   2762.94s WALL (       1 calls)
     forces       :     13.55s CPU     13.99s WALL (       1 calls)
     force_dftd3  :      0.01s CPU      0.01s WALL (       1 calls)

     Called by init_run:
     wfcinit      :     18.88s CPU     19.81s WALL (       1 calls)
     potinit      :      7.15s CPU      7.20s WALL (       1 calls)
     hinit0       :      0.39s CPU      0.43s WALL (       1 calls)

     Called by electrons:
     c_bands      :   2035.07s CPU   2075.23s WALL (      42 calls)
     sum_band     :    412.51s CPU    425.42s WALL (      42 calls)
     v_of_rho     :      7.61s CPU      8.23s WALL (      43 calls)
     newd         :      5.87s CPU      5.90s WALL (      43 calls)
                                        5.90s GPU  (      43 calls)
     PAW_pot      :    178.13s CPU    178.09s WALL (      43 calls)
     mix_rho      :     71.42s CPU     72.67s WALL (      42 calls)
     energy_dftd3 :      0.00s CPU      0.00s WALL (       1 calls)

     Called by c_bands:
     init_us_2    :     97.89s CPU     98.21s WALL (    1720 calls)
     cegterg      :   1894.27s CPU   1895.54s WALL (     840 calls)

     Called by *egterg:
     cdiaghg      :    117.64s CPU    117.92s WALL (    4377 calls)
                                      113.80s GPU  (    4377 calls)
     h_psi        :    976.95s CPU    982.99s WALL (    4397 calls)
                                      980.55s GPU  (    4397 calls)
     s_psi        :    105.33s CPU    105.43s WALL (    4397 calls)
     g_psi        :      0.02s CPU      3.88s WALL (    3537 calls)
                                        1.21s GPU  (    3537 calls)

     Called by h_psi:
     h_psi:calbec :      0.28s CPU    190.95s WALL (    4397 calls)
                                      188.83s GPU  (    4397 calls)
     vloc_psi     :    566.92s CPU    569.42s WALL (    4397 calls)
                                      567.15s GPU  (    4397 calls)
     add_vuspsi   :     68.15s CPU    206.69s WALL (    4397 calls)
                                      204.55s GPU  (    4397 calls)

     General routines
     calbec       :      0.32s CPU      0.32s WALL (    5317 calls)
     fft          :      2.25s CPU      3.33s WALL (     568 calls)
                                        0.56s GPU  (     525 calls)
     ffts         :      0.81s CPU      4.91s WALL (    4502 calls)
                                        1.55s GPU  (    4459 calls)
     fftw         :      1.11s CPU    342.23s WALL (   61140 calls)
                                      303.44s GPU  (   61140 calls)
     interpolate  :      3.18s CPU      3.56s WALL (      43 calls)
     davcio       :      2.14s CPU     53.84s WALL (    3326 calls)
 
     Parallel routines
 
     PWSCF        :  45m48.58s CPU  46m46.45s WALL

 
   This run was terminated on:  11:37:10   5Oct2026            

=------------------------------------------------------------------------------=
   JOB DONE.
=------------------------------------------------------------------------------=
