
     Program PWSCF v.7.4.1 starts on  4Oct2026 at 12:57:11 

     This program is part of the open-source Quantum ESPRESSO suite
     for quantum simulation of materials; please cite
         "P. Giannozzi et al., J. Phys.:Condens. Matter 21 395502 (2009);
         "P. Giannozzi et al., J. Phys.:Condens. Matter 29 465901 (2017);
         "P. Giannozzi et al., J. Chem. Phys. 152 154105 (2020);
          URL http://www.quantum-espresso.org", 
     in publications or presentations arising from this work. More details at
     http://www.quantum-espresso.org/quote

     Parallel version (MPI & OpenMP), running on       1 processor cores
     Number of MPI processes:                 1
     Threads/MPI process:                     1

     MPI processes distributed on     1 nodes
     8187 MiB available memory on the printing compute node when the environment starts
 
     Reading input from pw.in

     Current dimensions of program PWSCF are:
     Max number of different atomic species (ntypx) = 10
     Max number of k-points (npk) =  40000
     Max angular momentum in pseudopotentials (lmaxx) =  4
     Presently no symmetry can be used with electric field

     file C.pbe-n-kjpaw_psl.1.0.0.UPF: wavefunction(s)  2S 2P renormalized
 
     Subspace diagonalization in iterative solution of the eigenvalue problem:
     a serial algorithm will be used

 
     G-vector sticks info
     --------------------
     sticks:   dense  smooth     PW     G-vecs:    dense   smooth      PW
     Sum        3193    1273    367              1013709   256635   40105
 
     Using Slab Decomposition
 


     bravais-lattice index     =            0
     lattice parameter (alat)  =       9.4208  a.u.
     unit-cell volume          =    5061.5040 (a.u.)^3
     number of atoms/cell      =           36
     number of atomic types    =            2
     number of electrons       =       324.00
     number of Kohn-Sham states=          194
     kinetic-energy cutoff     =      52.0000  Ry
     charge density cutoff     =     520.0000  Ry
     scf convergence threshold =      1.0E-08
     mixing beta               =       0.3000
     number of iterations used =            8  local-TF  mixing
     Exchange-correlation= SLA  PW   PBX  PBC
                           (   1   4   3   4   0   0   0)

     GPU acceleration is ACTIVE.  1 visible GPUs per MPI rank


     celldm(1)=   9.420781  celldm(2)=   0.000000  celldm(3)=   0.000000
     celldm(4)=   0.000000  celldm(5)=   0.000000  celldm(6)=   0.000000

     crystal axes: (cart. coord. in units of alat)
               a(1) = (   1.000000  -0.000000   0.000000 )  
               a(2) = (   0.500000   0.866025   0.000000 )  
               a(3) = (   0.000000   0.000000   6.990177 )  

     reciprocal axes: (cart. coord. in units 2 pi/alat)
               b(1) = (  1.000000 -0.577350  0.000000 )  
               b(2) = (  0.000000  1.154701 -0.000000 )  
               b(3) = ( -0.000000  0.000000  0.143058 )  


     PseudoPot. # 1 for Ag read from file:
     /home/kgy/work/pseudo/Ag_ONCV_PBE-1.0.oncvpsp.upf
     MD5 check sum: 94f47bd0669c641108e45594df92fabc
     Pseudo is Norm-conserving, Zval = 19.0
     Generated using ONCVPSP code by D. R. Hamann
     Using radial grid of 1398 points,  6 beta functions with: 
                l(1) =   0
                l(2) =   0
                l(3) =   1
                l(4) =   1
                l(5) =   2
                l(6) =   2

     PseudoPot. # 2 for C  read from file:
     /home/kgy/work/pseudo/C.pbe-n-kjpaw_psl.1.0.0.UPF
     MD5 check sum: 5d2aebdfa2cae82b50a7e79e9516da0f
     Pseudo is Projector augmented-wave + core cor, Zval =  4.0
     Generated using "atomic" code by A. Dal Corso  v.5.1
     Shape of augmentation charge: PSQ
     Using radial grid of 1073 points,  4 beta functions with: 
                l(1) =   0
                l(2) =   0
                l(3) =   1
                l(4) =   1
     Q(r) pseudized with 0 coefficients 


     atomic species   valence    mass     pseudopotential
     Ag               19.00   107.86820     Ag( 1.00)
     C                 4.00    12.01100     C ( 1.00)

     No symmetry found



   Cartesian axes

     site n.     atom                  positions (alat units)
         1        Ag     tau(   1) = (   0.3337695   0.5765948   0.5717001  )
         2        Ag     tau(   2) = (   0.8337695   0.8652699   0.5717001  )
         3        Ag     tau(   3) = (   0.1658131   0.2881628   1.0404978  )
         4        Ag     tau(   4) = (   0.5004501   0.2909658   0.1002956  )
         5        Ag     tau(   5) = (   0.8337695   0.2879196   0.5717001  )
         6        Ag     tau(   6) = (   0.6657286   0.5768865   1.0406295  )
         7        Ag     tau(   7) = (   0.5013979   0.2880440   1.5121792  )
         8        Ag     tau(   8) = (   1.0004501   0.5796409   0.1002956  )
         9        Ag     tau(   9) = (   1.0014376   0.5767316   1.5111335  )
        10        Ag     tau(  10) = (   0.6658079  -0.0004107   1.0405249  )
        11        Ag     tau(  11) = (   1.0004501   0.0022906   0.1002956  )
        12        Ag     tau(  12) = (   1.0014053  -0.0005819   1.5121715  )
        13        C      tau(  13) = (   0.5004501   0.2909658   2.2190386  )
        14        C      tau(  14) = (   0.7504501   0.4353033   2.2198054  )
        15        C      tau(  15) = (   0.7504501   0.7239785   2.2196986  )
        16        C      tau(  16) = (   1.0004501   0.8683160   2.2198042  )
        17        C      tau(  17) = (   1.0004501   0.2909658   2.2196976  )
        18        C      tau(  18) = (   1.2504501   0.4353033   2.2198041  )
        19        C      tau(  19) = (   1.2504501   0.7239785   2.2196989  )
        20        C      tau(  20) = (   1.5004501   0.8683160   2.2191871  )
        21        C      tau(  21) = (   0.7504501   0.4353033   2.9038731  )
        22        C      tau(  22) = (   1.0004501   0.5796409   2.9038148  )
        23        C      tau(  23) = (   1.0004501   0.8683160   2.9038731  )
        24        C      tau(  24) = (   1.2504501   1.0126536   2.9038027  )
        25        C      tau(  25) = (   1.2504501   0.4353033   2.9038731  )
        26        C      tau(  26) = (   1.5004501   0.5796409   2.9038027  )
        27        C      tau(  27) = (   1.5004501   0.8683160   2.9038677  )
        28        C      tau(  28) = (   1.7504501   1.0126536   2.9038026  )
        29        C      tau(  29) = (   0.5004501   0.2909658   3.5849148  )
        30        C      tau(  30) = (   0.7504501   0.4353033   3.5847877  )
        31        C      tau(  31) = (   0.7504501   0.7239785   3.5849164  )
        32        C      tau(  32) = (   1.0004501   0.8683160   3.5847877  )
        33        C      tau(  33) = (   1.0004501   0.2909658   3.5849164  )
        34        C      tau(  34) = (   1.2504501   0.4353033   3.5847877  )
        35        C      tau(  35) = (   1.2504501   0.7239785   3.5849164  )
        36        C      tau(  36) = (   1.5004501   0.8683160   3.5847897  )

     --------------------------------------------
     DFT-D3 Dispersion Correction (no 3-body):
     --------------------------------------------
       Reference C6 values for interpolation: 

         atom   Coordination number   C6
         C          0.000            98.23
         C          0.987            86.49
         C          1.998            58.72
         C          2.999            51.56
         C          3.984            36.41
         Ag         0.000           853.49
         Ag         0.968           537.23

       Values used:

         atom   Coordination number  R0_AB[au]  C6      C8
         Ag         9.096            3.147    537.23  47741.54
         Ag         9.096            3.147    537.23  47741.54
         Ag         9.100            3.147    537.23  47741.54
         Ag         6.766            3.147    537.23  47741.54
         Ag         9.096            3.147    537.23  47741.54
         Ag         9.099            3.147    537.23  47741.54
         Ag         6.806            3.147    537.23  47741.54
         Ag         6.766            3.147    537.23  47741.54
         Ag         6.818            3.147    537.23  47741.54
         Ag         9.100            3.147    537.23  47741.54
         Ag         6.766            3.147    537.23  47741.54
         Ag         6.806            3.147    537.23  47741.54
         C          3.292            2.750     48.71   1408.67
         C          3.290            2.750     48.76   1410.13
         C          3.290            2.750     48.76   1410.21
         C          3.290            2.750     48.76   1410.12
         C          3.290            2.750     48.76   1410.21
         C          3.290            2.750     48.76   1410.12
         C          3.290            2.750     48.76   1410.21
         C          3.293            2.750     48.70   1408.60
         C          3.281            2.750     48.91   1414.62
         C          3.281            2.750     48.92   1414.79
         C          3.281            2.750     48.91   1414.62
         C          3.281            2.750     48.92   1414.79
         C          3.281            2.750     48.91   1414.62
         C          3.281            2.750     48.92   1414.79
         C          3.281            2.750     48.91   1414.62
         C          3.281            2.750     48.92   1414.79
         C          3.274            2.750     49.03   1417.93
         C          3.275            2.750     49.02   1417.84
         C          3.274            2.750     49.03   1417.93
         C          3.275            2.750     49.02   1417.84
         C          3.274            2.750     49.03   1417.93
         C          3.275            2.750     49.02   1417.84
         C          3.274            2.750     49.03   1417.93
         C          3.275            2.750     49.02   1417.84

         Molecular C6 ( Ry / a.u.^6 ) =    198604.16


     number of k points=    20  Marzari-Vanderbilt smearing, width (Ry)=  0.0100
                       cart. coord. in units 2pi/alat
        k(    1) = (   0.0000000   0.0000000   0.0000000), wk =   0.0555556
        k(    2) = (   0.0000000   0.1924501   0.0000000), wk =   0.1111111
        k(    3) = (   0.0000000   0.3849002   0.0000000), wk =   0.1111111
        k(    4) = (   0.0000000  -0.5773503   0.0000000), wk =   0.0555556
        k(    5) = (   0.1666667  -0.0962250   0.0000000), wk =   0.1111111
        k(    6) = (   0.1666667   0.0962250   0.0000000), wk =   0.1111111
        k(    7) = (   0.1666667   0.2886751   0.0000000), wk =   0.1111111
        k(    8) = (   0.1666667  -0.6735753   0.0000000), wk =   0.1111111
        k(    9) = (   0.1666667  -0.4811252   0.0000000), wk =   0.1111111
        k(   10) = (   0.1666667  -0.2886751   0.0000000), wk =   0.1111111
        k(   11) = (   0.3333333  -0.1924501   0.0000000), wk =   0.1111111
        k(   12) = (   0.3333333  -0.0000000   0.0000000), wk =   0.1111111
        k(   13) = (   0.3333333   0.1924501   0.0000000), wk =   0.1111111
        k(   14) = (   0.3333333  -0.7698004   0.0000000), wk =   0.1111111
        k(   15) = (   0.3333333  -0.5773503   0.0000000), wk =   0.1111111
        k(   16) = (   0.3333333  -0.3849002   0.0000000), wk =   0.1111111
        k(   17) = (  -0.5000000   0.2886751   0.0000000), wk =   0.0555556
        k(   18) = (  -0.5000000   0.4811252   0.0000000), wk =   0.1111111
        k(   19) = (  -0.5000000   0.6735753   0.0000000), wk =   0.1111111
        k(   20) = (  -0.5000000  -0.2886751   0.0000000), wk =   0.0555556

     Dense  grid:  1013709 G-vectors     FFT dimensions: (  72,  72, 480)

     Smooth grid:   256635 G-vectors     FFT dimensions: (  45,  45, 320)

     Estimated max dynamical RAM per process >       2.73 GB

     Check: negative core charge=   -0.000002

     Initial potential from superposition of free atoms

     starting charge     323.9955, renormalised to     324.0000

     negative rho (up, down):  2.365E-04 0.000E+00
 
     Adding external electric field

     Computed dipole along edir(3) : 
        Dipole               -0.0066 Ry au,         -0.0168 Debye
        Dipole field         -0.0000 Ry au, 
 
        Potential amp.        0.0021 Ry
        Total length         63.9630 bohr
 
     Starting wfcs are  216 randomized atomic wfcs
     Checking if some PAW data can be deallocated... 

     total cpu time spent up to now is       28.7 secs

     Self-consistent Calculation

     iteration #  1     ecut=    52.00 Ry     beta= 0.30
     Davidson diagonalization with overlap
     ethr =  1.00E-02,  avg # of iterations =  7.6

     negative rho (up, down):  1.625E-07 0.000E+00
 
     Adding external electric field

     Computed dipole along edir(3) : 
        Dipole               -0.1511 Ry au,         -0.3841 Debye
        Dipole field         -0.0004 Ry au, 
 
        Potential amp.        0.0480 Ry
        Total length         63.9630 bohr
 

     total cpu time spent up to now is      116.5 secs

     total energy              =   -3891.67599299 Ry
     estimated scf accuracy    <       3.41340461 Ry

     iteration #  2     ecut=    52.00 Ry     beta= 0.30
     Davidson diagonalization with overlap
     ethr =  1.05E-03,  avg # of iterations =  3.4

     negative rho (up, down):  1.492E-07 0.000E+00
 
     Adding external electric field

     Computed dipole along edir(3) : 
        Dipole               -0.5114 Ry au,         -1.2999 Debye
        Dipole field         -0.0013 Ry au, 
 
        Potential amp.        0.1624 Ry
        Total length         63.9630 bohr
 

     total cpu time spent up to now is      179.5 secs

     total energy              =   -3891.03766065 Ry
     estimated scf accuracy    <       1.82169575 Ry

     iteration #  3     ecut=    52.00 Ry     beta= 0.30
     Davidson diagonalization with overlap
     ethr =  5.62E-04,  avg # of iterations =  8.2
 
     Adding external electric field

     Computed dipole along edir(3) : 
        Dipole               -0.6463 Ry au,         -1.6427 Debye
        Dipole field         -0.0016 Ry au, 
 
        Potential amp.        0.2053 Ry
        Total length         63.9630 bohr
 

     total cpu time spent up to now is      261.4 secs

     total energy              =   -3891.15748309 Ry
     estimated scf accuracy    <       0.48449477 Ry

     iteration #  4     ecut=    52.00 Ry     beta= 0.30
     Davidson diagonalization with overlap
     ethr =  1.50E-04,  avg # of iterations =  6.6
 
     Adding external electric field

     Computed dipole along edir(3) : 
        Dipole               -0.6753 Ry au,         -1.7165 Debye
        Dipole field         -0.0017 Ry au, 
 
        Potential amp.        0.2145 Ry
        Total length         63.9630 bohr
 

     total cpu time spent up to now is      335.4 secs

     total energy              =   -3891.16172125 Ry
     estimated scf accuracy    <       0.49337045 Ry

     iteration #  5     ecut=    52.00 Ry     beta= 0.30
     Davidson diagonalization with overlap
     ethr =  1.50E-04,  avg # of iterations =  1.7

     negative rho (up, down):  8.773E-06 0.000E+00
 
     Adding external electric field

     Computed dipole along edir(3) : 
        Dipole               -0.5758 Ry au,         -1.4636 Debye
        Dipole field         -0.0014 Ry au, 
 
        Potential amp.        0.1829 Ry
        Total length         63.9630 bohr
 

     total cpu time spent up to now is      391.5 secs

     total energy              =   -3891.15637920 Ry
     estimated scf accuracy    <       0.49461337 Ry

     iteration #  6     ecut=    52.00 Ry     beta= 0.30
     Davidson diagonalization with overlap
     ethr =  1.50E-04,  avg # of iterations =  1.0

     negative rho (up, down):  2.229E-05 0.000E+00
 
     Adding external electric field

     Computed dipole along edir(3) : 
        Dipole               -1.2615 Ry au,         -3.2063 Debye
        Dipole field         -0.0031 Ry au, 
 
        Potential amp.        0.4006 Ry
        Total length         63.9630 bohr
 

     total cpu time spent up to now is      445.2 secs

     total energy              =   -3891.09576180 Ry
     estimated scf accuracy    <       0.63542630 Ry

     iteration #  7     ecut=    52.00 Ry     beta= 0.30
     Davidson diagonalization with overlap
     ethr =  1.50E-04,  avg # of iterations =  9.9

     negative rho (up, down):  1.416E-05 0.000E+00
 
     Adding external electric field

     Computed dipole along edir(3) : 
        Dipole               -1.0502 Ry au,         -2.6694 Debye
        Dipole field         -0.0026 Ry au, 
 
        Potential amp.        0.3336 Ry
        Total length         63.9630 bohr
 

     total cpu time spent up to now is      527.2 secs

     total energy              =   -3891.09724622 Ry
     estimated scf accuracy    <       0.52846506 Ry

     iteration #  8     ecut=    52.00 Ry     beta= 0.30
     Davidson diagonalization with overlap
     ethr =  1.50E-04,  avg # of iterations =  1.6

     negative rho (up, down):  1.653E-07 0.000E+00
 
     Adding external electric field

     Computed dipole along edir(3) : 
        Dipole               -1.0503 Ry au,         -2.6696 Debye
        Dipole field         -0.0026 Ry au, 
 
        Potential amp.        0.3336 Ry
        Total length         63.9630 bohr
 

     total cpu time spent up to now is      586.3 secs

     total energy              =   -3891.10768866 Ry
     estimated scf accuracy    <       0.15499941 Ry

     iteration #  9     ecut=    52.00 Ry     beta= 0.30
     Davidson diagonalization with overlap
     c_bands:  1 eigenvalues not converged
     ethr =  4.78E-05,  avg # of iterations =  4.1

     negative rho (up, down):  2.947E-06 0.000E+00
 
     Adding external electric field

     Computed dipole along edir(3) : 
        Dipole               -0.7057 Ry au,         -1.7938 Debye
        Dipole field         -0.0018 Ry au, 
 
        Potential amp.        0.2241 Ry
        Total length         63.9630 bohr
 

     total cpu time spent up to now is      651.6 secs

     total energy              =   -3891.09108750 Ry
     estimated scf accuracy    <       0.22857543 Ry

     iteration # 10     ecut=    52.00 Ry     beta= 0.30
     Davidson diagonalization with overlap
     ethr =  4.78E-05,  avg # of iterations =  9.3

     negative rho (up, down):  1.614E-06 0.000E+00
 
     Adding external electric field

     Computed dipole along edir(3) : 
        Dipole               -0.7813 Ry au,         -1.9858 Debye
        Dipole field         -0.0019 Ry au, 
 
        Potential amp.        0.2481 Ry
        Total length         63.9630 bohr
 

     total cpu time spent up to now is      732.1 secs

     total energy              =   -3891.09784475 Ry
     estimated scf accuracy    <       0.04354985 Ry

     iteration # 11     ecut=    52.00 Ry     beta= 0.30
     Davidson diagonalization with overlap
     ethr =  1.34E-05,  avg # of iterations =  6.0

     negative rho (up, down):  3.253E-06 0.000E+00
 
     Adding external electric field

     Computed dipole along edir(3) : 
        Dipole               -0.6904 Ry au,         -1.7549 Debye
        Dipole field         -0.0017 Ry au, 
 
        Potential amp.        0.2193 Ry
        Total length         63.9630 bohr
 

     total cpu time spent up to now is      803.5 secs

     total energy              =   -3891.09711798 Ry
     estimated scf accuracy    <       0.09559551 Ry

     iteration # 12     ecut=    52.00 Ry     beta= 0.30
     Davidson diagonalization with overlap
     ethr =  1.34E-05,  avg # of iterations =  2.9

     negative rho (up, down):  8.586E-06 0.000E+00
 
     Adding external electric field

     Computed dipole along edir(3) : 
        Dipole               -0.5442 Ry au,         -1.3832 Debye
        Dipole field         -0.0014 Ry au, 
 
        Potential amp.        0.1728 Ry
        Total length         63.9630 bohr
 

     total cpu time spent up to now is      864.9 secs

     total energy              =   -3891.09490523 Ry
     estimated scf accuracy    <       0.04729930 Ry

     iteration # 13     ecut=    52.00 Ry     beta= 0.30
     Davidson diagonalization with overlap
     ethr =  1.34E-05,  avg # of iterations =  9.1

     negative rho (up, down):  3.014E-06 0.000E+00
 
     Adding external electric field

     Computed dipole along edir(3) : 
        Dipole               -0.6631 Ry au,         -1.6854 Debye
        Dipole field         -0.0016 Ry au, 
 
        Potential amp.        0.2106 Ry
        Total length         63.9630 bohr
 

     total cpu time spent up to now is      943.5 secs

     total energy              =   -3891.09606767 Ry
     estimated scf accuracy    <       0.02900813 Ry

     iteration # 14     ecut=    52.00 Ry     beta= 0.30
     Davidson diagonalization with overlap
     c_bands:  1 eigenvalues not converged
     c_bands:  1 eigenvalues not converged
     c_bands:  1 eigenvalues not converged
     c_bands:  1 eigenvalues not converged
     c_bands:  1 eigenvalues not converged
     c_bands:  1 eigenvalues not converged
     ethr =  8.95E-06,  avg # of iterations =  9.8

     negative rho (up, down):  2.765E-06 0.000E+00
 
     Adding external electric field

     Computed dipole along edir(3) : 
        Dipole               -0.6833 Ry au,         -1.7367 Debye
        Dipole field         -0.0017 Ry au, 
 
        Potential amp.        0.2170 Ry
        Total length         63.9630 bohr
 

     total cpu time spent up to now is     1023.7 secs

     total energy              =   -3891.09746720 Ry
     estimated scf accuracy    <       0.04184330 Ry

     iteration # 15     ecut=    52.00 Ry     beta= 0.30
     Davidson diagonalization with overlap
     ethr =  8.95E-06,  avg # of iterations =  1.4

     negative rho (up, down):  3.618E-04 0.000E+00
 
     Adding external electric field

     Computed dipole along edir(3) : 
        Dipole               -0.5379 Ry au,         -1.3673 Debye
        Dipole field         -0.0013 Ry au, 
 
        Potential amp.        0.1709 Ry
        Total length         63.9630 bohr
 

     total cpu time spent up to now is     1081.1 secs

     total energy              =   -3891.09502399 Ry
     estimated scf accuracy    <       0.04494715 Ry

     iteration # 16     ecut=    52.00 Ry     beta= 0.30
     Davidson diagonalization with overlap
     ethr =  8.95E-06,  avg # of iterations =  9.9

     negative rho (up, down):  3.362E-04 0.000E+00
 
     Adding external electric field

     Computed dipole along edir(3) : 
        Dipole               -0.4406 Ry au,         -1.1198 Debye
        Dipole field         -0.0011 Ry au, 
 
        Potential amp.        0.1399 Ry
        Total length         63.9630 bohr
 

     total cpu time spent up to now is     1164.5 secs

     total energy              =   -3891.09373732 Ry
     estimated scf accuracy    <       0.06002766 Ry

     iteration # 17     ecut=    52.00 Ry     beta= 0.30
     Davidson diagonalization with overlap
     ethr =  8.95E-06,  avg # of iterations =  6.4

     negative rho (up, down):  7.298E-05 0.000E+00
 
     Adding external electric field

     Computed dipole along edir(3) : 
        Dipole               -0.4522 Ry au,         -1.1493 Debye
        Dipole field         -0.0011 Ry au, 
 
        Potential amp.        0.1436 Ry
        Total length         63.9630 bohr
 

     total cpu time spent up to now is     1235.6 secs

     total energy              =   -3891.09338436 Ry
     estimated scf accuracy    <       0.02324810 Ry

     iteration # 18     ecut=    52.00 Ry     beta= 0.30
     Davidson diagonalization with overlap
     ethr =  7.18E-06,  avg # of iterations =  2.0

     negative rho (up, down):  2.148E-06 0.000E+00
 
     Adding external electric field

     Computed dipole along edir(3) : 
        Dipole               -0.7181 Ry au,         -1.8252 Debye
        Dipole field         -0.0018 Ry au, 
 
        Potential amp.        0.2281 Ry
        Total length         63.9630 bohr
 

     total cpu time spent up to now is     1296.8 secs

     total energy              =   -3891.09195673 Ry
     estimated scf accuracy    <       0.02259807 Ry

     iteration # 19     ecut=    52.00 Ry     beta= 0.30
     Davidson diagonalization with overlap
     c_bands:  1 eigenvalues not converged
     c_bands:  1 eigenvalues not converged
     c_bands:  1 eigenvalues not converged
     c_bands:  1 eigenvalues not converged
     c_bands:  1 eigenvalues not converged
     c_bands:  1 eigenvalues not converged
     ethr =  6.97E-06,  avg # of iterations = 11.9

     negative rho (up, down):  5.384E-06 0.000E+00
 
     Adding external electric field

     Computed dipole along edir(3) : 
        Dipole               -0.7988 Ry au,         -2.0302 Debye
        Dipole field         -0.0020 Ry au, 
 
        Potential amp.        0.2537 Ry
        Total length         63.9630 bohr
 

     total cpu time spent up to now is     1385.5 secs

     total energy              =   -3891.09644739 Ry
     estimated scf accuracy    <       0.04292210 Ry

     iteration # 20     ecut=    52.00 Ry     beta= 0.30
     Davidson diagonalization with overlap
     ethr =  6.97E-06,  avg # of iterations =  4.5

     negative rho (up, down):  3.188E-06 0.000E+00
 
     Adding external electric field

     Computed dipole along edir(3) : 
        Dipole               -0.7667 Ry au,         -1.9487 Debye
        Dipole field         -0.0019 Ry au, 
 
        Potential amp.        0.2435 Ry
        Total length         63.9630 bohr
 

     total cpu time spent up to now is     1453.3 secs

     total energy              =   -3891.09476359 Ry
     estimated scf accuracy    <       0.05753995 Ry

     iteration # 21     ecut=    52.00 Ry     beta= 0.30
     Davidson diagonalization with overlap
     ethr =  6.97E-06,  avg # of iterations =  2.4

     negative rho (up, down):  1.981E-04 0.000E+00
 
     Adding external electric field

     Computed dipole along edir(3) : 
        Dipole               -0.6753 Ry au,         -1.7163 Debye
        Dipole field         -0.0017 Ry au, 
 
        Potential amp.        0.2145 Ry
        Total length         63.9630 bohr
 

     total cpu time spent up to now is     1514.1 secs

     total energy              =   -3891.09418194 Ry
     estimated scf accuracy    <       0.03514185 Ry

     iteration # 22     ecut=    52.00 Ry     beta= 0.30
     Davidson diagonalization with overlap
     ethr =  6.97E-06,  avg # of iterations =  7.6

     negative rho (up, down):  7.536E-05 0.000E+00
 
     Adding external electric field

     Computed dipole along edir(3) : 
        Dipole               -0.7196 Ry au,         -1.8291 Debye
        Dipole field         -0.0018 Ry au, 
 
        Potential amp.        0.2286 Ry
        Total length         63.9630 bohr
 

     total cpu time spent up to now is     1590.3 secs

     total energy              =   -3891.09420612 Ry
     estimated scf accuracy    <       0.03904005 Ry

     iteration # 23     ecut=    52.00 Ry     beta= 0.30
     Davidson diagonalization with overlap
     ethr =  6.97E-06,  avg # of iterations =  3.0

     negative rho (up, down):  4.803E-05 0.000E+00
 
     Adding external electric field

     Computed dipole along edir(3) : 
        Dipole               -0.7422 Ry au,         -1.8865 Debye
        Dipole field         -0.0018 Ry au, 
 
        Potential amp.        0.2357 Ry
        Total length         63.9630 bohr
 

     total cpu time spent up to now is     1653.6 secs

     total energy              =   -3891.09405984 Ry
     estimated scf accuracy    <       0.03194049 Ry

     iteration # 24     ecut=    52.00 Ry     beta= 0.30
     Davidson diagonalization with overlap
     ethr =  6.97E-06,  avg # of iterations =  2.7

     negative rho (up, down):  7.739E-05 0.000E+00
 
     Adding external electric field

     Computed dipole along edir(3) : 
        Dipole               -0.7241 Ry au,         -1.8405 Debye
        Dipole field         -0.0018 Ry au, 
 
        Potential amp.        0.2300 Ry
        Total length         63.9630 bohr
 

     total cpu time spent up to now is     1712.8 secs

     total energy              =   -3891.09363928 Ry
     estimated scf accuracy    <       0.03427583 Ry

     iteration # 25     ecut=    52.00 Ry     beta= 0.30
     Davidson diagonalization with overlap
     ethr =  6.97E-06,  avg # of iterations =  1.0

     negative rho (up, down):  1.542E-04 0.000E+00
 
     Adding external electric field

     Computed dipole along edir(3) : 
        Dipole               -0.6212 Ry au,         -1.5790 Debye
        Dipole field         -0.0015 Ry au, 
 
        Potential amp.        0.1973 Ry
        Total length         63.9630 bohr
 

     total cpu time spent up to now is     1768.0 secs

     total energy              =   -3891.09077404 Ry
     estimated scf accuracy    <       0.03002729 Ry

     iteration # 26     ecut=    52.00 Ry     beta= 0.30
     Davidson diagonalization with overlap
     ethr =  6.97E-06,  avg # of iterations =  8.3

     negative rho (up, down):  1.952E-04 0.000E+00
 
     Adding external electric field

     Computed dipole along edir(3) : 
        Dipole               -0.7118 Ry au,         -1.8091 Debye
        Dipole field         -0.0018 Ry au, 
 
        Potential amp.        0.2261 Ry
        Total length         63.9630 bohr
 

     total cpu time spent up to now is     1845.4 secs

     total energy              =   -3891.09309766 Ry
     estimated scf accuracy    <       0.01587916 Ry

     iteration # 27     ecut=    52.00 Ry     beta= 0.30
     Davidson diagonalization with overlap
     ethr =  4.90E-06,  avg # of iterations =  6.8

     negative rho (up, down):  3.754E-06 0.000E+00
 
     Adding external electric field

     Computed dipole along edir(3) : 
        Dipole               -0.4425 Ry au,         -1.1248 Debye
        Dipole field         -0.0011 Ry au, 
 
        Potential amp.        0.1406 Ry
        Total length         63.9630 bohr
 

     total cpu time spent up to now is     1917.5 secs

     total energy              =   -3891.08622930 Ry
     estimated scf accuracy    <       0.02808114 Ry

     iteration # 28     ecut=    52.00 Ry     beta= 0.30
     Davidson diagonalization with overlap
     c_bands:  2 eigenvalues not converged
     c_bands:  2 eigenvalues not converged
     c_bands:  2 eigenvalues not converged
     ethr =  4.90E-06,  avg # of iterations = 12.9

     negative rho (up, down):  1.871E-06 0.000E+00
 
     Adding external electric field

     Computed dipole along edir(3) : 
        Dipole               -0.4677 Ry au,         -1.1887 Debye
        Dipole field         -0.0012 Ry au, 
 
        Potential amp.        0.1485 Ry
        Total length         63.9630 bohr
 

     total cpu time spent up to now is     2011.6 secs

     total energy              =   -3891.08886192 Ry
     estimated scf accuracy    <       0.02560233 Ry

     iteration # 29     ecut=    52.00 Ry     beta= 0.30
     Davidson diagonalization with overlap
     ethr =  4.90E-06,  avg # of iterations =  2.0

     negative rho (up, down):  1.728E-06 0.000E+00
 
     Adding external electric field

     Computed dipole along edir(3) : 
        Dipole               -0.3740 Ry au,         -0.9507 Debye
        Dipole field         -0.0009 Ry au, 
 
        Potential amp.        0.1188 Ry
        Total length         63.9630 bohr
 

     total cpu time spent up to now is     2072.3 secs

     total energy              =   -3891.08886888 Ry
     estimated scf accuracy    <       0.01668306 Ry

     iteration # 30     ecut=    52.00 Ry     beta= 0.30
     Davidson diagonalization with overlap
     ethr =  4.90E-06,  avg # of iterations =  8.9

     negative rho (up, down):  1.779E-05 0.000E+00
 
     Adding external electric field

     Computed dipole along edir(3) : 
        Dipole               -0.2326 Ry au,         -0.5912 Debye
        Dipole field         -0.0006 Ry au, 
 
        Potential amp.        0.0739 Ry
        Total length         63.9630 bohr
 

     total cpu time spent up to now is     2152.1 secs

     total energy              =   -3891.08994698 Ry
     estimated scf accuracy    <       0.05559799 Ry

     iteration # 31     ecut=    52.00 Ry     beta= 0.30
     Davidson diagonalization with overlap
     ethr =  4.90E-06,  avg # of iterations =  9.7

     negative rho (up, down):  9.839E-06 0.000E+00
 
     Adding external electric field

     Computed dipole along edir(3) : 
        Dipole               -0.2403 Ry au,         -0.6107 Debye
        Dipole field         -0.0006 Ry au, 
 
        Potential amp.        0.0763 Ry
        Total length         63.9630 bohr
 

     total cpu time spent up to now is     2233.8 secs

     total energy              =   -3891.08998407 Ry
     estimated scf accuracy    <       0.07615539 Ry

     iteration # 32     ecut=    52.00 Ry     beta= 0.30
     Davidson diagonalization with overlap
     ethr =  4.90E-06,  avg # of iterations =  1.1

     negative rho (up, down):  1.858E-05 0.000E+00
 
     Adding external electric field

     Computed dipole along edir(3) : 
        Dipole               -0.2281 Ry au,         -0.5797 Debye
        Dipole field         -0.0006 Ry au, 
 
        Potential amp.        0.0724 Ry
        Total length         63.9630 bohr
 

     total cpu time spent up to now is     2289.2 secs

     total energy              =   -3891.09023615 Ry
     estimated scf accuracy    <       0.06686215 Ry

     iteration # 33     ecut=    52.00 Ry     beta= 0.30
     Davidson diagonalization with overlap
     ethr =  4.90E-06,  avg # of iterations =  1.0

     negative rho (up, down):  2.866E-05 0.000E+00
 
     Adding external electric field

     Computed dipole along edir(3) : 
        Dipole               -0.2254 Ry au,         -0.5729 Debye
        Dipole field         -0.0006 Ry au, 
 
        Potential amp.        0.0716 Ry
        Total length         63.9630 bohr
 

     total cpu time spent up to now is     2343.7 secs

     total energy              =   -3891.09038405 Ry
     estimated scf accuracy    <       0.07056164 Ry

     iteration # 34     ecut=    52.00 Ry     beta= 0.30
     Davidson diagonalization with overlap
     ethr =  4.90E-06,  avg # of iterations =  1.0

     negative rho (up, down):  2.031E-05 0.000E+00
 
     Adding external electric field

     Computed dipole along edir(3) : 
        Dipole               -0.2313 Ry au,         -0.5879 Debye
        Dipole field         -0.0006 Ry au, 
 
        Potential amp.        0.0735 Ry
        Total length         63.9630 bohr
 

     total cpu time spent up to now is     2398.8 secs

     total energy              =   -3891.09025398 Ry
     estimated scf accuracy    <       0.07639977 Ry

     iteration # 35     ecut=    52.00 Ry     beta= 0.30
     Davidson diagonalization with overlap
     ethr =  4.90E-06,  avg # of iterations =  1.0

     negative rho (up, down):  3.225E-05 0.000E+00
 
     Adding external electric field

     Computed dipole along edir(3) : 
        Dipole               -0.3120 Ry au,         -0.7931 Debye
        Dipole field         -0.0008 Ry au, 
 
        Potential amp.        0.0991 Ry
        Total length         63.9630 bohr
 

     total cpu time spent up to now is     2454.8 secs

     total energy              =   -3891.08892083 Ry
     estimated scf accuracy    <       0.07641383 Ry

     iteration # 36     ecut=    52.00 Ry     beta= 0.30
     Davidson diagonalization with overlap
     ethr =  4.90E-06,  avg # of iterations =  8.4

     negative rho (up, down):  1.360E-05 0.000E+00
 
     Adding external electric field

     Computed dipole along edir(3) : 
        Dipole               -0.2322 Ry au,         -0.5901 Debye
        Dipole field         -0.0006 Ry au, 
 
        Potential amp.        0.0737 Ry
        Total length         63.9630 bohr
 

     total cpu time spent up to now is     2534.4 secs

     total energy              =   -3891.09064594 Ry
     estimated scf accuracy    <       0.07012873 Ry

     iteration # 37     ecut=    52.00 Ry     beta= 0.30
     Davidson diagonalization with overlap
     ethr =  4.90E-06,  avg # of iterations =  6.8

     negative rho (up, down):  2.368E-05 0.000E+00
 
     Adding external electric field

     Computed dipole along edir(3) : 
        Dipole               -0.2958 Ry au,         -0.7518 Debye
        Dipole field         -0.0007 Ry au, 
 
        Potential amp.        0.0939 Ry
        Total length         63.9630 bohr
 

     total cpu time spent up to now is     2608.6 secs

     total energy              =   -3891.08998451 Ry
     estimated scf accuracy    <       0.08810669 Ry

     iteration # 38     ecut=    52.00 Ry     beta= 0.30
     Davidson diagonalization with overlap
     ethr =  4.90E-06,  avg # of iterations =  4.8

     negative rho (up, down):  4.986E-05 0.000E+00
 
     Adding external electric field

     Computed dipole along edir(3) : 
        Dipole               -0.6634 Ry au,         -1.6861 Debye
        Dipole field         -0.0016 Ry au, 
 
        Potential amp.        0.2107 Ry
        Total length         63.9630 bohr
 

     total cpu time spent up to now is     2676.8 secs

     total energy              =   -3891.08082823 Ry
     estimated scf accuracy    <       0.09385850 Ry

     iteration # 39     ecut=    52.00 Ry     beta= 0.30
     Davidson diagonalization with overlap
     c_bands:  1 eigenvalues not converged
     c_bands:  1 eigenvalues not converged
     c_bands:  2 eigenvalues not converged
     c_bands:  2 eigenvalues not converged
     c_bands:  2 eigenvalues not converged
     ethr =  4.90E-06,  avg # of iterations = 15.8

     negative rho (up, down):  4.691E-05 0.000E+00
 
     Adding external electric field

     Computed dipole along edir(3) : 
        Dipole               -0.1641 Ry au,         -0.4172 Debye
        Dipole field         -0.0004 Ry au, 
 
        Potential amp.        0.0521 Ry
        Total length         63.9630 bohr
 

     total cpu time spent up to now is     2782.1 secs

     total energy              =   -3891.07856404 Ry
     estimated scf accuracy    <       0.13328759 Ry

     iteration # 40     ecut=    52.00 Ry     beta= 0.30
     Davidson diagonalization with overlap
     ethr =  4.90E-06,  avg # of iterations = 12.3

     negative rho (up, down):  1.732E-03 0.000E+00
 
     Adding external electric field

     Computed dipole along edir(3) : 
        Dipole               -0.1642 Ry au,         -0.4174 Debye
        Dipole field         -0.0004 Ry au, 
 
        Potential amp.        0.0522 Ry
        Total length         63.9630 bohr
 

     total cpu time spent up to now is     2878.1 secs

     total energy              =   -3891.08367343 Ry
     estimated scf accuracy    <       0.09554451 Ry

     iteration # 41     ecut=    52.00 Ry     beta= 0.30
     Davidson diagonalization with overlap
     c_bands:  2 eigenvalues not converged
     c_bands:  2 eigenvalues not converged
     c_bands:  2 eigenvalues not converged
     ethr =  4.90E-06,  avg # of iterations = 11.9

     negative rho (up, down):  3.286E-03 0.000E+00
 
     Adding external electric field

     Computed dipole along edir(3) : 
        Dipole               -0.0274 Ry au,         -0.0697 Debye
        Dipole field         -0.0001 Ry au, 
 
        Potential amp.        0.0087 Ry
        Total length         63.9630 bohr
 

     total cpu time spent up to now is     2967.2 secs

     total energy              =   -3891.08535547 Ry
     estimated scf accuracy    <       0.02662186 Ry

     iteration # 42     ecut=    52.00 Ry     beta= 0.30
     Davidson diagonalization with overlap
     c_bands:  1 eigenvalues not converged
     c_bands:  1 eigenvalues not converged
     c_bands:  1 eigenvalues not converged
     ethr =  4.90E-06,  avg # of iterations = 10.0

     negative rho (up, down):  5.453E-03 0.000E+00
 
     Adding external electric field

     Computed dipole along edir(3) : 
        Dipole                0.0220 Ry au,          0.0559 Debye
        Dipole field          0.0001 Ry au, 
 
        Potential amp.       -0.0070 Ry
        Total length         63.9630 bohr
 

     total cpu time spent up to now is     3049.5 secs

     total energy              =   -3891.08678130 Ry
     estimated scf accuracy    <       0.01839200 Ry

     iteration # 43     ecut=    52.00 Ry     beta= 0.30
     Davidson diagonalization with overlap
     ethr =  4.90E-06,  avg # of iterations =  6.2

     negative rho (up, down):  3.825E-03 0.000E+00
 
     Adding external electric field

     Computed dipole along edir(3) : 
        Dipole                0.0033 Ry au,          0.0084 Debye
        Dipole field          0.0000 Ry au, 
 
        Potential amp.       -0.0011 Ry
        Total length         63.9630 bohr
 

     total cpu time spent up to now is     3122.6 secs

     total energy              =   -3891.08637784 Ry
     estimated scf accuracy    <       0.01430730 Ry

     iteration # 44     ecut=    52.00 Ry     beta= 0.30
     Davidson diagonalization with overlap
     ethr =  4.42E-06,  avg # of iterations =  6.3

     negative rho (up, down):  1.714E-03 0.000E+00
 
     Adding external electric field

     Computed dipole along edir(3) : 
        Dipole                0.0283 Ry au,          0.0720 Debye
        Dipole field          0.0001 Ry au, 
 
        Potential amp.       -0.0090 Ry
        Total length         63.9630 bohr
 

     total cpu time spent up to now is     3194.6 secs

     total energy              =   -3891.08650881 Ry
     estimated scf accuracy    <       0.00039480 Ry

     iteration # 45     ecut=    52.00 Ry     beta= 0.30
     Davidson diagonalization with overlap
     ethr =  1.22E-07,  avg # of iterations =  8.1

     negative rho (up, down):  1.626E-03 0.000E+00
 
     Adding external electric field

     Computed dipole along edir(3) : 
        Dipole                0.0263 Ry au,          0.0668 Debye
        Dipole field          0.0001 Ry au, 
 
        Potential amp.       -0.0084 Ry
        Total length         63.9630 bohr
 

     total cpu time spent up to now is     3274.1 secs

     total energy              =   -3891.08659804 Ry
     estimated scf accuracy    <       0.00560432 Ry

     iteration # 46     ecut=    52.00 Ry     beta= 0.30
     Davidson diagonalization with overlap
     ethr =  1.22E-07,  avg # of iterations =  1.0

     negative rho (up, down):  2.076E-04 0.000E+00
 
     Adding external electric field

     Computed dipole along edir(3) : 
        Dipole               -0.0057 Ry au,         -0.0145 Debye
        Dipole field         -0.0000 Ry au, 
 
        Potential amp.        0.0018 Ry
        Total length         63.9630 bohr
 

     total cpu time spent up to now is     3328.8 secs

     total energy              =   -3891.08628513 Ry
     estimated scf accuracy    <       0.00501704 Ry

     iteration # 47     ecut=    52.00 Ry     beta= 0.30
     Davidson diagonalization with overlap
     ethr =  1.22E-07,  avg # of iterations = 10.4

     negative rho (up, down):  4.162E-04 0.000E+00
 
     Adding external electric field

     Computed dipole along edir(3) : 
        Dipole                0.0260 Ry au,          0.0660 Debye
        Dipole field          0.0001 Ry au, 
 
        Potential amp.       -0.0082 Ry
        Total length         63.9630 bohr
 

     total cpu time spent up to now is     3415.0 secs

     total energy              =   -3891.08640950 Ry
     estimated scf accuracy    <       0.00317662 Ry

     iteration # 48     ecut=    52.00 Ry     beta= 0.30
     Davidson diagonalization with overlap
     ethr =  1.22E-07,  avg # of iterations =  5.2

     negative rho (up, down):  1.952E-04 0.000E+00
 
     Adding external electric field

     Computed dipole along edir(3) : 
        Dipole                0.0013 Ry au,          0.0033 Debye
        Dipole field          0.0000 Ry au, 
 
        Potential amp.       -0.0004 Ry
        Total length         63.9630 bohr
 

     total cpu time spent up to now is     3483.8 secs

     total energy              =   -3891.08639543 Ry
     estimated scf accuracy    <       0.00248360 Ry

     iteration # 49     ecut=    52.00 Ry     beta= 0.30
     Davidson diagonalization with overlap
     ethr =  1.22E-07,  avg # of iterations =  4.0

     negative rho (up, down):  2.573E-04 0.000E+00
 
     Adding external electric field

     Computed dipole along edir(3) : 
        Dipole                0.0197 Ry au,          0.0502 Debye
        Dipole field          0.0000 Ry au, 
 
        Potential amp.       -0.0063 Ry
        Total length         63.9630 bohr
 

     total cpu time spent up to now is     3549.3 secs

     total energy              =   -3891.08644373 Ry
     estimated scf accuracy    <       0.00161600 Ry

     iteration # 50     ecut=    52.00 Ry     beta= 0.30
     Davidson diagonalization with overlap
     ethr =  1.22E-07,  avg # of iterations =  2.3

     negative rho (up, down):  1.537E-04 0.000E+00
 
     Adding external electric field

     Computed dipole along edir(3) : 
        Dipole                0.0107 Ry au,          0.0272 Debye
        Dipole field          0.0000 Ry au, 
 
        Potential amp.       -0.0034 Ry
        Total length         63.9630 bohr
 

     total cpu time spent up to now is     3611.0 secs

     total energy              =   -3891.08648840 Ry
     estimated scf accuracy    <       0.00086808 Ry

     iteration # 51     ecut=    52.00 Ry     beta= 0.30
     Davidson diagonalization with overlap
     ethr =  1.22E-07,  avg # of iterations =  2.3

     negative rho (up, down):  2.607E-04 0.000E+00
 
     Adding external electric field

     Computed dipole along edir(3) : 
        Dipole                0.0130 Ry au,          0.0331 Debye
        Dipole field          0.0000 Ry au, 
 
        Potential amp.       -0.0041 Ry
        Total length         63.9630 bohr
 

     total cpu time spent up to now is     3671.2 secs

     total energy              =   -3891.08650626 Ry
     estimated scf accuracy    <       0.00000185 Ry

     iteration # 52     ecut=    52.00 Ry     beta= 0.30
     Davidson diagonalization with overlap
     ethr =  5.72E-10,  avg # of iterations =  3.5

     negative rho (up, down):  3.100E-04 0.000E+00
 
     Adding external electric field

     Computed dipole along edir(3) : 
        Dipole                0.0139 Ry au,          0.0355 Debye
        Dipole field          0.0000 Ry au, 
 
        Potential amp.       -0.0044 Ry
        Total length         63.9630 bohr
 

     total cpu time spent up to now is     3738.2 secs

     total energy              =   -3891.08650635 Ry
     estimated scf accuracy    <       0.00000078 Ry

     iteration # 53     ecut=    52.00 Ry     beta= 0.30
     Davidson diagonalization with overlap
     ethr =  2.40E-10,  avg # of iterations =  1.9

     negative rho (up, down):  3.256E-04 0.000E+00
 
     Adding external electric field

     Computed dipole along edir(3) : 
        Dipole                0.0143 Ry au,          0.0363 Debye
        Dipole field          0.0000 Ry au, 
 
        Potential amp.       -0.0045 Ry
        Total length         63.9630 bohr
 

     total cpu time spent up to now is     3798.3 secs

     total energy              =   -3891.08650639 Ry
     estimated scf accuracy    <       0.00000204 Ry

     iteration # 54     ecut=    52.00 Ry     beta= 0.30
     Davidson diagonalization with overlap
     ethr =  2.40E-10,  avg # of iterations =  1.0

     negative rho (up, down):  3.222E-04 0.000E+00
 
     Adding external electric field

     Computed dipole along edir(3) : 
        Dipole                0.0142 Ry au,          0.0361 Debye
        Dipole field          0.0000 Ry au, 
 
        Potential amp.       -0.0045 Ry
        Total length         63.9630 bohr
 

     total cpu time spent up to now is     3852.8 secs

     total energy              =   -3891.08650638 Ry
     estimated scf accuracy    <       0.00000125 Ry

     iteration # 55     ecut=    52.00 Ry     beta= 0.30
     Davidson diagonalization with overlap
     ethr =  2.40E-10,  avg # of iterations =  1.0

     negative rho (up, down):  2.972E-04 0.000E+00
 
     Adding external electric field

     Computed dipole along edir(3) : 
        Dipole                0.0139 Ry au,          0.0353 Debye
        Dipole field          0.0000 Ry au, 
 
        Potential amp.       -0.0044 Ry
        Total length         63.9630 bohr
 

     total cpu time spent up to now is     3907.1 secs

     total energy              =   -3891.08650640 Ry
     estimated scf accuracy    <       0.00000057 Ry

     iteration # 56     ecut=    52.00 Ry     beta= 0.30
     Davidson diagonalization with overlap
     ethr =  1.77E-10,  avg # of iterations =  1.0

     negative rho (up, down):  2.824E-04 0.000E+00
 
     Adding external electric field

     Computed dipole along edir(3) : 
        Dipole                0.0135 Ry au,          0.0343 Debye
        Dipole field          0.0000 Ry au, 
 
        Potential amp.       -0.0043 Ry
        Total length         63.9630 bohr
 

     total cpu time spent up to now is     3961.8 secs

     total energy              =   -3891.08650644 Ry
     estimated scf accuracy    <       0.00000009 Ry

     iteration # 57     ecut=    52.00 Ry     beta= 0.30
     Davidson diagonalization with overlap
     ethr =  2.72E-11,  avg # of iterations =  1.3

     negative rho (up, down):  2.635E-04 0.000E+00
 
     Adding external electric field

     Computed dipole along edir(3) : 
        Dipole                0.0130 Ry au,          0.0331 Debye
        Dipole field          0.0000 Ry au, 
 
        Potential amp.       -0.0041 Ry
        Total length         63.9630 bohr
 

     total cpu time spent up to now is     4019.3 secs

     total energy              =   -3891.08650648 Ry
     estimated scf accuracy    <       0.00000002 Ry

     iteration # 58     ecut=    52.00 Ry     beta= 0.30
     Davidson diagonalization with overlap
     ethr =  7.30E-12,  avg # of iterations =  2.0

     negative rho (up, down):  2.675E-04 0.000E+00
 
     Adding external electric field

     Computed dipole along edir(3) : 
        Dipole                0.0131 Ry au,          0.0332 Debye
        Dipole field          0.0000 Ry au, 
 
        Potential amp.       -0.0042 Ry
        Total length         63.9630 bohr
 

     total cpu time spent up to now is     4081.3 secs

     total energy              =   -3891.08650647 Ry
     estimated scf accuracy    <       0.00000002 Ry

     iteration # 59     ecut=    52.00 Ry     beta= 0.30
     Davidson diagonalization with overlap
     ethr =  7.30E-12,  avg # of iterations =  1.0

     negative rho (up, down):  2.696E-04 0.000E+00
 
     Adding external electric field

     Computed dipole along edir(3) : 
        Dipole                0.0129 Ry au,          0.0328 Debye
        Dipole field          0.0000 Ry au, 
 
        Potential amp.       -0.0041 Ry
        Total length         63.9630 bohr
 

     total cpu time spent up to now is     4134.1 secs

     End of self-consistent calculation

          k = 0.0000 0.0000 0.0000 ( 32011 PWs)   bands (ev):

   -87.1381 -87.1282 -87.1207 -87.1207 -87.1182 -87.1182 -86.9468 -86.9340
   -86.9318 -86.9197 -86.9063 -86.9062 -50.6483 -50.6220 -50.6219 -50.6213
   -50.6211 -50.6194 -50.6194 -50.5939 -50.5939 -50.5689 -50.5688 -50.5669
   -50.5668 -50.5629 -50.5207 -50.5204 -50.5070 -50.5066 -50.4300 -50.4298
   -50.4263 -50.4263 -50.4024 -50.4024 -50.4001 -50.4001 -50.3685 -50.3578
   -50.3553 -50.3400 -50.3394 -50.3391 -50.3281 -50.3281 -50.3124 -50.3120
   -14.4111 -14.3209 -14.2077  -9.2695  -9.2651  -9.2651  -9.2177  -9.2167
    -9.2167  -9.1701  -9.1700  -9.1700  -8.1290  -8.1267  -8.1267  -8.0812
    -8.0809  -8.0809  -8.0422  -8.0421  -8.0421  -3.1003  -2.5667  -2.4429
    -1.8112  -1.5718  -1.4195  -1.4195  -1.4165  -1.3728  -1.3728  -1.3727
    -1.3475  -1.3475  -1.3474  -1.3132  -1.1499  -0.6831  -0.6829  -0.6660
    -0.6652  -0.6620  -0.6614  -0.3185  -0.3184  -0.3123  -0.3122  -0.1237
    -0.1221  -0.1070  -0.1066   0.1247   0.1783   0.1792   0.2249   0.2265
     0.2901   0.2908   0.3012   0.3017   0.3147   0.4397   0.4406   0.4980
     0.5005   0.5872   0.5873   0.6160   0.6164   0.6323   0.6323   0.6528
     0.6529   1.0731   1.0743   1.1896   1.1938   1.2122   1.2123   1.2308
     1.2309   1.3324   1.3482   1.6066   1.6117   1.6257   1.6756   1.6822
     1.7913   1.8040   1.8589   1.8589   1.8647   1.8652   1.8664   1.8668
     1.9147   1.9147   1.9236   1.9236   1.9262   1.9335   2.3826   2.3826
     2.3874   2.6368   2.6368   2.6375   2.8523   2.8533   2.8533   4.0630
     5.2997   6.4076   6.4270   6.4270   6.5601   6.5724   6.5724   6.8866
     6.8936   6.8936   8.3970   8.3991   8.5795   8.5902   8.5905   8.5970
     8.5972   8.9800   9.3744   9.3767   9.3854   9.3869   9.5195   9.7815
     9.7894   9.9964  10.7291  11.0041  11.0448  11.0486  11.0509  11.0547
    11.2961  11.3157

          k = 0.0000 0.1925 0.0000 ( 32019 PWs)   bands (ev):

   -87.1368 -87.1273 -87.1218 -87.1214 -87.1185 -87.1184 -86.9457 -86.9345
   -86.9323 -86.9187 -86.9069 -86.9067 -50.6452 -50.6392 -50.6335 -50.6323
   -50.6274 -50.6034 -50.5966 -50.5858 -50.5812 -50.5714 -50.5654 -50.5648
   -50.5629 -50.5600 -50.5297 -50.5247 -50.5179 -50.5095 -50.4467 -50.4415
   -50.4201 -50.4147 -50.4062 -50.4037 -50.3793 -50.3766 -50.3676 -50.3582
   -50.3557 -50.3505 -50.3421 -50.3390 -50.3287 -50.3285 -50.3233 -50.3151
   -14.2494 -14.1599 -14.0477 -10.4926 -10.4225 -10.3344  -9.6469  -9.6449
    -9.5833  -9.5823  -9.5053  -9.5050  -7.5209  -7.5195  -7.4658  -7.4652
    -7.4004  -7.4002  -6.7055  -6.6498  -6.5833  -2.9051  -2.3599  -2.2081
    -1.8987  -1.8967  -1.8523  -1.8522  -1.8213  -1.8212  -1.6224  -1.3561
    -1.2604  -1.2146  -1.1896  -1.1336  -0.9633  -0.9628  -0.8342  -0.7782
    -0.7700  -0.6938  -0.5605  -0.4630  -0.3859  -0.3631  -0.3331  -0.2725
    -0.1757  -0.1550  -0.1502   0.0095   0.0911   0.1187   0.1922   0.2377
     0.3102   0.3248   0.3323   0.3627   0.3914   0.4130   0.4184   0.4549
     0.4882   0.5593   0.5608   0.6246   0.6393   0.7229   0.8214   0.9018
     0.9557   0.9983   1.0045   1.1072   1.1232   1.1926   1.2199   1.2241
     1.2679   1.2837   1.2929   1.3049   1.3174   1.3579   1.4660   1.4893
     1.5203   1.5374   1.5855   1.5988   1.6190   1.6580   1.6617   1.7569
     1.8142   1.8781   1.8905   1.9256   1.9534   2.0041   2.0717   2.1981
     2.2080   2.2975   2.3268   2.5354   2.5399   2.8690   2.8695   4.4183
     5.8217   5.8502   6.6289   6.6333   6.7213   6.8270   6.8283   7.0000
     7.1640   7.1648   7.3488   7.3553   7.6221   7.9231   8.0042   8.1855
     8.3913   8.7971   9.1934   9.6918   9.7325   9.8742  10.1813  10.2161
    10.3091  10.4714  10.9353  11.1872  11.2576  11.3246  11.3430  11.4828
    11.9930  12.1063

          k = 0.0000 0.3849 0.0000 ( 32055 PWs)   bands (ev):

   -87.1334 -87.1250 -87.1247 -87.1225 -87.1197 -87.1188 -86.9431 -86.9360
   -86.9334 -86.9159 -86.9090 -86.9074 -50.6524 -50.6449 -50.6371 -50.6307
   -50.6234 -50.5976 -50.5876 -50.5766 -50.5750 -50.5644 -50.5615 -50.5593
   -50.5507 -50.5489 -50.5461 -50.5457 -50.5312 -50.5184 -50.4592 -50.4360
   -50.4327 -50.4092 -50.3844 -50.3815 -50.3787 -50.3653 -50.3593 -50.3575
   -50.3568 -50.3537 -50.3521 -50.3509 -50.3363 -50.3305 -50.3293 -50.3240
   -13.7658 -13.6789 -13.5696 -11.8642 -11.7867 -11.6891 -10.0495 -10.0477
    -9.9811  -9.9800  -9.8957  -9.8954  -6.3919  -6.3904  -6.3387  -6.3382
    -6.2779  -6.2777  -4.6423  -4.5916  -4.5351  -3.0228  -3.0206  -2.9757
    -2.9755  -2.9360  -2.9359  -2.3251  -1.7787  -1.5661  -1.2108  -1.1110
    -1.1052  -1.0698  -0.8748  -0.8285  -0.8082  -0.8000  -0.7846  -0.7541
    -0.7300  -0.7171  -0.6420  -0.6235  -0.5794  -0.4793  -0.3998  -0.3986
    -0.3537  -0.3245  -0.2759  -0.2649  -0.2403  -0.1331  -0.1144  -0.0919
    -0.0688   0.0235   0.1331   0.1499   0.1938   0.2282   0.3005   0.3421
     0.3628   0.3750   0.4453   0.5611   0.5645   0.6013   0.6866   0.6997
     0.7018   0.7423   0.7686   0.7714   0.8155   0.8342   0.8948   0.9111
     0.9582   0.9789   1.0194   1.1487   1.1603   1.2315   1.2988   1.3499
     1.3834   1.3942   1.4520   1.5713   1.6093   1.6951   1.7496   1.7670
     1.8376   1.8714   1.9033   1.9351   1.9397   1.9823   1.9943   2.0167
     2.0839   2.1110   2.3565   2.3716   2.8170   2.8179   3.0665   3.6234
     4.3460   5.2578   5.7002   5.8572   6.3275   6.8453   7.0624   7.1397
     7.1554   7.2078   7.3718   7.3917   7.6565   7.6623   8.0127   9.1932
     9.4417   9.4490   9.6981   9.8060   9.8295  10.0340  10.3687  10.4699
    10.6205  10.7495  11.5462  11.7646  11.8256  12.0126  12.2143  12.2722
    12.3621  12.4109

          k = 0.0000-0.5774 0.0000 ( 32112 PWs)   bands (ev):

   -87.1290 -87.1289 -87.1229 -87.1221 -87.1221 -87.1190 -86.9408 -86.9378
   -86.9340 -86.9123 -86.9122 -86.9078 -50.6571 -50.6496 -50.6287 -50.6286
   -50.6027 -50.6025 -50.5894 -50.5833 -50.5832 -50.5674 -50.5571 -50.5548
   -50.5547 -50.5453 -50.5453 -50.5363 -50.5328 -50.5328 -50.4636 -50.4372
   -50.4136 -50.4111 -50.3853 -50.3853 -50.3717 -50.3667 -50.3643 -50.3637
   -50.3601 -50.3574 -50.3445 -50.3384 -50.3384 -50.3332 -50.3332 -50.3296
   -12.9668 -12.9662 -12.8839 -12.8833 -12.7793 -12.7791 -10.1931 -10.1914
   -10.1237 -10.1226 -10.0367 -10.0364  -5.5515  -5.5499  -5.5046  -5.5045
    -5.4707  -5.4706  -3.8825  -3.8798  -3.8346  -3.8345  -3.8088  -3.8088
    -2.4713  -2.4698  -2.4240  -2.4238  -2.3805  -2.3805  -1.3793  -1.3783
    -1.3642  -1.2727  -1.2074  -0.9580  -0.9159  -0.9153  -0.8542  -0.8517
    -0.8138  -0.6919  -0.6912  -0.5306  -0.5176  -0.5173  -0.4798  -0.4793
    -0.3855  -0.3848  -0.2485  -0.2479  -0.1677  -0.1673  -0.0866  -0.0862
    -0.0402  -0.0402  -0.0181  -0.0180   0.0268   0.0326   0.0336   0.0746
     0.1052   0.1065   0.2814   0.2818   0.2990   0.3322   0.3335   0.3823
     0.3846   0.6260   0.6264   0.6896   0.6907   0.8627   0.9145   0.9348
     0.9371   1.1313   1.1332   1.2179   1.2508   1.2512   1.4863   1.5220
     1.5223   1.6138   1.6141   1.6615   1.7211   1.7212   1.8110   1.8447
     1.8795   1.8854   1.8859   1.9802   2.0102   2.0675   2.0679   2.0972
     2.2266   2.2577   2.2733   2.2934   2.5452   2.5453   2.7750   2.7774
     4.1472   4.1474   5.0841   5.8963   6.4191   6.4195   6.4356   6.6360
     7.4734   7.4761   7.6632   7.6679   7.8779   7.8801   8.6696   8.6731
     9.0736   9.6400  10.3788  10.5265  10.5265  10.8795  10.8802  11.4191
    11.4200  11.5906  11.6956  11.6984  11.7772  11.7779  11.9547  11.9571
    12.1700  12.1717

          k = 0.1667-0.0962 0.0000 ( 32019 PWs)   bands (ev):

   -87.1368 -87.1273 -87.1217 -87.1214 -87.1185 -87.1184 -86.9457 -86.9345
   -86.9323 -86.9187 -86.9069 -86.9067 -50.6452 -50.6389 -50.6337 -50.6323
   -50.6277 -50.6028 -50.5967 -50.5862 -50.5811 -50.5713 -50.5655 -50.5648
   -50.5625 -50.5602 -50.5299 -50.5245 -50.5178 -50.5095 -50.4468 -50.4415
   -50.4199 -50.4148 -50.4063 -50.4036 -50.3791 -50.3768 -50.3676 -50.3582
   -50.3557 -50.3504 -50.3423 -50.3390 -50.3287 -50.3285 -50.3235 -50.3149
   -14.2494 -14.1599 -14.0477 -10.4926 -10.4225 -10.3344  -9.6469  -9.6449
    -9.5833  -9.5823  -9.5053  -9.5050  -7.5209  -7.5195  -7.4658  -7.4652
    -7.4004  -7.4002  -6.7055  -6.6498  -6.5833  -2.9051  -2.3599  -2.2080
    -1.8987  -1.8967  -1.8523  -1.8522  -1.8213  -1.8212  -1.6224  -1.3558
    -1.2604  -1.2146  -1.1896  -1.1338  -0.9630  -0.9626  -0.8354  -0.7791
    -0.7692  -0.6943  -0.5592  -0.4633  -0.3878  -0.3642  -0.3304  -0.2727
    -0.1747  -0.1538  -0.1520   0.0097   0.0908   0.1178   0.1921   0.2384
     0.3095   0.3249   0.3339   0.3627   0.3923   0.4115   0.4182   0.4550
     0.4885   0.5596   0.5602   0.6247   0.6398   0.7208   0.8217   0.9044
     0.9573   0.9994   1.0034   1.1077   1.1198   1.1947   1.2200   1.2253
     1.2679   1.2837   1.2929   1.3040   1.3172   1.3580   1.4644   1.4882
     1.5194   1.5374   1.5855   1.5988   1.6178   1.6592   1.6636   1.7570
     1.8125   1.8787   1.8912   1.9237   1.9543   2.0044   2.0702   2.1981
     2.2080   2.2976   2.3284   2.5354   2.5399   2.8690   2.8695   4.4184
     5.8218   5.8502   6.6289   6.6333   6.7207   6.8270   6.8284   6.9973
     7.1641   7.1647   7.3511   7.3569   7.6221   7.9227   8.0043   8.1858
     8.3950   8.7971   9.1934   9.6853   9.7325   9.8721  10.1813  10.2187
    10.3106  10.4714  10.9353  11.1872  11.2574  11.3193  11.3430  11.4830
    11.9930  12.1063

          k = 0.1667 0.0962 0.0000 ( 32019 PWs)   bands (ev):

   -87.1368 -87.1273 -87.1217 -87.1214 -87.1185 -87.1184 -86.9457 -86.9345
   -86.9323 -86.9187 -86.9069 -86.9067 -50.6452 -50.6391 -50.6335 -50.6323
   -50.6276 -50.6030 -50.5966 -50.5867 -50.5810 -50.5711 -50.5653 -50.5648
   -50.5623 -50.5606 -50.5298 -50.5246 -50.5176 -50.5098 -50.4468 -50.4414
   -50.4202 -50.4146 -50.4063 -50.4035 -50.3794 -50.3765 -50.3676 -50.3582
   -50.3557 -50.3503 -50.3423 -50.3390 -50.3287 -50.3286 -50.3232 -50.3153
   -14.2494 -14.1599 -14.0477 -10.4926 -10.4225 -10.3344  -9.6469  -9.6449
    -9.5833  -9.5823  -9.5053  -9.5050  -7.5209  -7.5195  -7.4658  -7.4652
    -7.4004  -7.4002  -6.7055  -6.6498  -6.5833  -2.9051  -2.3599  -2.2081
    -1.8987  -1.8967  -1.8523  -1.8522  -1.8213  -1.8212  -1.6224  -1.3558
    -1.2604  -1.2146  -1.1896  -1.1343  -0.9640  -0.9634  -0.8354  -0.7765
    -0.7685  -0.6939  -0.5590  -0.4626  -0.3898  -0.3654  -0.3311  -0.2726
    -0.1756  -0.1527  -0.1506   0.0110   0.0905   0.1188   0.1899   0.2407
     0.3089   0.3238   0.3342   0.3630   0.3939   0.4136   0.4208   0.4526
     0.4883   0.5527   0.5607   0.6250   0.6421   0.7196   0.8191   0.9102
     0.9561   0.9983   1.0027   1.1112   1.1204   1.1919   1.2200   1.2268
     1.2679   1.2837   1.2927   1.2991   1.3146   1.3580   1.4649   1.4879
     1.5197   1.5374   1.5855   1.5988   1.6119   1.6608   1.6679   1.7570
     1.8145   1.8772   1.8902   1.9293   1.9538   2.0038   2.0730   2.1981
     2.2079   2.2976   2.3272   2.5354   2.5399   2.8690   2.8695   4.4176
     5.8211   5.8506   6.6289   6.6333   6.7207   6.8272   6.8282   6.9974
     7.1639   7.1650   7.3522   7.3587   7.6221   7.9162   8.0043   8.1873
     8.3849   8.7971   9.1934   9.6949   9.7325   9.8760  10.1813  10.2194
    10.3148  10.4650  10.9353  11.1872  11.2598  11.3213  11.3395  11.4826
    11.9930  12.1062

          k = 0.1667 0.2887 0.0000 ( 32043 PWs)   bands (ev):

   -87.1345 -87.1257 -87.1230 -87.1230 -87.1190 -87.1189 -86.9439 -86.9354
   -86.9333 -86.9167 -86.9078 -86.9077 -50.6411 -50.6410 -50.6396 -50.6352
   -50.6350 -50.5931 -50.5924 -50.5756 -50.5754 -50.5721 -50.5601 -50.5598
   -50.5522 -50.5518 -50.5444 -50.5385 -50.5300 -50.5141 -50.4487 -50.4483
   -50.4219 -50.4218 -50.3879 -50.3874 -50.3713 -50.3657 -50.3606 -50.3604
   -50.3589 -50.3565 -50.3473 -50.3440 -50.3370 -50.3295 -50.3295 -50.3205
   -13.9267 -13.8389 -13.7287 -11.0939 -11.0930 -11.0202 -11.0196 -10.9273
   -10.9271  -8.8480  -8.7991  -8.7537  -7.7483  -7.7018  -7.6677  -5.6279
    -5.6276  -5.5752  -5.5750  -5.5145  -5.5145  -3.2052  -3.1589  -3.1174
    -2.5175  -1.9696  -1.7731  -1.5774  -1.5757  -1.5312  -1.5311  -1.5013
    -1.5013  -1.2524  -1.0426  -1.0235  -1.0228  -0.9139  -0.9133  -0.8782
    -0.8780  -0.8482  -0.6814  -0.5736  -0.5709  -0.3862  -0.3848  -0.3655
    -0.3648  -0.1969  -0.1535  -0.1496  -0.0209   0.0198   0.1963   0.2224
     0.2272   0.2443   0.2597   0.3044   0.3680   0.3835   0.3918   0.4530
     0.4755   0.4816   0.5305   0.5533   0.6125   0.6194   0.6255   0.7609
     0.7731   0.7735   0.8442   0.8817   0.9308   0.9422   0.9969   1.0111
     1.0134   1.0897   1.0958   1.1077   1.2109   1.2152   1.2336   1.2895
     1.2906   1.3544   1.3959   1.4021   1.5001   1.5023   1.5716   1.5748
     1.6154   1.6751   1.7785   1.7846   1.9016   1.9063   1.9538   2.0009
     2.0037   2.1297   2.1319   2.8339   2.9633   3.2137   3.4268   4.7087
     4.7102   4.9962   5.4934   5.4959   6.2847   6.3624   6.5312   6.6843
     6.9006   6.9066   8.2682   8.2821   8.5179   8.5437   8.6985   8.7205
     8.8884   8.8932   9.2321   9.6179   9.7664   9.7730  10.1569  10.5510
    10.5568  10.5583  11.3452  11.4055  11.4116  11.5687  12.4931  12.5128
    12.7987  12.8527

          k = 0.1667-0.6736 0.0000 ( 32075 PWs)   bands (ev):

   -87.1306 -87.1264 -87.1239 -87.1231 -87.1206 -87.1194 -86.9412 -86.9369
   -86.9345 -86.9136 -86.9102 -86.9085 -50.6478 -50.6419 -50.6315 -50.6305
   -50.6234 -50.5960 -50.5930 -50.5919 -50.5717 -50.5657 -50.5610 -50.5556
   -50.5531 -50.5517 -50.5399 -50.5367 -50.5366 -50.5232 -50.4547 -50.4332
   -50.4282 -50.4063 -50.4035 -50.3763 -50.3719 -50.3707 -50.3640 -50.3597
   -50.3577 -50.3568 -50.3447 -50.3437 -50.3344 -50.3316 -50.3302 -50.3300
   -13.2853 -13.2007 -13.0944 -12.3341 -12.2544 -12.1539 -11.4006 -11.3254
   -11.2307  -8.7989  -8.7395  -8.6674  -6.9384  -6.8895  -6.8392  -4.5828
    -4.5364  -4.5169  -4.4959  -4.4697  -4.4251  -3.5381  -3.4904  -3.4429
    -2.4495  -2.4038  -2.3719  -1.7538  -1.4938  -1.4483  -1.4176  -1.2512
    -1.2379  -1.1870  -1.1755  -1.1131  -0.9774  -0.9559  -0.9361  -0.9102
    -0.8834  -0.8828  -0.8797  -0.8583  -0.7149  -0.7031  -0.6448  -0.5980
    -0.5324  -0.5149  -0.4643  -0.4023  -0.3416  -0.3315  -0.1739  -0.1354
    -0.0897  -0.0430  -0.0267  -0.0227   0.0076   0.0363   0.1570   0.2384
     0.2751   0.3377   0.3394   0.3900   0.4036   0.4490   0.4756   0.5364
     0.6069   0.7065   0.7556   0.7813   0.8346   0.8920   0.9298   0.9392
     0.9401   1.0548   1.0973   1.1069   1.1192   1.1739   1.2398   1.3105
     1.4081   1.4455   1.4471   1.5151   1.5627   1.5755   1.5904   1.6610
     1.7691   1.8183   1.8286   1.8466   1.8853   1.9130   1.9567   1.9918
     2.0285   2.0317   2.1295   2.7200   3.2750   3.3652   3.6051   3.6566
     3.8295   3.9573   4.5863   4.9823   5.9386   6.0377   6.0442   6.1924
     6.4073   7.2461   7.8931   8.0569   9.0369   9.2316   9.4555   9.4967
     9.6819  10.0991  10.1865  10.4573  10.4839  10.6872  10.9292  10.9488
    11.0011  11.3375  11.3983  11.6365  11.9947  12.1309  12.1426  12.2761
    12.3649  12.5449

          k = 0.1667-0.4811 0.0000 ( 32075 PWs)   bands (ev):

   -87.1306 -87.1264 -87.1239 -87.1231 -87.1206 -87.1194 -86.9412 -86.9369
   -86.9345 -86.9136 -86.9102 -86.9085 -50.6479 -50.6419 -50.6315 -50.6305
   -50.6233 -50.5962 -50.5928 -50.5919 -50.5718 -50.5657 -50.5610 -50.5555
   -50.5531 -50.5519 -50.5398 -50.5367 -50.5366 -50.5231 -50.4547 -50.4331
   -50.4282 -50.4061 -50.4035 -50.3765 -50.3719 -50.3708 -50.3640 -50.3597
   -50.3577 -50.3568 -50.3446 -50.3439 -50.3344 -50.3315 -50.3302 -50.3298
   -13.2853 -13.2007 -13.0944 -12.3341 -12.2544 -12.1539 -11.4006 -11.3254
   -11.2307  -8.7989  -8.7395  -8.6674  -6.9384  -6.8895  -6.8392  -4.5828
    -4.5364  -4.5169  -4.4959  -4.4697  -4.4251  -3.5381  -3.4904  -3.4429
    -2.4495  -2.4038  -2.3719  -1.7538  -1.4938  -1.4483  -1.4176  -1.2511
    -1.2376  -1.1872  -1.1751  -1.1133  -0.9783  -0.9559  -0.9367  -0.9102
    -0.8833  -0.8819  -0.8790  -0.8579  -0.7134  -0.7033  -0.6448  -0.5982
    -0.5328  -0.5137  -0.4646  -0.4052  -0.3407  -0.3322  -0.1749  -0.1355
    -0.0897  -0.0430  -0.0279  -0.0227   0.0042   0.0369   0.1596   0.2384
     0.2767   0.3375   0.3405   0.3834   0.4020   0.4491   0.4778   0.5366
     0.6071   0.7130   0.7618   0.7829   0.8315   0.8873   0.9301   0.9404
     0.9415   1.0532   1.0963   1.1061   1.1199   1.1719   1.2403   1.3115
     1.4098   1.4462   1.4479   1.5153   1.5631   1.5772   1.5868   1.6607
     1.7657   1.8173   1.8286   1.8481   1.8903   1.9142   1.9556   1.9908
     2.0277   2.0313   2.1259   2.7201   3.2751   3.3655   3.6051   3.6560
     3.8296   3.9573   4.5863   4.9841   5.9404   6.0380   6.0443   6.1924
     6.4073   7.2449   7.8934   8.0598   9.0369   9.2316   9.4555   9.4966
     9.6775  10.0991  10.1864  10.4574  10.4838  10.6872  10.9292  10.9488
    11.0011  11.3377  11.3983  11.6365  11.9927  12.1312  12.1426  12.2758
    12.3653  12.5443

          k = 0.1667-0.2887 0.0000 ( 32043 PWs)   bands (ev):

   -87.1345 -87.1257 -87.1230 -87.1230 -87.1190 -87.1189 -86.9439 -86.9354
   -86.9333 -86.9167 -86.9078 -86.9077 -50.6411 -50.6408 -50.6396 -50.6353
   -50.6351 -50.5929 -50.5923 -50.5755 -50.5754 -50.5722 -50.5604 -50.5602
   -50.5519 -50.5518 -50.5443 -50.5389 -50.5299 -50.5139 -50.4487 -50.4483
   -50.4219 -50.4218 -50.3880 -50.3874 -50.3713 -50.3657 -50.3607 -50.3605
   -50.3589 -50.3565 -50.3473 -50.3443 -50.3370 -50.3295 -50.3294 -50.3201
   -13.9267 -13.8389 -13.7287 -11.0939 -11.0930 -11.0202 -11.0196 -10.9273
   -10.9271  -8.8480  -8.7991  -8.7537  -7.7483  -7.7018  -7.6677  -5.6279
    -5.6276  -5.5752  -5.5750  -5.5145  -5.5145  -3.2052  -3.1589  -3.1174
    -2.5175  -1.9696  -1.7728  -1.5774  -1.5757  -1.5312  -1.5311  -1.5013
    -1.5013  -1.2524  -1.0425  -1.0232  -1.0224  -0.9148  -0.9141  -0.8785
    -0.8782  -0.8466  -0.6784  -0.5718  -0.5708  -0.3877  -0.3864  -0.3666
    -0.3657  -0.2009  -0.1526  -0.1514  -0.0223   0.0199   0.1963   0.2258
     0.2289   0.2443   0.2597   0.3009   0.3679   0.3823   0.3838   0.4545
     0.4764   0.4777   0.5354   0.5526   0.6098   0.6284   0.6342   0.7611
     0.7733   0.7736   0.8436   0.8817   0.9308   0.9422   0.9920   1.0113
     1.0135   1.0895   1.0953   1.1093   1.2110   1.2149   1.2316   1.2896
     1.2911   1.3609   1.3990   1.4049   1.4996   1.5018   1.5681   1.5700
     1.6199   1.6727   1.7789   1.7851   1.9025   1.9071   1.9496   2.0009
     2.0033   2.1274   2.1297   2.8341   2.9633   3.2138   3.4268   4.7086
     4.7101   4.9980   5.4936   5.4962   6.2847   6.3624   6.5312   6.6861
     6.9036   6.9078   8.2684   8.2821   8.5184   8.5439   8.7017   8.7232
     8.8885   8.8934   9.2321   9.6178   9.7624   9.7675  10.1568  10.5500
    10.5525  10.5583  11.3451  11.4051  11.4119  11.5687  12.4931  12.5006
    12.7988  12.8526

          k = 0.3333-0.1925 0.0000 ( 32055 PWs)   bands (ev):

   -87.1334 -87.1250 -87.1247 -87.1225 -87.1197 -87.1187 -86.9431 -86.9360
   -86.9334 -86.9159 -86.9090 -86.9074 -50.6521 -50.6448 -50.6370 -50.6309
   -50.6238 -50.5971 -50.5882 -50.5768 -50.5749 -50.5642 -50.5616 -50.5592
   -50.5505 -50.5490 -50.5462 -50.5457 -50.5310 -50.5184 -50.4593 -50.4360
   -50.4326 -50.4093 -50.3846 -50.3814 -50.3785 -50.3652 -50.3592 -50.3573
   -50.3568 -50.3539 -50.3522 -50.3511 -50.3364 -50.3305 -50.3292 -50.3238
   -13.7658 -13.6789 -13.5696 -11.8642 -11.7867 -11.6891 -10.0495 -10.0477
    -9.9811  -9.9800  -9.8957  -9.8954  -6.3919  -6.3904  -6.3387  -6.3382
    -6.2779  -6.2777  -4.6423  -4.5915  -4.5351  -3.0228  -3.0206  -2.9757
    -2.9755  -2.9360  -2.9359  -2.3251  -1.7787  -1.5659  -1.2108  -1.1114
    -1.1051  -1.0698  -0.8737  -0.8294  -0.8097  -0.8000  -0.7842  -0.7541
    -0.7300  -0.7185  -0.6406  -0.6231  -0.5795  -0.4791  -0.4001  -0.3988
    -0.3536  -0.3245  -0.2763  -0.2632  -0.2398  -0.1331  -0.1144  -0.0945
    -0.0672   0.0223   0.1324   0.1517   0.1936   0.2291   0.3004   0.3407
     0.3659   0.3748   0.4431   0.5634   0.5649   0.6011   0.6873   0.6998
     0.7010   0.7417   0.7687   0.7748   0.8155   0.8342   0.8940   0.9090
     0.9581   0.9780   1.0195   1.1487   1.1594   1.2312   1.2973   1.3493
     1.3829   1.3958   1.4524   1.5730   1.6115   1.6941   1.7476   1.7663
     1.8377   1.8713   1.9017   1.9357   1.9399   1.9838   1.9942   2.0158
     2.0820   2.1116   2.3565   2.3715   2.8170   2.8179   3.0680   3.6234
     4.3455   5.2580   5.6967   5.8578   6.3342   6.8419   7.0627   7.1445
     7.1555   7.2087   7.3718   7.3914   7.6565   7.6623   8.0128   9.1863
     9.4416   9.4490   9.6980   9.8076   9.8295  10.0340  10.3687  10.4709
    10.6136  10.7495  11.5461  11.7647  11.8282  12.0126  12.2126  12.2714
    12.3613  12.4132

          k = 0.3333-0.0000 0.0000 ( 32043 PWs)   bands (ev):

   -87.1345 -87.1257 -87.1230 -87.1230 -87.1190 -87.1189 -86.9439 -86.9354
   -86.9333 -86.9167 -86.9078 -86.9077 -50.6410 -50.6408 -50.6395 -50.6353
   -50.6352 -50.5926 -50.5925 -50.5758 -50.5757 -50.5723 -50.5599 -50.5597
   -50.5523 -50.5518 -50.5444 -50.5385 -50.5298 -50.5141 -50.4488 -50.4483
   -50.4220 -50.4217 -50.3879 -50.3874 -50.3711 -50.3657 -50.3607 -50.3604
   -50.3589 -50.3566 -50.3475 -50.3442 -50.3370 -50.3295 -50.3294 -50.3203
   -13.9267 -13.8389 -13.7287 -11.0939 -11.0930 -11.0202 -11.0196 -10.9273
   -10.9271  -8.8480  -8.7991  -8.7537  -7.7483  -7.7018  -7.6677  -5.6279
    -5.6276  -5.5752  -5.5750  -5.5145  -5.5145  -3.2052  -3.1589  -3.1174
    -2.5175  -1.9696  -1.7728  -1.5774  -1.5757  -1.5312  -1.5311  -1.5013
    -1.5013  -1.2524  -1.0414  -1.0236  -1.0224  -0.9139  -0.9135  -0.8786
    -0.8782  -0.8491  -0.6821  -0.5741  -0.5721  -0.3841  -0.3839  -0.3659
    -0.3652  -0.1978  -0.1539  -0.1512  -0.0206   0.0199   0.1963   0.2244
     0.2295   0.2443   0.2597   0.3042   0.3675   0.3824   0.3900   0.4537
     0.4766   0.4817   0.5315   0.5532   0.6136   0.6191   0.6246   0.7609
     0.7730   0.7733   0.8445   0.8817   0.9308   0.9422   0.9959   1.0114
     1.0137   1.0910   1.0973   1.1075   1.2112   1.2154   1.2336   1.2889
     1.2906   1.3540   1.3948   1.4012   1.4993   1.5009   1.5732   1.5752
     1.6130   1.6769   1.7786   1.7847   1.9018   1.9066   1.9522   2.0016
     2.0037   2.1283   2.1314   2.8357   2.9633   3.2137   3.4268   4.7087
     4.7099   4.9964   5.4940   5.4962   6.2847   6.3624   6.5312   6.6846
     6.9009   6.9063   8.2683   8.2821   8.5182   8.5438   8.6996   8.7218
     8.8884   8.8933   9.2321   9.6178   9.7627   9.7727  10.1568  10.5517
    10.5569  10.5584  11.3451  11.4047  11.4063  11.5687  12.4954  12.5125
    12.7987  12.8527

          k = 0.3333 0.1925 0.0000 ( 32055 PWs)   bands (ev):

   -87.1334 -87.1250 -87.1247 -87.1225 -87.1198 -87.1187 -86.9431 -86.9360
   -86.9334 -86.9159 -86.9090 -86.9074 -50.6523 -50.6448 -50.6371 -50.6308
   -50.6236 -50.5971 -50.5887 -50.5768 -50.5747 -50.5641 -50.5615 -50.5589
   -50.5504 -50.5495 -50.5460 -50.5455 -50.5311 -50.5187 -50.4593 -50.4359
   -50.4328 -50.4091 -50.3846 -50.3813 -50.3785 -50.3652 -50.3592 -50.3576
   -50.3568 -50.3536 -50.3519 -50.3511 -50.3363 -50.3304 -50.3293 -50.3241
   -13.7658 -13.6789 -13.5696 -11.8642 -11.7867 -11.6891 -10.0495 -10.0477
    -9.9811  -9.9800  -9.8957  -9.8954  -6.3919  -6.3904  -6.3387  -6.3382
    -6.2779  -6.2777  -4.6423  -4.5915  -4.5351  -3.0228  -3.0206  -2.9757
    -2.9755  -2.9360  -2.9359  -2.3251  -1.7787  -1.5661  -1.2106  -1.1110
    -1.1057  -1.0698  -0.8740  -0.8284  -0.8079  -0.8000  -0.7830  -0.7541
    -0.7300  -0.7202  -0.6410  -0.6216  -0.5812  -0.4773  -0.4017  -0.3990
    -0.3537  -0.3245  -0.2747  -0.2637  -0.2374  -0.1334  -0.1142  -0.0994
    -0.0652   0.0217   0.1274   0.1483   0.1938   0.2287   0.3009   0.3398
     0.3682   0.3748   0.4484   0.5587   0.5667   0.5998   0.6876   0.7017
     0.7034   0.7434   0.7687   0.7821   0.8155   0.8342   0.8881   0.9010
     0.9575   0.9832   1.0192   1.1506   1.1538   1.2329   1.2940   1.3493
     1.3811   1.3940   1.4533   1.5802   1.6155   1.6927   1.7451   1.7657
     1.8378   1.8693   1.9054   1.9349   1.9399   1.9845   1.9939   2.0152
     2.0859   2.1126   2.3565   2.3715   2.8170   2.8179   3.0667   3.6236
     4.3457   5.2562   5.7006   5.8578   6.3421   6.8291   7.0610   7.1335
     7.1554   7.2004   7.3718   7.3912   7.6565   7.6623   8.0113   9.2012
     9.4417   9.4490   9.6983   9.8141   9.8295  10.0340  10.3687  10.4675
    10.6150  10.7495  11.5462  11.7647  11.8544  12.0125  12.2129  12.2717
    12.3618  12.4113

          k = 0.3333-0.7698 0.0000 ( 32075 PWs)   bands (ev):

   -87.1306 -87.1263 -87.1240 -87.1231 -87.1206 -87.1194 -86.9412 -86.9368
   -86.9345 -86.9136 -86.9102 -86.9085 -50.6478 -50.6418 -50.6315 -50.6306
   -50.6235 -50.5961 -50.5927 -50.5925 -50.5715 -50.5653 -50.5609 -50.5555
   -50.5531 -50.5519 -50.5399 -50.5369 -50.5365 -50.5233 -50.4549 -50.4330
   -50.4283 -50.4062 -50.4034 -50.3762 -50.3717 -50.3709 -50.3640 -50.3597
   -50.3577 -50.3569 -50.3445 -50.3438 -50.3344 -50.3316 -50.3302 -50.3301
   -13.2853 -13.2007 -13.0944 -12.3341 -12.2544 -12.1539 -11.4006 -11.3254
   -11.2307  -8.7989  -8.7395  -8.6674  -6.9384  -6.8895  -6.8392  -4.5828
    -4.5364  -4.5169  -4.4959  -4.4697  -4.4251  -3.5381  -3.4904  -3.4429
    -2.4495  -2.4038  -2.3719  -1.7538  -1.4938  -1.4483  -1.4176  -1.2505
    -1.2379  -1.1873  -1.1754  -1.1142  -0.9769  -0.9559  -0.9368  -0.9102
    -0.8834  -0.8829  -0.8793  -0.8563  -0.7156  -0.7007  -0.6450  -0.6008
    -0.5324  -0.5145  -0.4624  -0.4036  -0.3417  -0.3305  -0.1737  -0.1350
    -0.0897  -0.0430  -0.0270  -0.0227  -0.0018   0.0426   0.1535   0.2392
     0.2702   0.3350   0.3378   0.3911   0.4115   0.4490   0.4778   0.5370
     0.6054   0.7036   0.7681   0.7823   0.8354   0.8825   0.9255   0.9399
     0.9448   1.0534   1.0973   1.1091   1.1164   1.1667   1.2402   1.3144
     1.4075   1.4442   1.4476   1.5179   1.5629   1.5776   1.5904   1.6621
     1.7675   1.8173   1.8298   1.8483   1.8863   1.9161   1.9551   1.9940
     2.0262   2.0311   2.1284   2.7200   3.2750   3.3645   3.6051   3.6560
     3.8296   3.9573   4.5885   4.9842   5.9379   6.0316   6.0429   6.1924
     6.4073   7.2439   7.8903   8.0564   9.0369   9.2316   9.4555   9.5027
     9.6779  10.0991  10.1939  10.4573  10.4839  10.6872  10.9250  10.9469
    11.0011  11.3375  11.3983  11.6353  11.9943  12.1424  12.1573  12.2766
    12.3650  12.5439

          k = 0.3333-0.5774 0.0000 ( 32121 PWs)   bands (ev):

   -87.1271 -87.1270 -87.1270 -87.1210 -87.1210 -87.1210 -86.9401 -86.9363
   -86.9362 -86.9108 -86.9107 -86.9107 -50.6316 -50.6316 -50.6315 -50.6253
   -50.6251 -50.6250 -50.5916 -50.5912 -50.5911 -50.5588 -50.5587 -50.5585
   -50.5483 -50.5481 -50.5481 -50.5289 -50.5288 -50.5286 -50.4341 -50.4340
   -50.4323 -50.4068 -50.4067 -50.4065 -50.3642 -50.3641 -50.3634 -50.3624
   -50.3591 -50.3589 -50.3367 -50.3365 -50.3363 -50.3321 -50.3321 -50.3320
   -12.4923 -12.4922 -12.4913 -12.4117 -12.4116 -12.4108 -12.3100 -12.3100
   -12.3097  -7.6215  -7.5875  -7.5592  -7.5346  -7.5311  -7.4832  -5.4111
    -5.3577  -5.3532  -2.8151  -2.8130  -2.8130  -2.7675  -2.7674  -2.7674
    -2.7424  -2.7424  -2.7423  -1.4117  -1.4116  -1.4105  -1.3638  -1.3638
    -1.3637  -1.3451  -1.3451  -1.3451  -1.1494  -1.1487  -1.1484  -1.1126
    -1.1117  -1.1117  -0.9350  -0.9349  -0.9338  -0.8260  -0.8255  -0.8253
    -0.7526  -0.7520  -0.7501  -0.5892  -0.5891  -0.5865  -0.3515  -0.3513
    -0.3494  -0.2659  -0.2655  -0.2613   0.1051   0.1097   0.1101   0.2883
     0.2940   0.2944   0.3729   0.3744   0.3763   0.4095   0.4115   0.4127
     0.5361   0.5381   0.5422   0.9108   0.9124   0.9162   0.9649   0.9696
     0.9712   1.2831   1.2836   1.2855   1.3502   1.3519   1.3524   1.5413
     1.5426   1.5449   1.5980   1.5982   1.5987   1.6614   1.6618   1.6620
     1.7570   1.7573   1.7579   1.7971   1.7982   1.7983   2.0021   2.0029
     2.0037   2.0408   2.0416   2.0424   2.8192   2.8214   2.8216   4.5058
     4.6176   4.6198   4.6217   4.8872   4.9224   4.9452   4.9668   5.3986
     6.9489   6.9545   6.9561   9.3823   9.3857   9.3901  10.9650  10.9654
    10.9660  11.1127  11.1138  11.1150  11.1765  11.1768  11.1771  11.2892
    11.2909  11.2909  11.4059  11.4070  11.4078  11.8229  11.8318  11.8331
    12.0602  12.0637

          k = 0.3333-0.3849 0.0000 ( 32075 PWs)   bands (ev):

   -87.1306 -87.1263 -87.1240 -87.1231 -87.1206 -87.1194 -86.9412 -86.9368
   -86.9345 -86.9136 -86.9102 -86.9085 -50.6476 -50.6419 -50.6314 -50.6306
   -50.6235 -50.5963 -50.5926 -50.5923 -50.5718 -50.5655 -50.5609 -50.5556
   -50.5531 -50.5518 -50.5398 -50.5367 -50.5367 -50.5231 -50.4548 -50.4330
   -50.4281 -50.4063 -50.4035 -50.3766 -50.3718 -50.3709 -50.3640 -50.3597
   -50.3577 -50.3569 -50.3448 -50.3437 -50.3344 -50.3316 -50.3301 -50.3297
   -13.2853 -13.2007 -13.0944 -12.3341 -12.2544 -12.1539 -11.4006 -11.3254
   -11.2307  -8.7989  -8.7395  -8.6674  -6.9384  -6.8895  -6.8392  -4.5828
    -4.5364  -4.5169  -4.4959  -4.4697  -4.4251  -3.5381  -3.4904  -3.4429
    -2.4495  -2.4038  -2.3719  -1.7538  -1.4938  -1.4483  -1.4176  -1.2513
    -1.2376  -1.1879  -1.1750  -1.1130  -0.9775  -0.9559  -0.9364  -0.9102
    -0.8833  -0.8819  -0.8801  -0.8573  -0.7140  -0.7029  -0.6449  -0.5991
    -0.5327  -0.5137  -0.4644  -0.4051  -0.3404  -0.3313  -0.1745  -0.1354
    -0.0897  -0.0430  -0.0284  -0.0227   0.0022   0.0378   0.1610   0.2374
     0.2763   0.3357   0.3413   0.3852   0.4026   0.4492   0.4794   0.5366
     0.6070   0.7119   0.7651   0.7829   0.8316   0.8855   0.9292   0.9404
     0.9421   1.0518   1.0971   1.1054   1.1186   1.1705   1.2404   1.3128
     1.4095   1.4459   1.4480   1.5153   1.5633   1.5775   1.5869   1.6612
     1.7649   1.8174   1.8295   1.8490   1.8900   1.9133   1.9558   1.9895
     2.0276   2.0309   2.1265   2.7203   3.2750   3.3644   3.6051   3.6564
     3.8285   3.9572   4.5890   4.9852   5.9405   6.0373   6.0441   6.1924
     6.4073   7.2450   7.8959   8.0600   9.0369   9.2316   9.4554   9.4924
     9.6790  10.0991  10.1875  10.4573  10.4839  10.6872  10.9243  10.9466
    11.0010  11.3377  11.3983  11.6354  11.9940  12.1328  12.1426  12.2765
    12.3653  12.5439

          k =-0.5000 0.2887 0.0000 ( 32112 PWs)   bands (ev):

   -87.1290 -87.1289 -87.1230 -87.1221 -87.1221 -87.1189 -86.9408 -86.9377
   -86.9340 -86.9123 -86.9122 -86.9078 -50.6568 -50.6495 -50.6287 -50.6286
   -50.6030 -50.6029 -50.5899 -50.5831 -50.5830 -50.5669 -50.5573 -50.5548
   -50.5546 -50.5453 -50.5452 -50.5363 -50.5328 -50.5327 -50.4637 -50.4371
   -50.4134 -50.4111 -50.3854 -50.3854 -50.3715 -50.3667 -50.3644 -50.3637
   -50.3601 -50.3575 -50.3447 -50.3383 -50.3383 -50.3332 -50.3332 -50.3296
   -12.9668 -12.9662 -12.8839 -12.8833 -12.7793 -12.7791 -10.1931 -10.1914
   -10.1237 -10.1226 -10.0367 -10.0364  -5.5515  -5.5499  -5.5046  -5.5045
    -5.4707  -5.4706  -3.8825  -3.8798  -3.8346  -3.8345  -3.8088  -3.8088
    -2.4713  -2.4698  -2.4240  -2.4238  -2.3805  -2.3805  -1.3793  -1.3783
    -1.3644  -1.2734  -1.2074  -0.9575  -0.9156  -0.9152  -0.8540  -0.8516
    -0.8134  -0.6940  -0.6932  -0.5300  -0.5164  -0.5160  -0.4785  -0.4781
    -0.3871  -0.3865  -0.2486  -0.2477  -0.1678  -0.1674  -0.0866  -0.0862
    -0.0402  -0.0402  -0.0181  -0.0180   0.0207   0.0357   0.0363   0.0800
     0.1045   0.1056   0.2801   0.2806   0.2975   0.3334   0.3343   0.3829
     0.3853   0.6269   0.6275   0.6890   0.6902   0.8631   0.9187   0.9334
     0.9353   1.1303   1.1325   1.2153   1.2495   1.2501   1.4857   1.5237
     1.5242   1.6151   1.6156   1.6607   1.7200   1.7200   1.8111   1.8452
     1.8796   1.8840   1.8845   1.9799   2.0114   2.0676   2.0680   2.0963
     2.2272   2.2573   2.2734   2.2933   2.5448   2.5450   2.7750   2.7774
     4.1482   4.1484   5.0803   5.9039   6.4194   6.4196   6.4314   6.6416
     7.4734   7.4761   7.6632   7.6679   7.8779   7.8801   8.6701   8.6738
     9.0667   9.6414  10.3716  10.5265  10.5265  10.8792  10.8801  11.4189
    11.4199  11.5934  11.6956  11.6985  11.7772  11.7779  11.9547  11.9571
    12.1700  12.1717

          k =-0.5000 0.4811 0.0000 ( 32075 PWs)   bands (ev):

   -87.1306 -87.1264 -87.1240 -87.1232 -87.1206 -87.1194 -86.9412 -86.9368
   -86.9345 -86.9136 -86.9102 -86.9085 -50.6476 -50.6419 -50.6314 -50.6305
   -50.6235 -50.5964 -50.5928 -50.5922 -50.5717 -50.5655 -50.5610 -50.5556
   -50.5531 -50.5517 -50.5397 -50.5367 -50.5366 -50.5232 -50.4548 -50.4331
   -50.4281 -50.4064 -50.4033 -50.3765 -50.3717 -50.3708 -50.3640 -50.3597
   -50.3577 -50.3570 -50.3448 -50.3436 -50.3345 -50.3316 -50.3301 -50.3298
   -13.2853 -13.2007 -13.0944 -12.3341 -12.2544 -12.1539 -11.4006 -11.3254
   -11.2307  -8.7989  -8.7395  -8.6674  -6.9384  -6.8895  -6.8392  -4.5828
    -4.5364  -4.5169  -4.4959  -4.4697  -4.4251  -3.5381  -3.4904  -3.4429
    -2.4495  -2.4038  -2.3719  -1.7538  -1.4938  -1.4483  -1.4176  -1.2514
    -1.2379  -1.1876  -1.1744  -1.1131  -0.9776  -0.9559  -0.9358  -0.9102
    -0.8833  -0.8815  -0.8804  -0.8579  -0.7178  -0.7027  -0.6449  -0.5991
    -0.5327  -0.5154  -0.4639  -0.4017  -0.3400  -0.3307  -0.1736  -0.1355
    -0.0897  -0.0430  -0.0280  -0.0227   0.0044   0.0352   0.1599   0.2382
     0.2753   0.3372   0.3435   0.3932   0.4021   0.4488   0.4777   0.5363
     0.6039   0.7057   0.7570   0.7816   0.8362   0.8902   0.9287   0.9393
     0.9405   1.0543   1.0977   1.1082   1.1185   1.1729   1.2383   1.3113
     1.4071   1.4449   1.4467   1.5148   1.5626   1.5755   1.5917   1.6629
     1.7687   1.8179   1.8294   1.8477   1.8863   1.9111   1.9558   1.9901
     2.0270   2.0322   2.1290   2.7200   3.2750   3.3652   3.6051   3.6584
     3.8284   3.9572   4.5889   4.9827   5.9388   6.0372   6.0440   6.1924
     6.4073   7.2463   7.8957   8.0577   9.0369   9.2316   9.4554   9.4924
     9.6822  10.0991  10.1877  10.4572  10.4839  10.6872  10.9243  10.9466
    11.0009  11.3377  11.3983  11.6365  11.9945  12.1325  12.1424  12.2760
    12.3652  12.5450

          k =-0.5000 0.6736 0.0000 ( 32075 PWs)   bands (ev):

   -87.1306 -87.1264 -87.1240 -87.1232 -87.1206 -87.1194 -86.9412 -86.9368
   -86.9345 -86.9136 -86.9102 -86.9085 -50.6478 -50.6419 -50.6314 -50.6305
   -50.6234 -50.5963 -50.5926 -50.5925 -50.5715 -50.5654 -50.5610 -50.5554
   -50.5530 -50.5518 -50.5398 -50.5369 -50.5365 -50.5233 -50.4549 -50.4331
   -50.4283 -50.4061 -50.4033 -50.3764 -50.3717 -50.3708 -50.3640 -50.3597
   -50.3577 -50.3570 -50.3445 -50.3440 -50.3344 -50.3315 -50.3302 -50.3299
   -13.2853 -13.2007 -13.0944 -12.3341 -12.2544 -12.1539 -11.4006 -11.3254
   -11.2307  -8.7989  -8.7395  -8.6674  -6.9384  -6.8895  -6.8392  -4.5828
    -4.5364  -4.5169  -4.4959  -4.4697  -4.4251  -3.5381  -3.4904  -3.4429
    -2.4495  -2.4038  -2.3719  -1.7538  -1.4938  -1.4483  -1.4176  -1.2504
    -1.2379  -1.1872  -1.1744  -1.1145  -0.9778  -0.9559  -0.9368  -0.9102
    -0.8833  -0.8817  -0.8789  -0.8565  -0.7179  -0.7007  -0.6449  -0.6010
    -0.5328  -0.5150  -0.4623  -0.4030  -0.3404  -0.3306  -0.1738  -0.1351
    -0.0897  -0.0430  -0.0278  -0.0227  -0.0029   0.0405   0.1549   0.2401
     0.2707   0.3378   0.3397   0.3925   0.4094   0.4487   0.4782   0.5370
     0.6026   0.7039   0.7661   0.7827   0.8370   0.8826   0.9252   0.9400
     0.9446   1.0542   1.0972   1.1107   1.1171   1.1671   1.2387   1.3138
     1.4068   1.4439   1.4472   1.5177   1.5626   1.5773   1.5916   1.6635
     1.7679   1.8169   1.8297   1.8485   1.8876   1.9151   1.9540   1.9937
     2.0248   2.0321   2.1272   2.7199   3.2750   3.3656   3.6051   3.6573
     3.8297   3.9573   4.5884   4.9835   5.9380   6.0317   6.0429   6.1924
     6.4073   7.2440   7.8905   8.0570   9.0369   9.2316   9.4555   9.5026
     9.6767  10.0991  10.1939  10.4572  10.4838  10.6871  10.9250  10.9469
    11.0010  11.3377  11.3982  11.6365  11.9927  12.1423  12.1572  12.2758
    12.3652  12.5443

          k =-0.5000-0.2887 0.0000 ( 32112 PWs)   bands (ev):

   -87.1290 -87.1289 -87.1230 -87.1221 -87.1221 -87.1189 -86.9408 -86.9377
   -86.9340 -86.9123 -86.9122 -86.9078 -50.6571 -50.6495 -50.6287 -50.6286
   -50.6029 -50.6028 -50.5904 -50.5829 -50.5828 -50.5666 -50.5571 -50.5547
   -50.5546 -50.5453 -50.5452 -50.5361 -50.5332 -50.5331 -50.4637 -50.4373
   -50.4134 -50.4110 -50.3852 -50.3852 -50.3715 -50.3668 -50.3644 -50.3638
   -50.3601 -50.3575 -50.3444 -50.3386 -50.3385 -50.3332 -50.3332 -50.3297
   -12.9668 -12.9662 -12.8839 -12.8833 -12.7793 -12.7791 -10.1931 -10.1914
   -10.1237 -10.1226 -10.0367 -10.0364  -5.5515  -5.5499  -5.5046  -5.5045
    -5.4707  -5.4706  -3.8825  -3.8798  -3.8346  -3.8345  -3.8088  -3.8088
    -2.4713  -2.4698  -2.4240  -2.4238  -2.3805  -2.3805  -1.3793  -1.3783
    -1.3635  -1.2730  -1.2085  -0.9564  -0.9148  -0.9145  -0.8539  -0.8515
    -0.8113  -0.6936  -0.6927  -0.5277  -0.5175  -0.5172  -0.4792  -0.4787
    -0.3886  -0.3880  -0.2492  -0.2483  -0.1678  -0.1675  -0.0866  -0.0862
    -0.0402  -0.0402  -0.0181  -0.0180   0.0143   0.0387   0.0391   0.0719
     0.1041   0.1052   0.2768   0.2773   0.2997   0.3337   0.3350   0.3866
     0.3886   0.6247   0.6253   0.6958   0.6971   0.8676   0.9219   0.9238
     0.9272   1.1317   1.1339   1.2065   1.2499   1.2505   1.4844   1.5268
     1.5273   1.6179   1.6184   1.6685   1.7176   1.7177   1.8106   1.8463
     1.8787   1.8882   1.8887   1.9769   2.0111   2.0672   2.0675   2.0944
     2.2272   2.2581   2.2734   2.2932   2.5447   2.5450   2.7750   2.7774
     4.1469   4.1471   5.0868   5.9141   6.4150   6.4173   6.4175   6.6199
     7.4734   7.4761   7.6632   7.6679   7.8779   7.8801   8.6675   8.6713
     9.0823   9.6492  10.3726  10.5265  10.5265  10.8793  10.8802  11.4190
    11.4200  11.6239  11.6955  11.6984  11.7772  11.7779  11.9547  11.9571
    12.1700  12.1717

     the Fermi energy is     4.9752 ev

!    total energy              =   -3891.08650647 Ry
     estimated scf accuracy    <          1.4E-09 Ry
     smearing contrib. (-TS)   =      -0.00146722 Ry
     internal energy E=F+TS    =   -3891.08503925 Ry

     The total energy is F=E-TS. E is the sum of the following terms:
     one-electron contribution =  -46019.34882333 Ry
     hartree contribution      =   23058.09282515 Ry
     xc contribution           =    -436.00775124 Ry
     ewald contribution        =   19654.83876333 Ry
     DFT-D3 Dispersion         =      -0.67837729 Ry
     electric field correction =       0.00000041 Ry
     one-center paw contrib.   =    -147.98167628 Ry

     convergence has been achieved in  59 iterations

     negative rho (up, down):  2.696E-04 0.000E+00

     Forces acting on atoms (cartesian axes, Ry/au):

     atom    1 type  1   force =    -0.00014849    0.00039975    0.00167751
     atom    2 type  1   force =    -0.00017480    0.00037507    0.00167536
     atom    3 type  1   force =     0.00047016   -0.00013205   -0.00033908
     atom    4 type  1   force =     0.00000892   -0.00033458   -0.00084149
     atom    5 type  1   force =    -0.00018196    0.00041097    0.00167560
     atom    6 type  1   force =     0.00032665   -0.00004688   -0.00044969
     atom    7 type  1   force =    -0.00024483    0.00004172    0.00338204
     atom    8 type  1   force =     0.00000694   -0.00033523   -0.00085239
     atom    9 type  1   force =    -0.00027571    0.00002999    0.00327586
     atom   10 type  1   force =     0.00047505    0.00003437   -0.00036224
     atom   11 type  1   force =     0.00000842   -0.00033694   -0.00084193
     atom   12 type  1   force =    -0.00024915    0.00000347    0.00336038
     atom   13 type  2   force =    -0.00000064   -0.00000364   -0.00059879
     atom   14 type  2   force =     0.00053370    0.00029686   -0.00128068
     atom   15 type  2   force =     0.00050648   -0.00029239   -0.00130620
     atom   16 type  2   force =    -0.00000369   -0.00061792   -0.00127862
     atom   17 type  2   force =    -0.00000618    0.00058692   -0.00130429
     atom   18 type  2   force =    -0.00053023    0.00030484   -0.00127822
     atom   19 type  2   force =    -0.00050622   -0.00029998   -0.00130629
     atom   20 type  2   force =     0.00000025   -0.00000905   -0.00056754
     atom   21 type  2   force =     0.00000871    0.00000273   -0.00039355
     atom   22 type  2   force =     0.00000008   -0.00000644   -0.00009042
     atom   23 type  2   force =    -0.00000211   -0.00001403   -0.00039353
     atom   24 type  2   force =     0.00001003   -0.00001134   -0.00008178
     atom   25 type  2   force =    -0.00001156    0.00000374   -0.00039350
     atom   26 type  2   force =    -0.00000064    0.00000526   -0.00008185
     atom   27 type  2   force =    -0.00000170   -0.00000262   -0.00038006
     atom   28 type  2   force =    -0.00000953   -0.00001234   -0.00008180
     atom   29 type  2   force =    -0.00000195   -0.00000321   -0.00009400
     atom   30 type  2   force =     0.00000007   -0.00000680   -0.00003977
     atom   31 type  2   force =    -0.00000264   -0.00000276   -0.00009598
     atom   32 type  2   force =    -0.00000007   -0.00000701   -0.00003973
     atom   33 type  2   force =    -0.00000191   -0.00000402   -0.00009587
     atom   34 type  2   force =    -0.00000021   -0.00000683   -0.00003975
     atom   35 type  2   force =    -0.00000117   -0.00000276   -0.00009595
     atom   36 type  2   force =    -0.00000008   -0.00000688   -0.00004174

     Total force =     0.007726     Total SCF correction =     0.000132

     Writing all to output data dir ./tmp/AGC_N3_top_fcc_Ed_p03.save/ :
     XML data file, charge density, pseudopotentials, collected wavefunctions
 
     init_run     :     27.43s CPU     28.52s WALL (       1 calls)
     electrons    :   4034.89s CPU   4105.45s WALL (       1 calls)
     forces       :     13.34s CPU     13.71s WALL (       1 calls)
     force_dftd3  :      0.02s CPU      0.02s WALL (       1 calls)

     Called by init_run:
     wfcinit      :     19.10s CPU     19.98s WALL (       1 calls)
     potinit      :      7.43s CPU      7.51s WALL (       1 calls)
     hinit0       :      0.38s CPU      0.42s WALL (       1 calls)

     Called by electrons:
     c_bands      :   3080.14s CPU   3130.97s WALL (      59 calls)
     sum_band     :    586.09s CPU    602.57s WALL (      59 calls)
     v_of_rho     :     10.13s CPU     11.08s WALL (      60 calls)
     newd         :      8.54s CPU      8.58s WALL (      60 calls)
                                        8.58s GPU  (      60 calls)
     PAW_pot      :    246.91s CPU    246.87s WALL (      60 calls)
     mix_rho      :    105.03s CPU    106.84s WALL (      59 calls)
     energy_dftd3 :      0.00s CPU      0.00s WALL (       1 calls)

     Called by c_bands:
     init_us_2    :    139.51s CPU    139.87s WALL (    2400 calls)
     cegterg      :   2877.71s CPU   2879.04s WALL (    1180 calls)

     Called by *egterg:
     cdiaghg      :    196.79s CPU    197.28s WALL (    7480 calls)
                                      189.99s GPU  (    7480 calls)
     h_psi        :   1435.41s CPU   1444.74s WALL (    7500 calls)
                                     1440.22s GPU  (    7500 calls)
     s_psi        :    187.02s CPU    187.14s WALL (    7500 calls)
     g_psi        :      0.03s CPU      6.79s WALL (    6300 calls)
                                        1.76s GPU  (    6300 calls)

     Called by h_psi:
     h_psi:calbec :      0.45s CPU    277.34s WALL (    7500 calls)
                                      273.59s GPU  (    7500 calls)
     vloc_psi     :    817.05s CPU    821.17s WALL (    7500 calls)
                                      817.00s GPU  (    7500 calls)
     add_vuspsi   :    120.83s CPU    319.47s WALL (    7500 calls)
                                      315.50s GPU  (    7500 calls)

     General routines
     calbec       :      0.50s CPU      0.51s WALL (    8760 calls)
     fft          :      2.79s CPU      4.23s WALL (     789 calls)
                                        0.77s GPU  (     729 calls)
     ffts         :      1.02s CPU      7.24s WALL (    7199 calls)
                                        2.47s GPU  (    7139 calls)
     fftw         :      1.59s CPU    486.79s WALL (   88382 calls)
                                      430.73s GPU  (   88382 calls)
     interpolate  :      3.95s CPU      4.48s WALL (      60 calls)
     davcio       :      3.08s CPU     68.09s WALL (    4686 calls)
 
     Parallel routines
 
     PWSCF        :      1h 7m CPU      1h 9m WALL

 
   This run was terminated on:  14: 6:20   4Oct2026            

=------------------------------------------------------------------------------=
   JOB DONE.
=------------------------------------------------------------------------------=
