
     Program PWSCF v.7.4.1 starts on  5Oct2026 at  8:44:30 

     This program is part of the open-source Quantum ESPRESSO suite
     for quantum simulation of materials; please cite
         "P. Giannozzi et al., J. Phys.:Condens. Matter 21 395502 (2009);
         "P. Giannozzi et al., J. Phys.:Condens. Matter 29 465901 (2017);
         "P. Giannozzi et al., J. Chem. Phys. 152 154105 (2020);
          URL http://www.quantum-espresso.org", 
     in publications or presentations arising from this work. More details at
     http://www.quantum-espresso.org/quote

     Parallel version (MPI & OpenMP), running on       1 processor cores
     Number of MPI processes:                 1
     Threads/MPI process:                     1

     MPI processes distributed on     1 nodes
     9112 MiB available memory on the printing compute node when the environment starts
 
     Reading input from pw.in

     Current dimensions of program PWSCF are:
     Max number of different atomic species (ntypx) = 10
     Max number of k-points (npk) =  40000
     Max angular momentum in pseudopotentials (lmaxx) =  4
     Presently no symmetry can be used with electric field

     file C.pbe-n-kjpaw_psl.1.0.0.UPF: wavefunction(s)  2S 2P renormalized
 
     Subspace diagonalization in iterative solution of the eigenvalue problem:
     a serial algorithm will be used

 
     G-vector sticks info
     --------------------
     sticks:   dense  smooth     PW     G-vecs:    dense   smooth      PW
     Sum        3193    1273    367              1013735   256635   40105
 
     Using Slab Decomposition
 


     bravais-lattice index     =            0
     lattice parameter (alat)  =       9.4208  a.u.
     unit-cell volume          =    5061.5970 (a.u.)^3
     number of atoms/cell      =           36
     number of atomic types    =            2
     number of electrons       =       324.00
     number of Kohn-Sham states=          194
     kinetic-energy cutoff     =      52.0000  Ry
     charge density cutoff     =     520.0000  Ry
     scf convergence threshold =      1.0E-08
     mixing beta               =       0.3000
     number of iterations used =            8  local-TF  mixing
     Exchange-correlation= SLA  PW   PBX  PBC
                           (   1   4   3   4   0   0   0)

     GPU acceleration is ACTIVE.  1 visible GPUs per MPI rank


     celldm(1)=   9.420781  celldm(2)=   0.000000  celldm(3)=   0.000000
     celldm(4)=   0.000000  celldm(5)=   0.000000  celldm(6)=   0.000000

     crystal axes: (cart. coord. in units of alat)
               a(1) = (   1.000000  -0.000000   0.000000 )  
               a(2) = (   0.500000   0.866025   0.000000 )  
               a(3) = (   0.000000   0.000000   6.990306 )  

     reciprocal axes: (cart. coord. in units 2 pi/alat)
               b(1) = (  1.000000 -0.577350  0.000000 )  
               b(2) = (  0.000000  1.154701 -0.000000 )  
               b(3) = ( -0.000000  0.000000  0.143055 )  


     PseudoPot. # 1 for Ag read from file:
     /home/kgy/work/pseudo/Ag_ONCV_PBE-1.0.oncvpsp.upf
     MD5 check sum: 94f47bd0669c641108e45594df92fabc
     Pseudo is Norm-conserving, Zval = 19.0
     Generated using ONCVPSP code by D. R. Hamann
     Using radial grid of 1398 points,  6 beta functions with: 
                l(1) =   0
                l(2) =   0
                l(3) =   1
                l(4) =   1
                l(5) =   2
                l(6) =   2

     PseudoPot. # 2 for C  read from file:
     /home/kgy/work/pseudo/C.pbe-n-kjpaw_psl.1.0.0.UPF
     MD5 check sum: 5d2aebdfa2cae82b50a7e79e9516da0f
     Pseudo is Projector augmented-wave + core cor, Zval =  4.0
     Generated using "atomic" code by A. Dal Corso  v.5.1
     Shape of augmentation charge: PSQ
     Using radial grid of 1073 points,  4 beta functions with: 
                l(1) =   0
                l(2) =   0
                l(3) =   1
                l(4) =   1
     Q(r) pseudized with 0 coefficients 


     atomic species   valence    mass     pseudopotential
     Ag               19.00   107.86820     Ag( 1.00)
     C                 4.00    12.01100     C ( 1.00)

     No symmetry found



   Cartesian axes

     site n.     atom                  positions (alat units)
         1        Ag     tau(   1) = (   0.3337695   0.5765948   0.5717001  )
         2        Ag     tau(   2) = (   0.8337695   0.8652699   0.5717001  )
         3        Ag     tau(   3) = (   0.1663116   0.2882288   1.0405207  )
         4        Ag     tau(   4) = (   0.5004501   0.2909658   0.1002956  )
         5        Ag     tau(   5) = (   0.8337695   0.2879196   0.5717001  )
         6        Ag     tau(   6) = (   0.6665315   0.5768011   1.0405139  )
         7        Ag     tau(   7) = (   0.5010389   0.2880917   1.5114705  )
         8        Ag     tau(   8) = (   1.0004501   0.5796409   0.1002956  )
         9        Ag     tau(   9) = (   1.0010564   0.5767426   1.5120106  )
        10        Ag     tau(  10) = (   0.6663668  -0.0006351   1.0404133  )
        11        Ag     tau(  11) = (   1.0004501   0.0022906   0.1002956  )
        12        Ag     tau(  12) = (   1.0010299  -0.0005160   1.5115225  )
        13        C      tau(  13) = (   0.5004501   0.3871908   2.1586417  )
        14        C      tau(  14) = (   0.7504501   0.5315284   2.1592476  )
        15        C      tau(  15) = (   0.7504501   0.8202035   2.1591538  )
        16        C      tau(  16) = (   1.0004501   0.9645411   2.1590854  )
        17        C      tau(  17) = (   1.0004501   0.3871908   2.1589487  )
        18        C      tau(  18) = (   1.2504501   0.5315284   2.1592441  )
        19        C      tau(  19) = (   1.2504501   0.8202035   2.1591634  )
        20        C      tau(  20) = (   1.5004501   0.9645411   2.1587668  )
        21        C      tau(  21) = (   0.7504501   0.5315284   2.8434907  )
        22        C      tau(  22) = (   1.0004501   0.6758659   2.8434330  )
        23        C      tau(  23) = (   1.0004501   0.9645411   2.8434904  )
        24        C      tau(  24) = (   1.2504501   1.1088786   2.8434215  )
        25        C      tau(  25) = (   1.2504501   0.5315284   2.8434917  )
        26        C      tau(  26) = (   1.5004501   0.6758659   2.8434256  )
        27        C      tau(  27) = (   1.5004501   0.9645411   2.8434875  )
        28        C      tau(  28) = (   1.7504501   1.1088786   2.8434220  )
        29        C      tau(  29) = (   0.5004501   0.3871908   3.5248152  )
        30        C      tau(  30) = (   0.7504501   0.5315284   3.5246938  )
        31        C      tau(  31) = (   0.7504501   0.8202035   3.5248165  )
        32        C      tau(  32) = (   1.0004501   0.9645411   3.5246945  )
        33        C      tau(  33) = (   1.0004501   0.3871908   3.5248160  )
        34        C      tau(  34) = (   1.2504501   0.5315284   3.5246939  )
        35        C      tau(  35) = (   1.2504501   0.8202035   3.5248165  )
        36        C      tau(  36) = (   1.5004501   0.9645411   3.5246956  )

     --------------------------------------------
     DFT-D3 Dispersion Correction (no 3-body):
     --------------------------------------------
       Reference C6 values for interpolation: 

         atom   Coordination number   C6
         C          0.000            98.23
         C          0.987            86.49
         C          1.998            58.72
         C          2.999            51.56
         C          3.984            36.41
         Ag         0.000           853.49
         Ag         0.968           537.23

       Values used:

         atom   Coordination number  R0_AB[au]  C6      C8
         Ag         9.097            3.147    537.23  47741.54
         Ag         9.097            3.147    537.23  47741.54
         Ag         9.103            3.147    537.23  47741.54
         Ag         6.767            3.147    537.23  47741.54
         Ag         9.097            3.147    537.23  47741.54
         Ag         9.102            3.147    537.23  47741.54
         Ag         6.860            3.147    537.23  47741.54
         Ag         6.767            3.147    537.23  47741.54
         Ag         6.850            3.147    537.23  47741.54
         Ag         9.103            3.147    537.23  47741.54
         Ag         6.767            3.147    537.23  47741.54
         Ag         6.859            3.147    537.23  47741.54
         C          3.313            2.750     48.31   1397.22
         C          3.305            2.750     48.47   1401.98
         C          3.304            2.750     48.48   1402.07
         C          3.307            2.750     48.42   1400.38
         C          3.307            2.750     48.42   1400.36
         C          3.305            2.750     48.47   1401.96
         C          3.304            2.750     48.48   1402.08
         C          3.313            2.750     48.31   1397.15
         C          3.281            2.750     48.91   1414.57
         C          3.281            2.750     48.92   1414.74
         C          3.281            2.750     48.91   1414.57
         C          3.281            2.750     48.92   1414.74
         C          3.281            2.750     48.91   1414.57
         C          3.281            2.750     48.92   1414.74
         C          3.281            2.750     48.91   1414.57
         C          3.281            2.750     48.92   1414.75
         C          3.274            2.750     49.03   1417.92
         C          3.275            2.750     49.02   1417.83
         C          3.274            2.750     49.03   1417.92
         C          3.275            2.750     49.02   1417.83
         C          3.274            2.750     49.03   1417.92
         C          3.275            2.750     49.02   1417.83
         C          3.274            2.750     49.03   1417.92
         C          3.275            2.750     49.02   1417.83

         Molecular C6 ( Ry / a.u.^6 ) =    198485.00


     number of k points=    20  Marzari-Vanderbilt smearing, width (Ry)=  0.0100
                       cart. coord. in units 2pi/alat
        k(    1) = (   0.0000000   0.0000000   0.0000000), wk =   0.0555556
        k(    2) = (   0.0000000   0.1924501   0.0000000), wk =   0.1111111
        k(    3) = (   0.0000000   0.3849002   0.0000000), wk =   0.1111111
        k(    4) = (   0.0000000  -0.5773503   0.0000000), wk =   0.0555556
        k(    5) = (   0.1666667  -0.0962250   0.0000000), wk =   0.1111111
        k(    6) = (   0.1666667   0.0962250   0.0000000), wk =   0.1111111
        k(    7) = (   0.1666667   0.2886751   0.0000000), wk =   0.1111111
        k(    8) = (   0.1666667  -0.6735753   0.0000000), wk =   0.1111111
        k(    9) = (   0.1666667  -0.4811252   0.0000000), wk =   0.1111111
        k(   10) = (   0.1666667  -0.2886751   0.0000000), wk =   0.1111111
        k(   11) = (   0.3333333  -0.1924501   0.0000000), wk =   0.1111111
        k(   12) = (   0.3333333  -0.0000000   0.0000000), wk =   0.1111111
        k(   13) = (   0.3333333   0.1924501   0.0000000), wk =   0.1111111
        k(   14) = (   0.3333333  -0.7698004   0.0000000), wk =   0.1111111
        k(   15) = (   0.3333333  -0.5773503   0.0000000), wk =   0.1111111
        k(   16) = (   0.3333333  -0.3849002   0.0000000), wk =   0.1111111
        k(   17) = (  -0.5000000   0.2886751   0.0000000), wk =   0.0555556
        k(   18) = (  -0.5000000   0.4811252   0.0000000), wk =   0.1111111
        k(   19) = (  -0.5000000   0.6735753   0.0000000), wk =   0.1111111
        k(   20) = (  -0.5000000  -0.2886751   0.0000000), wk =   0.0555556

     Dense  grid:  1013735 G-vectors     FFT dimensions: (  72,  72, 480)

     Smooth grid:   256635 G-vectors     FFT dimensions: (  45,  45, 320)

     Estimated max dynamical RAM per process >       2.73 GB

     Check: negative core charge=   -0.000002

     Initial potential from superposition of free atoms

     starting charge     323.9955, renormalised to     324.0000

     negative rho (up, down):  2.437E-04 0.000E+00
 
     Adding external electric field

     Computed dipole along edir(3) : 
        Dipole               -0.0064 Ry au,         -0.0164 Debye
        Dipole field         -0.0000 Ry au, 
 
        Potential amp.        0.0020 Ry
        Total length         63.9641 bohr
 
     Starting wfcs are  216 randomized atomic wfcs
     Checking if some PAW data can be deallocated... 

     total cpu time spent up to now is       27.0 secs

     Self-consistent Calculation

     iteration #  1     ecut=    52.00 Ry     beta= 0.30
     Davidson diagonalization with overlap
     ethr =  1.00E-02,  avg # of iterations =  8.4

     negative rho (up, down):  1.173E-07 0.000E+00
 
     Adding external electric field

     Computed dipole along edir(3) : 
        Dipole               -0.1462 Ry au,         -0.3717 Debye
        Dipole field         -0.0004 Ry au, 
 
        Potential amp.        0.0464 Ry
        Total length         63.9641 bohr
 

     total cpu time spent up to now is      117.7 secs

     total energy              =   -3891.67487700 Ry
     estimated scf accuracy    <       3.41351214 Ry

     iteration #  2     ecut=    52.00 Ry     beta= 0.30
     Davidson diagonalization with overlap
     ethr =  1.05E-03,  avg # of iterations =  1.9

     negative rho (up, down):  8.195E-08 0.000E+00
 
     Adding external electric field

     Computed dipole along edir(3) : 
        Dipole               -0.4574 Ry au,         -1.1625 Debye
        Dipole field         -0.0011 Ry au, 
 
        Potential amp.        0.1453 Ry
        Total length         63.9641 bohr
 

     total cpu time spent up to now is      176.5 secs

     total energy              =   -3891.10470729 Ry
     estimated scf accuracy    <       1.77799895 Ry

     iteration #  3     ecut=    52.00 Ry     beta= 0.30
     Davidson diagonalization with overlap
     ethr =  5.49E-04,  avg # of iterations =  8.9

     negative rho (up, down):  3.989E-08 0.000E+00
 
     Adding external electric field

     Computed dipole along edir(3) : 
        Dipole               -0.6983 Ry au,         -1.7748 Debye
        Dipole field         -0.0017 Ry au, 
 
        Potential amp.        0.2218 Ry
        Total length         63.9641 bohr
 

     total cpu time spent up to now is      256.2 secs

     total energy              =   -3891.11426300 Ry
     estimated scf accuracy    <       0.44297802 Ry

     iteration #  4     ecut=    52.00 Ry     beta= 0.30
     Davidson diagonalization with overlap
     ethr =  1.37E-04,  avg # of iterations =  9.3

     negative rho (up, down):  1.100E-08 0.000E+00
 
     Adding external electric field

     Computed dipole along edir(3) : 
        Dipole               -0.8095 Ry au,         -2.0576 Debye
        Dipole field         -0.0020 Ry au, 
 
        Potential amp.        0.2571 Ry
        Total length         63.9641 bohr
 

     total cpu time spent up to now is      339.6 secs

     total energy              =   -3891.13680654 Ry
     estimated scf accuracy    <       0.49552933 Ry

     iteration #  5     ecut=    52.00 Ry     beta= 0.30
     Davidson diagonalization with overlap
     ethr =  1.37E-04,  avg # of iterations =  1.1
 
     Adding external electric field

     Computed dipole along edir(3) : 
        Dipole               -0.9592 Ry au,         -2.4381 Debye
        Dipole field         -0.0024 Ry au, 
 
        Potential amp.        0.3046 Ry
        Total length         63.9641 bohr
 

     total cpu time spent up to now is      395.6 secs

     total energy              =   -3891.13639382 Ry
     estimated scf accuracy    <       0.49176123 Ry

     iteration #  6     ecut=    52.00 Ry     beta= 0.30
     Davidson diagonalization with overlap
     ethr =  1.37E-04,  avg # of iterations =  1.3

     negative rho (up, down):  2.798E-05 0.000E+00
 
     Adding external electric field

     Computed dipole along edir(3) : 
        Dipole               -1.2364 Ry au,         -3.1427 Debye
        Dipole field         -0.0031 Ry au, 
 
        Potential amp.        0.3927 Ry
        Total length         63.9641 bohr
 

     total cpu time spent up to now is      450.6 secs

     total energy              =   -3891.10479997 Ry
     estimated scf accuracy    <       0.44713359 Ry

     iteration #  7     ecut=    52.00 Ry     beta= 0.30
     Davidson diagonalization with overlap
     ethr =  1.37E-04,  avg # of iterations =  5.3

     negative rho (up, down):  1.392E-07 0.000E+00
 
     Adding external electric field

     Computed dipole along edir(3) : 
        Dipole               -1.2324 Ry au,         -3.1325 Debye
        Dipole field         -0.0031 Ry au, 
 
        Potential amp.        0.3914 Ry
        Total length         63.9641 bohr
 

     total cpu time spent up to now is      519.8 secs

     total energy              =   -3891.13471330 Ry
     estimated scf accuracy    <       1.58762795 Ry

     iteration #  8     ecut=    52.00 Ry     beta= 0.30
     Davidson diagonalization with overlap
     ethr =  1.37E-04,  avg # of iterations =  1.0
 
     Adding external electric field

     Computed dipole along edir(3) : 
        Dipole               -1.2258 Ry au,         -3.1157 Debye
        Dipole field         -0.0030 Ry au, 
 
        Potential amp.        0.3893 Ry
        Total length         63.9641 bohr
 

     total cpu time spent up to now is      575.6 secs

     total energy              =   -3891.11514959 Ry
     estimated scf accuracy    <       1.87344692 Ry

     iteration #  9     ecut=    52.00 Ry     beta= 0.30
     Davidson diagonalization with overlap
     ethr =  1.37E-04,  avg # of iterations =  1.9
 
     Adding external electric field

     Computed dipole along edir(3) : 
        Dipole               -1.2312 Ry au,         -3.1294 Debye
        Dipole field         -0.0031 Ry au, 
 
        Potential amp.        0.3910 Ry
        Total length         63.9641 bohr
 

     total cpu time spent up to now is      632.8 secs

     total energy              =   -3891.12062401 Ry
     estimated scf accuracy    <       1.60317156 Ry

     iteration # 10     ecut=    52.00 Ry     beta= 0.30
     Davidson diagonalization with overlap
     ethr =  1.37E-04,  avg # of iterations =  1.0
 
     Adding external electric field

     Computed dipole along edir(3) : 
        Dipole               -1.1185 Ry au,         -2.8430 Debye
        Dipole field         -0.0028 Ry au, 
 
        Potential amp.        0.3552 Ry
        Total length         63.9641 bohr
 

     total cpu time spent up to now is      686.8 secs

     total energy              =   -3891.11145457 Ry
     estimated scf accuracy    <       1.66078043 Ry

     iteration # 11     ecut=    52.00 Ry     beta= 0.30
     Davidson diagonalization with overlap
     ethr =  1.37E-04,  avg # of iterations =  1.0

     negative rho (up, down):  2.871E-08 0.000E+00
 
     Adding external electric field

     Computed dipole along edir(3) : 
        Dipole               -1.0303 Ry au,         -2.6189 Debye
        Dipole field         -0.0026 Ry au, 
 
        Potential amp.        0.3272 Ry
        Total length         63.9641 bohr
 

     total cpu time spent up to now is      740.1 secs

     total energy              =   -3891.10844720 Ry
     estimated scf accuracy    <       0.47065982 Ry

     iteration # 12     ecut=    52.00 Ry     beta= 0.30
     Davidson diagonalization with overlap
     ethr =  1.37E-04,  avg # of iterations =  1.0

     negative rho (up, down):  8.074E-08 0.000E+00
 
     Adding external electric field

     Computed dipole along edir(3) : 
        Dipole               -0.8268 Ry au,         -2.1016 Debye
        Dipole field         -0.0021 Ry au, 
 
        Potential amp.        0.2626 Ry
        Total length         63.9641 bohr
 

     total cpu time spent up to now is      794.4 secs

     total energy              =   -3891.10427856 Ry
     estimated scf accuracy    <       0.11148597 Ry

     iteration # 13     ecut=    52.00 Ry     beta= 0.30
     Davidson diagonalization with overlap
     ethr =  3.44E-05,  avg # of iterations =  9.1

     negative rho (up, down):  5.943E-08 0.000E+00
 
     Adding external electric field

     Computed dipole along edir(3) : 
        Dipole               -0.8409 Ry au,         -2.1374 Debye
        Dipole field         -0.0021 Ry au, 
 
        Potential amp.        0.2671 Ry
        Total length         63.9641 bohr
 

     total cpu time spent up to now is      872.5 secs

     total energy              =   -3891.10488854 Ry
     estimated scf accuracy    <       0.10632429 Ry

     iteration # 14     ecut=    52.00 Ry     beta= 0.30
     Davidson diagonalization with overlap
     ethr =  3.28E-05,  avg # of iterations =  1.0

     negative rho (up, down):  1.213E-06 0.000E+00
 
     Adding external electric field

     Computed dipole along edir(3) : 
        Dipole               -0.7020 Ry au,         -1.7843 Debye
        Dipole field         -0.0017 Ry au, 
 
        Potential amp.        0.2230 Ry
        Total length         63.9641 bohr
 

     total cpu time spent up to now is      926.7 secs

     total energy              =   -3891.10263792 Ry
     estimated scf accuracy    <       0.11747346 Ry

     iteration # 15     ecut=    52.00 Ry     beta= 0.30
     Davidson diagonalization with overlap
     ethr =  3.28E-05,  avg # of iterations =  2.3

     negative rho (up, down):  6.645E-03 0.000E+00
 
     Adding external electric field

     Computed dipole along edir(3) : 
        Dipole               -0.4557 Ry au,         -1.1582 Debye
        Dipole field         -0.0011 Ry au, 
 
        Potential amp.        0.1447 Ry
        Total length         63.9641 bohr
 

     total cpu time spent up to now is      988.1 secs

     total energy              =   -3891.10330946 Ry
     estimated scf accuracy    <       0.05458592 Ry

     iteration # 16     ecut=    52.00 Ry     beta= 0.30
     Davidson diagonalization with overlap
     c_bands:  1 eigenvalues not converged
     ethr =  1.68E-05,  avg # of iterations = 11.4

     negative rho (up, down):  9.696E-03 0.000E+00
 
     Adding external electric field

     Computed dipole along edir(3) : 
        Dipole               -0.4263 Ry au,         -1.0834 Debye
        Dipole field         -0.0011 Ry au, 
 
        Potential amp.        0.1354 Ry
        Total length         63.9641 bohr
 

     total cpu time spent up to now is     1074.4 secs

     total energy              =   -3891.10560525 Ry
     estimated scf accuracy    <       0.04611597 Ry

     iteration # 17     ecut=    52.00 Ry     beta= 0.30
     Davidson diagonalization with overlap
     ethr =  1.42E-05,  avg # of iterations =  1.9

     negative rho (up, down):  5.443E-03 0.000E+00
 
     Adding external electric field

     Computed dipole along edir(3) : 
        Dipole               -0.4279 Ry au,         -1.0877 Debye
        Dipole field         -0.0011 Ry au, 
 
        Potential amp.        0.1359 Ry
        Total length         63.9641 bohr
 

     total cpu time spent up to now is     1134.9 secs

     total energy              =   -3891.10443716 Ry
     estimated scf accuracy    <       0.04768298 Ry

     iteration # 18     ecut=    52.00 Ry     beta= 0.30
     Davidson diagonalization with overlap
     ethr =  1.42E-05,  avg # of iterations =  3.1

     negative rho (up, down):  1.657E-07 0.000E+00
 
     Adding external electric field

     Computed dipole along edir(3) : 
        Dipole               -0.7688 Ry au,         -1.9540 Debye
        Dipole field         -0.0019 Ry au, 
 
        Potential amp.        0.2442 Ry
        Total length         63.9641 bohr
 

     total cpu time spent up to now is     1198.3 secs

     total energy              =   -3891.10006331 Ry
     estimated scf accuracy    <       0.04584327 Ry

     iteration # 19     ecut=    52.00 Ry     beta= 0.30
     Davidson diagonalization with overlap
     c_bands:  1 eigenvalues not converged
     c_bands:  1 eigenvalues not converged
     c_bands:  1 eigenvalues not converged
     c_bands:  1 eigenvalues not converged
     c_bands:  1 eigenvalues not converged
     c_bands:  1 eigenvalues not converged
     ethr =  1.41E-05,  avg # of iterations = 13.9

     negative rho (up, down):  3.191E-04 0.000E+00
 
     Adding external electric field

     Computed dipole along edir(3) : 
        Dipole               -0.3529 Ry au,         -0.8970 Debye
        Dipole field         -0.0009 Ry au, 
 
        Potential amp.        0.1121 Ry
        Total length         63.9641 bohr
 

     total cpu time spent up to now is     1291.2 secs

     total energy              =   -3891.09374380 Ry
     estimated scf accuracy    <       0.11471186 Ry

     iteration # 20     ecut=    52.00 Ry     beta= 0.30
     Davidson diagonalization with overlap
     ethr =  1.41E-05,  avg # of iterations = 11.2

     negative rho (up, down):  5.858E-06 0.000E+00
 
     Adding external electric field

     Computed dipole along edir(3) : 
        Dipole               -0.4313 Ry au,         -1.0962 Debye
        Dipole field         -0.0011 Ry au, 
 
        Potential amp.        0.1370 Ry
        Total length         63.9641 bohr
 

     total cpu time spent up to now is     1378.5 secs

     total energy              =   -3891.09930089 Ry
     estimated scf accuracy    <       0.03099951 Ry

     iteration # 21     ecut=    52.00 Ry     beta= 0.30
     Davidson diagonalization with overlap
     ethr =  9.57E-06,  avg # of iterations =  5.8

     negative rho (up, down):  5.095E-03 0.000E+00
 
     Adding external electric field

     Computed dipole along edir(3) : 
        Dipole               -0.1608 Ry au,         -0.4087 Debye
        Dipole field         -0.0004 Ry au, 
 
        Potential amp.        0.0511 Ry
        Total length         63.9641 bohr
 

     total cpu time spent up to now is     1449.1 secs

     total energy              =   -3891.09486450 Ry
     estimated scf accuracy    <       0.03469206 Ry

     iteration # 22     ecut=    52.00 Ry     beta= 0.30
     Davidson diagonalization with overlap
     ethr =  9.57E-06,  avg # of iterations =  9.1

     negative rho (up, down):  1.322E-02 0.000E+00
 
     Adding external electric field

     Computed dipole along edir(3) : 
        Dipole                0.0121 Ry au,          0.0308 Debye
        Dipole field          0.0000 Ry au, 
 
        Potential amp.       -0.0038 Ry
        Total length         63.9641 bohr
 

     total cpu time spent up to now is     1530.4 secs

     total energy              =   -3891.09667687 Ry
     estimated scf accuracy    <       0.02241585 Ry

     iteration # 23     ecut=    52.00 Ry     beta= 0.30
     Davidson diagonalization with overlap
     ethr =  6.92E-06,  avg # of iterations = 10.3

     negative rho (up, down):  3.048E-05 0.000E+00
 
     Adding external electric field

     Computed dipole along edir(3) : 
        Dipole               -0.3044 Ry au,         -0.7738 Debye
        Dipole field         -0.0008 Ry au, 
 
        Potential amp.        0.0967 Ry
        Total length         63.9641 bohr
 

     total cpu time spent up to now is     1616.6 secs

     total energy              =   -3891.09251153 Ry
     estimated scf accuracy    <       0.13431877 Ry

     iteration # 24     ecut=    52.00 Ry     beta= 0.30
     Davidson diagonalization with overlap
     ethr =  6.92E-06,  avg # of iterations = 14.4

     negative rho (up, down):  6.691E-03 0.000E+00
 
     Adding external electric field

     Computed dipole along edir(3) : 
        Dipole               -0.1743 Ry au,         -0.4431 Debye
        Dipole field         -0.0004 Ry au, 
 
        Potential amp.        0.0554 Ry
        Total length         63.9641 bohr
 

     total cpu time spent up to now is     1712.0 secs

     total energy              =   -3891.09715953 Ry
     estimated scf accuracy    <       0.02718031 Ry

     iteration # 25     ecut=    52.00 Ry     beta= 0.30
     Davidson diagonalization with overlap
     ethr =  6.92E-06,  avg # of iterations = 10.2

     negative rho (up, down):  2.706E-04 0.000E+00
 
     Adding external electric field

     Computed dipole along edir(3) : 
        Dipole               -0.3320 Ry au,         -0.8438 Debye
        Dipole field         -0.0008 Ry au, 
 
        Potential amp.        0.1054 Ry
        Total length         63.9641 bohr
 

     total cpu time spent up to now is     1793.3 secs

     total energy              =   -3891.09723642 Ry
     estimated scf accuracy    <       0.02789003 Ry

     iteration # 26     ecut=    52.00 Ry     beta= 0.30
     Davidson diagonalization with overlap
     ethr =  6.92E-06,  avg # of iterations = 10.3

     negative rho (up, down):  8.755E-03 0.000E+00
 
     Adding external electric field

     Computed dipole along edir(3) : 
        Dipole               -0.1505 Ry au,         -0.3825 Debye
        Dipole field         -0.0004 Ry au, 
 
        Potential amp.        0.0478 Ry
        Total length         63.9641 bohr
 

     total cpu time spent up to now is     1877.8 secs

     total energy              =   -3891.09777133 Ry
     estimated scf accuracy    <       0.03004137 Ry

     iteration # 27     ecut=    52.00 Ry     beta= 0.30
     Davidson diagonalization with overlap
     ethr =  6.92E-06,  avg # of iterations =  8.1

     negative rho (up, down):  6.433E-03 0.000E+00
 
     Adding external electric field

     Computed dipole along edir(3) : 
        Dipole               -0.1897 Ry au,         -0.4821 Debye
        Dipole field         -0.0005 Ry au, 
 
        Potential amp.        0.0602 Ry
        Total length         63.9641 bohr
 

     total cpu time spent up to now is     1957.1 secs

     total energy              =   -3891.09747225 Ry
     estimated scf accuracy    <       0.02994388 Ry

     iteration # 28     ecut=    52.00 Ry     beta= 0.30
     Davidson diagonalization with overlap
     ethr =  6.92E-06,  avg # of iterations =  3.7

     negative rho (up, down):  1.447E-04 0.000E+00
 
     Adding external electric field

     Computed dipole along edir(3) : 
        Dipole               -0.3644 Ry au,         -0.9263 Debye
        Dipole field         -0.0009 Ry au, 
 
        Potential amp.        0.1157 Ry
        Total length         63.9641 bohr
 

     total cpu time spent up to now is     2023.3 secs

     total energy              =   -3891.09372992 Ry
     estimated scf accuracy    <       0.02776258 Ry

     iteration # 29     ecut=    52.00 Ry     beta= 0.30
     Davidson diagonalization with overlap
     ethr =  6.92E-06,  avg # of iterations = 12.6

     negative rho (up, down):  3.422E-06 0.000E+00
 
     Adding external electric field

     Computed dipole along edir(3) : 
        Dipole               -0.4587 Ry au,         -1.1658 Debye
        Dipole field         -0.0011 Ry au, 
 
        Potential amp.        0.1457 Ry
        Total length         63.9641 bohr
 

     total cpu time spent up to now is     2115.7 secs

     total energy              =   -3891.09386983 Ry
     estimated scf accuracy    <       0.01812160 Ry

     iteration # 30     ecut=    52.00 Ry     beta= 0.30
     Davidson diagonalization with overlap
     ethr =  5.59E-06,  avg # of iterations =  8.8

     negative rho (up, down):  1.178E-05 0.000E+00
 
     Adding external electric field

     Computed dipole along edir(3) : 
        Dipole               -0.1095 Ry au,         -0.2783 Debye
        Dipole field         -0.0003 Ry au, 
 
        Potential amp.        0.0348 Ry
        Total length         63.9641 bohr
 

     total cpu time spent up to now is     2196.2 secs

     total energy              =   -3891.09067691 Ry
     estimated scf accuracy    <       0.02060739 Ry

     iteration # 31     ecut=    52.00 Ry     beta= 0.30
     Davidson diagonalization with overlap
     ethr =  5.59E-06,  avg # of iterations = 11.2

     negative rho (up, down):  1.556E-06 0.000E+00
 
     Adding external electric field

     Computed dipole along edir(3) : 
        Dipole               -0.3001 Ry au,         -0.7627 Debye
        Dipole field         -0.0007 Ry au, 
 
        Potential amp.        0.0953 Ry
        Total length         63.9641 bohr
 

     total cpu time spent up to now is     2284.2 secs

     total energy              =   -3891.09239989 Ry
     estimated scf accuracy    <       0.07373431 Ry

     iteration # 32     ecut=    52.00 Ry     beta= 0.30
     Davidson diagonalization with overlap
     ethr =  5.59E-06,  avg # of iterations = 11.8

     negative rho (up, down):  7.737E-04 0.000E+00
 
     Adding external electric field

     Computed dipole along edir(3) : 
        Dipole               -0.1080 Ry au,         -0.2746 Debye
        Dipole field         -0.0003 Ry au, 
 
        Potential amp.        0.0343 Ry
        Total length         63.9641 bohr
 

     total cpu time spent up to now is     2371.0 secs

     total energy              =   -3891.09387306 Ry
     estimated scf accuracy    <       0.01422855 Ry

     iteration # 33     ecut=    52.00 Ry     beta= 0.30
     Davidson diagonalization with overlap
     ethr =  4.39E-06,  avg # of iterations = 10.7

     negative rho (up, down):  5.083E-06 0.000E+00
 
     Adding external electric field

     Computed dipole along edir(3) : 
        Dipole               -0.1796 Ry au,         -0.4565 Debye
        Dipole field         -0.0004 Ry au, 
 
        Potential amp.        0.0570 Ry
        Total length         63.9641 bohr
 

     total cpu time spent up to now is     2456.6 secs

     total energy              =   -3891.09395537 Ry
     estimated scf accuracy    <       0.06471683 Ry

     iteration # 34     ecut=    52.00 Ry     beta= 0.30
     Davidson diagonalization with overlap
     c_bands:  1 eigenvalues not converged
     c_bands:  2 eigenvalues not converged
     c_bands:  1 eigenvalues not converged
     ethr =  4.39E-06,  avg # of iterations = 10.9

     negative rho (up, down):  3.668E-04 0.000E+00
 
     Adding external electric field

     Computed dipole along edir(3) : 
        Dipole               -0.0535 Ry au,         -0.1359 Debye
        Dipole field         -0.0001 Ry au, 
 
        Potential amp.        0.0170 Ry
        Total length         63.9641 bohr
 

     total cpu time spent up to now is     2542.7 secs

     total energy              =   -3891.09535831 Ry
     estimated scf accuracy    <       0.04681440 Ry

     iteration # 35     ecut=    52.00 Ry     beta= 0.30
     Davidson diagonalization with overlap
     ethr =  4.39E-06,  avg # of iterations =  9.3

     negative rho (up, down):  5.388E-07 0.000E+00
 
     Adding external electric field

     Computed dipole along edir(3) : 
        Dipole               -0.2481 Ry au,         -0.6307 Debye
        Dipole field         -0.0006 Ry au, 
 
        Potential amp.        0.0788 Ry
        Total length         63.9641 bohr
 

     total cpu time spent up to now is     2624.1 secs

     total energy              =   -3891.09269816 Ry
     estimated scf accuracy    <       0.08697350 Ry

     iteration # 36     ecut=    52.00 Ry     beta= 0.30
     Davidson diagonalization with overlap
     c_bands:  1 eigenvalues not converged
     ethr =  4.39E-06,  avg # of iterations = 11.5

     negative rho (up, down):  9.525E-04 0.000E+00
 
     Adding external electric field

     Computed dipole along edir(3) : 
        Dipole               -0.1421 Ry au,         -0.3613 Debye
        Dipole field         -0.0004 Ry au, 
 
        Potential amp.        0.0451 Ry
        Total length         63.9641 bohr
 

     total cpu time spent up to now is     2711.8 secs

     total energy              =   -3891.09491050 Ry
     estimated scf accuracy    <       0.02354142 Ry

     iteration # 37     ecut=    52.00 Ry     beta= 0.30
     Davidson diagonalization with overlap
     ethr =  4.39E-06,  avg # of iterations =  9.8

     negative rho (up, down):  5.332E-07 0.000E+00
 
     Adding external electric field

     Computed dipole along edir(3) : 
        Dipole               -0.3560 Ry au,         -0.9050 Debye
        Dipole field         -0.0009 Ry au, 
 
        Potential amp.        0.1131 Ry
        Total length         63.9641 bohr
 

     total cpu time spent up to now is     2794.2 secs

     total energy              =   -3891.09245711 Ry
     estimated scf accuracy    <       0.04502004 Ry

     iteration # 38     ecut=    52.00 Ry     beta= 0.30
     Davidson diagonalization with overlap
     c_bands:  1 eigenvalues not converged
     c_bands:  1 eigenvalues not converged
     c_bands:  1 eigenvalues not converged
     ethr =  4.39E-06,  avg # of iterations = 13.7

     negative rho (up, down):  1.974E-07 0.000E+00
 
     Adding external electric field

     Computed dipole along edir(3) : 
        Dipole               -0.4091 Ry au,         -1.0397 Debye
        Dipole field         -0.0010 Ry au, 
 
        Potential amp.        0.1299 Ry
        Total length         63.9641 bohr
 

     total cpu time spent up to now is     2888.4 secs

     total energy              =   -3891.09260366 Ry
     estimated scf accuracy    <       0.01412268 Ry

     iteration # 39     ecut=    52.00 Ry     beta= 0.30
     Davidson diagonalization with overlap
     ethr =  4.36E-06,  avg # of iterations =  5.2

     negative rho (up, down):  8.302E-08 0.000E+00
 
     Adding external electric field

     Computed dipole along edir(3) : 
        Dipole               -0.4580 Ry au,         -1.1640 Debye
        Dipole field         -0.0011 Ry au, 
 
        Potential amp.        0.1455 Ry
        Total length         63.9641 bohr
 

     total cpu time spent up to now is     2957.4 secs

     total energy              =   -3891.09296129 Ry
     estimated scf accuracy    <       0.00974063 Ry

     iteration # 40     ecut=    52.00 Ry     beta= 0.30
     Davidson diagonalization with overlap
     ethr =  3.01E-06,  avg # of iterations =  7.7

     negative rho (up, down):  8.305E-04 0.000E+00
 
     Adding external electric field

     Computed dipole along edir(3) : 
        Dipole               -0.3180 Ry au,         -0.8083 Debye
        Dipole field         -0.0008 Ry au, 
 
        Potential amp.        0.1010 Ry
        Total length         63.9641 bohr
 

     total cpu time spent up to now is     3034.0 secs

     total energy              =   -3891.09217013 Ry
     estimated scf accuracy    <       0.01344391 Ry

     iteration # 41     ecut=    52.00 Ry     beta= 0.30
     Davidson diagonalization with overlap
     ethr =  3.01E-06,  avg # of iterations =  9.8

     negative rho (up, down):  9.155E-04 0.000E+00
 
     Adding external electric field

     Computed dipole along edir(3) : 
        Dipole               -0.2546 Ry au,         -0.6472 Debye
        Dipole field         -0.0006 Ry au, 
 
        Potential amp.        0.0809 Ry
        Total length         63.9641 bohr
 

     total cpu time spent up to now is     3116.1 secs

     total energy              =   -3891.09456381 Ry
     estimated scf accuracy    <       0.01572305 Ry

     iteration # 42     ecut=    52.00 Ry     beta= 0.30
     Davidson diagonalization with overlap
     ethr =  3.01E-06,  avg # of iterations =  8.8

     negative rho (up, down):  4.196E-03 0.000E+00
 
     Adding external electric field

     Computed dipole along edir(3) : 
        Dipole               -0.0157 Ry au,         -0.0400 Debye
        Dipole field         -0.0000 Ry au, 
 
        Potential amp.        0.0050 Ry
        Total length         63.9641 bohr
 

     total cpu time spent up to now is     3195.3 secs

     total energy              =   -3891.09496373 Ry
     estimated scf accuracy    <       0.01855695 Ry

     iteration # 43     ecut=    52.00 Ry     beta= 0.30
     Davidson diagonalization with overlap
     ethr =  3.01E-06,  avg # of iterations = 11.6

     negative rho (up, down):  5.372E-03 0.000E+00
 
     Adding external electric field

     Computed dipole along edir(3) : 
        Dipole               -0.1082 Ry au,         -0.2750 Debye
        Dipole field         -0.0003 Ry au, 
 
        Potential amp.        0.0344 Ry
        Total length         63.9641 bohr
 

     total cpu time spent up to now is     3284.0 secs

     total energy              =   -3891.09469960 Ry
     estimated scf accuracy    <       0.08128233 Ry

     iteration # 44     ecut=    52.00 Ry     beta= 0.30
     Davidson diagonalization with overlap
     c_bands:  1 eigenvalues not converged
     c_bands:  1 eigenvalues not converged
     c_bands:  1 eigenvalues not converged
     ethr =  3.01E-06,  avg # of iterations = 11.8

     negative rho (up, down):  6.774E-03 0.000E+00
 
     Adding external electric field

     Computed dipole along edir(3) : 
        Dipole               -0.0328 Ry au,         -0.0833 Debye
        Dipole field         -0.0001 Ry au, 
 
        Potential amp.        0.0104 Ry
        Total length         63.9641 bohr
 

     total cpu time spent up to now is     3371.3 secs

     total energy              =   -3891.09488009 Ry
     estimated scf accuracy    <       0.02376071 Ry

     iteration # 45     ecut=    52.00 Ry     beta= 0.30
     Davidson diagonalization with overlap
     ethr =  3.01E-06,  avg # of iterations = 10.3

     negative rho (up, down):  5.975E-03 0.000E+00
 
     Adding external electric field

     Computed dipole along edir(3) : 
        Dipole               -0.0385 Ry au,         -0.0980 Debye
        Dipole field         -0.0001 Ry au, 
 
        Potential amp.        0.0122 Ry
        Total length         63.9641 bohr
 

     total cpu time spent up to now is     3455.3 secs

     total energy              =   -3891.09520447 Ry
     estimated scf accuracy    <       0.02657205 Ry

     iteration # 46     ecut=    52.00 Ry     beta= 0.30
     Davidson diagonalization with overlap
     ethr =  3.01E-06,  avg # of iterations =  5.1

     negative rho (up, down):  5.633E-03 0.000E+00
 
     Adding external electric field

     Computed dipole along edir(3) : 
        Dipole               -0.0278 Ry au,         -0.0708 Debye
        Dipole field         -0.0001 Ry au, 
 
        Potential amp.        0.0088 Ry
        Total length         63.9641 bohr
 

     total cpu time spent up to now is     3523.2 secs

     total energy              =   -3891.09514908 Ry
     estimated scf accuracy    <       0.03492935 Ry

     iteration # 47     ecut=    52.00 Ry     beta= 0.30
     Davidson diagonalization with overlap
     ethr =  3.01E-06,  avg # of iterations =  4.3

     negative rho (up, down):  5.706E-03 0.000E+00
 
     Adding external electric field

     Computed dipole along edir(3) : 
        Dipole               -0.0566 Ry au,         -0.1439 Debye
        Dipole field         -0.0001 Ry au, 
 
        Potential amp.        0.0180 Ry
        Total length         63.9641 bohr
 

     total cpu time spent up to now is     3589.7 secs

     total energy              =   -3891.09334991 Ry
     estimated scf accuracy    <       0.03149318 Ry

     iteration # 48     ecut=    52.00 Ry     beta= 0.30
     Davidson diagonalization with overlap
     c_bands:  2 eigenvalues not converged
     c_bands:  2 eigenvalues not converged
     c_bands:  2 eigenvalues not converged
     ethr =  3.01E-06,  avg # of iterations = 11.1

     negative rho (up, down):  6.475E-03 0.000E+00
 
     Adding external electric field

     Computed dipole along edir(3) : 
        Dipole               -0.1856 Ry au,         -0.4717 Debye
        Dipole field         -0.0005 Ry au, 
 
        Potential amp.        0.0589 Ry
        Total length         63.9641 bohr
 

     total cpu time spent up to now is     3676.1 secs

     total energy              =   -3891.09184807 Ry
     estimated scf accuracy    <       0.01839957 Ry

     iteration # 49     ecut=    52.00 Ry     beta= 0.30
     Davidson diagonalization with overlap
     c_bands:  1 eigenvalues not converged
     ethr =  3.01E-06,  avg # of iterations = 10.7

     negative rho (up, down):  9.909E-03 0.000E+00
 
     Adding external electric field

     Computed dipole along edir(3) : 
        Dipole               -0.1749 Ry au,         -0.4445 Debye
        Dipole field         -0.0004 Ry au, 
 
        Potential amp.        0.0555 Ry
        Total length         63.9641 bohr
 

     total cpu time spent up to now is     3759.2 secs

     total energy              =   -3891.09116588 Ry
     estimated scf accuracy    <       0.01132586 Ry

     iteration # 50     ecut=    52.00 Ry     beta= 0.30
     Davidson diagonalization with overlap
     ethr =  3.01E-06,  avg # of iterations =  8.8

     negative rho (up, down):  7.468E-03 0.000E+00
 
     Adding external electric field

     Computed dipole along edir(3) : 
        Dipole               -0.1004 Ry au,         -0.2551 Debye
        Dipole field         -0.0002 Ry au, 
 
        Potential amp.        0.0319 Ry
        Total length         63.9641 bohr
 

     total cpu time spent up to now is     3837.8 secs

     total energy              =   -3891.09140080 Ry
     estimated scf accuracy    <       0.00394645 Ry

     iteration # 51     ecut=    52.00 Ry     beta= 0.30
     Davidson diagonalization with overlap
     ethr =  1.22E-06,  avg # of iterations =  9.6

     negative rho (up, down):  4.541E-03 0.000E+00
 
     Adding external electric field

     Computed dipole along edir(3) : 
        Dipole               -0.0469 Ry au,         -0.1191 Debye
        Dipole field         -0.0001 Ry au, 
 
        Potential amp.        0.0149 Ry
        Total length         63.9641 bohr
 

     total cpu time spent up to now is     3918.3 secs

     total energy              =   -3891.09492755 Ry
     estimated scf accuracy    <       0.01574780 Ry

     iteration # 52     ecut=    52.00 Ry     beta= 0.30
     Davidson diagonalization with overlap
     ethr =  1.22E-06,  avg # of iterations = 11.4

     negative rho (up, down):  1.281E-03 0.000E+00
 
     Adding external electric field

     Computed dipole along edir(3) : 
        Dipole               -0.0285 Ry au,         -0.0725 Debye
        Dipole field         -0.0001 Ry au, 
 
        Potential amp.        0.0091 Ry
        Total length         63.9641 bohr
 

     total cpu time spent up to now is     4009.9 secs

     total energy              =   -3891.09302759 Ry
     estimated scf accuracy    <       0.04760946 Ry

     iteration # 53     ecut=    52.00 Ry     beta= 0.30
     Davidson diagonalization with overlap
     c_bands:  2 eigenvalues not converged
     c_bands:  1 eigenvalues not converged
     c_bands:  1 eigenvalues not converged
     ethr =  1.22E-06,  avg # of iterations = 12.0

     negative rho (up, down):  3.863E-03 0.000E+00
 
     Adding external electric field

     Computed dipole along edir(3) : 
        Dipole               -0.0191 Ry au,         -0.0485 Debye
        Dipole field         -0.0000 Ry au, 
 
        Potential amp.        0.0061 Ry
        Total length         63.9641 bohr
 

     total cpu time spent up to now is     4099.4 secs

     total energy              =   -3891.09252919 Ry
     estimated scf accuracy    <       0.02444498 Ry

     iteration # 54     ecut=    52.00 Ry     beta= 0.30
     Davidson diagonalization with overlap
     ethr =  1.22E-06,  avg # of iterations = 11.1

     negative rho (up, down):  2.189E-03 0.000E+00
 
     Adding external electric field

     Computed dipole along edir(3) : 
        Dipole               -0.0484 Ry au,         -0.1231 Debye
        Dipole field         -0.0001 Ry au, 
 
        Potential amp.        0.0154 Ry
        Total length         63.9641 bohr
 

     total cpu time spent up to now is     4186.4 secs

     total energy              =   -3891.09279500 Ry
     estimated scf accuracy    <       0.02074046 Ry

     iteration # 55     ecut=    52.00 Ry     beta= 0.30
     Davidson diagonalization with overlap
     ethr =  1.22E-06,  avg # of iterations =  9.3

     negative rho (up, down):  3.502E-03 0.000E+00
 
     Adding external electric field

     Computed dipole along edir(3) : 
        Dipole                0.0119 Ry au,          0.0302 Debye
        Dipole field          0.0000 Ry au, 
 
        Potential amp.       -0.0038 Ry
        Total length         63.9641 bohr
 

     total cpu time spent up to now is     4267.7 secs

     total energy              =   -3891.09280831 Ry
     estimated scf accuracy    <       0.02393945 Ry

     iteration # 56     ecut=    52.00 Ry     beta= 0.30
     Davidson diagonalization with overlap
     c_bands:  1 eigenvalues not converged
     ethr =  1.22E-06,  avg # of iterations =  9.7

     negative rho (up, down):  9.050E-03 0.000E+00
 
     Adding external electric field

     Computed dipole along edir(3) : 
        Dipole               -0.0602 Ry au,         -0.1529 Debye
        Dipole field         -0.0001 Ry au, 
 
        Potential amp.        0.0191 Ry
        Total length         63.9641 bohr
 

     total cpu time spent up to now is     4349.1 secs

     total energy              =   -3891.09094765 Ry
     estimated scf accuracy    <       0.01994034 Ry

     iteration # 57     ecut=    52.00 Ry     beta= 0.30
     Davidson diagonalization with overlap
     ethr =  1.22E-06,  avg # of iterations = 11.8

     negative rho (up, down):  9.561E-03 0.000E+00
 
     Adding external electric field

     Computed dipole along edir(3) : 
        Dipole               -0.0439 Ry au,         -0.1115 Debye
        Dipole field         -0.0001 Ry au, 
 
        Potential amp.        0.0139 Ry
        Total length         63.9641 bohr
 

     total cpu time spent up to now is     4438.7 secs

     total energy              =   -3891.09131714 Ry
     estimated scf accuracy    <       0.00299284 Ry

     iteration # 58     ecut=    52.00 Ry     beta= 0.30
     Davidson diagonalization with overlap
     ethr =  9.24E-07,  avg # of iterations =  2.0

     negative rho (up, down):  7.980E-03 0.000E+00
 
     Adding external electric field

     Computed dipole along edir(3) : 
        Dipole               -0.0267 Ry au,         -0.0680 Debye
        Dipole field         -0.0001 Ry au, 
 
        Potential amp.        0.0085 Ry
        Total length         63.9641 bohr
 

     total cpu time spent up to now is     4499.4 secs

     total energy              =   -3891.09167506 Ry
     estimated scf accuracy    <       0.00425051 Ry

     iteration # 59     ecut=    52.00 Ry     beta= 0.30
     Davidson diagonalization with overlap
     ethr =  9.24E-07,  avg # of iterations =  7.5

     negative rho (up, down):  5.262E-03 0.000E+00
 
     Adding external electric field

     Computed dipole along edir(3) : 
        Dipole               -0.0823 Ry au,         -0.2091 Debye
        Dipole field         -0.0002 Ry au, 
 
        Potential amp.        0.0261 Ry
        Total length         63.9641 bohr
 

     total cpu time spent up to now is     4574.6 secs

     total energy              =   -3891.09042868 Ry
     estimated scf accuracy    <       0.01539488 Ry

     iteration # 60     ecut=    52.00 Ry     beta= 0.30
     Davidson diagonalization with overlap
     ethr =  9.24E-07,  avg # of iterations =  8.7

     negative rho (up, down):  2.087E-03 0.000E+00
 
     Adding external electric field

     Computed dipole along edir(3) : 
        Dipole               -0.0423 Ry au,         -0.1075 Debye
        Dipole field         -0.0001 Ry au, 
 
        Potential amp.        0.0134 Ry
        Total length         63.9641 bohr
 

     total cpu time spent up to now is     4653.1 secs

     total energy              =   -3891.09072886 Ry
     estimated scf accuracy    <       0.00284580 Ry

     iteration # 61     ecut=    52.00 Ry     beta= 0.30
     Davidson diagonalization with overlap
     ethr =  8.78E-07,  avg # of iterations =  5.7

     negative rho (up, down):  2.253E-03 0.000E+00
 
     Adding external electric field

     Computed dipole along edir(3) : 
        Dipole               -0.0620 Ry au,         -0.1577 Debye
        Dipole field         -0.0002 Ry au, 
 
        Potential amp.        0.0197 Ry
        Total length         63.9641 bohr
 

     total cpu time spent up to now is     4725.0 secs

     total energy              =   -3891.09054564 Ry
     estimated scf accuracy    <       0.00598248 Ry

     iteration # 62     ecut=    52.00 Ry     beta= 0.30
     Davidson diagonalization with overlap
     ethr =  8.78E-07,  avg # of iterations =  5.8

     negative rho (up, down):  1.954E-03 0.000E+00
 
     Adding external electric field

     Computed dipole along edir(3) : 
        Dipole               -0.0023 Ry au,         -0.0059 Debye
        Dipole field         -0.0000 Ry au, 
 
        Potential amp.        0.0007 Ry
        Total length         63.9641 bohr
 

     total cpu time spent up to now is     4796.3 secs

     total energy              =   -3891.09044433 Ry
     estimated scf accuracy    <       0.00613327 Ry

     iteration # 63     ecut=    52.00 Ry     beta= 0.30
     Davidson diagonalization with overlap
     ethr =  8.78E-07,  avg # of iterations =  6.5

     negative rho (up, down):  1.347E-03 0.000E+00
 
     Adding external electric field

     Computed dipole along edir(3) : 
        Dipole               -0.0072 Ry au,         -0.0182 Debye
        Dipole field         -0.0000 Ry au, 
 
        Potential amp.        0.0023 Ry
        Total length         63.9641 bohr
 

     total cpu time spent up to now is     4870.3 secs

     total energy              =   -3891.09063293 Ry
     estimated scf accuracy    <       0.00860510 Ry

     iteration # 64     ecut=    52.00 Ry     beta= 0.30
     Davidson diagonalization with overlap
     ethr =  8.78E-07,  avg # of iterations =  5.9

     negative rho (up, down):  9.769E-04 0.000E+00
 
     Adding external electric field

     Computed dipole along edir(3) : 
        Dipole                0.0132 Ry au,          0.0337 Debye
        Dipole field          0.0000 Ry au, 
 
        Potential amp.       -0.0042 Ry
        Total length         63.9641 bohr
 

     total cpu time spent up to now is     4940.6 secs

     total energy              =   -3891.09090707 Ry
     estimated scf accuracy    <       0.00083935 Ry

     iteration # 65     ecut=    52.00 Ry     beta= 0.30
     Davidson diagonalization with overlap
     ethr =  2.59E-07,  avg # of iterations =  6.1

     negative rho (up, down):  9.285E-04 0.000E+00
 
     Adding external electric field

     Computed dipole along edir(3) : 
        Dipole                0.0144 Ry au,          0.0366 Debye
        Dipole field          0.0000 Ry au, 
 
        Potential amp.       -0.0046 Ry
        Total length         63.9641 bohr
 

     total cpu time spent up to now is     5012.2 secs

     total energy              =   -3891.09088817 Ry
     estimated scf accuracy    <       0.00041902 Ry

     iteration # 66     ecut=    52.00 Ry     beta= 0.30
     Davidson diagonalization with overlap
     ethr =  1.29E-07,  avg # of iterations =  1.0

     negative rho (up, down):  5.215E-04 0.000E+00
 
     Adding external electric field

     Computed dipole along edir(3) : 
        Dipole                0.0120 Ry au,          0.0305 Debye
        Dipole field          0.0000 Ry au, 
 
        Potential amp.       -0.0038 Ry
        Total length         63.9641 bohr
 

     total cpu time spent up to now is     5068.4 secs

     total energy              =   -3891.09090004 Ry
     estimated scf accuracy    <       0.00000701 Ry

     iteration # 67     ecut=    52.00 Ry     beta= 0.30
     Davidson diagonalization with overlap
     ethr =  2.16E-09,  avg # of iterations =  3.3

     negative rho (up, down):  4.386E-04 0.000E+00
 
     Adding external electric field

     Computed dipole along edir(3) : 
        Dipole                0.0105 Ry au,          0.0267 Debye
        Dipole field          0.0000 Ry au, 
 
        Potential amp.       -0.0033 Ry
        Total length         63.9641 bohr
 

     total cpu time spent up to now is     5135.1 secs

     total energy              =   -3891.09089103 Ry
     estimated scf accuracy    <       0.00023540 Ry

     iteration # 68     ecut=    52.00 Ry     beta= 0.30
     Davidson diagonalization with overlap
     ethr =  2.16E-09,  avg # of iterations =  2.0

     negative rho (up, down):  3.986E-04 0.000E+00
 
     Adding external electric field

     Computed dipole along edir(3) : 
        Dipole                0.0103 Ry au,          0.0262 Debye
        Dipole field          0.0000 Ry au, 
 
        Potential amp.       -0.0033 Ry
        Total length         63.9641 bohr
 

     total cpu time spent up to now is     5195.6 secs

     total energy              =   -3891.09089839 Ry
     estimated scf accuracy    <       0.00000256 Ry

     iteration # 69     ecut=    52.00 Ry     beta= 0.30
     Davidson diagonalization with overlap
     ethr =  7.91E-10,  avg # of iterations =  1.0

     negative rho (up, down):  3.638E-04 0.000E+00
 
     Adding external electric field

     Computed dipole along edir(3) : 
        Dipole                0.0096 Ry au,          0.0245 Debye
        Dipole field          0.0000 Ry au, 
 
        Potential amp.       -0.0031 Ry
        Total length         63.9641 bohr
 

     total cpu time spent up to now is     5250.7 secs

     total energy              =   -3891.09089844 Ry
     estimated scf accuracy    <       0.00000109 Ry

     iteration # 70     ecut=    52.00 Ry     beta= 0.30
     Davidson diagonalization with overlap
     ethr =  3.35E-10,  avg # of iterations =  2.0

     negative rho (up, down):  2.877E-04 0.000E+00
 
     Adding external electric field

     Computed dipole along edir(3) : 
        Dipole                0.0086 Ry au,          0.0219 Debye
        Dipole field          0.0000 Ry au, 
 
        Potential amp.       -0.0027 Ry
        Total length         63.9641 bohr
 

     total cpu time spent up to now is     5310.1 secs

     total energy              =   -3891.09089854 Ry
     estimated scf accuracy    <       0.00000083 Ry

     iteration # 71     ecut=    52.00 Ry     beta= 0.30
     Davidson diagonalization with overlap
     ethr =  2.57E-10,  avg # of iterations =  1.4

     negative rho (up, down):  2.882E-04 0.000E+00
 
     Adding external electric field

     Computed dipole along edir(3) : 
        Dipole                0.0086 Ry au,          0.0217 Debye
        Dipole field          0.0000 Ry au, 
 
        Potential amp.       -0.0027 Ry
        Total length         63.9641 bohr
 

     total cpu time spent up to now is     5366.3 secs

     total energy              =   -3891.09089852 Ry
     estimated scf accuracy    <       0.00000017 Ry

     iteration # 72     ecut=    52.00 Ry     beta= 0.30
     Davidson diagonalization with overlap
     ethr =  5.36E-11,  avg # of iterations =  1.0

     negative rho (up, down):  2.993E-04 0.000E+00
 
     Adding external electric field

     Computed dipole along edir(3) : 
        Dipole                0.0087 Ry au,          0.0221 Debye
        Dipole field          0.0000 Ry au, 
 
        Potential amp.       -0.0028 Ry
        Total length         63.9641 bohr
 

     total cpu time spent up to now is     5420.5 secs

     total energy              =   -3891.09089851 Ry
     estimated scf accuracy    <       0.00000016 Ry

     iteration # 73     ecut=    52.00 Ry     beta= 0.30
     Davidson diagonalization with overlap
     ethr =  4.79E-11,  avg # of iterations =  1.0

     negative rho (up, down):  2.904E-04 0.000E+00
 
     Adding external electric field

     Computed dipole along edir(3) : 
        Dipole                0.0085 Ry au,          0.0215 Debye
        Dipole field          0.0000 Ry au, 
 
        Potential amp.       -0.0027 Ry
        Total length         63.9641 bohr
 

     total cpu time spent up to now is     5475.9 secs

     total energy              =   -3891.09089853 Ry
     estimated scf accuracy    <       0.00000003 Ry

     iteration # 74     ecut=    52.00 Ry     beta= 0.30
     Davidson diagonalization with overlap
     ethr =  1.04E-11,  avg # of iterations =  2.0

     negative rho (up, down):  2.988E-04 0.000E+00
 
     Adding external electric field

     Computed dipole along edir(3) : 
        Dipole                0.0085 Ry au,          0.0217 Debye
        Dipole field          0.0000 Ry au, 
 
        Potential amp.       -0.0027 Ry
        Total length         63.9641 bohr
 

     total cpu time spent up to now is     5536.3 secs

     total energy              =   -3891.09089851 Ry
     estimated scf accuracy    <       0.00000022 Ry

     iteration # 75     ecut=    52.00 Ry     beta= 0.30
     Davidson diagonalization with overlap
     ethr =  1.04E-11,  avg # of iterations =  2.0

     negative rho (up, down):  2.963E-04 0.000E+00
 
     Adding external electric field

     Computed dipole along edir(3) : 
        Dipole                0.0085 Ry au,          0.0216 Debye
        Dipole field          0.0000 Ry au, 
 
        Potential amp.       -0.0027 Ry
        Total length         63.9641 bohr
 

     total cpu time spent up to now is     5597.4 secs

     total energy              =   -3891.09089852 Ry
     estimated scf accuracy    <       0.00000004 Ry

     iteration # 76     ecut=    52.00 Ry     beta= 0.30
     Davidson diagonalization with overlap
     ethr =  1.04E-11,  avg # of iterations =  1.0

     negative rho (up, down):  2.941E-04 0.000E+00
 
     Adding external electric field

     Computed dipole along edir(3) : 
        Dipole                0.0085 Ry au,          0.0215 Debye
        Dipole field          0.0000 Ry au, 
 
        Potential amp.       -0.0027 Ry
        Total length         63.9641 bohr
 

     total cpu time spent up to now is     5651.5 secs

     total energy              =   -3891.09089852 Ry
     estimated scf accuracy    <       0.00000002 Ry

     iteration # 77     ecut=    52.00 Ry     beta= 0.30
     Davidson diagonalization with overlap
     ethr =  5.80E-12,  avg # of iterations =  1.0

     negative rho (up, down):  2.864E-04 0.000E+00
 
     Adding external electric field

     Computed dipole along edir(3) : 
        Dipole                0.0084 Ry au,          0.0213 Debye
        Dipole field          0.0000 Ry au, 
 
        Potential amp.       -0.0027 Ry
        Total length         63.9641 bohr
 

     total cpu time spent up to now is     5706.1 secs

     total energy              =   -3891.09089854 Ry
     estimated scf accuracy    <       0.00000001 Ry

     iteration # 78     ecut=    52.00 Ry     beta= 0.30
     Davidson diagonalization with overlap
     ethr =  3.59E-12,  avg # of iterations =  1.1

     negative rho (up, down):  2.810E-04 0.000E+00
 
     Adding external electric field

     Computed dipole along edir(3) : 
        Dipole                0.0083 Ry au,          0.0210 Debye
        Dipole field          0.0000 Ry au, 
 
        Potential amp.       -0.0026 Ry
        Total length         63.9641 bohr
 

     total cpu time spent up to now is     5761.1 secs

     total energy              =   -3891.09089854 Ry
     estimated scf accuracy    <       0.00000002 Ry

     iteration # 79     ecut=    52.00 Ry     beta= 0.30
     Davidson diagonalization with overlap
     ethr =  3.59E-12,  avg # of iterations =  1.0

     negative rho (up, down):  2.752E-04 0.000E+00
 
     Adding external electric field

     Computed dipole along edir(3) : 
        Dipole                0.0081 Ry au,          0.0207 Debye
        Dipole field          0.0000 Ry au, 
 
        Potential amp.       -0.0026 Ry
        Total length         63.9641 bohr
 

     total cpu time spent up to now is     5817.9 secs

     total energy              =   -3891.09089856 Ry
     estimated scf accuracy    <       0.00000001 Ry

     iteration # 80     ecut=    52.00 Ry     beta= 0.30
     Davidson diagonalization with overlap
     ethr =  3.59E-12,  avg # of iterations =  1.0

     negative rho (up, down):  2.767E-04 0.000E+00
 
     Adding external electric field

     Computed dipole along edir(3) : 
        Dipole                0.0085 Ry au,          0.0217 Debye
        Dipole field          0.0000 Ry au, 
 
        Potential amp.       -0.0027 Ry
        Total length         63.9641 bohr
 

     total cpu time spent up to now is     5872.0 secs

     End of self-consistent calculation

          k = 0.0000 0.0000 0.0000 ( 32011 PWs)   bands (ev):

   -87.1409 -87.1303 -87.1242 -87.1239 -87.1197 -87.1196 -86.9810 -86.9677
   -86.9674 -86.9178 -86.9044 -86.9043 -50.6511 -50.6248 -50.6246 -50.6237
   -50.6236 -50.6223 -50.6220 -50.5965 -50.5963 -50.5725 -50.5723 -50.5684
   -50.5684 -50.5658 -50.5233 -50.5232 -50.5092 -50.5089 -50.4644 -50.4639
   -50.4609 -50.4604 -50.4038 -50.4004 -50.4004 -50.3982 -50.3982 -50.3938
   -50.3934 -50.3742 -50.3740 -50.3380 -50.3261 -50.3260 -50.3104 -50.3100
   -14.5037 -14.3312 -14.1984  -9.3900  -9.3837  -9.3810  -9.2093  -9.2093
    -9.2092  -9.1502  -9.1502  -9.1502  -8.2528  -8.2491  -8.2476  -8.0700
    -8.0699  -8.0699  -8.0214  -8.0214  -8.0214  -3.1855  -2.6505  -2.4433
    -1.8408  -1.5646  -1.5424  -1.5401  -1.5364  -1.3615  -1.3614  -1.3614
    -1.3239  -1.3239  -1.3239  -1.3191  -1.1582  -0.6873  -0.6863  -0.6727
    -0.6726  -0.6687  -0.6685  -0.3312  -0.3308  -0.3186  -0.3185  -0.1367
    -0.1336  -0.1097  -0.1097   0.1190   0.1742   0.1748   0.2216   0.2226
     0.2717   0.2729   0.2964   0.2970   0.3147   0.4136   0.4144   0.4930
     0.4953   0.5218   0.5356   0.5589   0.5697   0.6343   0.6343   0.6542
     0.6542   1.0696   1.0699   1.1834   1.1846   1.1874   1.1887   1.2306
     1.2306   1.3213   1.3342   1.5434   1.5825   1.6378   1.6596   1.6639
     1.7430   1.7434   1.7728   1.7838   1.8479   1.8500   1.8623   1.8641
     1.9183   1.9233   1.9233   1.9260   1.9520   1.9520   2.3433   2.3492
     2.3623   2.5986   2.6003   2.6041   2.8528   2.8528   2.8529   4.1331
     5.3984   6.2792   6.3117   6.3241   6.5497   6.5541   6.5562   6.8815
     6.8850   6.8866   8.3936   8.3947   8.5887   8.5916   8.5955   8.5976
     8.6102   8.9984   9.3698   9.3797   9.3853   9.3902   9.5231   9.7842
     9.7895  10.0401  10.7353  11.0469  11.0520  11.0550  11.0618  11.0637
    11.3347  11.3468

          k = 0.0000 0.1925 0.0000 ( 32019 PWs)   bands (ev):

   -87.1396 -87.1294 -87.1250 -87.1246 -87.1201 -87.1199 -86.9799 -86.9682
   -86.9679 -86.9168 -86.9050 -86.9048 -50.6479 -50.6419 -50.6363 -50.6347
   -50.6300 -50.6059 -50.5994 -50.5887 -50.5841 -50.5738 -50.5680 -50.5677
   -50.5650 -50.5625 -50.5325 -50.5273 -50.5202 -50.5118 -50.4806 -50.4755
   -50.4408 -50.4383 -50.4181 -50.4128 -50.4029 -50.3942 -50.3938 -50.3853
   -50.3773 -50.3770 -50.3746 -50.3370 -50.3267 -50.3265 -50.3214 -50.3132
   -14.3423 -14.1699 -14.0383 -10.5948 -10.4245 -10.3217  -9.7559  -9.7490
    -9.5817  -9.5814  -9.4909  -9.4908  -7.6346  -7.6298  -7.4600  -7.4598
    -7.3841  -7.3840  -6.8163  -6.6448  -6.5673  -2.9896  -2.4489  -2.2040
    -2.0206  -2.0155  -1.8408  -1.8408  -1.7989  -1.7989  -1.6512  -1.3813
    -1.3511  -1.2033  -1.1660  -1.1397  -0.9724  -0.9691  -0.8393  -0.7852
    -0.7756  -0.6992  -0.5670  -0.4759  -0.3952  -0.3776  -0.3368  -0.2877
    -0.1902  -0.1657  -0.1605   0.0070   0.0865   0.1100   0.1756   0.2182
     0.3054   0.3202   0.3228   0.3441   0.3845   0.3930   0.4044   0.4488
     0.4585   0.5372   0.5455   0.6174   0.6203   0.6765   0.8093   0.9045
     0.9397   0.9606   0.9935   1.0946   1.0986   1.1141   1.1860   1.1970
     1.2700   1.2781   1.2885   1.2933   1.3016   1.3098   1.4165   1.4596
     1.4719   1.5189   1.5953   1.5986   1.6087   1.6257   1.6543   1.7186
     1.7921   1.8621   1.9014   1.9188   1.9499   1.9980   2.0656   2.1695
     2.2031   2.2937   2.3506   2.4971   2.5110   2.8632   2.8637   4.4831
     5.8442   5.9088   6.5221   6.5382   6.7099   6.7987   6.7999   6.9969
     7.1569   7.1581   7.2855   7.3561   7.5797   7.9271   7.9973   8.2035
     8.3909   8.8278   9.2133   9.6972   9.7380   9.8890  10.2141  10.2278
    10.3390  10.4832  10.9410  11.2476  11.2633  11.3543  11.3733  11.4809
    11.9093  12.0887

          k = 0.0000 0.3849 0.0000 ( 32055 PWs)   bands (ev):

   -87.1363 -87.1278 -87.1270 -87.1256 -87.1215 -87.1204 -86.9771 -86.9703
   -86.9687 -86.9140 -86.9071 -86.9055 -50.6551 -50.6472 -50.6397 -50.6334
   -50.6262 -50.6001 -50.5911 -50.5795 -50.5775 -50.5676 -50.5634 -50.5618
   -50.5533 -50.5515 -50.5484 -50.5481 -50.5338 -50.5208 -50.4927 -50.4701
   -50.4308 -50.4192 -50.4157 -50.4140 -50.4072 -50.4004 -50.3956 -50.3946
   -50.3858 -50.3555 -50.3518 -50.3501 -50.3343 -50.3284 -50.3272 -50.3220
   -13.8598 -13.6879 -13.5598 -11.9625 -11.7919 -11.6777 -10.1552 -10.1487
    -9.9818  -9.9814  -9.8824  -9.8823  -6.5066  -6.5018  -6.3319  -6.3317
    -6.2608  -6.2608  -4.7565  -4.5838  -4.5175  -3.1437  -3.1381  -2.9648
    -2.9648  -2.9153  -2.9153  -2.4089  -1.8687  -1.5635  -1.2168  -1.1166
    -1.1106  -1.0980  -0.9210  -0.8759  -0.8352  -0.8146  -0.8017  -0.7428
    -0.7199  -0.7061  -0.6498  -0.6381  -0.5896  -0.5200  -0.4950  -0.4133
    -0.3422  -0.3255  -0.3017  -0.2827  -0.2467  -0.1720  -0.1405  -0.1079
    -0.0767   0.0173   0.1204   0.1393   0.1779   0.2164   0.2867   0.2971
     0.3293   0.3612   0.4383   0.5534   0.5570   0.5847   0.6469   0.6799
     0.6833   0.6961   0.7326   0.7513   0.8262   0.8594   0.8861   0.8944
     0.9480   0.9750   1.0014   1.1349   1.1386   1.2235   1.2855   1.3390
     1.3517   1.3909   1.4616   1.5149   1.5940   1.6782   1.7294   1.7531
     1.7896   1.8753   1.9027   1.9263   1.9317   1.9739   2.0016   2.0085
     2.0791   2.1037   2.3201   2.3575   2.8065   2.8095   3.0941   3.6186
     4.3476   5.3117   5.6966   5.8730   6.3266   6.8259   7.0556   7.0889
     7.1499   7.2092   7.3348   7.3545   7.6527   7.6574   8.0479   9.1965
     9.3835   9.4795   9.6554   9.8352   9.8553  10.0273  10.3815  10.5366
    10.6690  10.7994  11.5532  11.8234  11.8539  12.0389  12.1618  12.2698
    12.3476  12.4062

          k = 0.0000-0.5774 0.0000 ( 32112 PWs)   bands (ev):

   -87.1320 -87.1318 -87.1261 -87.1241 -87.1241 -87.1207 -86.9737 -86.9734
   -86.9690 -86.9104 -86.9103 -86.9059 -50.6599 -50.6520 -50.6313 -50.6312
   -50.6056 -50.6056 -50.5928 -50.5856 -50.5856 -50.5699 -50.5598 -50.5573
   -50.5572 -50.5481 -50.5479 -50.5386 -50.5352 -50.5351 -50.4969 -50.4469
   -50.4466 -50.4353 -50.4065 -50.4008 -50.3999 -50.3979 -50.3975 -50.3950
   -50.3834 -50.3833 -50.3426 -50.3365 -50.3364 -50.3313 -50.3312 -50.3276
   -13.0633 -13.0612 -12.8912 -12.8909 -12.7688 -12.7687 -10.2982 -10.2918
   -10.1249 -10.1245 -10.0237 -10.0236  -5.6743  -5.6699  -5.4941  -5.4940
    -5.4486  -5.4486  -4.0076  -4.0012  -3.8237  -3.8237  -3.7851  -3.7851
    -2.5905  -2.5867  -2.4136  -2.4136  -2.3606  -2.3606  -1.4701  -1.4658
    -1.3698  -1.2781  -1.2131  -0.9777  -0.9533  -0.9512  -0.9127  -0.9112
    -0.8261  -0.6951  -0.6945  -0.5479  -0.5227  -0.5217  -0.4856  -0.4851
    -0.3898  -0.3888  -0.2583  -0.2575  -0.2080  -0.2073  -0.1927  -0.1920
    -0.0290  -0.0290  -0.0041   0.0063   0.0063   0.0206   0.0213   0.0711
     0.0948   0.0950   0.2640   0.2646   0.2932   0.3269   0.3273   0.3769
     0.3773   0.6157   0.6164   0.6856   0.6862   0.8501   0.8780   0.9283
     0.9287   1.1340   1.1352   1.1692   1.2409   1.2410   1.4696   1.5128
     1.5134   1.5791   1.6034   1.6056   1.7141   1.7150   1.7615   1.8509
     1.8722   1.8790   1.8797   1.9770   2.0076   2.0595   2.0602   2.0910
     2.1948   2.2348   2.2586   2.2824   2.5529   2.5547   2.7624   2.7680
     4.1702   4.1728   5.0840   5.9006   6.4317   6.4554   6.4646   6.6321
     7.3976   7.4068   7.6274   7.6320   7.8783   7.8801   8.7398   8.7476
     9.0767   9.6665  10.4228  10.5564  10.5564  10.9199  10.9209  11.4431
    11.4436  11.6189  11.6807  11.6936  11.7468  11.7490  11.9408  11.9419
    12.1662  12.1678

          k = 0.1667-0.0962 0.0000 ( 32019 PWs)   bands (ev):

   -87.1396 -87.1294 -87.1250 -87.1246 -87.1201 -87.1199 -86.9799 -86.9682
   -86.9679 -86.9168 -86.9050 -86.9048 -50.6479 -50.6417 -50.6364 -50.6347
   -50.6302 -50.6055 -50.5995 -50.5889 -50.5840 -50.5738 -50.5681 -50.5677
   -50.5649 -50.5626 -50.5326 -50.5272 -50.5202 -50.5118 -50.4807 -50.4755
   -50.4409 -50.4382 -50.4180 -50.4129 -50.4029 -50.3942 -50.3938 -50.3852
   -50.3772 -50.3771 -50.3748 -50.3370 -50.3267 -50.3265 -50.3216 -50.3130
   -14.3423 -14.1699 -14.0383 -10.5948 -10.4245 -10.3217  -9.7550  -9.7498
    -9.5817  -9.5815  -9.4909  -9.4908  -7.6345  -7.6300  -7.4600  -7.4598
    -7.3841  -7.3840  -6.8163  -6.6448  -6.5673  -2.9896  -2.4489  -2.2040
    -2.0194  -2.0166  -1.8409  -1.8408  -1.7989  -1.7989  -1.6512  -1.3817
    -1.3509  -1.2033  -1.1660  -1.1395  -0.9721  -0.9685  -0.8399  -0.7861
    -0.7753  -0.6995  -0.5664  -0.4764  -0.3958  -0.3780  -0.3352  -0.2876
    -0.1894  -0.1653  -0.1619   0.0069   0.0863   0.1093   0.1761   0.2187
     0.3051   0.3204   0.3233   0.3438   0.3848   0.3906   0.4038   0.4491
     0.4594   0.5373   0.5470   0.6177   0.6208   0.6740   0.8105   0.9050
     0.9391   0.9635   0.9930   1.0938   1.0989   1.1117   1.1869   1.1970
     1.2708   1.2781   1.2899   1.2951   1.2989   1.3098   1.4160   1.4586
     1.4707   1.5196   1.5953   1.6000   1.6100   1.6257   1.6548   1.7189
     1.7922   1.8630   1.9019   1.9163   1.9478   1.9978   2.0626   2.1746
     2.1999   2.2939   2.3516   2.4979   2.5102   2.8629   2.8639   4.4834
     5.8442   5.9089   6.5174   6.5434   6.7092   6.7963   6.8026   6.9949
     7.1553   7.1599   7.2857   7.3574   7.5800   7.9281   7.9974   8.2033
     8.3950   8.8278   9.2133   9.6915   9.7380   9.8871  10.2155  10.2278
    10.3394  10.4847  10.9410  11.2476  11.2618  11.3557  11.3692  11.4810
    11.9093  12.0887

          k = 0.1667 0.0962 0.0000 ( 32019 PWs)   bands (ev):

   -87.1396 -87.1294 -87.1250 -87.1246 -87.1201 -87.1199 -86.9799 -86.9682
   -86.9679 -86.9168 -86.9050 -86.9048 -50.6479 -50.6420 -50.6363 -50.6347
   -50.6300 -50.6058 -50.5993 -50.5893 -50.5839 -50.5736 -50.5679 -50.5677
   -50.5647 -50.5630 -50.5325 -50.5273 -50.5200 -50.5120 -50.4807 -50.4754
   -50.4409 -50.4381 -50.4182 -50.4126 -50.4029 -50.3942 -50.3938 -50.3852
   -50.3775 -50.3771 -50.3745 -50.3370 -50.3266 -50.3265 -50.3212 -50.3133
   -14.3423 -14.1699 -14.0383 -10.5948 -10.4245 -10.3217  -9.7551  -9.7498
    -9.5817  -9.5815  -9.4909  -9.4908  -7.6345  -7.6300  -7.4600  -7.4598
    -7.3841  -7.3840  -6.8163  -6.6448  -6.5673  -2.9896  -2.4489  -2.2040
    -2.0194  -2.0166  -1.8409  -1.8408  -1.7989  -1.7989  -1.6512  -1.3817
    -1.3509  -1.2033  -1.1660  -1.1399  -0.9727  -0.9698  -0.8398  -0.7836
    -0.7747  -0.6992  -0.5661  -0.4756  -0.3976  -0.3788  -0.3363  -0.2877
    -0.1903  -0.1642  -0.1603   0.0082   0.0861   0.1103   0.1738   0.2204
     0.3046   0.3194   0.3239   0.3437   0.3867   0.3929   0.4076   0.4468
     0.4587   0.5380   0.5396   0.6179   0.6213   0.6755   0.8073   0.9103
     0.9392   0.9607   0.9922   1.0973   1.0986   1.1130   1.1847   1.1981
     1.2706   1.2781   1.2888   1.2904   1.2971   1.3098   1.4159   1.4593
     1.4713   1.5199   1.5953   1.6014   1.6050   1.6257   1.6571   1.7189
     1.7940   1.8619   1.9006   1.9221   1.9467   1.9972   2.0665   2.1740
     2.2002   2.2939   2.3505   2.4980   2.5101   2.8629   2.8640   4.4825
     5.8446   5.9083   6.5178   6.5430   6.7091   6.7965   6.8023   6.9955
     7.1550   7.1603   7.2859   7.3598   7.5798   7.9218   7.9974   8.2048
     8.3850   8.8278   9.2133   9.7014   9.7380   9.8911  10.2161  10.2278
    10.3428  10.4783  10.9410  11.2477  11.2651  11.3510  11.3728  11.4805
    11.9093  12.0887

          k = 0.1667 0.2887 0.0000 ( 32043 PWs)   bands (ev):

   -87.1373 -87.1278 -87.1263 -87.1260 -87.1207 -87.1206 -86.9780 -86.9692
   -86.9689 -86.9148 -86.9059 -86.9058 -50.6439 -50.6437 -50.6423 -50.6376
   -50.6375 -50.5957 -50.5953 -50.5784 -50.5783 -50.5750 -50.5625 -50.5623
   -50.5547 -50.5543 -50.5471 -50.5407 -50.5327 -50.5164 -50.4825 -50.4822
   -50.4225 -50.4222 -50.4200 -50.4199 -50.4063 -50.4008 -50.3950 -50.3946
   -50.3822 -50.3586 -50.3585 -50.3420 -50.3350 -50.3275 -50.3274 -50.3185
   -14.0203 -13.8483 -13.7190 -11.1944 -11.1932 -11.0235 -11.0234 -10.9152
   -10.9151  -8.9667  -8.7909  -8.7336  -7.8714  -7.6906  -7.6460  -5.7407
    -5.7405  -5.5684  -5.5684  -5.4975  -5.4975  -3.3239  -3.1483  -3.0971
    -2.6013  -2.0598  -1.7694  -1.6980  -1.6962  -1.5197  -1.5197  -1.4787
    -1.4787  -1.2807  -1.0424  -1.0295  -1.0288  -0.9198  -0.9197  -0.8840
    -0.8838  -0.8526  -0.6913  -0.5852  -0.5834  -0.4128  -0.4117  -0.3722
    -0.3714  -0.2031  -0.1688  -0.1656  -0.0274   0.0140   0.0741   0.2047
     0.2085   0.2542   0.2861   0.2950   0.3512   0.3535   0.3636   0.4477
     0.4590   0.4677   0.5233   0.5487   0.5722   0.5877   0.6078   0.7314
     0.7354   0.7466   0.7600   0.8323   0.9400   0.9697   0.9863   0.9955
     0.9993   1.0554   1.0651   1.0957   1.1543   1.1674   1.2278   1.2731
     1.2774   1.3428   1.3925   1.3987   1.4965   1.4979   1.5715   1.5794
     1.6267   1.6596   1.7614   1.7628   1.9188   1.9200   1.9467   1.9931
     1.9984   2.1245   2.1282   2.8620   2.9152   3.1720   3.4268   4.7029
     4.7077   5.0531   5.4893   5.4954   6.1537   6.3723   6.5344   6.7628
     6.9080   6.9130   8.1980   8.2159   8.4878   8.4984   8.7230   8.7350
     8.8814   8.8838   9.2627   9.6413   9.7750   9.7805  10.1670  10.5668
    10.5730  10.6079  11.3515  11.4534  11.4674  11.6287  12.5157  12.5321
    12.7201  12.7253

          k = 0.1667-0.6736 0.0000 ( 32075 PWs)   bands (ev):

   -87.1335 -87.1293 -87.1270 -87.1251 -87.1225 -87.1212 -86.9749 -86.9715
   -86.9697 -86.9117 -86.9083 -86.9066 -50.6506 -50.6443 -50.6341 -50.6331
   -50.6262 -50.5989 -50.5956 -50.5950 -50.5741 -50.5683 -50.5636 -50.5582
   -50.5556 -50.5543 -50.5425 -50.5390 -50.5390 -50.5256 -50.4884 -50.4673
   -50.4380 -50.4263 -50.4066 -50.4056 -50.4044 -50.3989 -50.3965 -50.3954
   -50.3917 -50.3743 -50.3427 -50.3417 -50.3324 -50.3296 -50.3281 -50.3281
   -13.3803 -13.2088 -13.0842 -12.4314 -12.2605 -12.1429 -11.5001 -11.3296
   -11.2189  -8.9076  -8.7364  -8.6523  -7.0556  -6.8806  -6.8203  -4.7029
    -4.6350  -4.5258  -4.4754  -4.4598  -4.4053  -3.6551  -3.4808  -3.4237
    -2.5706  -2.3926  -2.3497  -1.8402  -1.6148  -1.4375  -1.3950  -1.3166
    -1.2567  -1.1929  -1.1881  -1.1195  -1.0770  -0.9889  -0.9421  -0.8988
    -0.8904  -0.8876  -0.8766  -0.8601  -0.7386  -0.7209  -0.7160  -0.6111
    -0.5567  -0.5288  -0.4840  -0.4149  -0.3494  -0.3442  -0.2139  -0.2070
    -0.1810  -0.0322  -0.0321  -0.0285   0.0022   0.0356   0.1428   0.2287
     0.2666   0.3126   0.3323   0.3826   0.3924   0.4002   0.4696   0.5198
     0.5925   0.6945   0.7253   0.7685   0.8182   0.8793   0.8946   0.9174
     0.9366   1.0566   1.0807   1.1067   1.1124   1.1809   1.2392   1.2980
     1.3996   1.4288   1.4327   1.4939   1.5529   1.5693   1.5865   1.6500
     1.7676   1.8099   1.8233   1.8426   1.8840   1.9083   1.9485   1.9859
     2.0183   2.0416   2.1224   2.7134   3.2252   3.3698   3.5551   3.6837
     3.8310   3.9514   4.5904   5.0029   5.9202   6.0195   6.0520   6.1675
     6.4073   7.2844   7.9093   8.1293   8.9650   9.1953   9.4552   9.5023
     9.7471  10.1294  10.2049  10.4239  10.4917  10.6467  10.9358  10.9855
    11.0222  11.3851  11.4280  11.6803  12.0071  12.1530  12.1601  12.3098
    12.4154  12.5715

          k = 0.1667-0.4811 0.0000 ( 32075 PWs)   bands (ev):

   -87.1335 -87.1293 -87.1270 -87.1251 -87.1225 -87.1212 -86.9749 -86.9715
   -86.9697 -86.9117 -86.9083 -86.9066 -50.6506 -50.6443 -50.6341 -50.6331
   -50.6262 -50.5991 -50.5953 -50.5950 -50.5743 -50.5684 -50.5636 -50.5582
   -50.5556 -50.5545 -50.5425 -50.5392 -50.5390 -50.5254 -50.4884 -50.4672
   -50.4380 -50.4263 -50.4066 -50.4057 -50.4042 -50.3989 -50.3965 -50.3954
   -50.3917 -50.3746 -50.3427 -50.3420 -50.3324 -50.3295 -50.3282 -50.3278
   -13.3803 -13.2088 -13.0842 -12.4314 -12.2605 -12.1429 -11.5001 -11.3296
   -11.2189  -8.9076  -8.7364  -8.6523  -7.0556  -6.8806  -6.8203  -4.7029
    -4.6350  -4.5258  -4.4754  -4.4598  -4.4053  -3.6551  -3.4808  -3.4237
    -2.5706  -2.3926  -2.3497  -1.8402  -1.6148  -1.4375  -1.3950  -1.3165
    -1.2566  -1.1931  -1.1873  -1.1197  -1.0770  -0.9897  -0.9426  -0.8988
    -0.8899  -0.8866  -0.8763  -0.8601  -0.7386  -0.7197  -0.7161  -0.6113
    -0.5571  -0.5276  -0.4843  -0.4173  -0.3500  -0.3433  -0.2143  -0.2073
    -0.1821  -0.0336  -0.0321  -0.0306   0.0022   0.0361   0.1436   0.2288
     0.2680   0.3133   0.3344   0.3771   0.3907   0.3997   0.4714   0.5200
     0.5922   0.7008   0.7294   0.7705   0.8157   0.8748   0.8970   0.9179
     0.9377   1.0550   1.0799   1.1059   1.1133   1.1789   1.2394   1.2987
     1.4012   1.4292   1.4336   1.4940   1.5532   1.5711   1.5834   1.6499
     1.7643   1.8087   1.8234   1.8441   1.8887   1.9092   1.9473   1.9849
     2.0185   2.0409   2.1184   2.7135   3.2252   3.3701   3.5551   3.6831
     3.8310   3.9514   4.5904   5.0046   5.9209   6.0208   6.0523   6.1675
     6.4073   7.2831   7.9096   8.1321   8.9650   9.1953   9.4552   9.5023
     9.7427  10.1294  10.2048  10.4239  10.4918  10.6467  10.9358  10.9854
    11.0222  11.3853  11.4280  11.6806  12.0049  12.1529  12.1604  12.3090
    12.4158  12.5712

          k = 0.1667-0.2887 0.0000 ( 32043 PWs)   bands (ev):

   -87.1373 -87.1278 -87.1263 -87.1260 -87.1207 -87.1206 -86.9780 -86.9692
   -86.9689 -86.9148 -86.9059 -86.9058 -50.6438 -50.6436 -50.6423 -50.6377
   -50.6376 -50.5956 -50.5952 -50.5784 -50.5783 -50.5751 -50.5628 -50.5626
   -50.5544 -50.5543 -50.5470 -50.5411 -50.5325 -50.5162 -50.4825 -50.4822
   -50.4225 -50.4222 -50.4200 -50.4198 -50.4063 -50.4008 -50.3950 -50.3946
   -50.3821 -50.3587 -50.3585 -50.3424 -50.3350 -50.3275 -50.3274 -50.3181
   -14.0203 -13.8483 -13.7190 -11.1944 -11.1932 -11.0235 -11.0234 -10.9152
   -10.9151  -8.9667  -8.7909  -8.7336  -7.8714  -7.6906  -7.6460  -5.7407
    -5.7405  -5.5684  -5.5684  -5.4975  -5.4975  -3.3239  -3.1483  -3.0971
    -2.6013  -2.0598  -1.7691  -1.6980  -1.6962  -1.5197  -1.5197  -1.4787
    -1.4787  -1.2807  -1.0423  -1.0292  -1.0284  -0.9208  -0.9203  -0.8842
    -0.8841  -0.8513  -0.6882  -0.5837  -0.5834  -0.4141  -0.4116  -0.3738
    -0.3734  -0.2070  -0.1683  -0.1671  -0.0287   0.0140   0.0740   0.2073
     0.2115   0.2542   0.2861   0.2920   0.3461   0.3519   0.3587   0.4491
     0.4611   0.4634   0.5287   0.5482   0.5863   0.5892   0.6050   0.7335
     0.7356   0.7467   0.7601   0.8319   0.9400   0.9697   0.9819   0.9955
     0.9987   1.0592   1.0628   1.0969   1.1567   1.1637   1.2255   1.2733
     1.2777   1.3490   1.3945   1.4018   1.4947   1.4981   1.5705   1.5736
     1.6309   1.6580   1.7588   1.7669   1.9173   1.9223   1.9422   1.9926
     1.9989   2.1229   2.1251   2.8623   2.9152   3.1720   3.4268   4.7031
     4.7073   5.0550   5.4895   5.4957   6.1537   6.3723   6.5344   6.7645
     6.9084   6.9167   8.1994   8.2149   8.4882   8.4983   8.7257   8.7383
     8.8813   8.8842   9.2627   9.6413   9.7707   9.7751  10.1670  10.5654
    10.5699  10.6079  11.3514  11.4524  11.4671  11.6286  12.5122  12.5243
    12.7220  12.7234

          k = 0.3333-0.1925 0.0000 ( 32055 PWs)   bands (ev):

   -87.1362 -87.1277 -87.1270 -87.1257 -87.1215 -87.1204 -86.9771 -86.9703
   -86.9687 -86.9140 -86.9071 -86.9055 -50.6550 -50.6472 -50.6397 -50.6334
   -50.6265 -50.5998 -50.5913 -50.5797 -50.5775 -50.5675 -50.5636 -50.5618
   -50.5532 -50.5514 -50.5485 -50.5482 -50.5337 -50.5207 -50.4927 -50.4700
   -50.4307 -50.4193 -50.4156 -50.4138 -50.4073 -50.4004 -50.3956 -50.3946
   -50.3859 -50.3553 -50.3520 -50.3503 -50.3344 -50.3285 -50.3272 -50.3218
   -13.8598 -13.6879 -13.5598 -11.9625 -11.7919 -11.6777 -10.1547 -10.1492
    -9.9818  -9.9815  -9.8824  -9.8823  -6.5066  -6.5018  -6.3319  -6.3317
    -6.2608  -6.2608  -4.7565  -4.5838  -4.5175  -3.1427  -3.1390  -2.9648
    -2.9648  -2.9153  -2.9153  -2.4090  -1.8687  -1.5633  -1.2168  -1.1169
    -1.1105  -1.0980  -0.9215  -0.8751  -0.8358  -0.8157  -0.8016  -0.7428
    -0.7202  -0.7061  -0.6490  -0.6383  -0.5889  -0.5199  -0.4952  -0.4134
    -0.3422  -0.3259  -0.3017  -0.2817  -0.2468  -0.1724  -0.1406  -0.1088
    -0.0758   0.0166   0.1209   0.1412   0.1779   0.2166   0.2870   0.2969
     0.3287   0.3625   0.4356   0.5559   0.5578   0.5829   0.6474   0.6795
     0.6838   0.6955   0.7312   0.7522   0.8262   0.8594   0.8872   0.8949
     0.9485   0.9736   1.0016   1.1352   1.1383   1.2229   1.2849   1.3379
     1.3527   1.3924   1.4610   1.5157   1.5950   1.6772   1.7302   1.7520
     1.7898   1.8748   1.9012   1.9226   1.9332   1.9776   2.0010   2.0080
     2.0770   2.1037   2.3202   2.3573   2.8060   2.8100   3.0951   3.6185
     4.3473   5.3123   5.6939   5.8733   6.3286   6.8235   7.0688   7.0859
     7.1489   7.2120   7.3385   7.3498   7.6535   7.6565   8.0488   9.1895
     9.3832   9.4795   9.6551   9.8355   9.8552  10.0274  10.3814  10.5381
    10.6639  10.7994  11.5531  11.8234  11.8500  12.0389  12.1616  12.2678
    12.3472  12.4092

          k = 0.3333-0.0000 0.0000 ( 32043 PWs)   bands (ev):

   -87.1373 -87.1278 -87.1263 -87.1260 -87.1207 -87.1206 -86.9780 -86.9692
   -86.9689 -86.9148 -86.9059 -86.9058 -50.6439 -50.6436 -50.6422 -50.6377
   -50.6376 -50.5955 -50.5953 -50.5785 -50.5784 -50.5751 -50.5624 -50.5623
   -50.5547 -50.5543 -50.5471 -50.5408 -50.5325 -50.5163 -50.4826 -50.4821
   -50.4226 -50.4220 -50.4200 -50.4198 -50.4062 -50.4008 -50.3950 -50.3946
   -50.3823 -50.3588 -50.3584 -50.3422 -50.3351 -50.3275 -50.3274 -50.3183
   -14.0203 -13.8483 -13.7190 -11.1952 -11.1924 -11.0235 -11.0233 -10.9152
   -10.9151  -8.9667  -8.7909  -8.7336  -7.8714  -7.6906  -7.6460  -5.7409
    -5.7403  -5.5684  -5.5684  -5.4976  -5.4975  -3.3239  -3.1483  -3.0971
    -2.6014  -2.0598  -1.7692  -1.6993  -1.6950  -1.5197  -1.5197  -1.4787
    -1.4787  -1.2807  -1.0417  -1.0297  -1.0284  -0.9201  -0.9198  -0.8843
    -0.8839  -0.8529  -0.6908  -0.5856  -0.5838  -0.4129  -0.4101  -0.3728
    -0.3721  -0.2043  -0.1690  -0.1665  -0.0274   0.0139   0.0742   0.2045
     0.2126   0.2542   0.2861   0.2942   0.3512   0.3523   0.3584   0.4483
     0.4606   0.4665   0.5253   0.5486   0.5734   0.5897   0.6077   0.7322
     0.7347   0.7466   0.7601   0.8325   0.9400   0.9697   0.9852   0.9962
     0.9979   1.0589   1.0642   1.0955   1.1592   1.1627   1.2272   1.2728
     1.2778   1.3439   1.3889   1.4033   1.4939   1.4981   1.5727   1.5778
     1.6261   1.6606   1.7595   1.7657   1.9153   1.9229   1.9447   1.9893
     2.0025   2.1218   2.1292   2.8629   2.9151   3.1719   3.4268   4.7027
     4.7077   5.0536   5.4890   5.4961   6.1540   6.3723   6.5344   6.7634
     6.9047   6.9172   8.1892   8.2245   8.4831   8.5052   8.7158   8.7429
     8.8800   8.8855   9.2627   9.6413   9.7706   9.7808  10.1670  10.5660
    10.5737  10.6079  11.3514  11.4504  11.4662  11.6287  12.5141  12.5322
    12.7195  12.7252

          k = 0.3333 0.1925 0.0000 ( 32055 PWs)   bands (ev):

   -87.1362 -87.1277 -87.1270 -87.1257 -87.1216 -87.1204 -86.9771 -86.9703
   -86.9687 -86.9140 -86.9071 -86.9055 -50.6552 -50.6472 -50.6397 -50.6334
   -50.6263 -50.5998 -50.5917 -50.5796 -50.5773 -50.5675 -50.5634 -50.5616
   -50.5531 -50.5519 -50.5484 -50.5479 -50.5338 -50.5210 -50.4927 -50.4700
   -50.4309 -50.4193 -50.4156 -50.4138 -50.4071 -50.4004 -50.3956 -50.3946
   -50.3859 -50.3556 -50.3516 -50.3500 -50.3343 -50.3284 -50.3273 -50.3222
   -13.8598 -13.6879 -13.5598 -11.9625 -11.7919 -11.6777 -10.1547 -10.1492
    -9.9818  -9.9815  -9.8824  -9.8823  -6.5066  -6.5018  -6.3319  -6.3317
    -6.2608  -6.2608  -4.7565  -4.5838  -4.5175  -3.1427  -3.1390  -2.9648
    -2.9648  -2.9153  -2.9153  -2.4090  -1.8687  -1.5636  -1.2166  -1.1165
    -1.1111  -1.0980  -0.9216  -0.8754  -0.8348  -0.8140  -0.8006  -0.7428
    -0.7216  -0.7061  -0.6495  -0.6367  -0.5908  -0.5198  -0.4937  -0.4150
    -0.3422  -0.3245  -0.3017  -0.2820  -0.2445  -0.1725  -0.1407  -0.1131
    -0.0739   0.0163   0.1165   0.1378   0.1779   0.2166   0.2875   0.2963
     0.3279   0.3643   0.4415   0.5505   0.5581   0.5830   0.6476   0.6806
     0.6843   0.6988   0.7329   0.7589   0.8262   0.8594   0.8814   0.8877
     0.9478   0.9781   1.0012   1.1301   1.1402   1.2247   1.2823   1.3390
     1.3502   1.3901   1.4624   1.5200   1.5978   1.6766   1.7305   1.7509
     1.7910   1.8711   1.9045   1.9236   1.9313   1.9800   2.0000   2.0071
     2.0812   2.1046   2.3200   2.3574   2.8059   2.8101   3.0938   3.6187
     4.3475   5.3104   5.6978   5.8733   6.3358   6.8133   7.0604   7.0871
     7.1437   7.2020   7.3394   7.3484   7.6536   7.6564   8.0472   9.2046
     9.3834   9.4795   9.6553   9.8414   9.8553  10.0274  10.3815  10.5347
    10.6665  10.7994  11.5532  11.8235  11.8747  12.0389  12.1617  12.2693
    12.3476  12.4076

          k = 0.3333-0.7698 0.0000 ( 32075 PWs)   bands (ev):

   -87.1335 -87.1293 -87.1271 -87.1251 -87.1225 -87.1212 -86.9749 -86.9715
   -86.9697 -86.9117 -86.9083 -86.9066 -50.6507 -50.6443 -50.6341 -50.6331
   -50.6262 -50.5990 -50.5955 -50.5952 -50.5740 -50.5681 -50.5636 -50.5581
   -50.5556 -50.5544 -50.5426 -50.5392 -50.5389 -50.5257 -50.4884 -50.4672
   -50.4380 -50.4264 -50.4065 -50.4057 -50.4043 -50.3989 -50.3965 -50.3954
   -50.3918 -50.3743 -50.3425 -50.3419 -50.3324 -50.3295 -50.3282 -50.3281
   -13.3803 -13.2088 -13.0842 -12.4314 -12.2605 -12.1429 -11.5001 -11.3296
   -11.2189  -8.9076  -8.7364  -8.6523  -7.0556  -6.8806  -6.8203  -4.7029
    -4.6350  -4.5258  -4.4754  -4.4598  -4.4053  -3.6551  -3.4808  -3.4237
    -2.5706  -2.3926  -2.3497  -1.8403  -1.6148  -1.4375  -1.3950  -1.3166
    -1.2561  -1.1929  -1.1880  -1.1205  -1.0771  -0.9888  -0.9427  -0.8988
    -0.8897  -0.8876  -0.8754  -0.8601  -0.7386  -0.7213  -0.7142  -0.6130
    -0.5567  -0.5285  -0.4828  -0.4160  -0.3489  -0.3444  -0.2156  -0.2049
    -0.1810  -0.0352  -0.0321  -0.0318   0.0022   0.0401   0.1396   0.2297
     0.2633   0.3130   0.3295   0.3834   0.3939   0.4036   0.4706   0.5206
     0.5914   0.6926   0.7314   0.7692   0.8192   0.8730   0.8964   0.9146
     0.9397   1.0558   1.0809   1.1083   1.1107   1.1762   1.2394   1.3006
     1.3992   1.4279   1.4331   1.4961   1.5531   1.5704   1.5864   1.6505
     1.7668   1.8097   1.8237   1.8428   1.8852   1.9109   1.9476   1.9880
     2.0178   2.0399   2.1214   2.7134   3.2251   3.3695   3.5550   3.6831
     3.8314   3.9514   4.5914   5.0041   5.9202   6.0186   6.0471   6.1675
     6.4073   7.2828   7.9063   8.1287   8.9652   9.1954   9.4552   9.5083
     9.7435  10.1294  10.2103  10.4239  10.4917  10.6466  10.9355  10.9830
    11.0222  11.3852  11.4280  11.6796  12.0063  12.1532  12.1789  12.3098
    12.4156  12.5715

          k = 0.3333-0.5774 0.0000 ( 32121 PWs)   bands (ev):

   -87.1302 -87.1299 -87.1298 -87.1230 -87.1229 -87.1228 -86.9722 -86.9722
   -86.9718 -86.9089 -86.9089 -86.9088 -50.6343 -50.6341 -50.6341 -50.6280
   -50.6279 -50.6278 -50.5942 -50.5938 -50.5938 -50.5614 -50.5612 -50.5612
   -50.5509 -50.5508 -50.5507 -50.5312 -50.5311 -50.5310 -50.4679 -50.4678
   -50.4673 -50.4049 -50.4047 -50.4046 -50.3987 -50.3984 -50.3980 -50.3972
   -50.3971 -50.3966 -50.3347 -50.3345 -50.3343 -50.3301 -50.3301 -50.3300
   -12.5899 -12.5891 -12.5874 -12.4180 -12.4179 -12.4177 -12.2991 -12.2991
   -12.2990  -7.7276  -7.7138  -7.5576  -7.5287  -7.5010  -7.4680  -5.5373
    -5.3522  -5.3223  -2.9378  -2.9356  -2.9345  -2.7567  -2.7567  -2.7566
    -2.7184  -2.7184  -2.7184  -1.5354  -1.5346  -1.5331  -1.3534  -1.3534
    -1.3534  -1.3197  -1.3197  -1.3197  -1.1596  -1.1591  -1.1583  -1.1200
    -1.1190  -1.1187  -0.9632  -0.9608  -0.9591  -0.9043  -0.9026  -0.9013
    -0.7645  -0.7632  -0.7613  -0.6001  -0.5995  -0.5975  -0.4181  -0.4145
    -0.4116  -0.2928  -0.2879  -0.2868   0.0995   0.1030   0.1042   0.2746
     0.2779   0.2798   0.3575   0.3608   0.3624   0.4041   0.4060   0.4069
     0.5331   0.5337   0.5382   0.8999   0.9000   0.9034   0.9700   0.9730
     0.9754   1.2743   1.2747   1.2767   1.3403   1.3418   1.3421   1.5367
     1.5376   1.5401   1.5907   1.5911   1.5919   1.6465   1.6467   1.6475
     1.7376   1.7380   1.7387   1.7917   1.7925   1.7928   1.9946   1.9953
     1.9963   2.0365   2.0375   2.0382   2.8296   2.8306   2.8320   4.4602
     4.6336   4.6426   4.6452   4.7542   4.8733   4.9493   4.9950   5.3866
     6.9891   6.9943   6.9961   9.4465   9.4536   9.4576  10.8821  10.8834
    10.8861  11.0850  11.0854  11.0863  11.2062  11.2062  11.2063  11.2935
    11.2940  11.2942  11.4477  11.4531  11.4533  11.8251  11.8488  11.8504
    12.0864  12.0983

          k = 0.3333-0.3849 0.0000 ( 32075 PWs)   bands (ev):

   -87.1335 -87.1293 -87.1271 -87.1251 -87.1225 -87.1212 -86.9749 -86.9715
   -86.9697 -86.9117 -86.9083 -86.9066 -50.6504 -50.6443 -50.6341 -50.6331
   -50.6263 -50.5991 -50.5953 -50.5951 -50.5743 -50.5683 -50.5636 -50.5583
   -50.5556 -50.5545 -50.5424 -50.5391 -50.5390 -50.5254 -50.4884 -50.4672
   -50.4380 -50.4262 -50.4065 -50.4057 -50.4044 -50.3989 -50.3965 -50.3954
   -50.3918 -50.3746 -50.3429 -50.3418 -50.3325 -50.3296 -50.3281 -50.3277
   -13.3803 -13.2088 -13.0842 -12.4314 -12.2605 -12.1429 -11.5001 -11.3296
   -11.2189  -8.9076  -8.7364  -8.6523  -7.0556  -6.8806  -6.8203  -4.7029
    -4.6350  -4.5258  -4.4754  -4.4598  -4.4053  -3.6551  -3.4808  -3.4237
    -2.5706  -2.3926  -2.3497  -1.8403  -1.6148  -1.4375  -1.3950  -1.3166
    -1.2569  -1.1935  -1.1873  -1.1193  -1.0771  -0.9894  -0.9423  -0.8988
    -0.8904  -0.8865  -0.8761  -0.8601  -0.7387  -0.7200  -0.7165  -0.6115
    -0.5570  -0.5278  -0.4845  -0.4170  -0.3496  -0.3430  -0.2170  -0.2046
    -0.1818  -0.0342  -0.0322  -0.0315   0.0022   0.0357   0.1471   0.2283
     0.2684   0.3117   0.3358   0.3777   0.3907   0.3993   0.4725   0.5198
     0.5923   0.7004   0.7297   0.7702   0.8156   0.8755   0.8962   0.9182
     0.9372   1.0541   1.0805   1.1051   1.1129   1.1793   1.2394   1.2991
     1.4011   1.4292   1.4332   1.4935   1.5533   1.5710   1.5836   1.6503
     1.7641   1.8087   1.8238   1.8446   1.8883   1.9075   1.9480   1.9832
     2.0181   2.0414   2.1193   2.7137   3.2251   3.3693   3.5550   3.6836
     3.8301   3.9513   4.5921   5.0051   5.9211   6.0207   6.0534   6.1675
     6.4073   7.2839   7.9119   8.1322   8.9652   9.1954   9.4552   9.4976
     9.7446  10.1294  10.2046  10.4240  10.4917  10.6467  10.9355  10.9809
    11.0221  11.3853  11.4280  11.6798  12.0060  12.1529  12.1561  12.3096
    12.4157  12.5710

          k =-0.5000 0.2887 0.0000 ( 32112 PWs)   bands (ev):

   -87.1320 -87.1317 -87.1261 -87.1241 -87.1240 -87.1207 -86.9737 -86.9734
   -86.9690 -86.9104 -86.9103 -86.9059 -50.6597 -50.6519 -50.6313 -50.6311
   -50.6059 -50.6057 -50.5931 -50.5856 -50.5855 -50.5697 -50.5599 -50.5573
   -50.5572 -50.5481 -50.5479 -50.5387 -50.5351 -50.5350 -50.4969 -50.4469
   -50.4464 -50.4352 -50.4064 -50.4004 -50.4004 -50.3980 -50.3976 -50.3950
   -50.3835 -50.3834 -50.3428 -50.3364 -50.3363 -50.3312 -50.3312 -50.3275
   -13.0627 -13.0618 -12.8911 -12.8910 -12.7688 -12.7687 -10.2978 -10.2922
   -10.1249 -10.1246 -10.0237 -10.0236  -5.6745  -5.6696  -5.4941  -5.4940
    -5.4486  -5.4486  -4.0064  -4.0023  -3.8237  -3.8237  -3.7851  -3.7851
    -2.5893  -2.5878  -2.4136  -2.4136  -2.3606  -2.3606  -1.4689  -1.4670
    -1.3701  -1.2786  -1.2129  -0.9775  -0.9530  -0.9519  -0.9121  -0.9112
    -0.8265  -0.6961  -0.6960  -0.5481  -0.5220  -0.5209  -0.4851  -0.4841
    -0.3903  -0.3894  -0.2589  -0.2587  -0.2068  -0.2064  -0.1929  -0.1920
    -0.0290  -0.0290  -0.0079   0.0063   0.0063   0.0221   0.0229   0.0774
     0.0934   0.0940   0.2645   0.2648   0.2918   0.3279   0.3286   0.3763
     0.3769   0.6163   0.6168   0.6839   0.6846   0.8497   0.8787   0.9293
     0.9307   1.1329   1.1350   1.1692   1.2403   1.2403   1.4695   1.5128
     1.5142   1.5813   1.6021   1.6039   1.7123   1.7148   1.7632   1.8499
     1.8726   1.8774   1.8781   1.9773   2.0082   2.0596   2.0605   2.0909
     2.1953   2.2342   2.2582   2.2827   2.5528   2.5543   2.7619   2.7685
     4.1717   4.1729   5.0805   5.9029   6.4317   6.4565   6.4652   6.6403
     7.3990   7.4056   7.6280   7.6313   7.8787   7.8797   8.7399   8.7495
     9.0696   9.6663  10.4175  10.5564  10.5564  10.9198  10.9208  11.4430
    11.4436  11.6138  11.6849  11.6897  11.7470  11.7489  11.9408  11.9419
    12.1666  12.1673

          k =-0.5000 0.4811 0.0000 ( 32075 PWs)   bands (ev):

   -87.1335 -87.1293 -87.1270 -87.1251 -87.1225 -87.1212 -86.9749 -86.9715
   -86.9697 -86.9117 -86.9083 -86.9066 -50.6504 -50.6443 -50.6340 -50.6331
   -50.6263 -50.5991 -50.5955 -50.5951 -50.5742 -50.5683 -50.5637 -50.5583
   -50.5556 -50.5543 -50.5424 -50.5391 -50.5390 -50.5255 -50.4884 -50.4672
   -50.4379 -50.4262 -50.4066 -50.4055 -50.4045 -50.3989 -50.3965 -50.3954
   -50.3919 -50.3745 -50.3429 -50.3416 -50.3325 -50.3296 -50.3281 -50.3278
   -13.3803 -13.2088 -13.0842 -12.4314 -12.2605 -12.1429 -11.5001 -11.3296
   -11.2189  -8.9076  -8.7364  -8.6523  -7.0556  -6.8806  -6.8203  -4.7029
    -4.6350  -4.5258  -4.4754  -4.4598  -4.4053  -3.6551  -3.4808  -3.4237
    -2.5706  -2.3926  -2.3497  -1.8403  -1.6147  -1.4375  -1.3950  -1.3168
    -1.2570  -1.1933  -1.1872  -1.1193  -1.0771  -0.9890  -0.9419  -0.8988
    -0.8908  -0.8866  -0.8765  -0.8601  -0.7386  -0.7222  -0.7163  -0.6114
    -0.5568  -0.5290  -0.4842  -0.4147  -0.3492  -0.3430  -0.2168  -0.2045
    -0.1810  -0.0332  -0.0321  -0.0304   0.0022   0.0342   0.1466   0.2287
     0.2674   0.3120   0.3363   0.3829   0.3914   0.3986   0.4712   0.5197
     0.5905   0.6959   0.7255   0.7692   0.8185   0.8788   0.8945   0.9177
     0.9363   1.0560   1.0810   1.1065   1.1126   1.1811   1.2383   1.2982
     1.3995   1.4287   1.4324   1.4931   1.5527   1.5699   1.5864   1.6512
     1.7668   1.8094   1.8237   1.8437   1.8853   1.9062   1.9481   1.9838
     2.0189   2.0411   2.1215   2.7135   3.2251   3.3697   3.5550   3.6847
     3.8301   3.9513   4.5920   5.0034   5.9196   6.0208   6.0532   6.1677
     6.4073   7.2847   7.9117   8.1305   8.9650   9.1953   9.4551   9.4977
     9.7477  10.1294  10.2046  10.4240  10.4916  10.6466  10.9354  10.9811
    11.0221  11.3852  11.4280  11.6803  12.0068  12.1519  12.1569  12.3096
    12.4157  12.5714

          k =-0.5000 0.6736 0.0000 ( 32075 PWs)   bands (ev):

   -87.1335 -87.1293 -87.1271 -87.1251 -87.1225 -87.1212 -86.9749 -86.9715
   -86.9697 -86.9117 -86.9083 -86.9066 -50.6507 -50.6443 -50.6341 -50.6330
   -50.6262 -50.5991 -50.5955 -50.5952 -50.5741 -50.5681 -50.5636 -50.5581
   -50.5556 -50.5545 -50.5425 -50.5393 -50.5389 -50.5256 -50.4884 -50.4672
   -50.4379 -50.4264 -50.4066 -50.4056 -50.4042 -50.3989 -50.3965 -50.3954
   -50.3919 -50.3744 -50.3425 -50.3420 -50.3324 -50.3295 -50.3282 -50.3280
   -13.3803 -13.2088 -13.0842 -12.4314 -12.2605 -12.1429 -11.5001 -11.3296
   -11.2189  -8.9076  -8.7364  -8.6523  -7.0556  -6.8806  -6.8203  -4.7029
    -4.6350  -4.5258  -4.4754  -4.4598  -4.4053  -3.6551  -3.4808  -3.4237
    -2.5706  -2.3926  -2.3497  -1.8403  -1.6147  -1.4375  -1.3950  -1.3168
    -1.2560  -1.1929  -1.1871  -1.1206  -1.0771  -0.9893  -0.9427  -0.8988
    -0.8896  -0.8867  -0.8754  -0.8601  -0.7385  -0.7223  -0.7142  -0.6132
    -0.5569  -0.5285  -0.4828  -0.4160  -0.3491  -0.3436  -0.2158  -0.2052
    -0.1813  -0.0359  -0.0324  -0.0321   0.0022   0.0390   0.1398   0.2302
     0.2638   0.3141   0.3321   0.3832   0.3929   0.4024   0.4711   0.5207
     0.5893   0.6942   0.7314   0.7703   0.8196   0.8718   0.8970   0.9144
     0.9399   1.0560   1.0806   1.1088   1.1114   1.1759   1.2386   1.3004
     1.3992   1.4277   1.4331   1.4959   1.5529   1.5712   1.5860   1.6513
     1.7662   1.8091   1.8238   1.8434   1.8868   1.9106   1.9465   1.9877
     2.0188   2.0388   2.1196   2.7133   3.2251   3.3702   3.5550   3.6836
     3.8314   3.9514   4.5914   5.0041   5.9193   6.0200   6.0472   6.1676
     6.4073   7.2823   7.9065   8.1298   8.9650   9.1953   9.4552   9.5083
     9.7422  10.1294  10.2101  10.4240  10.4917  10.6466  10.9355  10.9832
    11.0222  11.3852  11.4280  11.6806  12.0049  12.1531  12.1791  12.3091
    12.4156  12.5716

          k =-0.5000-0.2887 0.0000 ( 32112 PWs)   bands (ev):

   -87.1320 -87.1317 -87.1261 -87.1241 -87.1240 -87.1206 -86.9737 -86.9734
   -86.9690 -86.9104 -86.9103 -86.9059 -50.6599 -50.6519 -50.6313 -50.6311
   -50.6057 -50.6056 -50.5935 -50.5854 -50.5853 -50.5695 -50.5598 -50.5573
   -50.5571 -50.5480 -50.5479 -50.5385 -50.5355 -50.5354 -50.4970 -50.4469
   -50.4464 -50.4354 -50.4064 -50.4005 -50.4003 -50.3979 -50.3976 -50.3950
   -50.3832 -50.3832 -50.3424 -50.3366 -50.3366 -50.3313 -50.3312 -50.3277
   -13.0627 -13.0618 -12.8911 -12.8910 -12.7688 -12.7687 -10.2978 -10.2922
   -10.1249 -10.1246 -10.0237 -10.0236  -5.6745  -5.6696  -5.4941  -5.4940
    -5.4486  -5.4486  -4.0064  -4.0023  -3.8237  -3.8237  -3.7851  -3.7851
    -2.5893  -2.5878  -2.4136  -2.4136  -2.3606  -2.3606  -1.4689  -1.4671
    -1.3692  -1.2781  -1.2140  -0.9766  -0.9532  -0.9515  -0.9113  -0.9108
    -0.8243  -0.6958  -0.6951  -0.5459  -0.5230  -0.5221  -0.4856  -0.4851
    -0.3917  -0.3911  -0.2596  -0.2590  -0.2068  -0.2065  -0.1924  -0.1923
    -0.0290  -0.0290  -0.0118   0.0063   0.0063   0.0240   0.0245   0.0675
     0.0944   0.0945   0.2617   0.2620   0.2940   0.3274   0.3279   0.3797
     0.3804   0.6146   0.6150   0.6904   0.6907   0.8541   0.8856   0.9187
     0.9199   1.1347   1.1355   1.1623   1.2406   1.2409   1.4684   1.5153
     1.5172   1.5834   1.6063   1.6085   1.7105   1.7126   1.7623   1.8523
     1.8716   1.8818   1.8823   1.9751   2.0079   2.0590   2.0601   2.0891
     2.1952   2.2343   2.2591   2.2825   2.5531   2.5540   2.7618   2.7686
     4.1706   4.1714   5.0871   5.9123   6.4166   6.4541   6.4630   6.6186
     7.3989   7.4057   7.6280   7.6314   7.8787   7.8797   8.7376   8.7468
     9.0854   9.6733  10.4197  10.5564  10.5564  10.9198  10.9209  11.4431
    11.4437  11.6420  11.6853  11.6901  11.7477  11.7481  11.9409  11.9419
    12.1666  12.1673

     the Fermi energy is     4.9934 ev

!    total energy              =   -3891.09089855 Ry
     estimated scf accuracy    <          2.7E-09 Ry
     smearing contrib. (-TS)   =      -0.00115772 Ry
     internal energy E=F+TS    =   -3891.08974083 Ry

     The total energy is F=E-TS. E is the sum of the following terms:
     one-electron contribution =  -47686.36673291 Ry
     hartree contribution      =   23891.47601038 Ry
     xc contribution           =    -436.04716822 Ry
     ewald contribution        =   20488.51852081 Ry
     DFT-D3 Dispersion         =      -0.68861525 Ry
     electric field correction =       0.00000018 Ry
     one-center paw contrib.   =    -147.98175583 Ry

     convergence has been achieved in  80 iterations

     negative rho (up, down):  2.767E-04 0.000E+00

     Forces acting on atoms (cartesian axes, Ry/au):

     atom    1 type  1   force =    -0.00005769    0.00038768    0.00177647
     atom    2 type  1   force =    -0.00009772    0.00039088    0.00177226
     atom    3 type  1   force =     0.00035743   -0.00013429   -0.00001722
     atom    4 type  1   force =     0.00001040   -0.00034010   -0.00092495
     atom    5 type  1   force =    -0.00011641    0.00038111    0.00176513
     atom    6 type  1   force =     0.00008353   -0.00001685    0.00005194
     atom    7 type  1   force =    -0.00015611    0.00004267    0.00039240
     atom    8 type  1   force =     0.00000552   -0.00032726   -0.00093222
     atom    9 type  1   force =    -0.00014855   -0.00010802   -0.00088189
     atom   10 type  1   force =     0.00026597    0.00007664    0.00016311
     atom   11 type  1   force =     0.00000677   -0.00033761   -0.00092535
     atom   12 type  1   force =    -0.00013129    0.00008814    0.00014838
     atom   13 type  2   force =    -0.00000458    0.00008137   -0.00042671
     atom   14 type  2   force =     0.00057987    0.00058348    0.00025270
     atom   15 type  2   force =     0.00033658   -0.00056473    0.00014743
     atom   16 type  2   force =    -0.00000126   -0.00064753    0.00002695
     atom   17 type  2   force =    -0.00000182    0.00106270   -0.00002857
     atom   18 type  2   force =    -0.00057740    0.00058697    0.00024991
     atom   19 type  2   force =    -0.00033918   -0.00057215    0.00014918
     atom   20 type  2   force =     0.00000046   -0.00055704   -0.00035168
     atom   21 type  2   force =     0.00001160    0.00000833   -0.00019993
     atom   22 type  2   force =     0.00000068   -0.00000935   -0.00021471
     atom   23 type  2   force =    -0.00000228   -0.00001262   -0.00019618
     atom   24 type  2   force =     0.00000249   -0.00001492   -0.00020970
     atom   25 type  2   force =    -0.00001408    0.00000935   -0.00019985
     atom   26 type  2   force =    -0.00000176    0.00001353   -0.00021160
     atom   27 type  2   force =    -0.00000207   -0.00001540   -0.00018812
     atom   28 type  2   force =    -0.00000147   -0.00001480   -0.00021038
     atom   29 type  2   force =    -0.00000190   -0.00000393   -0.00005495
     atom   30 type  2   force =     0.00000038   -0.00000680   -0.00013777
     atom   31 type  2   force =    -0.00000296   -0.00000245   -0.00005672
     atom   32 type  2   force =    -0.00000003   -0.00000671   -0.00013808
     atom   33 type  2   force =    -0.00000194   -0.00000351   -0.00005614
     atom   34 type  2   force =    -0.00000035   -0.00000668   -0.00013783
     atom   35 type  2   force =    -0.00000075   -0.00000247   -0.00005675
     atom   36 type  2   force =    -0.00000006   -0.00000764   -0.00013855

     Total force =     0.004370     Total SCF correction =     0.000357

     Writing all to output data dir ./tmp/AGC_N3_s01_dft_bound.save/ :
     XML data file, charge density, pseudopotentials, collected wavefunctions
 
     init_run     :     25.79s CPU     26.84s WALL (       1 calls)
     electrons    :   5738.77s CPU   5845.02s WALL (       1 calls)
     forces       :     13.49s CPU     13.92s WALL (       1 calls)
     force_dftd3  :      0.02s CPU      0.02s WALL (       1 calls)

     Called by init_run:
     wfcinit      :     19.17s CPU     20.05s WALL (       1 calls)
     potinit      :      5.75s CPU      5.80s WALL (       1 calls)
     hinit0       :      0.36s CPU      0.38s WALL (       1 calls)

     Called by electrons:
     c_bands      :   4423.05s CPU   4500.08s WALL (      80 calls)
     sum_band     :    795.59s CPU    820.19s WALL (      80 calls)
     v_of_rho     :     14.02s CPU     15.26s WALL (      81 calls)
     newd         :     11.45s CPU     11.50s WALL (      81 calls)
                                       11.50s GPU  (      81 calls)
     PAW_pot      :    342.34s CPU    342.38s WALL (      81 calls)
     mix_rho      :    151.51s CPU    154.10s WALL (      80 calls)
     energy_dftd3 :      0.00s CPU      0.00s WALL (       1 calls)

     Called by c_bands:
     init_us_2    :    186.70s CPU    187.25s WALL (    3240 calls)
     cegterg      :   4150.06s CPU   4153.30s WALL (    1600 calls)

     Called by *egterg:
     cdiaghg      :    321.32s CPU    322.15s WALL (   12150 calls)
                                      309.48s GPU  (   12150 calls)
     h_psi        :   2016.65s CPU   2031.28s WALL (   12170 calls)
                                     2023.69s GPU  (   12170 calls)
     s_psi        :    284.09s CPU    284.35s WALL (   12170 calls)
     g_psi        :      0.05s CPU     10.71s WALL (   10550 calls)
                                        2.48s GPU  (   10550 calls)

     Called by h_psi:
     h_psi:calbec :      0.71s CPU    377.51s WALL (   12170 calls)
                                      371.46s GPU  (   12170 calls)
     vloc_psi     :   1120.06s CPU   1127.27s WALL (   12170 calls)
                                     1120.43s GPU  (   12170 calls)
     add_vuspsi   :    204.94s CPU    484.76s WALL (   12170 calls)
                                      477.76s GPU  (   12170 calls)

     General routines
     calbec       :      0.77s CPU      0.78s WALL (   13850 calls)
     fft          :      3.18s CPU      5.15s WALL (    1062 calls)
                                        1.03s GPU  (     981 calls)
     ffts         :      1.19s CPU     10.19s WALL (    9734 calls)
                                        3.33s GPU  (    9653 calls)
     fftw         :      2.21s CPU    665.51s WALL (  123246 calls)
                                      588.59s GPU  (  123246 calls)
     interpolate  :      4.56s CPU      5.27s WALL (      81 calls)
     davcio       :      4.00s CPU    100.83s WALL (    6366 calls)
 
     Parallel routines
 
     PWSCF        :      1h36m CPU      1h38m WALL

 
   This run was terminated on:  10:22:37   5Oct2026            

=------------------------------------------------------------------------------=
   JOB DONE.
=------------------------------------------------------------------------------=
