
     Program PWSCF v.7.4.1 starts on  5Oct2026 at  5:57:49 

     This program is part of the open-source Quantum ESPRESSO suite
     for quantum simulation of materials; please cite
         "P. Giannozzi et al., J. Phys.:Condens. Matter 21 395502 (2009);
         "P. Giannozzi et al., J. Phys.:Condens. Matter 29 465901 (2017);
         "P. Giannozzi et al., J. Chem. Phys. 152 154105 (2020);
          URL http://www.quantum-espresso.org", 
     in publications or presentations arising from this work. More details at
     http://www.quantum-espresso.org/quote

     Parallel version (MPI & OpenMP), running on       1 processor cores
     Number of MPI processes:                 1
     Threads/MPI process:                     1

     MPI processes distributed on     1 nodes
     9373 MiB available memory on the printing compute node when the environment starts
 
     Reading input from pw.in

     Current dimensions of program PWSCF are:
     Max number of different atomic species (ntypx) = 10
     Max number of k-points (npk) =  40000
     Max angular momentum in pseudopotentials (lmaxx) =  4
     Presently no symmetry can be used with electric field

     file C.pbe-n-kjpaw_psl.1.0.0.UPF: wavefunction(s)  2S 2P renormalized
 
     Subspace diagonalization in iterative solution of the eigenvalue problem:
     a serial algorithm will be used

 
     G-vector sticks info
     --------------------
     sticks:   dense  smooth     PW     G-vecs:    dense   smooth      PW
     Sum        3193    1273    367              1013735   256635   40105
 
     Using Slab Decomposition
 


     bravais-lattice index     =            0
     lattice parameter (alat)  =       9.4208  a.u.
     unit-cell volume          =    5061.5831 (a.u.)^3
     number of atoms/cell      =           36
     number of atomic types    =            2
     number of electrons       =       324.00
     number of Kohn-Sham states=          194
     kinetic-energy cutoff     =      52.0000  Ry
     charge density cutoff     =     520.0000  Ry
     scf convergence threshold =      1.0E-08
     mixing beta               =       0.3000
     number of iterations used =            8  local-TF  mixing
     Exchange-correlation= SLA  PW   PBX  PBC
                           (   1   4   3   4   0   0   0)

     GPU acceleration is ACTIVE.  1 visible GPUs per MPI rank


     celldm(1)=   9.420781  celldm(2)=   0.000000  celldm(3)=   0.000000
     celldm(4)=   0.000000  celldm(5)=   0.000000  celldm(6)=   0.000000

     crystal axes: (cart. coord. in units of alat)
               a(1) = (   1.000000  -0.000000   0.000000 )  
               a(2) = (   0.500000   0.866025   0.000000 )  
               a(3) = (   0.000000   0.000000   6.990287 )  

     reciprocal axes: (cart. coord. in units 2 pi/alat)
               b(1) = (  1.000000 -0.577350  0.000000 )  
               b(2) = (  0.000000  1.154701 -0.000000 )  
               b(3) = ( -0.000000  0.000000  0.143056 )  


     PseudoPot. # 1 for Ag read from file:
     /home/kgy/work/pseudo/Ag_ONCV_PBE-1.0.oncvpsp.upf
     MD5 check sum: 94f47bd0669c641108e45594df92fabc
     Pseudo is Norm-conserving, Zval = 19.0
     Generated using ONCVPSP code by D. R. Hamann
     Using radial grid of 1398 points,  6 beta functions with: 
                l(1) =   0
                l(2) =   0
                l(3) =   1
                l(4) =   1
                l(5) =   2
                l(6) =   2

     PseudoPot. # 2 for C  read from file:
     /home/kgy/work/pseudo/C.pbe-n-kjpaw_psl.1.0.0.UPF
     MD5 check sum: 5d2aebdfa2cae82b50a7e79e9516da0f
     Pseudo is Projector augmented-wave + core cor, Zval =  4.0
     Generated using "atomic" code by A. Dal Corso  v.5.1
     Shape of augmentation charge: PSQ
     Using radial grid of 1073 points,  4 beta functions with: 
                l(1) =   0
                l(2) =   0
                l(3) =   1
                l(4) =   1
     Q(r) pseudized with 0 coefficients 


     atomic species   valence    mass     pseudopotential
     Ag               19.00   107.86820     Ag( 1.00)
     C                 4.00    12.01100     C ( 1.00)

     No symmetry found



   Cartesian axes

     site n.     atom                  positions (alat units)
         1        Ag     tau(   1) = (   0.3337695   0.5765948   0.5717001  )
         2        Ag     tau(   2) = (   0.8337695   0.8652699   0.5717001  )
         3        Ag     tau(   3) = (   0.1663185   0.2882478   1.0405417  )
         4        Ag     tau(   4) = (   0.5004501   0.2909658   0.1002956  )
         5        Ag     tau(   5) = (   0.8337695   0.2879196   0.5717001  )
         6        Ag     tau(   6) = (   0.6664614   0.5767881   1.0404887  )
         7        Ag     tau(   7) = (   0.5009586   0.2880692   1.5115050  )
         8        Ag     tau(   8) = (   1.0004501   0.5796409   0.1002956  )
         9        Ag     tau(   9) = (   1.0010397   0.5767297   1.5120025  )
        10        Ag     tau(  10) = (   0.6663110  -0.0006627   1.0404277  )
        11        Ag     tau(  11) = (   1.0004501   0.0022906   0.1002956  )
        12        Ag     tau(  12) = (   1.0009702  -0.0005926   1.5115108  )
        13        C      tau(  13) = (   0.6671168   0.7720910   3.1170829  )
        14        C      tau(  14) = (   0.9171168   0.9164286   3.1173504  )
        15        C      tau(  15) = (   0.9171168   1.2051037   3.1167386  )
        16        C      tau(  16) = (   1.1671168   1.3494413   3.1173618  )
        17        C      tau(  17) = (   1.1671168   0.7720910   3.1172599  )
        18        C      tau(  18) = (   1.4171168   0.9164286   3.1168790  )
        19        C      tau(  19) = (   1.4171168   1.2051037   3.1172415  )
        20        C      tau(  20) = (   1.6671168   1.3494413   3.1171669  )
        21        C      tau(  21) = (   0.9171168   0.9164286   3.8015927  )
        22        C      tau(  22) = (   1.1671168   1.0607661   3.8015267  )
        23        C      tau(  23) = (   1.1671168   1.3494413   3.8015916  )
        24        C      tau(  24) = (   1.4171168   1.4937788   3.8015335  )
        25        C      tau(  25) = (   1.4171168   0.9164286   3.8015883  )
        26        C      tau(  26) = (   1.6671168   1.0607661   3.8015226  )
        27        C      tau(  27) = (   1.6671168   1.3494413   3.8015903  )
        28        C      tau(  28) = (   1.9171168   1.4937788   3.8015221  )
        29        C      tau(  29) = (   0.6671168   0.7720910   4.4829019  )
        30        C      tau(  30) = (   0.9171168   0.9164286   4.4827799  )
        31        C      tau(  31) = (   0.9171168   1.2051037   4.4829011  )
        32        C      tau(  32) = (   1.1671168   1.3494413   4.4827798  )
        33        C      tau(  33) = (   1.1671168   0.7720910   4.4829024  )
        34        C      tau(  34) = (   1.4171168   0.9164286   4.4827816  )
        35        C      tau(  35) = (   1.4171168   1.2051037   4.4829023  )
        36        C      tau(  36) = (   1.6671168   1.3494413   4.4827805  )

     --------------------------------------------
     DFT-D3 Dispersion Correction (no 3-body):
     --------------------------------------------
       Reference C6 values for interpolation: 

         atom   Coordination number   C6
         C          0.000            98.23
         C          0.987            86.49
         C          1.998            58.72
         C          2.999            51.56
         C          3.984            36.41
         Ag         0.000           853.49
         Ag         0.968           537.23

       Values used:

         atom   Coordination number  R0_AB[au]  C6      C8
         Ag         9.096            3.147    537.23  47741.54
         Ag         9.096            3.147    537.23  47741.54
         Ag         9.099            3.147    537.23  47741.54
         Ag         6.766            3.147    537.23  47741.54
         Ag         9.096            3.147    537.23  47741.54
         Ag         9.099            3.147    537.23  47741.54
         Ag         6.773            3.147    537.23  47741.54
         Ag         6.766            3.147    537.23  47741.54
         Ag         6.767            3.147    537.23  47741.54
         Ag         9.099            3.147    537.23  47741.54
         Ag         6.766            3.147    537.23  47741.54
         Ag         6.772            3.147    537.23  47741.54
         C          3.275            2.750     49.02   1417.86
         C          3.275            2.750     49.02   1417.77
         C          3.274            2.750     49.02   1417.87
         C          3.275            2.750     49.02   1417.77
         C          3.275            2.750     49.02   1417.85
         C          3.275            2.750     49.02   1417.78
         C          3.275            2.750     49.02   1417.85
         C          3.275            2.750     49.02   1417.77
         C          3.280            2.750     48.92   1414.98
         C          3.280            2.750     48.93   1415.15
         C          3.280            2.750     48.92   1414.98
         C          3.280            2.750     48.93   1415.15
         C          3.280            2.750     48.92   1414.98
         C          3.280            2.750     48.93   1415.15
         C          3.280            2.750     48.92   1414.98
         C          3.280            2.750     48.93   1415.16
         C          3.274            2.750     49.03   1418.00
         C          3.274            2.750     49.03   1417.92
         C          3.274            2.750     49.03   1418.01
         C          3.274            2.750     49.03   1417.92
         C          3.274            2.750     49.03   1418.01
         C          3.274            2.750     49.03   1417.92
         C          3.274            2.750     49.03   1418.00
         C          3.274            2.750     49.03   1417.92

         Molecular C6 ( Ry / a.u.^6 ) =    198710.77


     number of k points=    20  Marzari-Vanderbilt smearing, width (Ry)=  0.0100
                       cart. coord. in units 2pi/alat
        k(    1) = (   0.0000000   0.0000000   0.0000000), wk =   0.0555556
        k(    2) = (   0.0000000   0.1924501   0.0000000), wk =   0.1111111
        k(    3) = (   0.0000000   0.3849002   0.0000000), wk =   0.1111111
        k(    4) = (   0.0000000  -0.5773503   0.0000000), wk =   0.0555556
        k(    5) = (   0.1666667  -0.0962250   0.0000000), wk =   0.1111111
        k(    6) = (   0.1666667   0.0962250   0.0000000), wk =   0.1111111
        k(    7) = (   0.1666667   0.2886751   0.0000000), wk =   0.1111111
        k(    8) = (   0.1666667  -0.6735753   0.0000000), wk =   0.1111111
        k(    9) = (   0.1666667  -0.4811252   0.0000000), wk =   0.1111111
        k(   10) = (   0.1666667  -0.2886751   0.0000000), wk =   0.1111111
        k(   11) = (   0.3333333  -0.1924501   0.0000000), wk =   0.1111111
        k(   12) = (   0.3333333  -0.0000000   0.0000000), wk =   0.1111111
        k(   13) = (   0.3333333   0.1924501   0.0000000), wk =   0.1111111
        k(   14) = (   0.3333333  -0.7698004   0.0000000), wk =   0.1111111
        k(   15) = (   0.3333333  -0.5773503   0.0000000), wk =   0.1111111
        k(   16) = (   0.3333333  -0.3849002   0.0000000), wk =   0.1111111
        k(   17) = (  -0.5000000   0.2886751   0.0000000), wk =   0.0555556
        k(   18) = (  -0.5000000   0.4811252   0.0000000), wk =   0.1111111
        k(   19) = (  -0.5000000   0.6735753   0.0000000), wk =   0.1111111
        k(   20) = (  -0.5000000  -0.2886751   0.0000000), wk =   0.0555556

     Dense  grid:  1013735 G-vectors     FFT dimensions: (  72,  72, 480)

     Smooth grid:   256635 G-vectors     FFT dimensions: (  45,  45, 320)

     Estimated max dynamical RAM per process >       2.73 GB

     Check: negative core charge=   -0.000002

     Initial potential from superposition of free atoms

     starting charge     323.9955, renormalised to     324.0000

     negative rho (up, down):  1.109E-04 0.000E+00
 
     Adding external electric field

     Computed dipole along edir(3) : 
        Dipole               -0.0094 Ry au,         -0.0240 Debye
        Dipole field         -0.0000 Ry au, 
 
        Potential amp.        0.0030 Ry
        Total length         63.9640 bohr
 
     Starting wfcs are  216 randomized atomic wfcs
     Checking if some PAW data can be deallocated... 

     total cpu time spent up to now is       27.6 secs

     Self-consistent Calculation

     iteration #  1     ecut=    52.00 Ry     beta= 0.30
     Davidson diagonalization with overlap
     ethr =  1.00E-02,  avg # of iterations =  7.2

     negative rho (up, down):  2.577E-08 0.000E+00
 
     Adding external electric field

     Computed dipole along edir(3) : 
        Dipole               -0.0784 Ry au,         -0.1992 Debye
        Dipole field         -0.0002 Ry au, 
 
        Potential amp.        0.0249 Ry
        Total length         63.9640 bohr
 

     total cpu time spent up to now is      115.2 secs

     total energy              =   -3891.67466438 Ry
     estimated scf accuracy    <       3.96435226 Ry

     iteration #  2     ecut=    52.00 Ry     beta= 0.30
     Davidson diagonalization with overlap
     ethr =  1.22E-03,  avg # of iterations =  3.0
 
     Adding external electric field

     Computed dipole along edir(3) : 
        Dipole               -0.2689 Ry au,         -0.6835 Debye
        Dipole field         -0.0007 Ry au, 
 
        Potential amp.        0.0854 Ry
        Total length         63.9640 bohr
 

     total cpu time spent up to now is      177.0 secs

     total energy              =   -3891.03195231 Ry
     estimated scf accuracy    <       2.08593145 Ry

     iteration #  3     ecut=    52.00 Ry     beta= 0.30
     Davidson diagonalization with overlap
     ethr =  6.44E-04,  avg # of iterations = 10.6
 
     Adding external electric field

     Computed dipole along edir(3) : 
        Dipole               -0.4291 Ry au,         -1.0908 Debye
        Dipole field         -0.0011 Ry au, 
 
        Potential amp.        0.1363 Ry
        Total length         63.9640 bohr
 

     total cpu time spent up to now is      263.0 secs

     total energy              =   -3891.05412216 Ry
     estimated scf accuracy    <       0.36718619 Ry

     iteration #  4     ecut=    52.00 Ry     beta= 0.30
     Davidson diagonalization with overlap
     ethr =  1.13E-04,  avg # of iterations =  9.4
 
     Adding external electric field

     Computed dipole along edir(3) : 
        Dipole               -0.4722 Ry au,         -1.2003 Debye
        Dipole field         -0.0012 Ry au, 
 
        Potential amp.        0.1500 Ry
        Total length         63.9640 bohr
 

     total cpu time spent up to now is      349.3 secs

     total energy              =   -3891.08136813 Ry
     estimated scf accuracy    <       0.55147644 Ry

     iteration #  5     ecut=    52.00 Ry     beta= 0.30
     Davidson diagonalization with overlap
     ethr =  1.13E-04,  avg # of iterations =  1.4
 
     Adding external electric field

     Computed dipole along edir(3) : 
        Dipole               -0.5192 Ry au,         -1.3196 Debye
        Dipole field         -0.0013 Ry au, 
 
        Potential amp.        0.1649 Ry
        Total length         63.9640 bohr
 

     total cpu time spent up to now is      405.8 secs

     total energy              =   -3891.08006087 Ry
     estimated scf accuracy    <       0.60140192 Ry

     iteration #  6     ecut=    52.00 Ry     beta= 0.30
     Davidson diagonalization with overlap
     ethr =  1.13E-04,  avg # of iterations =  1.0
 
     Adding external electric field

     Computed dipole along edir(3) : 
        Dipole               -0.4636 Ry au,         -1.1785 Debye
        Dipole field         -0.0012 Ry au, 
 
        Potential amp.        0.1473 Ry
        Total length         63.9640 bohr
 

     total cpu time spent up to now is      460.9 secs

     total energy              =   -3891.06316461 Ry
     estimated scf accuracy    <       0.63868685 Ry

     iteration #  7     ecut=    52.00 Ry     beta= 0.30
     Davidson diagonalization with overlap
     ethr =  1.13E-04,  avg # of iterations =  3.5
 
     Adding external electric field

     Computed dipole along edir(3) : 
        Dipole               -0.5531 Ry au,         -1.4058 Debye
        Dipole field         -0.0014 Ry au, 
 
        Potential amp.        0.1757 Ry
        Total length         63.9640 bohr
 

     total cpu time spent up to now is      524.9 secs

     total energy              =   -3891.03886815 Ry
     estimated scf accuracy    <       0.29559997 Ry

     iteration #  8     ecut=    52.00 Ry     beta= 0.30
     Davidson diagonalization with overlap
     ethr =  9.12E-05,  avg # of iterations =  4.5

     negative rho (up, down):  8.905E-07 0.000E+00
 
     Adding external electric field

     Computed dipole along edir(3) : 
        Dipole               -0.6890 Ry au,         -1.7513 Debye
        Dipole field         -0.0017 Ry au, 
 
        Potential amp.        0.2188 Ry
        Total length         63.9640 bohr
 

     total cpu time spent up to now is      593.7 secs

     total energy              =   -3891.06418707 Ry
     estimated scf accuracy    <       0.15619774 Ry

     iteration #  9     ecut=    52.00 Ry     beta= 0.30
     Davidson diagonalization with overlap
     c_bands:  1 eigenvalues not converged
     ethr =  4.82E-05,  avg # of iterations =  5.0
 
     Adding external electric field

     Computed dipole along edir(3) : 
        Dipole               -0.4402 Ry au,         -1.1188 Debye
        Dipole field         -0.0011 Ry au, 
 
        Potential amp.        0.1398 Ry
        Total length         63.9640 bohr
 

     total cpu time spent up to now is      661.8 secs

     total energy              =   -3891.05192612 Ry
     estimated scf accuracy    <       0.20619673 Ry

     iteration # 10     ecut=    52.00 Ry     beta= 0.30
     Davidson diagonalization with overlap
     ethr =  4.82E-05,  avg # of iterations =  5.3
 
     Adding external electric field

     Computed dipole along edir(3) : 
        Dipole               -0.2971 Ry au,         -0.7550 Debye
        Dipole field         -0.0007 Ry au, 
 
        Potential amp.        0.0943 Ry
        Total length         63.9640 bohr
 

     total cpu time spent up to now is      730.2 secs

     total energy              =   -3891.04269543 Ry
     estimated scf accuracy    <       0.05205388 Ry

     iteration # 11     ecut=    52.00 Ry     beta= 0.30
     Davidson diagonalization with overlap
     c_bands:  2 eigenvalues not converged
     c_bands:  1 eigenvalues not converged
     ethr =  1.61E-05,  avg # of iterations = 10.3
 
     Adding external electric field

     Computed dipole along edir(3) : 
        Dipole               -0.4156 Ry au,         -1.0565 Debye
        Dipole field         -0.0010 Ry au, 
 
        Potential amp.        0.1320 Ry
        Total length         63.9640 bohr
 

     total cpu time spent up to now is      815.9 secs

     total energy              =   -3891.04322486 Ry
     estimated scf accuracy    <       0.20048924 Ry

     iteration # 12     ecut=    52.00 Ry     beta= 0.30
     Davidson diagonalization with overlap
     ethr =  1.61E-05,  avg # of iterations =  7.2
 
     Adding external electric field

     Computed dipole along edir(3) : 
        Dipole               -0.2340 Ry au,         -0.5947 Debye
        Dipole field         -0.0006 Ry au, 
 
        Potential amp.        0.0743 Ry
        Total length         63.9640 bohr
 

     total cpu time spent up to now is      888.9 secs

     total energy              =   -3891.04399514 Ry
     estimated scf accuracy    <       0.05127215 Ry

     iteration # 13     ecut=    52.00 Ry     beta= 0.30
     Davidson diagonalization with overlap
     ethr =  1.58E-05,  avg # of iterations =  6.7
 
     Adding external electric field

     Computed dipole along edir(3) : 
        Dipole               -0.2941 Ry au,         -0.7475 Debye
        Dipole field         -0.0007 Ry au, 
 
        Potential amp.        0.0934 Ry
        Total length         63.9640 bohr
 

     total cpu time spent up to now is      962.5 secs

     total energy              =   -3891.03823765 Ry
     estimated scf accuracy    <       0.14860285 Ry

     iteration # 14     ecut=    52.00 Ry     beta= 0.30
     Davidson diagonalization with overlap
     ethr =  1.58E-05,  avg # of iterations =  6.5
 
     Adding external electric field

     Computed dipole along edir(3) : 
        Dipole               -0.1093 Ry au,         -0.2778 Debye
        Dipole field         -0.0003 Ry au, 
 
        Potential amp.        0.0347 Ry
        Total length         63.9640 bohr
 

     total cpu time spent up to now is     1034.0 secs

     total energy              =   -3891.03982316 Ry
     estimated scf accuracy    <       0.08130223 Ry

     iteration # 15     ecut=    52.00 Ry     beta= 0.30
     Davidson diagonalization with overlap
     ethr =  1.58E-05,  avg # of iterations =  7.0

     negative rho (up, down):  4.553E-07 0.000E+00
 
     Adding external electric field

     Computed dipole along edir(3) : 
        Dipole               -0.0404 Ry au,         -0.1026 Debye
        Dipole field         -0.0001 Ry au, 
 
        Potential amp.        0.0128 Ry
        Total length         63.9640 bohr
 

     total cpu time spent up to now is     1108.8 secs

     total energy              =   -3891.04064876 Ry
     estimated scf accuracy    <       0.15870647 Ry

     iteration # 16     ecut=    52.00 Ry     beta= 0.30
     Davidson diagonalization with overlap
     ethr =  1.58E-05,  avg # of iterations =  5.3

     negative rho (up, down):  4.599E-03 0.000E+00
 
     Adding external electric field

     Computed dipole along edir(3) : 
        Dipole                0.0522 Ry au,          0.1327 Debye
        Dipole field          0.0001 Ry au, 
 
        Potential amp.       -0.0166 Ry
        Total length         63.9640 bohr
 

     total cpu time spent up to now is     1177.8 secs

     total energy              =   -3891.04169008 Ry
     estimated scf accuracy    <       0.00228270 Ry

     iteration # 17     ecut=    52.00 Ry     beta= 0.30
     Davidson diagonalization with overlap
     c_bands:  1 eigenvalues not converged
     ethr =  7.05E-07,  avg # of iterations = 11.4

     negative rho (up, down):  2.090E-03 0.000E+00
 
     Adding external electric field

     Computed dipole along edir(3) : 
        Dipole                0.0325 Ry au,          0.0825 Debye
        Dipole field          0.0001 Ry au, 
 
        Potential amp.       -0.0103 Ry
        Total length         63.9640 bohr
 

     total cpu time spent up to now is     1266.4 secs

     total energy              =   -3891.04143995 Ry
     estimated scf accuracy    <       0.02967917 Ry

     iteration # 18     ecut=    52.00 Ry     beta= 0.30
     Davidson diagonalization with overlap
     ethr =  7.05E-07,  avg # of iterations =  6.8

     negative rho (up, down):  2.103E-03 0.000E+00
 
     Adding external electric field

     Computed dipole along edir(3) : 
        Dipole                0.0274 Ry au,          0.0695 Debye
        Dipole field          0.0001 Ry au, 
 
        Potential amp.       -0.0087 Ry
        Total length         63.9640 bohr
 

     total cpu time spent up to now is     1340.6 secs

     total energy              =   -3891.04159842 Ry
     estimated scf accuracy    <       0.00062245 Ry

     iteration # 19     ecut=    52.00 Ry     beta= 0.30
     Davidson diagonalization with overlap
     ethr =  1.92E-07,  avg # of iterations =  2.0

     negative rho (up, down):  5.340E-04 0.000E+00
 
     Adding external electric field

     Computed dipole along edir(3) : 
        Dipole                0.0176 Ry au,          0.0447 Debye
        Dipole field          0.0000 Ry au, 
 
        Potential amp.       -0.0056 Ry
        Total length         63.9640 bohr
 

     total cpu time spent up to now is     1400.7 secs

     total energy              =   -3891.04157051 Ry
     estimated scf accuracy    <       0.00312633 Ry

     iteration # 20     ecut=    52.00 Ry     beta= 0.30
     Davidson diagonalization with overlap
     ethr =  1.92E-07,  avg # of iterations =  4.7

     negative rho (up, down):  2.945E-05 0.000E+00
 
     Adding external electric field

     Computed dipole along edir(3) : 
        Dipole                0.0125 Ry au,          0.0317 Debye
        Dipole field          0.0000 Ry au, 
 
        Potential amp.       -0.0040 Ry
        Total length         63.9640 bohr
 

     total cpu time spent up to now is     1468.0 secs

     total energy              =   -3891.04161016 Ry
     estimated scf accuracy    <       0.00033977 Ry

     iteration # 21     ecut=    52.00 Ry     beta= 0.30
     Davidson diagonalization with overlap
     ethr =  1.05E-07,  avg # of iterations =  4.8

     negative rho (up, down):  2.760E-05 0.000E+00
 
     Adding external electric field

     Computed dipole along edir(3) : 
        Dipole                0.0180 Ry au,          0.0458 Debye
        Dipole field          0.0000 Ry au, 
 
        Potential amp.       -0.0057 Ry
        Total length         63.9640 bohr
 

     total cpu time spent up to now is     1536.0 secs

     total energy              =   -3891.04162582 Ry
     estimated scf accuracy    <       0.00110857 Ry

     iteration # 22     ecut=    52.00 Ry     beta= 0.30
     Davidson diagonalization with overlap
     ethr =  1.05E-07,  avg # of iterations =  2.8

     negative rho (up, down):  5.439E-04 0.000E+00
 
     Adding external electric field

     Computed dipole along edir(3) : 
        Dipole                0.0159 Ry au,          0.0404 Debye
        Dipole field          0.0000 Ry au, 
 
        Potential amp.       -0.0051 Ry
        Total length         63.9640 bohr
 

     total cpu time spent up to now is     1598.7 secs

     total energy              =   -3891.04164592 Ry
     estimated scf accuracy    <       0.00005714 Ry

     iteration # 23     ecut=    52.00 Ry     beta= 0.30
     Davidson diagonalization with overlap
     ethr =  1.76E-08,  avg # of iterations =  6.5

     negative rho (up, down):  4.570E-04 0.000E+00
 
     Adding external electric field

     Computed dipole along edir(3) : 
        Dipole                0.0181 Ry au,          0.0461 Debye
        Dipole field          0.0000 Ry au, 
 
        Potential amp.       -0.0058 Ry
        Total length         63.9640 bohr
 

     total cpu time spent up to now is     1675.4 secs

     total energy              =   -3891.04164736 Ry
     estimated scf accuracy    <       0.00026626 Ry

     iteration # 24     ecut=    52.00 Ry     beta= 0.30
     Davidson diagonalization with overlap
     ethr =  1.76E-08,  avg # of iterations =  1.1

     negative rho (up, down):  3.771E-04 0.000E+00
 
     Adding external electric field

     Computed dipole along edir(3) : 
        Dipole                0.0183 Ry au,          0.0464 Debye
        Dipole field          0.0000 Ry au, 
 
        Potential amp.       -0.0058 Ry
        Total length         63.9640 bohr
 

     total cpu time spent up to now is     1730.5 secs

     total energy              =   -3891.04164674 Ry
     estimated scf accuracy    <       0.00004339 Ry

     iteration # 25     ecut=    52.00 Ry     beta= 0.30
     Davidson diagonalization with overlap
     ethr =  1.34E-08,  avg # of iterations =  1.1

     negative rho (up, down):  1.908E-04 0.000E+00
 
     Adding external electric field

     Computed dipole along edir(3) : 
        Dipole                0.0180 Ry au,          0.0456 Debye
        Dipole field          0.0000 Ry au, 
 
        Potential amp.       -0.0057 Ry
        Total length         63.9640 bohr
 

     total cpu time spent up to now is     1786.1 secs

     total energy              =   -3891.04164707 Ry
     estimated scf accuracy    <       0.00000262 Ry

     iteration # 26     ecut=    52.00 Ry     beta= 0.30
     Davidson diagonalization with overlap
     ethr =  8.09E-10,  avg # of iterations =  2.0

     negative rho (up, down):  1.772E-04 0.000E+00
 
     Adding external electric field

     Computed dipole along edir(3) : 
        Dipole                0.0192 Ry au,          0.0489 Debye
        Dipole field          0.0000 Ry au, 
 
        Potential amp.       -0.0061 Ry
        Total length         63.9640 bohr
 

     total cpu time spent up to now is     1847.7 secs

     total energy              =   -3891.04164705 Ry
     estimated scf accuracy    <       0.00001684 Ry

     iteration # 27     ecut=    52.00 Ry     beta= 0.30
     Davidson diagonalization with overlap
     ethr =  8.09E-10,  avg # of iterations =  2.0

     negative rho (up, down):  1.704E-04 0.000E+00
 
     Adding external electric field

     Computed dipole along edir(3) : 
        Dipole                0.0193 Ry au,          0.0491 Debye
        Dipole field          0.0000 Ry au, 
 
        Potential amp.       -0.0061 Ry
        Total length         63.9640 bohr
 

     total cpu time spent up to now is     1909.5 secs

     total energy              =   -3891.04164738 Ry
     estimated scf accuracy    <       0.00000570 Ry

     iteration # 28     ecut=    52.00 Ry     beta= 0.30
     Davidson diagonalization with overlap
     ethr =  8.09E-10,  avg # of iterations =  1.0

     negative rho (up, down):  1.557E-04 0.000E+00
 
     Adding external electric field

     Computed dipole along edir(3) : 
        Dipole                0.0191 Ry au,          0.0486 Debye
        Dipole field          0.0000 Ry au, 
 
        Potential amp.       -0.0061 Ry
        Total length         63.9640 bohr
 

     total cpu time spent up to now is     1965.0 secs

     total energy              =   -3891.04164740 Ry
     estimated scf accuracy    <       0.00000290 Ry

     iteration # 29     ecut=    52.00 Ry     beta= 0.30
     Davidson diagonalization with overlap
     ethr =  8.09E-10,  avg # of iterations =  1.0

     negative rho (up, down):  1.472E-04 0.000E+00
 
     Adding external electric field

     Computed dipole along edir(3) : 
        Dipole                0.0190 Ry au,          0.0483 Debye
        Dipole field          0.0000 Ry au, 
 
        Potential amp.       -0.0060 Ry
        Total length         63.9640 bohr
 

     total cpu time spent up to now is     2019.4 secs

     total energy              =   -3891.04164742 Ry
     estimated scf accuracy    <       0.00000056 Ry

     iteration # 30     ecut=    52.00 Ry     beta= 0.30
     Davidson diagonalization with overlap
     ethr =  1.74E-10,  avg # of iterations =  1.0

     negative rho (up, down):  1.495E-04 0.000E+00
 
     Adding external electric field

     Computed dipole along edir(3) : 
        Dipole                0.0191 Ry au,          0.0485 Debye
        Dipole field          0.0000 Ry au, 
 
        Potential amp.       -0.0061 Ry
        Total length         63.9640 bohr
 

     total cpu time spent up to now is     2074.2 secs

     total energy              =   -3891.04164742 Ry
     estimated scf accuracy    <       0.00000005 Ry

     iteration # 31     ecut=    52.00 Ry     beta= 0.30
     Davidson diagonalization with overlap
     ethr =  1.39E-11,  avg # of iterations =  1.4

     negative rho (up, down):  1.344E-04 0.000E+00
 
     Adding external electric field

     Computed dipole along edir(3) : 
        Dipole                0.0190 Ry au,          0.0483 Debye
        Dipole field          0.0000 Ry au, 
 
        Potential amp.       -0.0060 Ry
        Total length         63.9640 bohr
 

     total cpu time spent up to now is     2130.2 secs

     total energy              =   -3891.04164745 Ry
     estimated scf accuracy    <       0.00000020 Ry

     iteration # 32     ecut=    52.00 Ry     beta= 0.30
     Davidson diagonalization with overlap
     ethr =  1.39E-11,  avg # of iterations =  1.4

     negative rho (up, down):  1.371E-04 0.000E+00
 
     Adding external electric field

     Computed dipole along edir(3) : 
        Dipole                0.0176 Ry au,          0.0447 Debye
        Dipole field          0.0000 Ry au, 
 
        Potential amp.       -0.0056 Ry
        Total length         63.9640 bohr
 

     total cpu time spent up to now is     2185.8 secs

     End of self-consistent calculation

          k = 0.0000 0.0000 0.0000 ( 32011 PWs)   bands (ev):

   -87.1314 -87.1218 -87.1132 -87.1132 -87.1128 -87.1127 -86.9182 -86.9174
   -86.9051 -86.9044 -86.9039 -86.9039 -50.6420 -50.6153 -50.6152 -50.6150
   -50.6149 -50.6128 -50.6126 -50.5875 -50.5873 -50.5617 -50.5617 -50.5612
   -50.5612 -50.5563 -50.5140 -50.5138 -50.5005 -50.5002 -50.4012 -50.4011
   -50.4003 -50.4003 -50.3987 -50.3986 -50.3980 -50.3980 -50.3392 -50.3365
   -50.3268 -50.3261 -50.3255 -50.3255 -50.3109 -50.3108 -50.3103 -50.3099
   -14.4084 -14.3168 -14.2157  -9.2547  -9.2547  -9.2547  -9.2203  -9.2203
    -9.2203  -9.1821  -9.1821  -9.1821  -8.1100  -8.1100  -8.1100  -8.0898
    -8.0898  -8.0898  -8.0545  -8.0545  -8.0545  -3.0737  -2.4782  -2.4635
    -1.7765  -1.5827  -1.3989  -1.3989  -1.3989  -1.3857  -1.3856  -1.3856
    -1.3614  -1.3614  -1.3614  -1.3089  -1.1414  -0.6776  -0.6762  -0.6575
    -0.6570  -0.6542  -0.6539  -0.3060  -0.3059  -0.3041  -0.3039  -0.1131
    -0.1129  -0.0982  -0.0981   0.1335   0.1856   0.1862   0.2319   0.2330
     0.3057   0.3065   0.3084   0.3093   0.3174   0.4573   0.4578   0.5099
     0.5119   0.6314   0.6318   0.6326   0.6327   0.6547   0.6550   0.6554
     0.6554   1.0809   1.0818   1.1977   1.2024   1.2343   1.2347   1.2356
     1.2357   1.3464   1.3589   1.5898   1.6469   1.6472   1.6921   1.6974
     1.8207   1.8211   1.8711   1.8720   1.8727   1.8736   1.8920   1.8920
     1.8948   1.8948   1.9087   1.9087   1.9375   1.9443   2.3830   2.3832
     2.3835   2.6475   2.6476   2.6476   2.8492   2.8494   2.8495   3.9877
     5.2018   6.4486   6.4486   6.4487   6.5986   6.5986   6.5987   6.9006
     6.9010   6.9011   8.4035   8.4057   8.4327   8.5687   8.5967   8.5971
     8.5984   8.5985   9.1167   9.3840   9.3841   9.3852   9.3859   9.7487
     9.7881   9.7889  10.4819  10.7118  11.0517  11.0524  11.0542  11.0553
    11.2845  11.2849

          k = 0.0000 0.1925 0.0000 ( 32019 PWs)   bands (ev):

   -87.1302 -87.1210 -87.1147 -87.1142 -87.1126 -87.1125 -86.9171 -86.9163
   -86.9056 -86.9049 -86.9045 -86.9043 -50.6389 -50.6325 -50.6270 -50.6259
   -50.6210 -50.5967 -50.5900 -50.5794 -50.5745 -50.5649 -50.5588 -50.5582
   -50.5564 -50.5537 -50.5231 -50.5181 -50.5113 -50.5031 -50.4187 -50.4179
   -50.4134 -50.4126 -50.3779 -50.3771 -50.3754 -50.3745 -50.3380 -50.3357
   -50.3273 -50.3265 -50.3261 -50.3259 -50.3221 -50.3213 -50.3138 -50.3131
   -14.2465 -14.1559 -14.0558 -10.4882 -10.4206 -10.3437  -9.6403  -9.6403
    -9.5819  -9.5819  -9.5150  -9.5150  -7.5124  -7.5124  -7.4668  -7.4668
    -7.4109  -7.4109  -6.6982  -6.6509  -6.5939  -2.8791  -2.2728  -2.2276
    -1.8804  -1.8803  -1.8629  -1.8629  -1.8347  -1.8347  -1.5906  -1.3620
    -1.2406  -1.2276  -1.2036  -1.1303  -0.9560  -0.9534  -0.8280  -0.7700
    -0.7622  -0.6865  -0.5518  -0.4511  -0.3771  -0.3523  -0.3238  -0.2589
    -0.1625  -0.1423  -0.1396   0.0152   0.0984   0.1288   0.2058   0.2539
     0.3172   0.3317   0.3441   0.3768   0.4016   0.4270   0.4345   0.4649
     0.5087   0.5737   0.5752   0.6370   0.6564   0.7501   0.8394   0.9051
     0.9696   1.0153   1.0229   1.1257   1.1319   1.2014   1.2419   1.2443
     1.2510   1.2689   1.3051   1.3148   1.3344   1.3897   1.4753   1.5041
     1.5337   1.5624   1.5675   1.5840   1.6243   1.6754   1.6921   1.8310
     1.8358   1.8366   1.8961   1.9361   1.9601   2.0152   2.0811   2.1969
     2.1972   2.2882   2.3087   2.5457   2.5457   2.8668   2.8670   4.3510
     5.7290   5.8585   6.6560   6.6561   6.7360   6.8618   6.8619   7.0025
     7.1732   7.1734   7.3460   7.3691   7.6580   7.9190   8.0202   8.1514
     8.3941   8.6476   8.7840   9.3280   9.6911   9.8631   9.9351  10.2233
    10.2916  10.4626  10.7002  10.8941  11.2573  11.2925  11.3360  11.4891
    11.9960  12.1325

          k = 0.0000 0.3849 0.0000 ( 32055 PWs)   bands (ev):

   -87.1268 -87.1187 -87.1179 -87.1155 -87.1136 -87.1128 -86.9143 -86.9135
   -86.9075 -86.9066 -86.9058 -86.9050 -50.6457 -50.6384 -50.6308 -50.6243
   -50.6169 -50.5910 -50.5813 -50.5700 -50.5684 -50.5575 -50.5552 -50.5527
   -50.5439 -50.5425 -50.5397 -50.5391 -50.5245 -50.5120 -50.4313 -50.4306
   -50.4079 -50.4070 -50.3561 -50.3554 -50.3526 -50.3517 -50.3508 -50.3500
   -50.3349 -50.3334 -50.3289 -50.3278 -50.3275 -50.3266 -50.3226 -50.3219
   -13.7629 -13.6751 -13.5778 -11.8605 -11.7839 -11.6979 -10.0439 -10.0438
    -9.9790  -9.9790  -9.9049  -9.9049  -6.3827  -6.3826  -6.3406  -6.3406
    -6.2888  -6.2888  -4.6330  -4.5947  -4.5464  -3.0074  -3.0073  -2.9832
    -2.9832  -2.9486  -2.9486  -2.3000  -1.7057  -1.5710  -1.2032  -1.1037
    -1.0979  -1.0392  -0.8721  -0.8214  -0.8007  -0.7798  -0.7702  -0.7674
    -0.7441  -0.7188  -0.6328  -0.6084  -0.5687  -0.4640  -0.3888  -0.3811
    -0.3649  -0.3381  -0.2635  -0.2412  -0.2310  -0.1246  -0.0802  -0.0796
    -0.0690   0.0297   0.1459   0.1615   0.2079   0.2409   0.3139   0.3551
     0.3708   0.4511   0.4551   0.5610   0.5712   0.6151   0.6942   0.7071
     0.7181   0.7526   0.7909   0.7912   0.7998   0.8197   0.9064   0.9221
     0.9679   0.9869   1.0337   1.1596   1.1779   1.2335   1.3092   1.3617
     1.4019   1.4053   1.4452   1.6073   1.6246   1.7122   1.7482   1.7832
     1.8705   1.8960   1.9086   1.9325   1.9328   1.9812   1.9944   2.0295
     2.0923   2.1241   2.3659   2.3659   2.8160   2.8164   3.0459   3.6311
     4.3482   5.2041   5.7063   5.8491   6.3386   6.8578   6.9719   7.1692
     7.1694   7.1887   7.4000   7.4000   7.6605   7.6607   7.9848   9.1955
     9.2893   9.4287   9.4464   9.7217   9.7877   9.9577  10.0354  10.3568
    10.5103  10.5899  11.3546  11.4530  11.8141  11.8194  11.9844  12.2645
    12.2897  12.3915

          k = 0.0000-0.5774 0.0000 ( 32112 PWs)   bands (ev):

   -87.1223 -87.1222 -87.1160 -87.1158 -87.1158 -87.1129 -86.9110 -86.9104
   -86.9099 -86.9098 -86.9062 -86.9054 -50.6504 -50.6431 -50.6224 -50.6223
   -50.5960 -50.5960 -50.5830 -50.5766 -50.5766 -50.5608 -50.5505 -50.5483
   -50.5482 -50.5387 -50.5386 -50.5297 -50.5264 -50.5263 -50.4358 -50.4351
   -50.3844 -50.3838 -50.3832 -50.3831 -50.3433 -50.3425 -50.3374 -50.3367
   -50.3364 -50.3363 -50.3319 -50.3313 -50.3306 -50.3305 -50.3279 -50.3270
   -12.9633 -12.9633 -12.8802 -12.8802 -12.7876 -12.7876 -10.1877 -10.1877
   -10.1215 -10.1215 -10.0459 -10.0459  -5.5340  -5.5340  -5.5131  -5.5131
    -5.4839  -5.4839  -3.8600  -3.8600  -3.8472  -3.8472  -3.8227  -3.8226
    -2.4577  -2.4577  -2.4304  -2.4304  -2.3928  -2.3928  -1.3566  -1.3528
    -1.3526  -1.2656  -1.2002  -0.9425  -0.9069  -0.9063  -0.7990  -0.7811
    -0.7811  -0.6912  -0.6910  -0.5147  -0.5106  -0.5095  -0.4719  -0.4713
    -0.3790  -0.3784  -0.2362  -0.2361  -0.1443  -0.1441  -0.0653  -0.0653
    -0.0544  -0.0543  -0.0323  -0.0323   0.0429   0.0430   0.0447   0.0848
     0.1185   0.1191   0.2948   0.2951   0.3063   0.3390   0.3393   0.3924
     0.3936   0.6374   0.6376   0.6975   0.6977   0.8763   0.9398   0.9404
     0.9419   1.1312   1.1315   1.2470   1.2612   1.2613   1.5013   1.5333
     1.5334   1.6266   1.6270   1.7216   1.7286   1.7290   1.8257   1.8260
     1.8897   1.8949   1.8954   1.9954   2.0173   2.0777   2.0784   2.1049
     2.2497   2.2646   2.2852   2.2853   2.5411   2.5416   2.7761   2.7765
     4.1301   4.1307   5.0879   5.9045   6.3806   6.3811   6.4377   6.6408
     7.4811   7.4812   7.6825   7.6825   7.8772   7.8773   8.5684   8.5698
     9.0779   9.6312  10.3496  10.3498  10.3553  10.4975  10.4976  10.9954
    10.9959  11.5089  11.5095  11.5868  11.7758  11.7761  11.9184  11.9189
    12.1678  12.1690

          k = 0.1667-0.0962 0.0000 ( 32019 PWs)   bands (ev):

   -87.1302 -87.1210 -87.1147 -87.1143 -87.1126 -87.1125 -86.9171 -86.9163
   -86.9056 -86.9049 -86.9045 -86.9043 -50.6389 -50.6323 -50.6271 -50.6259
   -50.6212 -50.5963 -50.5902 -50.5796 -50.5745 -50.5649 -50.5589 -50.5583
   -50.5562 -50.5538 -50.5233 -50.5179 -50.5113 -50.5031 -50.4187 -50.4178
   -50.4133 -50.4127 -50.3780 -50.3770 -50.3753 -50.3746 -50.3380 -50.3357
   -50.3273 -50.3265 -50.3261 -50.3259 -50.3220 -50.3214 -50.3139 -50.3129
   -14.2465 -14.1559 -14.0558 -10.4882 -10.4206 -10.3437  -9.6403  -9.6403
    -9.5819  -9.5819  -9.5150  -9.5150  -7.5124  -7.5123  -7.4668  -7.4668
    -7.4109  -7.4109  -6.6982  -6.6509  -6.5939  -2.8791  -2.2728  -2.2276
    -1.8804  -1.8803  -1.8629  -1.8629  -1.8347  -1.8347  -1.5906  -1.3619
    -1.2406  -1.2276  -1.2036  -1.1303  -0.9553  -0.9533  -0.8287  -0.7711
    -0.7619  -0.6869  -0.5510  -0.4513  -0.3779  -0.3527  -0.3221  -0.2593
    -0.1618  -0.1418  -0.1408   0.0150   0.0982   0.1280   0.2061   0.2536
     0.3170   0.3320   0.3452   0.3767   0.4020   0.4257   0.4346   0.4652
     0.5085   0.5742   0.5754   0.6370   0.6561   0.7501   0.8395   0.9053
     0.9713   1.0147   1.0231   1.1257   1.1299   1.2036   1.2423   1.2443
     1.2510   1.2689   1.3052   1.3148   1.3347   1.3897   1.4743   1.5042
     1.5328   1.5624   1.5675   1.5840   1.6243   1.6753   1.6924   1.8310
     1.8354   1.8365   1.8967   1.9342   1.9609   2.0155   2.0797   2.1968
     2.1974   2.2882   2.3101   2.5456   2.5457   2.8666   2.8671   4.3511
     5.7293   5.8584   6.6560   6.6562   6.7356   6.8618   6.8619   7.0010
     7.1731   7.1735   7.3479   7.3691   7.6580   7.9200   8.0202   8.1513
     8.3986   8.6476   8.7840   9.3280   9.6852   9.8610   9.9351  10.2248
    10.2912  10.4637  10.7002  10.8940  11.2579  11.2893  11.3358  11.4893
    11.9960  12.1324

          k = 0.1667 0.0962 0.0000 ( 32019 PWs)   bands (ev):

   -87.1302 -87.1210 -87.1147 -87.1143 -87.1126 -87.1125 -86.9171 -86.9163
   -86.9056 -86.9049 -86.9045 -86.9043 -50.6389 -50.6326 -50.6269 -50.6258
   -50.6211 -50.5966 -50.5900 -50.5800 -50.5743 -50.5647 -50.5587 -50.5582
   -50.5560 -50.5542 -50.5232 -50.5180 -50.5112 -50.5033 -50.4188 -50.4180
   -50.4133 -50.4125 -50.3780 -50.3773 -50.3753 -50.3743 -50.3380 -50.3357
   -50.3273 -50.3265 -50.3260 -50.3259 -50.3220 -50.3211 -50.3139 -50.3132
   -14.2465 -14.1559 -14.0558 -10.4882 -10.4206 -10.3437  -9.6403  -9.6403
    -9.5819  -9.5819  -9.5150  -9.5150  -7.5124  -7.5124  -7.4668  -7.4668
    -7.4109  -7.4109  -6.6982  -6.6509  -6.5939  -2.8791  -2.2728  -2.2276
    -1.8804  -1.8803  -1.8629  -1.8629  -1.8347  -1.8347  -1.5906  -1.3619
    -1.2406  -1.2276  -1.2036  -1.1307  -0.9567  -0.9538  -0.8286  -0.7685
    -0.7613  -0.6865  -0.5509  -0.4507  -0.3797  -0.3539  -0.3228  -0.2589
    -0.1626  -0.1408  -0.1395   0.0164   0.0979   0.1291   0.2040   0.2561
     0.3165   0.3308   0.3453   0.3774   0.4028   0.4303   0.4338   0.4631
     0.5087   0.5679   0.5762   0.6374   0.6585   0.7480   0.8377   0.9107
     0.9695   1.0142   1.0227   1.1286   1.1305   1.2003   1.2437   1.2443
     1.2510   1.2689   1.3049   1.3108   1.3324   1.3897   1.4749   1.5032
     1.5334   1.5624   1.5675   1.5840   1.6189   1.6799   1.6941   1.8310
     1.8356   1.8374   1.8951   1.9394   1.9600   2.0148   2.0825   2.1970
     2.1972   2.2882   2.3087   2.5457   2.5457   2.8668   2.8670   4.3504
     5.7285   5.8588   6.6560   6.6561   6.7357   6.8618   6.8619   7.0013
     7.1732   7.1734   7.3505   7.3691   7.6580   7.9137   8.0202   8.1529
     8.3883   8.6475   8.7840   9.3281   9.6949   9.8650   9.9351  10.2251
    10.2955  10.4578  10.7002  10.8941  11.2589  11.2914  11.3336  11.4888
    11.9953  12.1132

          k = 0.1667 0.2887 0.0000 ( 32043 PWs)   bands (ev):

   -87.1278 -87.1194 -87.1161 -87.1161 -87.1129 -87.1129 -86.9152 -86.9144
   -86.9066 -86.9058 -86.9054 -86.9054 -50.6345 -50.6343 -50.6333 -50.6287
   -50.6287 -50.5864 -50.5860 -50.5690 -50.5688 -50.5655 -50.5536 -50.5534
   -50.5456 -50.5453 -50.5377 -50.5320 -50.5234 -50.5076 -50.4206 -50.4204
   -50.4198 -50.4197 -50.3594 -50.3592 -50.3585 -50.3583 -50.3429 -50.3419
   -50.3358 -50.3340 -50.3282 -50.3274 -50.3269 -50.3268 -50.3190 -50.3184
   -13.9238 -13.8351 -13.7368 -11.0895 -11.0894 -11.0175 -11.0175 -10.9363
   -10.9362  -8.8357  -8.8029  -8.7659  -7.7290  -7.7122  -7.6806  -5.6194
    -5.6193  -5.5773  -5.5773  -5.5255  -5.5255  -3.1916  -3.1660  -3.1299
    -2.4922  -1.8937  -1.7812  -1.5588  -1.5587  -1.5422  -1.5422  -1.5149
    -1.5148  -1.2218  -1.0420  -1.0162  -1.0153  -0.9061  -0.9060  -0.8705
    -0.8703  -0.8475  -0.6713  -0.5616  -0.5597  -0.3675  -0.3662  -0.3541
    -0.3535  -0.1887  -0.1398  -0.1371  -0.0126   0.0273   0.2209   0.2277
     0.2375   0.2405   0.2448   0.3151   0.3823   0.4052   0.4116   0.4603
     0.4895   0.4940   0.5393   0.5605   0.6210   0.6461   0.6473   0.7729
     0.7841   0.7845   0.8579   0.9081   0.9119   0.9272   1.0082   1.0276
     1.0283   1.1185   1.1195   1.1201   1.2405   1.2775   1.2775   1.2924
     1.2937   1.3661   1.3924   1.3936   1.5094   1.5101   1.5770   1.5792
     1.6067   1.6905   1.8096   1.8100   1.8712   1.8718   1.9645   2.0092
     2.0102   2.1374   2.1387   2.8124   2.9667   3.2296   3.4245   4.7163
     4.7168   4.9390   5.5003   5.5009   6.3198   6.3684   6.5325   6.5912
     6.9024   6.9059   8.2903   8.2907   8.5702   8.5703   8.6749   8.6779
     8.8875   8.8879   9.0759   9.2140   9.7481   9.7621   9.7672  10.3159
    10.5388  10.5428  11.1367  11.2667  11.3479  11.3508  12.4504  12.4636
    12.5363  12.7840

          k = 0.1667-0.6736 0.0000 ( 32075 PWs)   bands (ev):

   -87.1239 -87.1196 -87.1171 -87.1168 -87.1144 -87.1133 -86.9121 -86.9112
   -86.9087 -86.9079 -86.9068 -86.9061 -50.6411 -50.6355 -50.6252 -50.6241
   -50.6168 -50.5894 -50.5864 -50.5855 -50.5651 -50.5591 -50.5545 -50.5490
   -50.5466 -50.5452 -50.5333 -50.5302 -50.5301 -50.5168 -50.4269 -50.4260
   -50.4051 -50.4041 -50.3752 -50.3741 -50.3434 -50.3426 -50.3424 -50.3416
   -50.3329 -50.3317 -50.3300 -50.3289 -50.3285 -50.3284 -50.3280 -50.3275
   -13.2822 -13.1972 -13.1028 -12.3307 -12.2513 -12.1625 -11.3967 -11.3228
   -11.2396  -8.7925  -8.7394  -8.6776  -6.9270  -6.8937  -6.8509  -4.5680
    -4.5437  -4.5084  -4.5042  -4.4755  -4.4373  -3.5265  -3.4957  -3.4549
    -2.4320  -2.4141  -2.3852  -1.7282  -1.4763  -1.4586  -1.4311  -1.2436
    -1.1949  -1.1797  -1.1464  -1.1056  -0.9683  -0.9367  -0.9286  -0.9224
    -0.8971  -0.8758  -0.8711  -0.8431  -0.7073  -0.6879  -0.6128  -0.5883
    -0.5101  -0.4970  -0.4477  -0.3883  -0.3413  -0.3143  -0.1662  -0.0675
    -0.0620  -0.0579  -0.0371  -0.0202   0.0275   0.0299   0.1707   0.2493
     0.2832   0.3472   0.3526   0.4003   0.4199   0.4658   0.4839   0.5478
     0.6192   0.7135   0.7874   0.7945   0.8509   0.9012   0.9392   0.9482
     0.9817   1.0549   1.1091   1.1125   1.1268   1.1609   1.2442   1.3229
     1.4167   1.4599   1.4625   1.5460   1.5643   1.5746   1.5977   1.6742
     1.7707   1.8264   1.8362   1.8551   1.8891   1.9204   1.9653   2.0009
     2.0211   2.0448   2.1401   2.7288   3.2809   3.3647   3.6290   3.6367
     3.8331   3.9546   4.5884   4.9695   5.9006   6.0334   6.0478   6.2090
     6.4063   7.2142   7.8851   7.9589   9.0432   9.2488   9.4545   9.4935
     9.5869   9.9262  10.0722  10.1715  10.4790  10.5801  10.6988  10.8816
    10.9386  11.1071  11.1842  11.3612  11.7507  11.9970  12.0222  12.0271
    12.0761  12.3578

          k = 0.1667-0.4811 0.0000 ( 32075 PWs)   bands (ev):

   -87.1239 -87.1196 -87.1171 -87.1168 -87.1144 -87.1133 -86.9121 -86.9112
   -86.9087 -86.9079 -86.9068 -86.9061 -50.6412 -50.6355 -50.6251 -50.6241
   -50.6167 -50.5896 -50.5862 -50.5855 -50.5652 -50.5592 -50.5545 -50.5489
   -50.5466 -50.5453 -50.5332 -50.5303 -50.5301 -50.5166 -50.4269 -50.4260
   -50.4050 -50.4040 -50.3752 -50.3744 -50.3434 -50.3426 -50.3424 -50.3419
   -50.3329 -50.3317 -50.3300 -50.3289 -50.3285 -50.3284 -50.3277 -50.3275
   -13.2822 -13.1972 -13.1028 -12.3307 -12.2513 -12.1625 -11.3967 -11.3228
   -11.2396  -8.7925  -8.7394  -8.6776  -6.9270  -6.8937  -6.8509  -4.5680
    -4.5437  -4.5084  -4.5042  -4.4755  -4.4373  -3.5265  -3.4957  -3.4549
    -2.4320  -2.4141  -2.3852  -1.7282  -1.4763  -1.4586  -1.4311  -1.2435
    -1.1941  -1.1798  -1.1464  -1.1058  -0.9692  -0.9367  -0.9292  -0.9224
    -0.8971  -0.8748  -0.8703  -0.8428  -0.7059  -0.6882  -0.6128  -0.5885
    -0.5096  -0.4970  -0.4480  -0.3914  -0.3400  -0.3149  -0.1672  -0.0675
    -0.0620  -0.0579  -0.0371  -0.0215   0.0235   0.0306   0.1743   0.2494
     0.2848   0.3491   0.3514   0.3937   0.4181   0.4658   0.4863   0.5478
     0.6196   0.7202   0.7945   0.7956   0.8480   0.8967   0.9394   0.9495
     0.9817   1.0535   1.1070   1.1126   1.1275   1.1591   1.2449   1.3238
     1.4180   1.4610   1.4633   1.5460   1.5659   1.5751   1.5939   1.6738
     1.7674   1.8258   1.8361   1.8562   1.8944   1.9216   1.9643   1.9999
     2.0200   2.0440   2.1368   2.7289   3.2809   3.3650   3.6290   3.6362
     3.8332   3.9546   4.5884   4.9713   5.9024   6.0337   6.0478   6.2090
     6.4063   7.2131   7.8855   7.9618   9.0432   9.2488   9.4545   9.4935
     9.5826   9.9263  10.0722  10.1714  10.4790  10.5802  10.6988  10.8816
    10.9386  11.1073  11.1838  11.3611  11.7510  11.9971  12.0196  12.0273
    12.0763  12.3578

          k = 0.1667-0.2887 0.0000 ( 32043 PWs)   bands (ev):

   -87.1278 -87.1194 -87.1161 -87.1161 -87.1129 -87.1129 -86.9152 -86.9144
   -86.9066 -86.9058 -86.9054 -86.9054 -50.6344 -50.6341 -50.6333 -50.6288
   -50.6288 -50.5862 -50.5859 -50.5690 -50.5689 -50.5656 -50.5538 -50.5537
   -50.5454 -50.5453 -50.5377 -50.5324 -50.5232 -50.5074 -50.4206 -50.4204
   -50.4198 -50.4196 -50.3593 -50.3592 -50.3586 -50.3584 -50.3429 -50.3423
   -50.3358 -50.3340 -50.3282 -50.3274 -50.3269 -50.3268 -50.3189 -50.3180
   -13.9238 -13.8351 -13.7368 -11.0895 -11.0894 -11.0175 -11.0175 -10.9362
   -10.9362  -8.8357  -8.8029  -8.7659  -7.7290  -7.7122  -7.6806  -5.6193
    -5.6193  -5.5773  -5.5773  -5.5255  -5.5255  -3.1916  -3.1660  -3.1299
    -2.4922  -1.8937  -1.7809  -1.5588  -1.5587  -1.5422  -1.5422  -1.5148
    -1.5148  -1.2218  -1.0419  -1.0158  -1.0149  -0.9070  -0.9067  -0.8708
    -0.8705  -0.8457  -0.6686  -0.5599  -0.5596  -0.3700  -0.3694  -0.3536
    -0.3534  -0.1928  -0.1391  -0.1387  -0.0140   0.0275   0.2209   0.2277
     0.2411   0.2423   0.2448   0.3116   0.3826   0.4035   0.4047   0.4618
     0.4901   0.4908   0.5438   0.5599   0.6186   0.6550   0.6555   0.7732
     0.7842   0.7844   0.8572   0.9081   0.9119   0.9272   1.0031   1.0280
     1.0290   1.1176   1.1188   1.1217   1.2388   1.2775   1.2775   1.2929
     1.2933   1.3723   1.3960   1.3963   1.5088   1.5096   1.5733   1.5743
     1.6109   1.6880   1.8097   1.8098   1.8726   1.8732   1.9605   2.0092
     2.0098   2.1352   2.1365   2.8128   2.9667   3.2296   3.4245   4.7162
     4.7167   4.9406   5.5004   5.5013   6.3198   6.3684   6.5325   6.5932
     6.9057   6.9067   8.2904   8.2906   8.5702   8.5702   8.6785   8.6813
     8.8876   8.8877   9.0760   9.2140   9.7481   9.7580   9.7621  10.3159
    10.5374  10.5387  11.1367  11.2666  11.3475  11.3510  12.4504  12.4521
    12.5361  12.7839

          k = 0.3333-0.1925 0.0000 ( 32055 PWs)   bands (ev):

   -87.1267 -87.1187 -87.1179 -87.1156 -87.1136 -87.1127 -86.9143 -86.9135
   -86.9075 -86.9066 -86.9058 -86.9050 -50.6454 -50.6384 -50.6307 -50.6244
   -50.6172 -50.5907 -50.5815 -50.5702 -50.5684 -50.5575 -50.5552 -50.5527
   -50.5439 -50.5425 -50.5397 -50.5392 -50.5244 -50.5120 -50.4314 -50.4305
   -50.4078 -50.4071 -50.3562 -50.3552 -50.3525 -50.3519 -50.3507 -50.3501
   -50.3349 -50.3334 -50.3289 -50.3279 -50.3275 -50.3266 -50.3227 -50.3217
   -13.7629 -13.6751 -13.5778 -11.8605 -11.7839 -11.6979 -10.0439 -10.0438
    -9.9790  -9.9790  -9.9050  -9.9049  -6.3827  -6.3826  -6.3406  -6.3406
    -6.2888  -6.2888  -4.6330  -4.5947  -4.5464  -3.0074  -3.0073  -2.9832
    -2.9832  -2.9486  -2.9486  -2.3000  -1.7057  -1.5708  -1.2033  -1.1039
    -1.0978  -1.0392  -0.8713  -0.8221  -0.8020  -0.7798  -0.7702  -0.7674
    -0.7441  -0.7193  -0.6319  -0.6084  -0.5686  -0.4642  -0.3887  -0.3811
    -0.3649  -0.3381  -0.2634  -0.2407  -0.2312  -0.1245  -0.0805  -0.0795
    -0.0686   0.0292   0.1466   0.1633   0.2076   0.2417   0.3136   0.3542
     0.3721   0.4511   0.4529   0.5598   0.5742   0.6157   0.6941   0.7065
     0.7176   0.7526   0.7911   0.7912   0.7998   0.8197   0.9070   0.9223
     0.9676   0.9855   1.0337   1.1593   1.1787   1.2329   1.3094   1.3614
     1.4029   1.4056   1.4451   1.6064   1.6246   1.7124   1.7478   1.7829
     1.8709   1.8963   1.9070   1.9323   1.9330   1.9814   1.9950   2.0290
     2.0905   2.1243   2.3659   2.3659   2.8158   2.8165   3.0471   3.6310
     4.3479   5.2045   5.7033   5.8495   6.3411   6.8595   6.9725   7.1692
     7.1695   7.1951   7.3999   7.4000   7.6604   7.6608   7.9852   9.1882
     9.2892   9.4287   9.4464   9.7217   9.7866   9.9577  10.0354  10.3580
    10.5103  10.5860  11.3546  11.4530  11.8143  11.8154  11.9843  12.2643
    12.2885  12.3898

          k = 0.3333-0.0000 0.0000 ( 32043 PWs)   bands (ev):

   -87.1278 -87.1194 -87.1161 -87.1161 -87.1129 -87.1129 -86.9152 -86.9144
   -86.9066 -86.9058 -86.9054 -86.9054 -50.6344 -50.6341 -50.6332 -50.6288
   -50.6288 -50.5861 -50.5860 -50.5692 -50.5690 -50.5657 -50.5535 -50.5534
   -50.5457 -50.5453 -50.5378 -50.5321 -50.5232 -50.5076 -50.4206 -50.4205
   -50.4198 -50.4196 -50.3593 -50.3592 -50.3586 -50.3583 -50.3428 -50.3421
   -50.3358 -50.3340 -50.3282 -50.3274 -50.3269 -50.3268 -50.3191 -50.3182
   -13.9238 -13.8351 -13.7368 -11.0895 -11.0894 -11.0175 -11.0175 -10.9362
   -10.9362  -8.8357  -8.8029  -8.7659  -7.7290  -7.7122  -7.6806  -5.6193
    -5.6193  -5.5773  -5.5773  -5.5255  -5.5255  -3.1916  -3.1660  -3.1299
    -2.4922  -1.8937  -1.7810  -1.5588  -1.5587  -1.5422  -1.5422  -1.5148
    -1.5148  -1.2218  -1.0413  -1.0163  -1.0149  -0.9063  -0.9062  -0.8709
    -0.8705  -0.8476  -0.6712  -0.5619  -0.5600  -0.3675  -0.3665  -0.3540
    -0.3532  -0.1901  -0.1404  -0.1378  -0.0128   0.0274   0.2209   0.2277
     0.2387   0.2429   0.2448   0.3142   0.3823   0.4031   0.4107   0.4610
     0.4893   0.4943   0.5406   0.5604   0.6211   0.6472   0.6487   0.7731
     0.7842   0.7844   0.8578   0.9081   0.9119   0.9272   1.0063   1.0279
     1.0292   1.1188   1.1197   1.1206   1.2402   1.2775   1.2775   1.2926
     1.2938   1.3671   1.3921   1.3935   1.5088   1.5093   1.5770   1.5787
     1.6061   1.6909   1.8097   1.8098   1.8714   1.8725   1.9629   2.0097
     2.0101   2.1358   2.1383   2.8136   2.9667   3.2296   3.4245   4.7161
     4.7167   4.9393   5.5007   5.5011   6.3198   6.3684   6.5325   6.5919
     6.9027   6.9066   8.2904   8.2906   8.5702   8.5702   8.6752   8.6808
     8.8876   8.8878   9.0760   9.2140   9.7481   9.7581   9.7672  10.3159
    10.5378  10.5427  11.1367  11.2666  11.3473  11.3483  12.4490  12.4638
    12.5362  12.7839

          k = 0.3333 0.1925 0.0000 ( 32055 PWs)   bands (ev):

   -87.1267 -87.1187 -87.1179 -87.1156 -87.1136 -87.1127 -86.9143 -86.9135
   -86.9075 -86.9066 -86.9058 -86.9050 -50.6457 -50.6384 -50.6308 -50.6243
   -50.6170 -50.5907 -50.5819 -50.5701 -50.5682 -50.5573 -50.5552 -50.5525
   -50.5437 -50.5430 -50.5397 -50.5390 -50.5245 -50.5122 -50.4314 -50.4307
   -50.4078 -50.4069 -50.3562 -50.3555 -50.3525 -50.3515 -50.3507 -50.3498
   -50.3349 -50.3334 -50.3289 -50.3278 -50.3275 -50.3267 -50.3227 -50.3221
   -13.7629 -13.6751 -13.5778 -11.8605 -11.7839 -11.6979 -10.0439 -10.0438
    -9.9790  -9.9790  -9.9049  -9.9049  -6.3827  -6.3826  -6.3406  -6.3406
    -6.2888  -6.2888  -4.6330  -4.5947  -4.5464  -3.0074  -3.0073  -2.9832
    -2.9832  -2.9486  -2.9486  -2.3000  -1.7057  -1.5710  -1.2030  -1.1036
    -1.0983  -1.0392  -0.8717  -0.8211  -0.8001  -0.7798  -0.7691  -0.7674
    -0.7441  -0.7210  -0.6325  -0.6070  -0.5701  -0.4625  -0.3903  -0.3811
    -0.3649  -0.3381  -0.2627  -0.2407  -0.2289  -0.1247  -0.0853  -0.0796
    -0.0663   0.0286   0.1415   0.1599   0.2080   0.2410   0.3141   0.3535
     0.3741   0.4511   0.4582   0.5636   0.5685   0.6139   0.6944   0.7099
     0.7183   0.7535   0.7912   0.7984   0.7998   0.8197   0.9012   0.9146
     0.9673   0.9907   1.0337   1.1613   1.1727   1.2346   1.3059   1.3613
     1.4015   1.4038   1.4462   1.6141   1.6288   1.7104   1.7449   1.7826
     1.8689   1.8962   1.9108   1.9325   1.9328   1.9799   1.9963   2.0286
     2.0942   2.1251   2.3659   2.3659   2.8160   2.8163   3.0457   3.6312
     4.3481   5.2028   5.7075   5.8494   6.3483   6.8457   6.9708   7.1693
     7.1694   7.1770   7.4000   7.4000   7.6605   7.6607   7.9836   9.2033
     9.2893   9.4287   9.4464   9.7217   9.7936   9.9578  10.0354  10.3547
    10.5103  10.5875  11.3546  11.4531  11.8139  11.8412  11.9843  12.2644
    12.2894  12.3911

          k = 0.3333-0.7698 0.0000 ( 32075 PWs)   bands (ev):

   -87.1239 -87.1196 -87.1171 -87.1169 -87.1144 -87.1132 -86.9121 -86.9112
   -86.9087 -86.9079 -86.9068 -86.9061 -50.6412 -50.6354 -50.6252 -50.6241
   -50.6169 -50.5895 -50.5861 -50.5860 -50.5650 -50.5589 -50.5544 -50.5489
   -50.5466 -50.5453 -50.5333 -50.5303 -50.5300 -50.5168 -50.4270 -50.4261
   -50.4050 -50.4040 -50.3751 -50.3741 -50.3433 -50.3426 -50.3424 -50.3418
   -50.3329 -50.3316 -50.3300 -50.3289 -50.3286 -50.3284 -50.3280 -50.3275
   -13.2822 -13.1972 -13.1028 -12.3307 -12.2513 -12.1625 -11.3967 -11.3228
   -11.2396  -8.7925  -8.7394  -8.6776  -6.9270  -6.8937  -6.8509  -4.5680
    -4.5437  -4.5084  -4.5042  -4.4755  -4.4373  -3.5265  -3.4957  -3.4549
    -2.4320  -2.4141  -2.3852  -1.7282  -1.4763  -1.4586  -1.4311  -1.2430
    -1.1948  -1.1797  -1.1464  -1.1066  -0.9680  -0.9367  -0.9292  -0.9224
    -0.8971  -0.8759  -0.8705  -0.8417  -0.7077  -0.6862  -0.6128  -0.5904
    -0.5099  -0.4970  -0.4464  -0.3893  -0.3413  -0.3138  -0.1662  -0.0675
    -0.0620  -0.0579  -0.0371  -0.0203   0.0205   0.0350   0.1680   0.2502
     0.2791   0.3445   0.3518   0.4005   0.4267   0.4658   0.4852   0.5478
     0.6182   0.7115   0.7953   0.7978   0.8514   0.8941   0.9361   0.9517
     0.9817   1.0543   1.1104   1.1126   1.1249   1.1548   1.2448   1.3255
     1.4162   1.4605   1.4615   1.5460   1.5686   1.5747   1.5975   1.6750
     1.7693   1.8253   1.8371   1.8565   1.8898   1.9230   1.9640   2.0029
     2.0193   2.0445   2.1391   2.7288   3.2809   3.3645   3.6290   3.6362
     3.8335   3.9546   4.5894   4.9708   5.9000   6.0279   6.0478   6.2090
     6.4063   7.2124   7.8824   7.9584   9.0432   9.2488   9.4545   9.4991
     9.5835   9.9262  10.0722  10.1769  10.4790  10.5801  10.6988  10.8788
    10.9386  11.1071  11.1840  11.3611  11.7502  11.9969  12.0217  12.0273
    12.0945  12.3574

          k = 0.3333-0.5774 0.0000 ( 32121 PWs)   bands (ev):

   -87.1203 -87.1203 -87.1203 -87.1148 -87.1147 -87.1147 -86.9096 -86.9095
   -86.9085 -86.9084 -86.9084 -86.9083 -50.6253 -50.6252 -50.6251 -50.6186
   -50.6186 -50.6184 -50.5850 -50.5847 -50.5846 -50.5523 -50.5522 -50.5521
   -50.5416 -50.5415 -50.5415 -50.5224 -50.5223 -50.5222 -50.4057 -50.4054
   -50.4053 -50.4045 -50.4044 -50.4043 -50.3355 -50.3350 -50.3350 -50.3346
   -50.3344 -50.3342 -50.3308 -50.3308 -50.3298 -50.3294 -50.3294 -50.3292
   -12.4886 -12.4885 -12.4885 -12.4082 -12.4082 -12.4082 -12.3185 -12.3185
   -12.3185  -7.6156  -7.5585  -7.5569  -7.5553  -7.5464  -7.4932  -5.3799
    -5.3774  -5.3692  -2.7935  -2.7934  -2.7934  -2.7797  -2.7797  -2.7796
    -2.7565  -2.7565  -2.7565  -1.3875  -1.3875  -1.3875  -1.3794  -1.3793
    -1.3793  -1.3597  -1.3597  -1.3597  -1.1413  -1.1405  -1.1399  -1.1043
    -1.1034  -1.1031  -0.9252  -0.9249  -0.9239  -0.7931  -0.7928  -0.7927
    -0.7430  -0.7426  -0.7416  -0.5751  -0.5747  -0.5726  -0.3077  -0.3072
    -0.3068  -0.2357  -0.2357  -0.2356   0.1142   0.1179   0.1193   0.3122
     0.3180   0.3193   0.3825   0.3826   0.3830   0.4168   0.4187   0.4195
     0.5379   0.5382   0.5425   0.9238   0.9240   0.9274   0.9601   0.9637
     0.9648   1.2932   1.2940   1.2942   1.3614   1.3629   1.3632   1.5488
     1.5491   1.5513   1.6065   1.6067   1.6075   1.6751   1.6755   1.6758
     1.7732   1.7734   1.7736   1.8085   1.8092   1.8095   2.0130   2.0137
     2.0146   2.0476   2.0486   2.0490   2.8148   2.8159   2.8163   4.5123
     4.6032   4.6050   4.6058   4.9336   4.9355   4.9415   4.9504   5.4004
     6.9190   6.9195   6.9212   9.2881   9.2907   9.2945  10.9534  10.9548
    10.9564  10.9711  10.9718  10.9735  11.1245  11.1252  11.1260  11.1396
    11.1403  11.1411  11.2857  11.2863  11.2868  11.5242  11.5249  11.5254
    11.8523  11.8548

          k = 0.3333-0.3849 0.0000 ( 32075 PWs)   bands (ev):

   -87.1239 -87.1196 -87.1171 -87.1168 -87.1144 -87.1132 -86.9121 -86.9112
   -86.9087 -86.9079 -86.9068 -86.9061 -50.6409 -50.6355 -50.6251 -50.6242
   -50.6169 -50.5897 -50.5861 -50.5857 -50.5652 -50.5591 -50.5545 -50.5490
   -50.5466 -50.5452 -50.5331 -50.5302 -50.5301 -50.5166 -50.4269 -50.4259
   -50.4050 -50.4041 -50.3752 -50.3744 -50.3433 -50.3428 -50.3425 -50.3417
   -50.3329 -50.3317 -50.3300 -50.3289 -50.3286 -50.3284 -50.3276 -50.3274
   -13.2822 -13.1972 -13.1028 -12.3307 -12.2513 -12.1625 -11.3967 -11.3228
   -11.2396  -8.7925  -8.7394  -8.6776  -6.9270  -6.8937  -6.8509  -4.5680
    -4.5437  -4.5084  -4.5042  -4.4755  -4.4373  -3.5265  -3.4957  -3.4549
    -2.4320  -2.4141  -2.3852  -1.7282  -1.4763  -1.4586  -1.4311  -1.2439
    -1.1941  -1.1804  -1.1464  -1.1053  -0.9687  -0.9367  -0.9288  -0.9224
    -0.8971  -0.8747  -0.8714  -0.8428  -0.7063  -0.6882  -0.6128  -0.5886
    -0.5097  -0.4970  -0.4483  -0.3911  -0.3397  -0.3144  -0.1669  -0.0676
    -0.0621  -0.0578  -0.0371  -0.0217   0.0248   0.0298   0.1751   0.2481
     0.2858   0.3501   0.3505   0.3954   0.4168   0.4658   0.4870   0.5478
     0.6198   0.7199   0.7946   0.7955   0.8475   0.8971   0.9398   0.9491
     0.9817   1.0527   1.1067   1.1124   1.1269   1.1597   1.2448   1.3240
     1.4179   1.4610   1.4634   1.5460   1.5651   1.5752   1.5939   1.6738
     1.7671   1.8261   1.8366   1.8566   1.8939   1.9207   1.9646   1.9985
     2.0202   2.0439   2.1374   2.7290   3.2809   3.3643   3.6290   3.6367
     3.8322   3.9546   4.5901   4.9718   5.9026   6.0344   6.0478   6.2090
     6.4063   7.2135   7.8881   7.9620   9.0432   9.2488   9.4545   9.4889
     9.5846   9.9263  10.0722  10.1701  10.4790  10.5801  10.6989  10.8779
    10.9386  11.1073  11.1840  11.3611  11.7502  11.9972  12.0214  12.0272
    12.0728  12.3574

          k =-0.5000 0.2887 0.0000 ( 32112 PWs)   bands (ev):

   -87.1223 -87.1222 -87.1161 -87.1159 -87.1158 -87.1129 -86.9110 -86.9104
   -86.9099 -86.9099 -86.9062 -86.9054 -50.6502 -50.6431 -50.6224 -50.6223
   -50.5963 -50.5962 -50.5832 -50.5766 -50.5765 -50.5606 -50.5507 -50.5483
   -50.5483 -50.5386 -50.5385 -50.5298 -50.5263 -50.5263 -50.4358 -50.4350
   -50.3843 -50.3838 -50.3833 -50.3832 -50.3432 -50.3427 -50.3375 -50.3368
   -50.3362 -50.3362 -50.3319 -50.3313 -50.3306 -50.3305 -50.3280 -50.3269
   -12.9633 -12.9632 -12.8802 -12.8802 -12.7876 -12.7876 -10.1877 -10.1877
   -10.1215 -10.1215 -10.0459 -10.0459  -5.5340  -5.5340  -5.5131  -5.5131
    -5.4839  -5.4839  -3.8600  -3.8600  -3.8472  -3.8472  -3.8227  -3.8226
    -2.4577  -2.4577  -2.4305  -2.4304  -2.3929  -2.3928  -1.3570  -1.3529
    -1.3525  -1.2661  -1.2000  -0.9425  -0.9069  -0.9063  -0.7990  -0.7812
    -0.7811  -0.6925  -0.6922  -0.5148  -0.5094  -0.5086  -0.4708  -0.4703
    -0.3797  -0.3791  -0.2360  -0.2359  -0.1444  -0.1440  -0.0653  -0.0653
    -0.0544  -0.0543  -0.0323  -0.0323   0.0435   0.0438   0.0446   0.0877
     0.1187   0.1193   0.2945   0.2952   0.3048   0.3391   0.3393   0.3920
     0.3933   0.6388   0.6390   0.6958   0.6959   0.8759   0.9412   0.9417
     0.9422   1.1303   1.1306   1.2471   1.2604   1.2604   1.5013   1.5335
     1.5336   1.6268   1.6272   1.7200   1.7286   1.7290   1.8255   1.8262
     1.8900   1.8933   1.8938   1.9958   2.0181   2.0779   2.0784   2.1047
     2.2497   2.2645   2.2852   2.2853   2.5409   2.5414   2.7759   2.7767
     4.1310   4.1315   5.0843   5.9070   6.3812   6.3816   6.4391   6.6483
     7.4810   7.4814   7.6825   7.6826   7.8771   7.8774   8.5694   8.5707
     9.0704   9.6300  10.3496  10.3499  10.3512  10.4975  10.4976  10.9953
    10.9957  11.5087  11.5098  11.5821  11.7757  11.7762  11.9183  11.9190
    12.1673  12.1695

          k =-0.5000 0.4811 0.0000 ( 32075 PWs)   bands (ev):

   -87.1239 -87.1196 -87.1171 -87.1169 -87.1144 -87.1133 -86.9121 -86.9112
   -86.9087 -86.9079 -86.9068 -86.9061 -50.6409 -50.6355 -50.6251 -50.6242
   -50.6169 -50.5897 -50.5863 -50.5856 -50.5651 -50.5591 -50.5545 -50.5490
   -50.5466 -50.5451 -50.5331 -50.5302 -50.5301 -50.5167 -50.4269 -50.4259
   -50.4051 -50.4042 -50.3751 -50.3743 -50.3433 -50.3428 -50.3424 -50.3415
   -50.3329 -50.3317 -50.3300 -50.3290 -50.3287 -50.3284 -50.3277 -50.3274
   -13.2822 -13.1972 -13.1028 -12.3307 -12.2513 -12.1625 -11.3967 -11.3228
   -11.2396  -8.7925  -8.7394  -8.6776  -6.9270  -6.8937  -6.8509  -4.5680
    -4.5437  -4.5084  -4.5042  -4.4755  -4.4373  -3.5265  -3.4957  -3.4549
    -2.4320  -2.4141  -2.3852  -1.7282  -1.4763  -1.4586  -1.4311  -1.2439
    -1.1942  -1.1802  -1.1464  -1.1054  -0.9685  -0.9367  -0.9283  -0.9224
    -0.8971  -0.8747  -0.8717  -0.8432  -0.7087  -0.6880  -0.6128  -0.5886
    -0.5106  -0.4970  -0.4480  -0.3884  -0.3399  -0.3138  -0.1662  -0.0676
    -0.0621  -0.0578  -0.0371  -0.0212   0.0269   0.0282   0.1736   0.2485
     0.2850   0.3510   0.3513   0.4011   0.4169   0.4658   0.4855   0.5478
     0.6182   0.7146   0.7879   0.7945   0.8506   0.9009   0.9392   0.9479
     0.9817   1.0543   1.1090   1.1126   1.1268   1.1614   1.2435   1.3230
     1.4164   1.4598   1.4626   1.5460   1.5634   1.5747   1.5976   1.6747
     1.7700   1.8264   1.8366   1.8557   1.8905   1.9190   1.9649   1.9991
     2.0205   2.0447   2.1396   2.7288   3.2809   3.3647   3.6290   3.6379
     3.8322   3.9546   4.5900   4.9700   5.9012   6.0343   6.0478   6.2090
     6.4063   7.2145   7.8880   7.9602   9.0432   9.2488   9.4545   9.4890
     9.5873   9.9262  10.0722  10.1701  10.4790  10.5800  10.6989  10.8779
    10.9386  11.1072  11.1843  11.3611  11.7508  11.9969  12.0219  12.0273
    12.0726  12.3578

          k =-0.5000 0.6736 0.0000 ( 32075 PWs)   bands (ev):

   -87.1239 -87.1196 -87.1171 -87.1169 -87.1144 -87.1132 -86.9121 -86.9112
   -86.9087 -86.9079 -86.9068 -86.9061 -50.6412 -50.6355 -50.6251 -50.6241
   -50.6168 -50.5897 -50.5861 -50.5859 -50.5650 -50.5589 -50.5545 -50.5489
   -50.5466 -50.5453 -50.5332 -50.5304 -50.5300 -50.5168 -50.4270 -50.4261
   -50.4050 -50.4039 -50.3751 -50.3742 -50.3433 -50.3425 -50.3424 -50.3419
   -50.3329 -50.3316 -50.3300 -50.3289 -50.3287 -50.3284 -50.3279 -50.3275
   -13.2822 -13.1972 -13.1028 -12.3307 -12.2513 -12.1625 -11.3967 -11.3228
   -11.2396  -8.7925  -8.7394  -8.6776  -6.9270  -6.8937  -6.8509  -4.5680
    -4.5437  -4.5084  -4.5042  -4.4755  -4.4373  -3.5265  -3.4957  -3.4549
    -2.4320  -2.4141  -2.3852  -1.7282  -1.4763  -1.4586  -1.4311  -1.2429
    -1.1941  -1.1797  -1.1464  -1.1068  -0.9688  -0.9367  -0.9293  -0.9224
    -0.8971  -0.8749  -0.8701  -0.8418  -0.7087  -0.6862  -0.6128  -0.5905
    -0.5104  -0.4970  -0.4463  -0.3897  -0.3402  -0.3139  -0.1665  -0.0675
    -0.0620  -0.0579  -0.0371  -0.0211   0.0188   0.0340   0.1700   0.2507
     0.2799   0.3472   0.3518   0.3997   0.4250   0.4658   0.4862   0.5478
     0.6169   0.7130   0.7955   0.7982   0.8516   0.8934   0.9357   0.9517
     0.9817   1.0545   1.1104   1.1131   1.1254   1.1547   1.2441   1.3254
     1.4161   1.4605   1.4615   1.5460   1.5685   1.5747   1.5974   1.6755
     1.7688   1.8251   1.8369   1.8568   1.8916   1.9225   1.9633   2.0026
     2.0185   2.0445   2.1379   2.7287   3.2809   3.3651   3.6290   3.6369
     3.8336   3.9546   4.5894   4.9707   5.9003   6.0281   6.0478   6.2090
     6.4063   7.2123   7.8826   7.9594   9.0432   9.2488   9.4545   9.4991
     9.5819   9.9263  10.0722  10.1768  10.4790  10.5801  10.6988  10.8788
    10.9386  11.1072  11.1837  11.3611  11.7509  11.9971  12.0198  12.0271
    12.0945  12.3578

          k =-0.5000-0.2887 0.0000 ( 32112 PWs)   bands (ev):

   -87.1222 -87.1222 -87.1161 -87.1159 -87.1158 -87.1129 -86.9110 -86.9104
   -86.9099 -86.9098 -86.9062 -86.9054 -50.6504 -50.6431 -50.6224 -50.6223
   -50.5961 -50.5961 -50.5837 -50.5764 -50.5763 -50.5603 -50.5505 -50.5483
   -50.5482 -50.5387 -50.5386 -50.5296 -50.5266 -50.5266 -50.4359 -50.4351
   -50.3843 -50.3837 -50.3831 -50.3830 -50.3432 -50.3423 -50.3375 -50.3368
   -50.3365 -50.3365 -50.3319 -50.3313 -50.3306 -50.3305 -50.3280 -50.3270
   -12.9633 -12.9633 -12.8802 -12.8802 -12.7876 -12.7876 -10.1877 -10.1877
   -10.1215 -10.1215 -10.0459 -10.0459  -5.5340  -5.5340  -5.5131  -5.5131
    -5.4839  -5.4839  -3.8600  -3.8600  -3.8472  -3.8472  -3.8226  -3.8226
    -2.4577  -2.4577  -2.4304  -2.4304  -2.3928  -2.3928  -1.3560  -1.3528
    -1.3526  -1.2656  -1.2011  -0.9413  -0.9061  -0.9055  -0.7972  -0.7811
    -0.7811  -0.6920  -0.6916  -0.5126  -0.5107  -0.5099  -0.4716  -0.4711
    -0.3810  -0.3803  -0.2367  -0.2364  -0.1443  -0.1441  -0.0653  -0.0653
    -0.0544  -0.0543  -0.0323  -0.0323   0.0358   0.0467   0.0471   0.0822
     0.1176   0.1182   0.2913   0.2918   0.3071   0.3400   0.3402   0.3955
     0.3967   0.6361   0.6363   0.7028   0.7030   0.8798   0.9301   0.9303
     0.9510   1.1319   1.1323   1.2385   1.2608   1.2610   1.5000   1.5365
     1.5369   1.6295   1.6298   1.7261   1.7267   1.7287   1.8257   1.8260
     1.8891   1.8974   1.8978   1.9924   2.0177   2.0775   2.0781   2.1030
     2.2501   2.2650   2.2852   2.2853   2.5410   2.5415   2.7761   2.7765
     4.1296   4.1303   5.0910   5.9164   6.3790   6.3797   6.4224   6.6276
     7.4811   7.4812   7.6825   7.6825   7.8772   7.8773   8.5668   8.5681
     9.0861   9.6378  10.3496  10.3498  10.3525  10.4975  10.4976  10.9954
    10.9959  11.5089  11.5095  11.6121  11.7758  11.7761  11.9184  11.9188
    12.1679  12.1689

     the Fermi energy is     4.9583 ev

!    total energy              =   -3891.04164743 Ry
     estimated scf accuracy    <          8.2E-09 Ry
     smearing contrib. (-TS)   =      -0.00140368 Ry
     internal energy E=F+TS    =   -3891.04024376 Ry

     The total energy is F=E-TS. E is the sum of the following terms:
     one-electron contribution =  -29578.32913923 Ry
     hartree contribution      =   14837.63996846 Ry
     xc contribution           =    -435.96849512 Ry
     ewald contribution        =   11434.23047362 Ry
     DFT-D3 Dispersion         =      -0.63158629 Ry
     electric field correction =       0.00000077 Ry
     one-center paw contrib.   =    -147.98146597 Ry

     convergence has been achieved in  32 iterations

     negative rho (up, down):  1.371E-04 0.000E+00

     Forces acting on atoms (cartesian axes, Ry/au):

     atom    1 type  1   force =    -0.00007622    0.00036993    0.00124033
     atom    2 type  1   force =    -0.00012134    0.00040673    0.00125545
     atom    3 type  1   force =     0.00027268   -0.00016014   -0.00140408
     atom    4 type  1   force =     0.00000868   -0.00033585   -0.00083123
     atom    5 type  1   force =    -0.00008995    0.00037680    0.00125309
     atom    6 type  1   force =     0.00016571   -0.00000618   -0.00132639
     atom    7 type  1   force =    -0.00008963    0.00000240    0.00122664
     atom    8 type  1   force =     0.00000501   -0.00033519   -0.00083426
     atom    9 type  1   force =    -0.00021698    0.00004951    0.00098141
     atom   10 type  1   force =     0.00028481    0.00008856   -0.00127167
     atom   11 type  1   force =     0.00000855   -0.00033587   -0.00083077
     atom   12 type  1   force =    -0.00012941   -0.00000840    0.00121708
     atom   13 type  2   force =    -0.00000488   -0.00000098    0.00003615
     atom   14 type  2   force =    -0.00000135   -0.00000353   -0.00055047
     atom   15 type  2   force =    -0.00000179   -0.00000287    0.00121273
     atom   16 type  2   force =    -0.00000346   -0.00000714   -0.00059655
     atom   17 type  2   force =     0.00000287   -0.00000204   -0.00060500
     atom   18 type  2   force =    -0.00000040   -0.00000653    0.00114687
     atom   19 type  2   force =    -0.00000007   -0.00000715   -0.00054515
     atom   20 type  2   force =     0.00000166   -0.00000770    0.00008151
     atom   21 type  2   force =    -0.00000169   -0.00000316   -0.00029734
     atom   22 type  2   force =     0.00000395   -0.00000962    0.00008108
     atom   23 type  2   force =    -0.00000154   -0.00000287   -0.00029490
     atom   24 type  2   force =     0.00000152   -0.00000791    0.00006904
     atom   25 type  2   force =    -0.00000199   -0.00000278   -0.00029196
     atom   26 type  2   force =    -0.00000414   -0.00000779    0.00008809
     atom   27 type  2   force =    -0.00000214   -0.00000272   -0.00029386
     atom   28 type  2   force =    -0.00000161   -0.00000316    0.00008875
     atom   29 type  2   force =    -0.00000179   -0.00000229   -0.00002060
     atom   30 type  2   force =     0.00000004   -0.00000635    0.00002070
     atom   31 type  2   force =    -0.00000177   -0.00000236   -0.00001956
     atom   32 type  2   force =     0.00000011   -0.00000622    0.00002098
     atom   33 type  2   force =    -0.00000168   -0.00000230   -0.00002120
     atom   34 type  2   force =     0.00000001   -0.00000622    0.00001679
     atom   35 type  2   force =    -0.00000172   -0.00000239   -0.00002105
     atom   36 type  2   force =    -0.00000006   -0.00000620    0.00001934

     Total force =     0.004653     Total SCF correction =     0.000610
     SCF correction compared to forces is large: reduce conv_thr to get better values

     Writing all to output data dir ./tmp/AGC_N3_top_hcp_far8.save/ :
     XML data file, charge density, pseudopotentials, collected wavefunctions
 
     init_run     :     26.32s CPU     27.44s WALL (       1 calls)
     electrons    :   2116.18s CPU   2158.22s WALL (       1 calls)
     forces       :     13.48s CPU     13.90s WALL (       1 calls)
     force_dftd3  :      0.01s CPU      0.01s WALL (       1 calls)

     Called by init_run:
     wfcinit      :     19.32s CPU     20.24s WALL (       1 calls)
     potinit      :      6.01s CPU      6.07s WALL (       1 calls)
     hinit0       :      0.40s CPU      0.44s WALL (       1 calls)

     Called by electrons:
     c_bands      :   1601.24s CPU   1631.53s WALL (      32 calls)
     sum_band     :    315.60s CPU    325.45s WALL (      32 calls)
     v_of_rho     :      5.72s CPU      6.33s WALL (      33 calls)
     newd         :      4.97s CPU      5.00s WALL (      33 calls)
                                        5.00s GPU  (      33 calls)
     PAW_pot      :    143.92s CPU    143.92s WALL (      33 calls)
     mix_rho      :     47.16s CPU     48.13s WALL (      32 calls)
     energy_dftd3 :      0.00s CPU      0.00s WALL (       1 calls)

     Called by c_bands:
     init_us_2    :     77.75s CPU     77.94s WALL (    1320 calls)
     cegterg      :   1490.36s CPU   1491.14s WALL (     640 calls)

     Called by *egterg:
     cdiaghg      :     94.41s CPU     94.65s WALL (    3535 calls)
                                       91.48s GPU  (    3535 calls)
     h_psi        :    772.55s CPU    777.30s WALL (    3555 calls)
                                      775.31s GPU  (    3555 calls)
     s_psi        :     87.29s CPU     87.36s WALL (    3555 calls)
     g_psi        :      0.01s CPU      3.07s WALL (    2895 calls)
                                        0.95s GPU  (    2895 calls)

     Called by h_psi:
     h_psi:calbec :      0.22s CPU    144.12s WALL (    3555 calls)
                                      142.38s GPU  (    3555 calls)
     vloc_psi     :    445.10s CPU    447.12s WALL (    3555 calls)
                                      445.24s GPU  (    3555 calls)
     add_vuspsi   :     61.47s CPU    173.02s WALL (    3555 calls)
                                      171.03s GPU  (    3555 calls)

     General routines
     calbec       :      0.25s CPU      0.26s WALL (    4275 calls)
     fft          :      2.00s CPU      2.83s WALL (     438 calls)
                                        0.44s GPU  (     405 calls)
     ffts         :      0.72s CPU      3.39s WALL (    3154 calls)
                                        1.09s GPU  (    3121 calls)
     fftw         :      0.88s CPU    266.92s WALL (   47304 calls)
                                      236.01s GPU  (   47304 calls)
     interpolate  :      2.81s CPU      3.11s WALL (      33 calls)
     davcio       :      1.65s CPU     41.39s WALL (    2526 calls)
 
     Parallel routines
 
     PWSCF        :  35m56.38s CPU  36m40.97s WALL

 
   This run was terminated on:   6:34:30   5Oct2026            

=------------------------------------------------------------------------------=
   JOB DONE.
=------------------------------------------------------------------------------=
