122
Lattice="10.055095635733188 0.0 0.0 0.0 10.055095635733188 0.0 0.0 0.0 37.088156" Properties=species:S:1:pos:R:3 source=db/raw/wad_sese_4L_2026_09_25/s_outer_relaxed_final_coords.txt source_sha256=504e0b081aa2d05a71b55ee97c6ae0129250bd1a820e41a00c55446ee89b86c8 pbc="T T F"
P        4.66149300       2.33600800       3.10503600
P       -0.36611200       7.36358000       3.10492800
P       -0.15381200       2.34483700       8.09159000
P        4.87356200       7.37246200       8.09170400
S        5.88041700       3.48769500       4.28211100
S        0.85293400       8.51532000       4.28186200
S        3.35766900       1.17496600       4.20088900
S        8.38518100       6.20250900       4.20078600
S        3.64705100       3.56575400       1.79941200
S        8.67455300       8.59322900       1.79918200
S        8.66814300       3.52275500       6.90754900
S        3.64071900       8.55019000       6.90710200
S        5.71989200       0.97894500       1.89980100
S        0.69220300       6.00645500       1.89976600
S        0.90032700       1.03766500       6.88919800
S        5.92778700       6.06495200       6.88975000
Li       3.54918400       1.50267500       0.50011500
Li       8.57670000       6.53013300       0.50000000
Li       7.81484800       2.09662400       5.16474100
Li       2.78707600       7.12420300       5.16473300
Li       2.59844900       5.16866400       3.29565500
Li       7.62604500       0.14106900       3.29560200
Li       6.81383100      10.45238400       7.92990400
Li       1.78548500       5.42555800       7.93016200
Li       3.73542500       9.35715500       2.41796100
Li       8.76299500       4.32960100       2.41793200
Li       4.34524200       4.09971200       6.21129900
Li       9.37316700       9.12720500       6.21112500
Li       6.98179500       2.57201100       0.67776200
Li       1.95425600       7.59975900       0.67777200
Li       0.68376400       0.14648500       2.22429200
Li       5.71135500       5.17405700       2.22443400
Li       4.90721000       0.37908300       5.86215700
Li      -0.12053000       5.40705700       5.86245800
Li       1.44704700       2.61547900       5.05529600
Li       6.47450400       7.64287900       5.05552100
Cl       9.66153100       7.21527500       8.00165400
Cl       4.39140200       7.11114500       3.26705900
Cl       9.41896800       2.08364600       3.26701900
S        2.29217500       9.74547800       0.61720500
S        7.31969600       4.71803100       0.61721900
S        7.17402200       9.89571000       5.60511100
S        2.14628900       4.86827200       5.60514400
P        4.87356200       2.68259500      12.99650000
P       -0.15381200       7.71020000      12.99660500
P       -0.36611200       2.69145700      17.98326700
P        4.66149300       7.71905000      17.98316800
S        5.92781300       3.99009900      14.19843600
S        0.90029500       9.01739700      14.19900100
S        0.96032200       3.55168300       9.29272200
S        5.98770400       8.57960400       9.29261600
S        3.64072600       1.50487900      14.18111900
S        8.66815500       6.53226100      14.18063500
S        8.70860000       1.14654400       9.32327800
S        3.68066400       6.17464100       9.32351800
S        3.68065700       3.88042800      11.76470300
S        8.70858800       8.90847200      11.76490600
S        8.38516800       3.85250700      16.88739900
S        3.35766200       8.88010300      16.88733200
S        5.98767800       1.47544700      11.79557100
S        0.96035400       6.50337900      11.79547800
S        0.85296600       1.53974200      16.80633800
S        5.88039100       6.56735700      16.80607500
Li       2.75221100       2.21974300      10.28008800
Li       7.77722300       7.24780100      10.28266300
Li       9.37318400       0.92781500      14.87703300
Li       4.34517200       5.95536800      14.87696200
Li       7.89275500       5.34625200       8.31295200
Li       2.86435600       0.31772500       8.31259600
Li       1.78551500       4.62953600      13.15807100
Li       6.81378400      -0.39737900      13.15826700
Li       7.62609200       9.91393500      17.79257000
Li       2.59841900       4.88643000      17.79257700
Li       2.86432600       9.73736900      12.77563600
Li       7.89280400       4.70875200      12.77521800
Li       2.78714700       2.93087800      15.92352900
Li       7.81483000       7.95839600      15.92341700
Li       7.77720300       2.80721800      10.80549200
Li       2.75227900       7.83533700      10.80817300
Li       0.13958400       0.96698600      11.51939700
Li       5.16658500       5.99259300      11.52096400
Li       6.47453200       2.41216400      16.03270700
Li       1.44701100       7.43951300      16.03291300
Li      -0.12049400       4.64793500      15.22575000
Li       4.90718200       9.67596000      15.22607100
Li       5.16655600       4.06245100       9.56726400
Li       0.13962000       9.08800700       9.56881100
Cl       9.41896800       7.97138000      17.82117100
Cl       4.63278700       2.18843600       8.00286400
Cl       4.63278700       7.86662300      13.08534200
Cl       9.66153100       2.83975000      13.08653500
S        2.10769900      10.05507800      10.54411200
S        7.13484200       5.02751300      10.54409100
S        7.17402200      10.21441200      15.48307200
S        2.14628900       5.18678900      15.48307900
S        0.69217200       4.04860600      19.18843400
S        5.71991800       9.07610600      19.18838600
S        8.67456500       1.46178700      19.28900200
S        3.64705700       6.48931500      19.28880900
Li       1.95418800       2.45532100      20.41048900
Li       6.98181500       7.48300800      20.41039400
Li       8.76294600       5.72540300      18.67023800
Li       3.73545500       0.69793900      18.67027100
Li       8.57668000       3.52488600      20.58815600
Li       3.54925200       8.55240500      20.58814700
Li       5.71132600       4.88098700      18.86379400
Li       0.68380000       9.90850800      18.86391600
Cl       4.39140200       2.94391400      17.82114700
S        2.29217500      10.36467800      20.47101800
S        7.31969600       5.33699500      20.47096400
C        2.29220000      11.75994800      23.38815600
C        3.50052000      11.06232400      23.38815600
C        3.50052000       9.66707600      23.38815600
C        2.29220000       8.96945200      23.38815600
C        1.08388000       9.66707600      23.38815600
C        1.08388000      11.06232400      23.38815600
H        2.29220000      12.84706000      23.38815600
H        4.44198700      11.60588000      23.38815600
H        4.44198700       9.12352000      23.38815600
H        2.29220000       7.88234000      23.38815600
H        0.14241300       9.12352000      23.38815600
H        0.14241300      11.60588000      23.38815600
