145
Li in VGCF|h-BN gallery d=3.7A (relaxes)
C     -6.14878037     0.71000000     0.00000000
C     -6.14878037    -0.71000000     0.00000000
C     -4.91902429     2.84000000     0.00000000
C     -4.91902429     1.42000000     0.00000000
C     -3.68926822     4.97000000     0.00000000
C     -3.68926822     3.55000000     0.00000000
C     -2.45951215     5.68000000     0.00000000
C     -4.91902429    -1.42000000     0.00000000
C     -4.91902429    -2.84000000     0.00000000
C     -3.68926822     0.71000000     0.00000000
C     -3.68926822    -0.71000000     0.00000000
C     -2.45951215     2.84000000     0.00000000
C     -2.45951215     1.42000000     0.00000000
C     -1.22975607     4.97000000     0.00000000
C     -1.22975607     3.55000000     0.00000000
C      0.00000000     5.68000000     0.00000000
C     -3.68926822    -3.55000000     0.00000000
C     -3.68926822    -4.97000000     0.00000000
C     -2.45951215    -1.42000000     0.00000000
C     -2.45951215    -2.84000000     0.00000000
C     -1.22975607     0.71000000     0.00000000
C     -1.22975607    -0.71000000     0.00000000
C      0.00000000     2.84000000     0.00000000
C      0.00000000     1.42000000     0.00000000
C      1.22975607     4.97000000     0.00000000
C      1.22975607     3.55000000     0.00000000
C      2.45951215     5.68000000     0.00000000
C     -2.45951215    -5.68000000     0.00000000
C     -1.22975607    -3.55000000     0.00000000
C     -1.22975607    -4.97000000     0.00000000
C      0.00000000    -1.42000000     0.00000000
C      0.00000000    -2.84000000     0.00000000
C      1.22975607     0.71000000     0.00000000
C      1.22975607    -0.71000000     0.00000000
C      2.45951215     2.84000000     0.00000000
C      2.45951215     1.42000000     0.00000000
C      3.68926822     4.97000000     0.00000000
C      3.68926822     3.55000000     0.00000000
C     -0.00000000    -5.68000000     0.00000000
C      1.22975607    -3.55000000     0.00000000
C      1.22975607    -4.97000000     0.00000000
C      2.45951215    -1.42000000     0.00000000
C      2.45951215    -2.84000000     0.00000000
C      3.68926822     0.71000000     0.00000000
C      3.68926822    -0.71000000     0.00000000
C      4.91902429     2.84000000     0.00000000
C      4.91902429     1.42000000     0.00000000
C      2.45951215    -5.68000000     0.00000000
C      3.68926822    -3.55000000     0.00000000
C      3.68926822    -4.97000000     0.00000000
C      4.91902429    -1.42000000     0.00000000
C      4.91902429    -2.84000000     0.00000000
C      6.14878037     0.71000000     0.00000000
C      6.14878037    -0.71000000     0.00000000
H     -7.09274806     1.25500000     0.00000000
H     -7.09274806    -1.25500000     0.00000000
H     -5.86299198     3.38500000     0.00000000
H     -4.63323591     5.51500000     0.00000000
H     -2.45951215     6.77000000     0.00000000
H     -5.86299198    -3.38500000     0.00000000
H      0.00000000     6.77000000     0.00000000
H     -4.63323591    -5.51500000     0.00000000
H      2.45951215     6.77000000     0.00000000
H     -2.45951215    -6.77000000     0.00000000
H      4.63323591     5.51500000     0.00000000
H     -0.00000000    -6.77000000     0.00000000
H      5.86299198     3.38500000     0.00000000
H      2.45951215    -6.77000000     0.00000000
H      4.63323591    -5.51500000     0.00000000
H      5.86299198    -3.38500000     0.00000000
H      7.09274806     1.25500000     0.00000000
H      7.09274806    -1.25500000     0.00000000
B     -6.27868418     0.72500000     3.70000000
N     -6.27868418    -0.72500000     3.70000000
B     -5.02294734     2.90000000     3.70000000
N     -5.02294734     1.45000000     3.70000000
B     -3.76721051     5.07500000     3.70000000
N     -3.76721051     3.62500000     3.70000000
N     -2.51147367     5.80000000     3.70000000
B     -5.02294734    -1.45000000     3.70000000
N     -5.02294734    -2.90000000     3.70000000
B     -3.76721051     0.72500000     3.70000000
N     -3.76721051    -0.72500000     3.70000000
B     -2.51147367     2.90000000     3.70000000
N     -2.51147367     1.45000000     3.70000000
B     -1.25573684     5.07500000     3.70000000
N     -1.25573684     3.62500000     3.70000000
N      0.00000000     5.80000000     3.70000000
B     -3.76721051    -3.62500000     3.70000000
N     -3.76721051    -5.07500000     3.70000000
B     -2.51147367    -1.45000000     3.70000000
N     -2.51147367    -2.90000000     3.70000000
B     -1.25573684     0.72500000     3.70000000
N     -1.25573684    -0.72500000     3.70000000
B     -0.00000000     2.90000000     3.70000000
N      0.00000000     1.45000000     3.70000000
B      1.25573684     5.07500000     3.70000000
N      1.25573684     3.62500000     3.70000000
N      2.51147367     5.80000000     3.70000000
B     -2.51147367    -5.80000000     3.70000000
B     -1.25573684    -3.62500000     3.70000000
N     -1.25573684    -5.07500000     3.70000000
B     -0.00000000    -1.45000000     3.70000000
N      0.00000000    -2.90000000     3.70000000
B      1.25573684     0.72500000     3.70000000
N      1.25573684    -0.72500000     3.70000000
B      2.51147367     2.90000000     3.70000000
N      2.51147367     1.45000000     3.70000000
B      3.76721051     5.07500000     3.70000000
N      3.76721051     3.62500000     3.70000000
B     -0.00000000    -5.80000000     3.70000000
B      1.25573684    -3.62500000     3.70000000
N      1.25573684    -5.07500000     3.70000000
B      2.51147367    -1.45000000     3.70000000
N      2.51147367    -2.90000000     3.70000000
B      3.76721051     0.72500000     3.70000000
N      3.76721051    -0.72500000     3.70000000
B      5.02294734     2.90000000     3.70000000
N      5.02294734     1.45000000     3.70000000
B      2.51147367    -5.80000000     3.70000000
B      3.76721051    -3.62500000     3.70000000
N      3.76721051    -5.07500000     3.70000000
B      5.02294734    -1.45000000     3.70000000
N      5.02294734    -2.90000000     3.70000000
B      6.27868418     0.72500000     3.70000000
N      6.27868418    -0.72500000     3.70000000
H     -7.30925441     1.32000000     3.70000000
H     -7.15336984    -1.23000000     3.70000000
H     -6.05351757     3.49500000     3.70000000
H     -4.79778074     5.67000000     3.70000000
H     -2.51147367     6.81000000     3.70000000
H     -5.89763300    -3.40500000     3.70000000
H      0.00000000     6.81000000     3.70000000
H     -4.64189616    -5.58000000     3.70000000
H      2.51147367     6.81000000     3.70000000
H     -2.51147367    -6.99000000     3.70000000
H      4.79778074     5.67000000     3.70000000
H     -0.00000000    -6.99000000     3.70000000
H      6.05351757     3.49500000     3.70000000
H      2.51147367    -6.99000000     3.70000000
H      4.64189616    -5.58000000     3.70000000
H      5.89763300    -3.40500000     3.70000000
H      7.30925441     1.32000000     3.70000000
H      7.15336984    -1.23000000     3.70000000
Li     0.00000000     0.00000000     1.85000000
