
     Program PWSCF v.7.4.1 starts on 26Sep2026 at 20:15:23 

     This program is part of the open-source Quantum ESPRESSO suite
     for quantum simulation of materials; please cite
         "P. Giannozzi et al., J. Phys.:Condens. Matter 21 395502 (2009);
         "P. Giannozzi et al., J. Phys.:Condens. Matter 29 465901 (2017);
         "P. Giannozzi et al., J. Chem. Phys. 152 154105 (2020);
          URL http://www.quantum-espresso.org", 
     in publications or presentations arising from this work. More details at
     http://www.quantum-espresso.org/quote

     Parallel version (MPI & OpenMP), running on      16 processor cores
     Number of MPI processes:                 1
     Threads/MPI process:                    16

     MPI processes distributed on     1 nodes
     83791 MiB available memory on the printing compute node when the environment starts
 
     Reading input from pw.in

     Current dimensions of program PWSCF are:
     Max number of different atomic species (ntypx) = 10
     Max number of k-points (npk) =  40000
     Max angular momentum in pseudopotentials (lmaxx) =  4
     Presently no symmetry can be used with electric field

     file C.pbe-n-kjpaw_psl.1.0.0.UPF: wavefunction(s)  2S 2P renormalized
 
     Subspace diagonalization in iterative solution of the eigenvalue problem:
     a serial algorithm will be used

 
     G-vector sticks info
     --------------------
     sticks:   dense  smooth     PW     G-vecs:    dense   smooth      PW
     Sum        3193    1273    367               699545   177041   27779
 
     Using Slab Decomposition
 


     bravais-lattice index     =            0
     lattice parameter (alat)  =       9.4208  a.u.
     unit-cell volume          =    3493.5493 (a.u.)^3
     number of atoms/cell      =           20
     number of atomic types    =            2
     number of electrons       =       260.00
     number of Kohn-Sham states=          156
     kinetic-energy cutoff     =      52.0000  Ry
     charge density cutoff     =     520.0000  Ry
     scf convergence threshold =      1.0E-08
     mixing beta               =       0.3000
     number of iterations used =            8  local-TF  mixing
     Exchange-correlation= SLA  PW   PBX  PBC
                           (   1   4   3   4   0   0   0)

     GPU acceleration is ACTIVE.  1 visible GPUs per MPI rank


     celldm(1)=   9.420781  celldm(2)=   0.000000  celldm(3)=   0.000000
     celldm(4)=   0.000000  celldm(5)=   0.000000  celldm(6)=   0.000000

     crystal axes: (cart. coord. in units of alat)
               a(1) = (   1.000000  -0.000000   0.000000 )  
               a(2) = (   0.500000   0.866025   0.000000 )  
               a(3) = (   0.000000   0.000000   4.824757 )  

     reciprocal axes: (cart. coord. in units 2 pi/alat)
               b(1) = (  1.000000 -0.577350  0.000000 )  
               b(2) = (  0.000000  1.154701 -0.000000 )  
               b(3) = ( -0.000000  0.000000  0.207264 )  


     PseudoPot. # 1 for Ag read from file:
     /home/ubuntu/wad4l/pseudo_kgy/Ag_ONCV_PBE-1.0.oncvpsp.upf
     MD5 check sum: 94f47bd0669c641108e45594df92fabc
     Pseudo is Norm-conserving, Zval = 19.0
     Generated using ONCVPSP code by D. R. Hamann
     Using radial grid of 1398 points,  6 beta functions with: 
                l(1) =   0
                l(2) =   0
                l(3) =   1
                l(4) =   1
                l(5) =   2
                l(6) =   2

     PseudoPot. # 2 for C  read from file:
     /home/ubuntu/wad4l/pseudo_kgy/C.pbe-n-kjpaw_psl.1.0.0.UPF
     MD5 check sum: 5d2aebdfa2cae82b50a7e79e9516da0f
     Pseudo is Projector augmented-wave + core cor, Zval =  4.0
     Generated using "atomic" code by A. Dal Corso  v.5.1
     Shape of augmentation charge: PSQ
     Using radial grid of 1073 points,  4 beta functions with: 
                l(1) =   0
                l(2) =   0
                l(3) =   1
                l(4) =   1
     Q(r) pseudized with 0 coefficients 


     atomic species   valence    mass     pseudopotential
     Ag               19.00   107.86820     Ag( 1.00)
     C                 4.00    12.01100     C ( 1.00)

     No symmetry found



   Cartesian axes

     site n.     atom                  positions (alat units)
         1        Ag     tau(   1) = (   0.3337695   0.5765948   0.5717001  )
         2        Ag     tau(   2) = (   0.8337695   0.8652699   0.5717001  )
         3        Ag     tau(   3) = (   0.1686118   0.2891880   1.0412003  )
         4        Ag     tau(   4) = (   0.5004501   0.2909658   0.1002956  )
         5        Ag     tau(   5) = (   0.8337695   0.2879196   0.5717001  )
         6        Ag     tau(   6) = (   0.6682533   0.5780678   1.0411952  )
         7        Ag     tau(   7) = (   0.5010511   0.2905737   1.5138552  )
         8        Ag     tau(   8) = (   1.0004501   0.5796409   0.1002956  )
         9        Ag     tau(   9) = (   1.0010597   0.5792406   1.5110488  )
        10        Ag     tau(  10) = (   0.6686160   0.0009230   1.0411962  )
        11        Ag     tau(  11) = (   1.0004501   0.0022906   0.1002956  )
        12        Ag     tau(  12) = (   1.0010502   0.0018969   1.5138803  )
        13        C      tau(  13) = (   0.5004501   0.2909658   2.1761647  )
        14        C      tau(  14) = (   0.7504501   0.4353033   2.1772826  )
        15        C      tau(  15) = (   0.7504501   0.7239785   2.1772858  )
        16        C      tau(  16) = (   1.0004501   0.8683160   2.1772824  )
        17        C      tau(  17) = (   1.0004501   0.2909658   2.1772865  )
        18        C      tau(  18) = (   1.2504501   0.4353033   2.1772830  )
        19        C      tau(  19) = (   1.2504501   0.7239785   2.1772863  )
        20        C      tau(  20) = (   1.5004501   0.8683160   2.1761753  )

     --------------------------------------------
     DFT-D3 Dispersion Correction (no 3-body):
     --------------------------------------------
       Reference C6 values for interpolation: 

         atom   Coordination number   C6
         C          0.000            98.23
         C          0.987            86.49
         C          1.998            58.72
         C          2.999            51.56
         C          3.984            36.41
         Ag         0.000           853.49
         Ag         0.968           537.23

       Values used:

         atom   Coordination number  R0_AB[au]  C6      C8
         Ag         9.086            3.147    537.23  47741.54
         Ag         9.086            3.147    537.23  47741.54
         Ag         9.083            3.147    537.23  47741.54
         Ag         6.766            3.147    537.23  47741.54
         Ag         9.086            3.147    537.23  47741.54
         Ag         9.083            3.147    537.23  47741.54
         Ag         6.819            3.147    537.23  47741.54
         Ag         6.766            3.147    537.23  47741.54
         Ag         6.848            3.147    537.23  47741.54
         Ag         9.083            3.147    537.23  47741.54
         Ag         6.766            3.147    537.23  47741.54
         Ag         6.819            3.147    537.23  47741.54
         C          3.300            2.750     48.56   1404.34
         C          3.292            2.750     48.72   1408.99
         C          3.292            2.750     48.72   1408.99
         C          3.292            2.750     48.72   1408.99
         C          3.292            2.750     48.72   1408.99
         C          3.292            2.750     48.72   1408.99
         C          3.292            2.750     48.72   1408.99
         C          3.300            2.750     48.56   1404.34

         Molecular C6 ( Ry / a.u.^6 ) =    111465.19


     number of k points=    25  Marzari-Vanderbilt smearing, width (Ry)=  0.0100
                       cart. coord. in units 2pi/alat
        k(    1) = (   0.0000000   0.0000000   0.0000000), wk =   0.0408163
        k(    2) = (   0.0000000   0.1649572   0.0000000), wk =   0.0816327
        k(    3) = (   0.0000000   0.3299144   0.0000000), wk =   0.0816327
        k(    4) = (   0.0000000   0.4948717   0.0000000), wk =   0.0816327
        k(    5) = (   0.1428571  -0.0824786   0.0000000), wk =   0.0816327
        k(    6) = (   0.1428571   0.0824786   0.0000000), wk =   0.0816327
        k(    7) = (   0.1428571   0.2474358   0.0000000), wk =   0.0816327
        k(    8) = (   0.1428571   0.4123930   0.0000000), wk =   0.0816327
        k(    9) = (   0.1428571  -0.5773503   0.0000000), wk =   0.0816327
        k(   10) = (   0.1428571  -0.4123930   0.0000000), wk =   0.0816327
        k(   11) = (   0.1428571  -0.2474358   0.0000000), wk =   0.0816327
        k(   12) = (   0.2857143  -0.1649572   0.0000000), wk =   0.0816327
        k(   13) = (   0.2857143  -0.0000000   0.0000000), wk =   0.0816327
        k(   14) = (   0.2857143   0.1649572   0.0000000), wk =   0.0816327
        k(   15) = (   0.2857143   0.3299144   0.0000000), wk =   0.0816327
        k(   16) = (   0.2857143  -0.6598289   0.0000000), wk =   0.0816327
        k(   17) = (   0.2857143  -0.4948717   0.0000000), wk =   0.0816327
        k(   18) = (   0.2857143  -0.3299144   0.0000000), wk =   0.0816327
        k(   19) = (   0.4285714  -0.2474358   0.0000000), wk =   0.0816327
        k(   20) = (   0.4285714  -0.0824786   0.0000000), wk =   0.0816327
        k(   21) = (   0.4285714   0.0824786   0.0000000), wk =   0.0816327
        k(   22) = (   0.4285714   0.2474358   0.0000000), wk =   0.0816327
        k(   23) = (   0.4285714  -0.7423075   0.0000000), wk =   0.0816327
        k(   24) = (   0.4285714  -0.5773503   0.0000000), wk =   0.0816327
        k(   25) = (   0.4285714  -0.4123930   0.0000000), wk =   0.0816327

     Dense  grid:   699545 G-vectors     FFT dimensions: (  72,  72, 360)

     Smooth grid:   177041 G-vectors     FFT dimensions: (  45,  45, 216)

     Estimated max dynamical RAM per process >       1.34 GB

     Check: negative core charge=   -0.000001

     Initial potential from superposition of free atoms

     starting charge     259.9962, renormalised to     260.0000

     negative rho (up, down):  1.046E-04 0.000E+00
 
     Adding external electric field

     Computed dipole along edir(3) : 
        Dipole               -0.0110 Ry au,         -0.0280 Debye
        Dipole field         -0.0000 Ry au, 
 
        Potential amp.        0.0035 Ry
        Total length         43.5630 bohr
 
     Starting wfcs are  152 randomized atomic wfcs +    4 random wfcs
     Checking if some PAW data can be deallocated... 

     total cpu time spent up to now is        4.5 secs

     Self-consistent Calculation

     iteration #  1     ecut=    52.00 Ry     beta= 0.30
     Davidson diagonalization with overlap
     ethr =  1.00E-02,  avg # of iterations =  4.6

     Threshold (ethr) on eigenvalues was too large:
     Diagonalizing with lowered threshold

     Davidson diagonalization with overlap
     ethr =  5.57E-04,  avg # of iterations =  1.5

     negative rho (up, down):  4.724E-08 0.000E+00
 
     Adding external electric field

     Computed dipole along edir(3) : 
        Dipole               -0.1192 Ry au,         -0.3030 Debye
        Dipole field         -0.0004 Ry au, 
 
        Potential amp.        0.0374 Ry
        Total length         43.5630 bohr
 

     total cpu time spent up to now is       16.1 secs

     total energy              =   -3596.10403542 Ry
     estimated scf accuracy    <       1.46076310 Ry

     iteration #  2     ecut=    52.00 Ry     beta= 0.30
     Davidson diagonalization with overlap
     ethr =  5.62E-04,  avg # of iterations =  2.7

     negative rho (up, down):  1.443E-08 0.000E+00
 
     Adding external electric field

     Computed dipole along edir(3) : 
        Dipole               -0.5157 Ry au,         -1.3107 Debye
        Dipole field         -0.0019 Ry au, 
 
        Potential amp.        0.1616 Ry
        Total length         43.5630 bohr
 

     total cpu time spent up to now is       22.1 secs

     total energy              =   -3595.73596485 Ry
     estimated scf accuracy    <       0.84161189 Ry

     iteration #  3     ecut=    52.00 Ry     beta= 0.30
     Davidson diagonalization with overlap
     ethr =  3.24E-04,  avg # of iterations =  7.8

     negative rho (up, down):  1.270E-08 0.000E+00
 
     Adding external electric field

     Computed dipole along edir(3) : 
        Dipole               -0.5127 Ry au,         -1.3032 Debye
        Dipole field         -0.0018 Ry au, 
 
        Potential amp.        0.1607 Ry
        Total length         43.5630 bohr
 

     total cpu time spent up to now is       29.3 secs

     total energy              =   -3595.86051993 Ry
     estimated scf accuracy    <       0.34393514 Ry

     iteration #  4     ecut=    52.00 Ry     beta= 0.30
     Davidson diagonalization with overlap
     ethr =  1.32E-04,  avg # of iterations =  1.4
 
     Adding external electric field

     Computed dipole along edir(3) : 
        Dipole               -0.5691 Ry au,         -1.4465 Debye
        Dipole field         -0.0020 Ry au, 
 
        Potential amp.        0.1784 Ry
        Total length         43.5630 bohr
 

     total cpu time spent up to now is       35.1 secs

     total energy              =   -3595.86092830 Ry
     estimated scf accuracy    <       0.34862685 Ry

     iteration #  5     ecut=    52.00 Ry     beta= 0.30
     Davidson diagonalization with overlap
     ethr =  1.32E-04,  avg # of iterations =  1.0

     negative rho (up, down):  1.019E-06 0.000E+00
 
     Adding external electric field

     Computed dipole along edir(3) : 
        Dipole               -1.0351 Ry au,         -2.6309 Debye
        Dipole field         -0.0037 Ry au, 
 
        Potential amp.        0.3244 Ry
        Total length         43.5630 bohr
 

     total cpu time spent up to now is       40.9 secs

     total energy              =   -3595.85771309 Ry
     estimated scf accuracy    <       0.35138763 Ry

     iteration #  6     ecut=    52.00 Ry     beta= 0.30
     Davidson diagonalization with overlap
     ethr =  1.32E-04,  avg # of iterations =  2.4

     negative rho (up, down):  6.562E-04 0.000E+00
 
     Adding external electric field

     Computed dipole along edir(3) : 
        Dipole               -1.1767 Ry au,         -2.9909 Debye
        Dipole field         -0.0042 Ry au, 
 
        Potential amp.        0.3688 Ry
        Total length         43.5630 bohr
 

     total cpu time spent up to now is       46.9 secs

     total energy              =   -3595.88014214 Ry
     estimated scf accuracy    <       0.55124207 Ry

     iteration #  7     ecut=    52.00 Ry     beta= 0.30
     Davidson diagonalization with overlap
     ethr =  1.32E-04,  avg # of iterations =  2.7

     negative rho (up, down):  5.661E-07 0.000E+00
 
     Adding external electric field

     Computed dipole along edir(3) : 
        Dipole               -0.7324 Ry au,         -1.8615 Debye
        Dipole field         -0.0026 Ry au, 
 
        Potential amp.        0.2295 Ry
        Total length         43.5630 bohr
 

     total cpu time spent up to now is       52.9 secs

     total energy              =   -3595.83597013 Ry
     estimated scf accuracy    <       0.46697946 Ry

     iteration #  8     ecut=    52.00 Ry     beta= 0.30
     Davidson diagonalization with overlap
     ethr =  1.32E-04,  avg # of iterations =  3.6
 
     Adding external electric field

     Computed dipole along edir(3) : 
        Dipole               -0.6202 Ry au,         -1.5765 Debye
        Dipole field         -0.0022 Ry au, 
 
        Potential amp.        0.1944 Ry
        Total length         43.5630 bohr
 

     total cpu time spent up to now is       59.0 secs

     total energy              =   -3595.83438500 Ry
     estimated scf accuracy    <       0.05939428 Ry

     iteration #  9     ecut=    52.00 Ry     beta= 0.30
     Davidson diagonalization with overlap
     ethr =  2.28E-05,  avg # of iterations =  6.5

     negative rho (up, down):  3.294E-06 0.000E+00
 
     Adding external electric field

     Computed dipole along edir(3) : 
        Dipole               -0.4932 Ry au,         -1.2537 Debye
        Dipole field         -0.0018 Ry au, 
 
        Potential amp.        0.1546 Ry
        Total length         43.5630 bohr
 

     total cpu time spent up to now is       66.0 secs

     total energy              =   -3595.83751617 Ry
     estimated scf accuracy    <       0.03665856 Ry

     iteration # 10     ecut=    52.00 Ry     beta= 0.30
     Davidson diagonalization with overlap
     ethr =  1.41E-05,  avg # of iterations =  5.8

     negative rho (up, down):  1.983E-06 0.000E+00
 
     Adding external electric field

     Computed dipole along edir(3) : 
        Dipole               -0.2300 Ry au,         -0.5846 Debye
        Dipole field         -0.0008 Ry au, 
 
        Potential amp.        0.0721 Ry
        Total length         43.5630 bohr
 

     total cpu time spent up to now is       72.8 secs

     total energy              =   -3595.83396457 Ry
     estimated scf accuracy    <       0.04344366 Ry

     iteration # 11     ecut=    52.00 Ry     beta= 0.30
     Davidson diagonalization with overlap
     ethr =  1.41E-05,  avg # of iterations =  8.5

     negative rho (up, down):  7.859E-06 0.000E+00
 
     Adding external electric field

     Computed dipole along edir(3) : 
        Dipole               -0.2234 Ry au,         -0.5677 Debye
        Dipole field         -0.0008 Ry au, 
 
        Potential amp.        0.0700 Ry
        Total length         43.5630 bohr
 

     total cpu time spent up to now is       80.0 secs

     total energy              =   -3595.82941978 Ry
     estimated scf accuracy    <       0.02866897 Ry

     iteration # 12     ecut=    52.00 Ry     beta= 0.30
     Davidson diagonalization with overlap
     ethr =  1.10E-05,  avg # of iterations =  4.2

     negative rho (up, down):  1.002E-02 0.000E+00
 
     Adding external electric field

     Computed dipole along edir(3) : 
        Dipole                0.0974 Ry au,          0.2476 Debye
        Dipole field          0.0004 Ry au, 
 
        Potential amp.       -0.0305 Ry
        Total length         43.5630 bohr
 

     total cpu time spent up to now is       86.4 secs

     total energy              =   -3595.82722810 Ry
     estimated scf accuracy    <       0.01203128 Ry

     iteration # 13     ecut=    52.00 Ry     beta= 0.30
     Davidson diagonalization with overlap
     ethr =  4.63E-06,  avg # of iterations = 10.6

     negative rho (up, down):  1.003E-02 0.000E+00
 
     Adding external electric field

     Computed dipole along edir(3) : 
        Dipole                0.1224 Ry au,          0.3112 Debye
        Dipole field          0.0004 Ry au, 
 
        Potential amp.       -0.0384 Ry
        Total length         43.5630 bohr
 

     total cpu time spent up to now is       94.0 secs

     total energy              =   -3595.82852725 Ry
     estimated scf accuracy    <       0.00994977 Ry

     iteration # 14     ecut=    52.00 Ry     beta= 0.30
     Davidson diagonalization with overlap
     ethr =  3.83E-06,  avg # of iterations =  1.0

     negative rho (up, down):  6.109E-04 0.000E+00
 
     Adding external electric field

     Computed dipole along edir(3) : 
        Dipole                0.0552 Ry au,          0.1404 Debye
        Dipole field          0.0002 Ry au, 
 
        Potential amp.       -0.0173 Ry
        Total length         43.5630 bohr
 

     total cpu time spent up to now is       99.7 secs

     total energy              =   -3595.82780660 Ry
     estimated scf accuracy    <       0.00886678 Ry

     iteration # 15     ecut=    52.00 Ry     beta= 0.30
     Davidson diagonalization with overlap
     ethr =  3.41E-06,  avg # of iterations =  9.4

     negative rho (up, down):  1.457E-03 0.000E+00
 
     Adding external electric field

     Computed dipole along edir(3) : 
        Dipole                0.1373 Ry au,          0.3490 Debye
        Dipole field          0.0005 Ry au, 
 
        Potential amp.       -0.0430 Ry
        Total length         43.5630 bohr
 

     total cpu time spent up to now is      107.1 secs

     total energy              =   -3595.82816412 Ry
     estimated scf accuracy    <       0.00129285 Ry

     iteration # 16     ecut=    52.00 Ry     beta= 0.30
     Davidson diagonalization with overlap
     ethr =  4.97E-07,  avg # of iterations =  6.3

     negative rho (up, down):  8.861E-04 0.000E+00
 
     Adding external electric field

     Computed dipole along edir(3) : 
        Dipole                0.1394 Ry au,          0.3542 Debye
        Dipole field          0.0005 Ry au, 
 
        Potential amp.       -0.0437 Ry
        Total length         43.5630 bohr
 

     total cpu time spent up to now is      113.8 secs

     total energy              =   -3595.82823207 Ry
     estimated scf accuracy    <       0.00018272 Ry

     iteration # 17     ecut=    52.00 Ry     beta= 0.30
     Davidson diagonalization with overlap
     ethr =  7.03E-08,  avg # of iterations =  4.1

     negative rho (up, down):  1.286E-06 0.000E+00
 
     Adding external electric field

     Computed dipole along edir(3) : 
        Dipole                0.1261 Ry au,          0.3204 Debye
        Dipole field          0.0005 Ry au, 
 
        Potential amp.       -0.0395 Ry
        Total length         43.5630 bohr
 

     total cpu time spent up to now is      120.1 secs

     total energy              =   -3595.82823019 Ry
     estimated scf accuracy    <       0.00003579 Ry

     iteration # 18     ecut=    52.00 Ry     beta= 0.30
     Davidson diagonalization with overlap
     ethr =  1.38E-08,  avg # of iterations =  4.9

     negative rho (up, down):  9.431E-05 0.000E+00
 
     Adding external electric field

     Computed dipole along edir(3) : 
        Dipole                0.1312 Ry au,          0.3335 Debye
        Dipole field          0.0005 Ry au, 
 
        Potential amp.       -0.0411 Ry
        Total length         43.5630 bohr
 

     total cpu time spent up to now is      126.4 secs

     total energy              =   -3595.82824114 Ry
     estimated scf accuracy    <       0.00006428 Ry

     iteration # 19     ecut=    52.00 Ry     beta= 0.30
     Davidson diagonalization with overlap
     ethr =  1.38E-08,  avg # of iterations =  4.8

     negative rho (up, down):  6.147E-05 0.000E+00
 
     Adding external electric field

     Computed dipole along edir(3) : 
        Dipole                0.1357 Ry au,          0.3448 Debye
        Dipole field          0.0005 Ry au, 
 
        Potential amp.       -0.0425 Ry
        Total length         43.5630 bohr
 

     total cpu time spent up to now is      132.9 secs

     total energy              =   -3595.82824611 Ry
     estimated scf accuracy    <       0.00005705 Ry

     iteration # 20     ecut=    52.00 Ry     beta= 0.30
     Davidson diagonalization with overlap
     ethr =  1.38E-08,  avg # of iterations =  3.6

     negative rho (up, down):  6.035E-05 0.000E+00
 
     Adding external electric field

     Computed dipole along edir(3) : 
        Dipole                0.1366 Ry au,          0.3472 Debye
        Dipole field          0.0005 Ry au, 
 
        Potential amp.       -0.0428 Ry
        Total length         43.5630 bohr
 

     total cpu time spent up to now is      139.3 secs

     total energy              =   -3595.82824711 Ry
     estimated scf accuracy    <       0.00000828 Ry

     iteration # 21     ecut=    52.00 Ry     beta= 0.30
     Davidson diagonalization with overlap
     ethr =  3.19E-09,  avg # of iterations =  1.2

     negative rho (up, down):  7.811E-05 0.000E+00
 
     Adding external electric field

     Computed dipole along edir(3) : 
        Dipole                0.1367 Ry au,          0.3475 Debye
        Dipole field          0.0005 Ry au, 
 
        Potential amp.       -0.0428 Ry
        Total length         43.5630 bohr
 

     total cpu time spent up to now is      145.1 secs

     total energy              =   -3595.82824778 Ry
     estimated scf accuracy    <       0.00000038 Ry

     iteration # 22     ecut=    52.00 Ry     beta= 0.30
     Davidson diagonalization with overlap
     ethr =  1.45E-10,  avg # of iterations =  2.0

     negative rho (up, down):  1.021E-04 0.000E+00
 
     Adding external electric field

     Computed dipole along edir(3) : 
        Dipole                0.1366 Ry au,          0.3472 Debye
        Dipole field          0.0005 Ry au, 
 
        Potential amp.       -0.0428 Ry
        Total length         43.5630 bohr
 

     total cpu time spent up to now is      151.1 secs

     total energy              =   -3595.82824781 Ry
     estimated scf accuracy    <       0.00000028 Ry

     iteration # 23     ecut=    52.00 Ry     beta= 0.30
     Davidson diagonalization with overlap
     ethr =  1.07E-10,  avg # of iterations =  2.0

     negative rho (up, down):  1.217E-04 0.000E+00
 
     Adding external electric field

     Computed dipole along edir(3) : 
        Dipole                0.1366 Ry au,          0.3473 Debye
        Dipole field          0.0005 Ry au, 
 
        Potential amp.       -0.0428 Ry
        Total length         43.5630 bohr
 

     total cpu time spent up to now is      157.0 secs

     total energy              =   -3595.82824779 Ry
     estimated scf accuracy    <       0.00000031 Ry

     iteration # 24     ecut=    52.00 Ry     beta= 0.30
     Davidson diagonalization with overlap
     ethr =  1.07E-10,  avg # of iterations =  1.0

     negative rho (up, down):  1.196E-04 0.000E+00
 
     Adding external electric field

     Computed dipole along edir(3) : 
        Dipole                0.1365 Ry au,          0.3471 Debye
        Dipole field          0.0005 Ry au, 
 
        Potential amp.       -0.0428 Ry
        Total length         43.5630 bohr
 

     total cpu time spent up to now is      162.6 secs

     total energy              =   -3595.82824780 Ry
     estimated scf accuracy    <       0.00000003 Ry

     iteration # 25     ecut=    52.00 Ry     beta= 0.30
     Davidson diagonalization with overlap
     ethr =  1.22E-11,  avg # of iterations =  1.4

     negative rho (up, down):  1.144E-04 0.000E+00
 
     Adding external electric field

     Computed dipole along edir(3) : 
        Dipole                0.1356 Ry au,          0.3448 Debye
        Dipole field          0.0005 Ry au, 
 
        Potential amp.       -0.0425 Ry
        Total length         43.5630 bohr
 

     total cpu time spent up to now is      168.4 secs

     End of self-consistent calculation

          k = 0.0000 0.0000 0.0000 ( 22161 PWs)   bands (ev):

   -85.9856 -85.9715 -85.9701 -85.9701 -85.9597 -85.9597 -85.7257 -85.7125
   -85.7084 -85.6539 -85.6405 -85.6403 -49.4782 -49.4719 -49.4718 -49.4715
   -49.4712 -49.4649 -49.4649 -49.4443 -49.4442 -49.4067 -49.4066 -49.3990
   -49.3990 -49.3917 -49.3742 -49.3737 -49.3571 -49.3568 -49.2118 -49.2116
   -49.2063 -49.2062 -49.1468 -49.1402 -49.1401 -49.1387 -49.1386 -49.1343
   -49.1299 -49.1195 -49.1193 -49.0698 -49.0566 -49.0563 -49.0499 -49.0495
   -13.4797  -8.3905  -8.3795  -8.3795  -7.2553  -7.2509  -7.2509  -1.7818
    -1.2836  -0.5501  -0.5501  -0.5441  -0.3987  -0.0972   0.0716   0.4863
     0.4884   0.5196   0.5204   0.5241   0.5249   0.8721   0.8722   0.8879
     0.8880   1.0342   1.0379   1.0749   1.0751   1.3087   1.3325   1.3337
     1.3813   1.3839   1.4789   1.4792   1.5067   1.5070   1.5410   1.6566
     1.6577   1.7392   1.7410   1.7846   1.7849   1.8292   1.8295   1.8996
     1.8996   1.9148   1.9148   2.2236   2.2277   2.3622   2.3701   2.3956
     2.3957   2.4479   2.4479   2.5409   2.5535   2.7321   2.7321   2.7613
     2.8390   2.8430   2.9101   2.9124   3.0048   3.0274   3.0319   3.0323
     3.0500   3.0500   3.1306   3.1345   3.5133   3.5133   3.5560   5.3456
     6.5689   7.3476   7.4033   7.4033   9.5719   9.5772   9.5813   9.7666
     9.7672   9.7792   9.7797  10.1738  10.5888  10.5902  10.6153  10.6167
    10.9893  11.0001  11.2925  11.9874  12.2528  12.2536  12.2830  12.2837
    12.5556  12.5761  12.8552  12.8646

          k = 0.0000 0.1650 0.0000 ( 22077 PWs)   bands (ev):

   -85.9847 -85.9708 -85.9706 -85.9705 -85.9601 -85.9599 -85.7250 -85.7128
   -85.7088 -85.6531 -85.6409 -85.6407 -49.4879 -49.4836 -49.4761 -49.4760
   -49.4737 -49.4518 -49.4496 -49.4322 -49.4318 -49.4097 -49.4083 -49.3966
   -49.3960 -49.3952 -49.3791 -49.3764 -49.3651 -49.3590 -49.2258 -49.2218
   -49.1900 -49.1877 -49.1562 -49.1522 -49.1462 -49.1345 -49.1303 -49.1276
   -49.1216 -49.1204 -49.1182 -49.0690 -49.0580 -49.0570 -49.0567 -49.0519
   -13.3615  -9.3732  -8.6783  -8.6717  -6.7696  -6.7659  -6.0867  -1.6378
    -1.1007  -0.9070  -0.9028  -0.4318  -0.2397   0.0388   0.2098   0.2548
     0.3523   0.4217   0.4500   0.5394   0.6374   0.7495   0.7785   0.8139
     0.8448   0.9755   1.0341   1.0483   1.0971   1.2269   1.2678   1.3127
     1.4145   1.4308   1.4441   1.4595   1.5317   1.5610   1.5752   1.6147
     1.6467   1.6927   1.7077   1.7455   1.7611   1.8294   1.8394   1.9203
     2.0567   2.1273   2.1453   2.1781   2.1962   2.2527   2.2692   2.3193
     2.3833   2.4165   2.4872   2.4915   2.4978   2.5287   2.5945   2.6207
     2.7498   2.8126   2.8558   2.9015   2.9036   3.0116   3.0513   3.0901
     3.1286   3.1329   3.1723   3.2292   3.4408   3.4534   3.4930   5.6057
     6.9540   7.3790   7.5749   7.5961   8.1381   8.3685   8.3953   8.7064
     9.3342   9.7423   9.7463   9.7850  10.3277  11.0050  11.0194  11.1397
    11.4452  11.6678  11.7514  12.1133  12.2375  12.3006  12.3440  12.7010
    12.9250  13.3977  13.4056  13.4235

          k = 0.0000 0.3299 0.0000 ( 22095 PWs)   bands (ev):

   -85.9822 -85.9724 -85.9712 -85.9689 -85.9614 -85.9605 -85.7233 -85.7135
   -85.7098 -85.6510 -85.6424 -85.6413 -49.5008 -49.4881 -49.4824 -49.4735
   -49.4701 -49.4380 -49.4277 -49.4231 -49.4171 -49.4123 -49.4085 -49.4003
   -49.3949 -49.3918 -49.3909 -49.3833 -49.3802 -49.3655 -49.2381 -49.2208
   -49.1711 -49.1687 -49.1670 -49.1512 -49.1498 -49.1445 -49.1350 -49.1313
   -49.1281 -49.1013 -49.0970 -49.0804 -49.0668 -49.0584 -49.0584 -49.0574
   -13.0077 -10.5816  -9.0539  -9.0478  -5.8420  -5.8380  -4.3634  -1.7984
    -1.7938  -1.2130  -0.5986  -0.0902   0.0368   0.1465   0.1495   0.1533
     0.3292   0.3657   0.3819   0.5210   0.5277   0.5385   0.7073   0.7759
     0.7835   0.9374   0.9521   0.9976   0.9997   1.0353   1.0729   1.1169
     1.2353   1.3157   1.3815   1.4568   1.4682   1.5201   1.5397   1.5709
     1.6178   1.6370   1.7353   1.7606   1.7782   1.8252   1.8529   1.8789
     1.8813   1.9690   2.0045   2.0398   2.0805   2.1237   2.2270   2.3030
     2.3532   2.4520   2.4594   2.5131   2.5391   2.5780   2.6621   2.6758
     2.7646   2.8551   2.8755   2.9176   2.9199   3.0800   3.0923   3.1023
     3.1542   3.2122   3.2645   3.2924   3.3093   3.4089   4.0572   5.3814
     6.1983   6.2464   7.2074   7.6885   7.7637   7.9099   8.0476   8.0556
     8.3501   8.7080   9.7189   9.9923  10.2257  10.4828  10.7893  11.1753
    11.9012  12.0180  12.1733  12.5101  12.8693  12.9936  13.1088  13.1960
    13.5796  13.8461  13.9318  14.1525

          k = 0.0000 0.4949 0.0000 ( 22124 PWs)   bands (ev):

   -85.9788 -85.9753 -85.9718 -85.9662 -85.9635 -85.9609 -85.7215 -85.7143
   -85.7108 -85.6480 -85.6449 -85.6418 -49.5078 -49.4950 -49.4690 -49.4639
   -49.4615 -49.4390 -49.4341 -49.4239 -49.4183 -49.4124 -49.4052 -49.3960
   -49.3940 -49.3917 -49.3886 -49.3863 -49.3858 -49.3760 -49.2446 -49.2054
   -49.1789 -49.1753 -49.1539 -49.1533 -49.1433 -49.1386 -49.1355 -49.1354
   -49.1323 -49.1093 -49.0839 -49.0837 -49.0692 -49.0638 -49.0608 -49.0579
   -12.4216 -11.6089  -9.2608  -9.2548  -4.8892  -4.8856  -2.7924  -2.7872
    -2.5225  -0.6801  -0.5249  -0.1656  -0.0765  -0.0164   0.0340   0.2906
     0.3485   0.3806   0.4480   0.4516   0.4537   0.5358   0.5643   0.5762
     0.6894   0.6924   0.7729   0.8401   0.8750   0.9395   0.9448   1.1413
     1.1893   1.2008   1.2533   1.2821   1.3434   1.3506   1.4249   1.4427
     1.4926   1.5147   1.6101   1.6452   1.7534   1.7821   1.8376   1.8797
     1.9727   2.0335   2.0926   2.1047   2.1398   2.2605   2.3038   2.3939
     2.4049   2.5369   2.5773   2.6838   2.7082   2.7795   2.7844   2.8078
     2.8807   3.0083   3.0216   3.0308   3.0477   3.0531   3.0984   3.1516
     3.2086   3.2264   3.2938   3.3333   3.3961   3.4625   3.8181   4.4464
     4.8491   6.0249   6.3951   7.1264   7.1897   7.7176   7.9492   8.2495
     8.4615   8.4647   9.2043  10.2897  10.6722  10.9345  11.0262  11.5627
    11.6568  11.8082  12.1974  12.6537  12.6574  12.8661  13.2139  13.3965
    13.7252  13.7308  13.7323  14.2926

          k = 0.1429-0.0825 0.0000 ( 22077 PWs)   bands (ev):

   -85.9847 -85.9708 -85.9706 -85.9705 -85.9600 -85.9599 -85.7250 -85.7128
   -85.7088 -85.6531 -85.6409 -85.6407 -49.4883 -49.4832 -49.4761 -49.4760
   -49.4733 -49.4527 -49.4493 -49.4324 -49.4313 -49.4100 -49.4079 -49.3973
   -49.3955 -49.3950 -49.3789 -49.3768 -49.3653 -49.3589 -49.2258 -49.2219
   -49.1900 -49.1878 -49.1560 -49.1524 -49.1462 -49.1345 -49.1303 -49.1277
   -49.1216 -49.1202 -49.1184 -49.0690 -49.0582 -49.0570 -49.0567 -49.0517
   -13.3615  -9.3732  -8.6783  -8.6717  -6.7696  -6.7659  -6.0867  -1.6378
    -1.1008  -0.9070  -0.9028  -0.4318  -0.2401   0.0391   0.2101   0.2538
     0.3545   0.4225   0.4479   0.5405   0.6350   0.7509   0.7812   0.8116
     0.8456   0.9766   1.0328   1.0503   1.0937   1.2261   1.2687   1.3139
     1.4154   1.4309   1.4433   1.4598   1.5284   1.5614   1.5741   1.6150
     1.6465   1.6933   1.7081   1.7444   1.7658   1.8292   1.8382   1.9217
     2.0592   2.1259   2.1424   2.1719   2.1979   2.2528   2.2661   2.3250
     2.3784   2.4142   2.4870   2.4913   2.4991   2.5347   2.5973   2.6223
     2.7496   2.8113   2.8601   2.9010   2.9018   3.0125   3.0513   3.0891
     3.1284   3.1313   3.1721   3.2308   3.4408   3.4508   3.4930   5.6058
     6.9539   7.3790   7.5749   7.5961   8.1384   8.3722   8.3968   8.6990
     9.3364   9.7423   9.7453   9.7811  10.3277  11.0096  11.0294  11.1348
    11.4452  11.6642  11.7508  12.1133  12.2374  12.2981  12.3470  12.7086
    12.9250  13.3958  13.4234  13.4276

          k = 0.1429 0.0825 0.0000 ( 22077 PWs)   bands (ev):

   -85.9847 -85.9708 -85.9706 -85.9705 -85.9601 -85.9599 -85.7250 -85.7128
   -85.7088 -85.6531 -85.6409 -85.6407 -49.4879 -49.4836 -49.4762 -49.4760
   -49.4734 -49.4520 -49.4496 -49.4324 -49.4317 -49.4097 -49.4082 -49.3967
   -49.3959 -49.3952 -49.3792 -49.3764 -49.3650 -49.3591 -49.2257 -49.2220
   -49.1899 -49.1879 -49.1563 -49.1521 -49.1462 -49.1345 -49.1303 -49.1278
   -49.1215 -49.1206 -49.1181 -49.0690 -49.0579 -49.0570 -49.0567 -49.0521
   -13.3615  -9.3732  -8.6783  -8.6717  -6.7696  -6.7659  -6.0867  -1.6378
    -1.1007  -0.9070  -0.9028  -0.4318  -0.2398   0.0389   0.2097   0.2543
     0.3529   0.4223   0.4496   0.5397   0.6368   0.7503   0.7786   0.8139
     0.8439   0.9757   1.0333   1.0496   1.0965   1.2268   1.2680   1.3134
     1.4140   1.4309   1.4437   1.4590   1.5315   1.5620   1.5754   1.6151
     1.6491   1.6922   1.7068   1.7451   1.7591   1.8295   1.8394   1.9226
     2.0556   2.1280   2.1422   2.1769   2.1966   2.2527   2.2701   2.3221
     2.3820   2.4161   2.4871   2.4915   2.4974   2.5281   2.5951   2.6211
     2.7517   2.8123   2.8544   2.9015   2.9023   3.0140   3.0497   3.0891
     3.1311   3.1324   3.1720   3.2306   3.4407   3.4524   3.4930   5.6055
     6.9539   7.3791   7.5749   7.5961   8.1381   8.3695   8.3957   8.7050
     9.3340   9.7423   9.7465   9.7818  10.3277  11.0068  11.0235  11.1387
    11.4453  11.6677  11.7500  12.1133  12.2374  12.3006  12.3441  12.7036
    12.9250  13.3963  13.4233  13.4309

          k = 0.1429 0.2474 0.0000 ( 22099 PWs)   bands (ev):

   -85.9830 -85.9714 -85.9714 -85.9695 -85.9606 -85.9606 -85.7238 -85.7133
   -85.7095 -85.6516 -85.6416 -85.6414 -49.4915 -49.4913 -49.4803 -49.4801
   -49.4719 -49.4367 -49.4362 -49.4230 -49.4227 -49.4069 -49.4065 -49.4064
   -49.3936 -49.3935 -49.3853 -49.3806 -49.3792 -49.3626 -49.2296 -49.2288
   -49.1742 -49.1733 -49.1598 -49.1597 -49.1455 -49.1429 -49.1349 -49.1310
   -49.1254 -49.1040 -49.1038 -49.0737 -49.0674 -49.0577 -49.0575 -49.0560
   -13.1255  -9.9144  -9.9110  -8.0764  -6.9696  -5.1913  -5.1903  -1.9231
    -1.3536  -0.7607  -0.6719  -0.6683   0.0224   0.1840   0.1859   0.2735
     0.3182   0.3196   0.3672   0.3674   0.4347   0.6687   0.6705   0.8600
     0.8614   0.9001   0.9020   1.0181   1.0199   1.0508   1.1837   1.2637
     1.4087   1.4183   1.4500   1.5110   1.5758   1.5906   1.6047   1.6067
     1.6162   1.6329   1.6362   1.7018   1.7901   1.8005   1.8903   1.8985
     1.9906   1.9967   2.1120   2.1256   2.2119   2.2400   2.2581   2.3007
     2.3252   2.3418   2.4307   2.4413   2.5470   2.5531   2.5793   2.5951
     2.6555   2.6599   2.7987   2.8042   2.8087   2.9051   3.0801   3.0876
     3.1465   3.1840   3.1851   3.3041   3.3063   3.8748   3.9311   6.0465
     6.3699   6.3723   7.1818   7.2200   7.2877   7.6204   8.5569   8.5841
     9.0006   9.0095  10.0471  10.0576  10.0648  10.6352  10.9837  10.9916
    11.6960  11.7028  11.7494  12.3748  12.7091  12.7136  13.5097  13.5219
    13.5677  13.5737  13.9933  14.0519

          k = 0.1429 0.4124 0.0000 ( 22124 PWs)   bands (ev):

   -85.9801 -85.9736 -85.9722 -85.9672 -85.9622 -85.9612 -85.7220 -85.7138
   -85.7107 -85.6491 -85.6434 -85.6422 -49.4994 -49.4874 -49.4823 -49.4734
   -49.4658 -49.4322 -49.4315 -49.4264 -49.4157 -49.4130 -49.4077 -49.3960
   -49.3943 -49.3912 -49.3888 -49.3882 -49.3854 -49.3697 -49.2367 -49.2201
   -49.1705 -49.1672 -49.1581 -49.1565 -49.1507 -49.1437 -49.1352 -49.1329
   -49.1321 -49.1001 -49.0882 -49.0872 -49.0650 -49.0635 -49.0594 -49.0583
   -12.6555 -11.0356 -10.2457  -8.0539  -6.2791  -4.2042  -3.4188  -3.1348
    -1.4130  -0.7977  -0.2222  -0.2132  -0.0229   0.0463   0.0836   0.0902
     0.2373   0.2508   0.2849   0.3073   0.4223   0.5008   0.5985   0.6343
     0.6851   0.7540   0.8331   0.8512   0.8931   1.0237   1.0826   1.0990
     1.1416   1.2154   1.2216   1.3646   1.4491   1.4733   1.5243   1.5362
     1.5958   1.6438   1.6665   1.7030   1.8368   1.8661   1.8807   1.9567
     1.9590   2.0584   2.0903   2.1165   2.1617   2.2494   2.2854   2.3317
     2.3878   2.3944   2.4838   2.5104   2.6051   2.6132   2.6357   2.7150
     2.7736   2.8684   2.8918   2.9151   3.0053   3.0327   3.0709   3.1160
     3.1457   3.1486   3.2260   3.2535   3.3441   4.2266   4.5138   4.5347
     5.2789   5.5233   6.3119   6.7758   6.8305   7.1942   7.6784   8.7137
     9.0149   9.2217   9.6564  10.6414  10.7068  10.7880  11.2515  11.3408
    11.4767  12.2026  12.3534  12.4858  12.9293  12.9352  13.3369  13.3928
    13.6955  13.7872  14.0405  14.2620

          k = 0.1429-0.5774 0.0000 ( 22126 PWs)   bands (ev):

   -85.9767 -85.9767 -85.9725 -85.9646 -85.9646 -85.9614 -85.7210 -85.7141
   -85.7114 -85.6462 -85.6460 -85.6425 -49.5024 -49.4902 -49.4660 -49.4655
   -49.4578 -49.4576 -49.4293 -49.4290 -49.4267 -49.4082 -49.3997 -49.3993
   -49.3947 -49.3884 -49.3881 -49.3854 -49.3801 -49.3800 -49.2394 -49.2007
   -49.1964 -49.1700 -49.1502 -49.1461 -49.1430 -49.1420 -49.1352 -49.1328
   -49.1290 -49.1287 -49.0806 -49.0745 -49.0742 -49.0621 -49.0619 -49.0586
   -11.9575 -11.9547 -10.3579  -8.1159  -5.6456  -3.8925  -3.5764  -1.9908
    -1.6105  -1.6072  -0.1478  -0.0752  -0.0082   0.0004   0.0229   0.1727
     0.1745   0.2984   0.3163   0.3175   0.4155   0.4181   0.4355   0.4363
     0.4609   0.6660   0.6673   0.7218   0.8611   0.8648   0.9584   0.9634
     1.2170   1.2403   1.2422   1.3260   1.3350   1.3401   1.5004   1.5810
     1.5839   1.6150   1.6173   1.8114   1.8239   1.8309   2.0548   2.0562
     2.0879   2.0975   2.1028   2.1206   2.2212   2.2228   2.3086   2.3125
     2.4291   2.4877   2.4902   2.7040   2.7709   2.7722   2.8053   2.8070
     2.8512   2.9264   2.9284   3.0296   3.0741   3.1065   3.1207   3.1218
     3.1979   3.2240   3.2256   3.3514   3.4207   3.7667   3.7679   4.3104
     5.1114   5.4416   5.4435   5.9107   7.2110   7.3006   7.7500   7.7666
     8.9142   9.9179  10.0538  10.0694  10.5448  11.2181  11.6559  11.6584
    12.0217  12.1795  12.1816  12.6624  12.6634  13.2219  13.2633  13.2659
    13.7839  13.7862  13.8735  14.0897

          k = 0.1429-0.4124 0.0000 ( 22124 PWs)   bands (ev):

   -85.9801 -85.9736 -85.9722 -85.9672 -85.9623 -85.9612 -85.7220 -85.7138
   -85.7107 -85.6491 -85.6434 -85.6422 -49.4994 -49.4874 -49.4826 -49.4732
   -49.4659 -49.4321 -49.4312 -49.4268 -49.4153 -49.4125 -49.4078 -49.3964
   -49.3948 -49.3908 -49.3889 -49.3885 -49.3853 -49.3696 -49.2367 -49.2202
   -49.1704 -49.1673 -49.1580 -49.1565 -49.1505 -49.1437 -49.1352 -49.1330
   -49.1321 -49.1004 -49.0885 -49.0872 -49.0649 -49.0632 -49.0594 -49.0583
   -12.6555 -11.0356 -10.2457  -8.0539  -6.2791  -4.2042  -3.4188  -3.1348
    -1.4130  -0.7978  -0.2225  -0.2132  -0.0231   0.0459   0.0840   0.0904
     0.2369   0.2508   0.2830   0.3079   0.4231   0.5033   0.5985   0.6349
     0.6898   0.7531   0.8335   0.8491   0.8907   1.0235   1.0833   1.0973
     1.1424   1.2157   1.2229   1.3625   1.4483   1.4713   1.5205   1.5342
     1.5942   1.6452   1.6632   1.7063   1.8405   1.8688   1.8848   1.9541
     1.9591   2.0626   2.0873   2.1172   2.1631   2.2479   2.2839   2.3311
     2.3875   2.3913   2.4837   2.5103   2.6077   2.6139   2.6371   2.7191
     2.7698   2.8686   2.8917   2.9137   3.0091   3.0321   3.0712   3.1165
     3.1442   3.1490   3.2265   3.2532   3.3425   4.2266   4.5117   4.5348
     5.2779   5.5233   6.3121   6.7767   6.8320   7.1942   7.6783   8.7139
     9.0143   9.2216   9.6563  10.6415  10.7068  10.7880  11.2515  11.3407
    11.4769  12.2026  12.3533  12.4852  12.9296  12.9365  13.3360  13.3930
    13.6967  13.7875  14.0405  14.2619

          k = 0.1429-0.2474 0.0000 ( 22099 PWs)   bands (ev):

   -85.9830 -85.9714 -85.9714 -85.9695 -85.9606 -85.9606 -85.7238 -85.7133
   -85.7095 -85.6516 -85.6416 -85.6414 -49.4918 -49.4912 -49.4802 -49.4800
   -49.4720 -49.4372 -49.4363 -49.4226 -49.4220 -49.4068 -49.4068 -49.4065
   -49.3939 -49.3932 -49.3852 -49.3809 -49.3794 -49.3624 -49.2296 -49.2288
   -49.1742 -49.1732 -49.1598 -49.1596 -49.1455 -49.1428 -49.1349 -49.1310
   -49.1255 -49.1041 -49.1039 -49.0740 -49.0674 -49.0577 -49.0575 -49.0556
   -13.1255  -9.9144  -9.9110  -8.0764  -6.9696  -5.1913  -5.1903  -1.9231
    -1.3536  -0.7608  -0.6719  -0.6683   0.0211   0.1841   0.1860   0.2743
     0.3175   0.3192   0.3674   0.3678   0.4367   0.6702   0.6728   0.8577
     0.8605   0.8991   0.9026   1.0180   1.0200   1.0511   1.1839   1.2628
     1.4080   1.4173   1.4500   1.5097   1.5767   1.5879   1.6004   1.6045
     1.6157   1.6315   1.6365   1.7056   1.7965   1.8065   1.8891   1.8951
     1.9903   1.9967   2.1101   2.1236   2.2139   2.2412   2.2587   2.2998
     2.3238   2.3407   2.4301   2.4412   2.5460   2.5570   2.5813   2.5966
     2.6565   2.6608   2.7968   2.8030   2.8134   2.9043   3.0798   3.0875
     3.1447   3.1837   3.1853   3.3039   3.3061   3.8724   3.9311   6.0473
     6.3701   6.3724   7.1815   7.2196   7.2876   7.6205   8.5573   8.5848
     9.0009   9.0095  10.0465  10.0572  10.0648  10.6352  10.9843  10.9931
    11.6947  11.7018  11.7494  12.3749  12.7097  12.7201  13.5092  13.5216
    13.5654  13.5729  13.9897  14.0520

          k = 0.2857-0.1650 0.0000 ( 22095 PWs)   bands (ev):

   -85.9822 -85.9724 -85.9712 -85.9689 -85.9613 -85.9605 -85.7233 -85.7135
   -85.7098 -85.6510 -85.6424 -85.6413 -49.5012 -49.4882 -49.4820 -49.4731
   -49.4702 -49.4391 -49.4275 -49.4220 -49.4171 -49.4119 -49.4085 -49.4002
   -49.3958 -49.3921 -49.3904 -49.3833 -49.3804 -49.3653 -49.2380 -49.2208
   -49.1710 -49.1685 -49.1670 -49.1514 -49.1499 -49.1445 -49.1350 -49.1313
   -49.1280 -49.1011 -49.0973 -49.0806 -49.0668 -49.0584 -49.0582 -49.0574
   -13.0077 -10.5816  -9.0539  -9.0478  -5.8420  -5.8380  -4.3634  -1.7984
    -1.7938  -1.2130  -0.5988  -0.0902   0.0368   0.1462   0.1484   0.1532
     0.3308   0.3677   0.3838   0.5195   0.5287   0.5365   0.7063   0.7756
     0.7857   0.9338   0.9500   0.9964   0.9998   1.0396   1.0722   1.1172
     1.2379   1.3176   1.3796   1.4580   1.4652   1.5209   1.5408   1.5745
     1.6176   1.6319   1.7342   1.7563   1.7791   1.8274   1.8509   1.8745
     1.8794   1.9710   2.0047   2.0409   2.0838   2.1262   2.2270   2.3037
     2.3522   2.4512   2.4641   2.5136   2.5397   2.5762   2.6597   2.6760
     2.7638   2.8531   2.8781   2.9195   2.9213   3.0797   3.0922   3.1026
     3.1564   3.2101   3.2629   3.2930   3.3100   3.4091   4.0545   5.3814
     6.1991   6.2468   7.2133   7.6873   7.7508   7.9097   8.0475   8.0546
     8.3554   8.7068   9.7191   9.9924  10.2257  10.4923  10.7893  11.1716
    11.9012  12.0286  12.1715  12.5103  12.8747  12.9893  13.1088  13.1839
    13.5791  13.8455  13.9318  14.1521

          k = 0.2857-0.0000 0.0000 ( 22099 PWs)   bands (ev):

   -85.9830 -85.9714 -85.9714 -85.9695 -85.9606 -85.9606 -85.7238 -85.7133
   -85.7095 -85.6516 -85.6416 -85.6414 -49.4918 -49.4912 -49.4801 -49.4800
   -49.4720 -49.4373 -49.4365 -49.4224 -49.4220 -49.4067 -49.4067 -49.4064
   -49.3939 -49.3933 -49.3853 -49.3809 -49.3793 -49.3625 -49.2296 -49.2288
   -49.1742 -49.1733 -49.1599 -49.1595 -49.1456 -49.1429 -49.1349 -49.1310
   -49.1254 -49.1042 -49.1037 -49.0739 -49.0674 -49.0577 -49.0575 -49.0558
   -13.1255  -9.9144  -9.9110  -8.0764  -6.9696  -5.1913  -5.1903  -1.9231
    -1.3536  -0.7609  -0.6719  -0.6683   0.0207   0.1840   0.1859   0.2747
     0.3176   0.3192   0.3676   0.3679   0.4364   0.6707   0.6732   0.8577
     0.8592   0.8989   0.9028   1.0184   1.0204   1.0519   1.1841   1.2625
     1.4069   1.4165   1.4499   1.5105   1.5760   1.5892   1.6012   1.6047
     1.6157   1.6334   1.6375   1.7036   1.7945   1.8049   1.8888   1.8950
     1.9903   1.9967   2.1115   2.1252   2.2109   2.2387   2.2595   2.3001
     2.3240   2.3411   2.4304   2.4413   2.5456   2.5576   2.5811   2.5961
     2.6578   2.6618   2.7972   2.8027   2.8135   2.9029   3.0796   3.0871
     3.1468   3.1836   3.1842   3.3050   3.3069   3.8714   3.9311   6.0470
     6.3701   6.3725   7.1815   7.2194   7.2875   7.6202   8.5571   8.5845
     9.0006   9.0095  10.0453  10.0556  10.0648  10.6352  10.9870  10.9942
    11.6949  11.7020  11.7494  12.3749  12.7124  12.7202  13.5092  13.5215
    13.5654  13.5725  13.9895  14.0520

          k = 0.2857 0.1650 0.0000 ( 22095 PWs)   bands (ev):

   -85.9822 -85.9724 -85.9712 -85.9689 -85.9614 -85.9605 -85.7233 -85.7135
   -85.7098 -85.6510 -85.6424 -85.6413 -49.5008 -49.4883 -49.4824 -49.4733
   -49.4701 -49.4382 -49.4277 -49.4229 -49.4172 -49.4123 -49.4084 -49.4002
   -49.3951 -49.3919 -49.3909 -49.3831 -49.3802 -49.3656 -49.2380 -49.2209
   -49.1709 -49.1688 -49.1671 -49.1511 -49.1500 -49.1445 -49.1350 -49.1313
   -49.1279 -49.1014 -49.0969 -49.0802 -49.0668 -49.0586 -49.0584 -49.0575
   -13.0077 -10.5816  -9.0539  -9.0478  -5.8420  -5.8380  -4.3634  -1.7984
    -1.7938  -1.2130  -0.5987  -0.0902   0.0367   0.1463   0.1491   0.1535
     0.3297   0.3666   0.3825   0.5208   0.5274   0.5380   0.7072   0.7762
     0.7838   0.9367   0.9519   0.9977   0.9997   1.0361   1.0726   1.1170
     1.2362   1.3152   1.3809   1.4568   1.4680   1.5201   1.5399   1.5712
     1.6179   1.6359   1.7340   1.7620   1.7778   1.8254   1.8548   1.8788
     1.8806   1.9673   2.0054   2.0406   2.0789   2.1232   2.2279   2.3024
     2.3544   2.4521   2.4591   2.5131   2.5395   2.5776   2.6609   2.6757
     2.7663   2.8535   2.8762   2.9182   2.9202   3.0795   3.0913   3.1044
     3.1552   3.2106   3.2642   3.2934   3.3104   3.4090   4.0562   5.3815
     6.1986   6.2461   7.2092   7.6883   7.7618   7.9096   8.0475   8.0566
     8.3484   8.7037   9.7189   9.9922  10.2257  10.4879  10.7893  11.1759
    11.9013  12.0213  12.1720  12.5101  12.8707  12.9931  13.1088  13.1977
    13.5799  13.8435  13.9318  14.1549

          k = 0.2857 0.3299 0.0000 ( 22124 PWs)   bands (ev):

   -85.9801 -85.9736 -85.9722 -85.9672 -85.9622 -85.9612 -85.7220 -85.7138
   -85.7107 -85.6491 -85.6434 -85.6422 -49.4994 -49.4876 -49.4823 -49.4732
   -49.4658 -49.4324 -49.4315 -49.4261 -49.4157 -49.4130 -49.4076 -49.3959
   -49.3945 -49.3911 -49.3889 -49.3882 -49.3853 -49.3698 -49.2366 -49.2203
   -49.1705 -49.1674 -49.1579 -49.1566 -49.1506 -49.1437 -49.1352 -49.1328
   -49.1321 -49.1001 -49.0884 -49.0870 -49.0649 -49.0636 -49.0594 -49.0583
   -12.6555 -11.0356 -10.2457  -8.0539  -6.2791  -4.2042  -3.4188  -3.1348
    -1.4130  -0.7977  -0.2222  -0.2132  -0.0227   0.0466   0.0834   0.0901
     0.2376   0.2507   0.2849   0.3073   0.4219   0.5010   0.5986   0.6345
     0.6850   0.7542   0.8328   0.8510   0.8929   1.0237   1.0828   1.0991
     1.1424   1.2152   1.2211   1.3638   1.4483   1.4734   1.5241   1.5364
     1.5961   1.6448   1.6657   1.7023   1.8358   1.8666   1.8809   1.9565
     1.9592   2.0594   2.0899   2.1166   2.1623   2.2500   2.2848   2.3319
     2.3875   2.3939   2.4843   2.5107   2.6052   2.6134   2.6354   2.7152
     2.7732   2.8670   2.8913   2.9162   3.0070   3.0322   3.0709   3.1159
     3.1457   3.1475   3.2266   3.2553   3.3431   4.2266   4.5134   4.5346
     5.2794   5.5239   6.3107   6.7757   6.8302   7.1942   7.6779   8.7136
     9.0147   9.2190   9.6564  10.6454  10.7068  10.7882  11.2515  11.3414
    11.4749  12.2059  12.3535  12.4860  12.9293  12.9356  13.3346  13.3951
    13.6959  13.7874  14.0417  14.2620

          k = 0.2857-0.6598 0.0000 ( 22119 PWs)   bands (ev):

   -85.9772 -85.9744 -85.9743 -85.9650 -85.9628 -85.9628 -85.7209 -85.7136
   -85.7121 -85.6466 -85.6442 -85.6440 -49.4847 -49.4845 -49.4753 -49.4752
   -49.4657 -49.4576 -49.4311 -49.4310 -49.4267 -49.4050 -49.4050 -49.3959
   -49.3911 -49.3910 -49.3881 -49.3827 -49.3826 -49.3752 -49.2229 -49.2211
   -49.1971 -49.1525 -49.1524 -49.1482 -49.1468 -49.1429 -49.1388 -49.1347
   -49.1334 -49.1273 -49.0776 -49.0774 -49.0698 -49.0625 -49.0602 -49.0600
   -12.0723 -11.2661 -11.2632  -7.1593  -6.4714  -4.2742  -2.5471  -2.5450
    -1.0759  -0.7627  -0.7603  -0.1377   0.0149   0.0162   0.0312   0.0443
     0.0452   0.1715   0.1752   0.1881   0.1893   0.3886   0.4344   0.4352
     0.5706   0.6050   0.6067   0.7455   0.7485   0.7567   0.9036   0.9129
     0.9901   1.2807   1.2834   1.3221   1.4672   1.4678   1.4927   1.5859
     1.5882   1.6266   1.6453   1.7953   1.7975   2.0137   2.0650   2.0663
     2.1054   2.2729   2.2812   2.3062   2.3317   2.4375   2.5094   2.5137
     2.5558   2.6063   2.6064   2.6104   2.7348   2.7675   2.7703   2.7972
     2.8319   2.8331   2.9035   2.9385   2.9396   3.0134   3.0155   3.0756
     3.0773   3.1753   3.2237   3.2249   3.4150   3.8116   3.8143   4.5764
     4.5786   5.1780   5.2193   6.2793   6.2838   6.3516   7.5652   8.5654
     8.5722   9.8281  11.0372  11.0490  11.3646  11.3701  11.5031  12.0201
    12.2427  12.2491  12.6123  12.6147  12.9816  13.0031  13.0239  13.0910
    13.4396  13.4679  13.6467  14.1637

          k = 0.2857-0.4949 0.0000 ( 22119 PWs)   bands (ev):

   -85.9772 -85.9744 -85.9743 -85.9650 -85.9628 -85.9628 -85.7209 -85.7136
   -85.7121 -85.6466 -85.6442 -85.6440 -49.4851 -49.4845 -49.4752 -49.4752
   -49.4656 -49.4574 -49.4313 -49.4305 -49.4270 -49.4049 -49.4046 -49.3961
   -49.3915 -49.3911 -49.3880 -49.3827 -49.3826 -49.3750 -49.2229 -49.2211
   -49.1970 -49.1524 -49.1522 -49.1481 -49.1468 -49.1429 -49.1389 -49.1347
   -49.1334 -49.1276 -49.0778 -49.0776 -49.0694 -49.0625 -49.0602 -49.0599
   -12.0723 -11.2661 -11.2632  -7.1593  -6.4714  -4.2742  -2.5471  -2.5450
    -1.0759  -0.7627  -0.7603  -0.1380   0.0148   0.0161   0.0306   0.0444
     0.0462   0.1701   0.1752   0.1880   0.1895   0.3918   0.4339   0.4358
     0.5714   0.6033   0.6058   0.7463   0.7487   0.7569   0.9028   0.9123
     0.9888   1.2824   1.2850   1.3237   1.4640   1.4694   1.4939   1.5856
     1.5899   1.6208   1.6432   1.7921   1.7983   2.0145   2.0658   2.0696
     2.1094   2.2710   2.2791   2.3048   2.3304   2.4384   2.5106   2.5148
     2.5565   2.6073   2.6086   2.6114   2.7350   2.7663   2.7692   2.7974
     2.8303   2.8319   2.9022   2.9398   2.9409   3.0122   3.0143   3.0766
     3.0785   3.1750   3.2229   3.2238   3.4183   3.8118   3.8145   4.5745
     4.5782   5.1780   5.2165   6.2802   6.2858   6.3517   7.5664   8.5648
     8.5717   9.8285  11.0372  11.0489  11.3646  11.3701  11.5032  12.0199
    12.2422  12.2488  12.6131  12.6156  12.9816  13.0027  13.0233  13.0906
    13.4404  13.4688  13.6478  14.1619

          k = 0.2857-0.3299 0.0000 ( 22124 PWs)   bands (ev):

   -85.9801 -85.9736 -85.9722 -85.9672 -85.9622 -85.9612 -85.7220 -85.7138
   -85.7107 -85.6491 -85.6434 -85.6422 -49.4998 -49.4875 -49.4821 -49.4731
   -49.4659 -49.4331 -49.4310 -49.4256 -49.4152 -49.4127 -49.4079 -49.3963
   -49.3952 -49.3911 -49.3886 -49.3883 -49.3854 -49.3695 -49.2366 -49.2202
   -49.1704 -49.1671 -49.1580 -49.1565 -49.1507 -49.1437 -49.1352 -49.1329
   -49.1321 -49.1005 -49.0882 -49.0874 -49.0650 -49.0631 -49.0594 -49.0582
   -12.6555 -11.0356 -10.2457  -8.0539  -6.2791  -4.2042  -3.4188  -3.1348
    -1.4130  -0.7978  -0.2226  -0.2132  -0.0228   0.0468   0.0839   0.0904
     0.2375   0.2505   0.2827   0.3079   0.4212   0.5047   0.5969   0.6376
     0.6887   0.7529   0.8333   0.8472   0.8905   1.0229   1.0833   1.0981
     1.1461   1.2151   1.2208   1.3634   1.4478   1.4737   1.5222   1.5381
     1.5899   1.6426   1.6633   1.7041   1.8360   1.8678   1.8864   1.9543
     1.9582   2.0587   2.0934   2.1197   2.1628   2.2510   2.2837   2.3309
     2.3854   2.3943   2.4846   2.5099   2.6075   2.6135   2.6372   2.7182
     2.7705   2.8660   2.8908   2.9138   3.0102   3.0319   3.0717   3.1175
     3.1451   3.1471   3.2273   3.2537   3.3422   4.2266   4.5109   4.5347
     5.2795   5.5247   6.3077   6.7768   6.8299   7.1942   7.6818   8.7139
     9.0150   9.2181   9.6563  10.6478  10.7068  10.7881  11.2515  11.3383
    11.4750  12.2138  12.3533  12.4861  12.9297  12.9357  13.3342  13.3814
    13.6954  13.7873  14.0383  14.2621

          k = 0.4286-0.2474 0.0000 ( 22124 PWs)   bands (ev):

   -85.9788 -85.9753 -85.9717 -85.9662 -85.9635 -85.9609 -85.7215 -85.7143
   -85.7108 -85.6480 -85.6449 -85.6418 -49.5082 -49.4951 -49.4687 -49.4639
   -49.4611 -49.4385 -49.4351 -49.4227 -49.4187 -49.4122 -49.4052 -49.3969
   -49.3942 -49.3919 -49.3886 -49.3864 -49.3854 -49.3758 -49.2446 -49.2054
   -49.1789 -49.1752 -49.1539 -49.1534 -49.1433 -49.1385 -49.1357 -49.1354
   -49.1323 -49.1095 -49.0842 -49.0835 -49.0690 -49.0638 -49.0608 -49.0579
   -12.4216 -11.6089  -9.2608  -9.2548  -4.8892  -4.8856  -2.7924  -2.7872
    -2.5225  -0.6801  -0.5249  -0.1655  -0.0754  -0.0160   0.0333   0.2891
     0.3493   0.3813   0.4491   0.4516   0.4527   0.5377   0.5638   0.5734
     0.6891   0.6915   0.7723   0.8426   0.8767   0.9385   0.9440   1.1413
     1.1845   1.2046   1.2522   1.2835   1.3434   1.3497   1.4272   1.4407
     1.4954   1.5151   1.6094   1.6453   1.7524   1.7789   1.8370   1.8775
     1.9706   2.0318   2.0835   2.1111   2.1467   2.2643   2.3051   2.3995
     2.4067   2.5386   2.5742   2.6850   2.7059   2.7773   2.7840   2.8050
     2.8810   3.0072   3.0230   3.0299   3.0484   3.0542   3.0959   3.1524
     3.2084   3.2277   3.2952   3.3341   3.3960   3.4621   3.8182   4.4468
     4.8471   6.0234   6.4008   7.1267   7.1722   7.7249   7.9505   8.2497
     8.4615   8.4648   9.2040  10.2992  10.6717  10.9302  11.0262  11.5627
    11.6680  11.8088  12.1975  12.6537  12.6573  12.8520  13.2142  13.3965
    13.7252  13.7308  13.7323  14.2929

          k = 0.4286-0.0825 0.0000 ( 22124 PWs)   bands (ev):

   -85.9801 -85.9736 -85.9722 -85.9672 -85.9622 -85.9612 -85.7220 -85.7138
   -85.7107 -85.6491 -85.6434 -85.6422 -49.4998 -49.4874 -49.4822 -49.4731
   -49.4659 -49.4331 -49.4310 -49.4258 -49.4151 -49.4126 -49.4079 -49.3963
   -49.3951 -49.3912 -49.3886 -49.3883 -49.3854 -49.3696 -49.2366 -49.2202
   -49.1705 -49.1670 -49.1581 -49.1565 -49.1508 -49.1437 -49.1352 -49.1328
   -49.1321 -49.1004 -49.0881 -49.0874 -49.0650 -49.0632 -49.0594 -49.0582
   -12.6555 -11.0356 -10.2457  -8.0539  -6.2791  -4.2042  -3.4188  -3.1348
    -1.4130  -0.7977  -0.2230  -0.2132  -0.0229   0.0467   0.0841   0.0905
     0.2373   0.2507   0.2819   0.3082   0.4213   0.5056   0.5968   0.6378
     0.6893   0.7530   0.8323   0.8479   0.8900   1.0230   1.0832   1.0984
     1.1469   1.2155   1.2219   1.3620   1.4473   1.4736   1.5205   1.5387
     1.5885   1.6439   1.6640   1.7058   1.8368   1.8664   1.8848   1.9535
     1.9582   2.0579   2.0940   2.1195   2.1628   2.2508   2.2841   2.3301
     2.3858   2.3944   2.4850   2.5104   2.6077   2.6137   2.6369   2.7183
     2.7706   2.8657   2.8913   2.9137   3.0096   3.0315   3.0718   3.1172
     3.1462   3.1471   3.2263   3.2544   3.3440   4.2266   4.5102   4.5347
     5.2790   5.5246   6.3077   6.7764   6.8298   7.1942   7.6817   8.7133
     9.0149   9.2179   9.6563  10.6478  10.7068  10.7881  11.2515  11.3384
    11.4765  12.2138  12.3534  12.4860  12.9297  12.9353  13.3366  13.3814
    13.6951  13.7872  14.0383  14.2621

          k = 0.4286 0.0825 0.0000 ( 22124 PWs)   bands (ev):

   -85.9801 -85.9736 -85.9722 -85.9672 -85.9623 -85.9612 -85.7220 -85.7138
   -85.7107 -85.6491 -85.6434 -85.6422 -49.4994 -49.4875 -49.4827 -49.4731
   -49.4659 -49.4323 -49.4311 -49.4267 -49.4152 -49.4124 -49.4077 -49.3963
   -49.3948 -49.3908 -49.3890 -49.3885 -49.3853 -49.3697 -49.2366 -49.2202
   -49.1706 -49.1674 -49.1580 -49.1566 -49.1504 -49.1437 -49.1352 -49.1328
   -49.1321 -49.1003 -49.0885 -49.0870 -49.0650 -49.0634 -49.0594 -49.0583
   -12.6555 -11.0356 -10.2457  -8.0539  -6.2791  -4.2042  -3.4188  -3.1348
    -1.4130  -0.7977  -0.2230  -0.2132  -0.0230   0.0461   0.0840   0.0904
     0.2369   0.2510   0.2821   0.3081   0.4229   0.5044   0.5985   0.6354
     0.6902   0.7534   0.8322   0.8496   0.8899   1.0237   1.0835   1.0976
     1.1439   1.2158   1.2237   1.3603   1.4470   1.4714   1.5186   1.5349
     1.5930   1.6475   1.6634   1.7071   1.8403   1.8678   1.8835   1.9529
     1.9594   2.0629   2.0875   2.1172   2.1637   2.2483   2.2836   2.3306
     2.3875   2.3909   2.4846   2.5111   2.6081   2.6142   2.6365   2.7194
     2.7697   2.8669   2.8917   2.9146   3.0101   3.0313   3.0713   3.1162
     3.1457   3.1475   3.2261   3.2556   3.3433   4.2266   4.5106   4.5348
     5.2780   5.5238   6.3110   6.7762   6.8317   7.1942   7.6777   8.7133
     9.0140   9.2188   9.6564  10.6455  10.7068  10.7882  11.2515  11.3413
    11.4765  12.2059  12.3535  12.4852  12.9296  12.9364  13.3361  13.3953
    13.6968  13.7876  14.0417  14.2620

          k = 0.4286 0.2474 0.0000 ( 22124 PWs)   bands (ev):

   -85.9788 -85.9753 -85.9718 -85.9662 -85.9635 -85.9609 -85.7215 -85.7143
   -85.7108 -85.6480 -85.6449 -85.6418 -49.5078 -49.4952 -49.4690 -49.4639
   -49.4613 -49.4390 -49.4343 -49.4237 -49.4183 -49.4124 -49.4052 -49.3961
   -49.3940 -49.3918 -49.3885 -49.3862 -49.3859 -49.3761 -49.2445 -49.2055
   -49.1790 -49.1755 -49.1538 -49.1535 -49.1433 -49.1384 -49.1354 -49.1353
   -49.1323 -49.1091 -49.0839 -49.0838 -49.0693 -49.0638 -49.0608 -49.0580
   -12.4216 -11.6089  -9.2608  -9.2548  -4.8892  -4.8856  -2.7924  -2.7872
    -2.5225  -0.6801  -0.5249  -0.1654  -0.0761  -0.0165   0.0337   0.2901
     0.3481   0.3814   0.4490   0.4516   0.4539   0.5364   0.5640   0.5753
     0.6893   0.6924   0.7727   0.8402   0.8753   0.9392   0.9448   1.1413
     1.1881   1.2044   1.2525   1.2775   1.3443   1.3511   1.4248   1.4419
     1.4931   1.5133   1.6126   1.6444   1.7518   1.7804   1.8392   1.8812
     1.9737   2.0336   2.0915   2.1034   2.1392   2.2610   2.3049   2.3939
     2.4056   2.5375   2.5768   2.6842   2.7074   2.7783   2.7850   2.8095
     2.8800   3.0086   3.0209   3.0298   3.0487   3.0538   3.0986   3.1536
     3.2078   3.2262   3.2940   3.3336   3.3957   3.4628   3.8180   4.4466
     4.8483   6.0243   6.3977   7.1260   7.1874   7.7186   7.9425   8.2491
     8.4615   8.4647   9.2037  10.2948  10.6715  10.9357  11.0262  11.5628
    11.6599  11.8085  12.1974  12.6539  12.6575  12.8686  13.2138  13.3965
    13.7252  13.7309  13.7323  14.2923

          k = 0.4286-0.7423 0.0000 ( 22126 PWs)   bands (ev):

   -85.9767 -85.9767 -85.9725 -85.9646 -85.9646 -85.9614 -85.7210 -85.7141
   -85.7114 -85.6462 -85.6460 -85.6425 -49.5024 -49.4904 -49.4660 -49.4654
   -49.4578 -49.4575 -49.4293 -49.4291 -49.4265 -49.4082 -49.3997 -49.3993
   -49.3948 -49.3883 -49.3880 -49.3853 -49.3802 -49.3801 -49.2393 -49.2008
   -49.1964 -49.1702 -49.1503 -49.1461 -49.1430 -49.1419 -49.1352 -49.1328
   -49.1288 -49.1286 -49.0804 -49.0746 -49.0744 -49.0621 -49.0619 -49.0586
   -11.9575 -11.9547 -10.3579  -8.1159  -5.6456  -3.8925  -3.5764  -1.9908
    -1.6105  -1.6072  -0.1476  -0.0747  -0.0082   0.0005   0.0227   0.1720
     0.1743   0.2979   0.3157   0.3174   0.4159   0.4196   0.4355   0.4363
     0.4612   0.6664   0.6677   0.7219   0.8605   0.8642   0.9582   0.9633
     1.2199   1.2406   1.2425   1.3219   1.3349   1.3403   1.5013   1.5775
     1.5812   1.6162   1.6194   1.8114   1.8249   1.8316   2.0539   2.0548
     2.0877   2.0987   2.1031   2.1200   2.2205   2.2228   2.3095   2.3134
     2.4297   2.4881   2.4907   2.7044   2.7701   2.7719   2.8047   2.8060
     2.8519   2.9268   2.9290   3.0297   3.0736   3.1064   3.1221   3.1233
     3.1976   3.2237   3.2253   3.3512   3.4209   3.7666   3.7685   4.3104
     5.1125   5.4409   5.4431   5.9091   7.2110   7.3001   7.7496   7.7662
     8.9115   9.9178  10.0531  10.0688  10.5489  11.2190  11.6559  11.6583
    12.0251  12.1796  12.1817  12.6624  12.6634  13.2247  13.2636  13.2662
    13.7837  13.7859  13.8747  14.0897

          k = 0.4286-0.5774 0.0000 ( 22119 PWs)   bands (ev):

   -85.9772 -85.9744 -85.9743 -85.9650 -85.9628 -85.9628 -85.7209 -85.7136
   -85.7121 -85.6466 -85.6442 -85.6440 -49.4851 -49.4846 -49.4753 -49.4751
   -49.4656 -49.4574 -49.4312 -49.4306 -49.4269 -49.4048 -49.4046 -49.3962
   -49.3914 -49.3912 -49.3880 -49.3827 -49.3825 -49.3751 -49.2229 -49.2211
   -49.1971 -49.1526 -49.1522 -49.1482 -49.1469 -49.1429 -49.1387 -49.1347
   -49.1334 -49.1275 -49.0778 -49.0774 -49.0696 -49.0625 -49.0602 -49.0599
   -12.0723 -11.2661 -11.2632  -7.1593  -6.4714  -4.2742  -2.5471  -2.5450
    -1.0759  -0.7627  -0.7603  -0.1378   0.0149   0.0161   0.0296   0.0450
     0.0462   0.1694   0.1752   0.1881   0.1892   0.3932   0.4340   0.4354
     0.5717   0.6033   0.6062   0.7455   0.7486   0.7568   0.9030   0.9124
     0.9886   1.2833   1.2861   1.3245   1.4623   1.4671   1.4942   1.5866
     1.5909   1.6197   1.6425   1.7917   1.7976   2.0160   2.0652   2.0691
     2.1101   2.2707   2.2792   2.3046   2.3301   2.4386   2.5109   2.5152
     2.5567   2.6069   2.6090   2.6115   2.7351   2.7656   2.7686   2.7973
     2.8304   2.8328   2.9012   2.9390   2.9402   3.0134   3.0155   3.0758
     3.0775   3.1761   3.2237   3.2245   3.4193   3.8120   3.8146   4.5744
     4.5772   5.1780   5.2158   6.2803   6.2857   6.3517   7.5660   8.5647
     8.5717   9.8273  11.0383  11.0499  11.3646  11.3701  11.5031  12.0200
    12.2422  12.2487  12.6126  12.6154  12.9817  13.0041  13.0246  13.0909
    13.4403  13.4688  13.6472  14.1620

          k = 0.4286-0.4124 0.0000 ( 22126 PWs)   bands (ev):

   -85.9767 -85.9767 -85.9725 -85.9646 -85.9646 -85.9615 -85.7210 -85.7141
   -85.7114 -85.6462 -85.6460 -85.6425 -49.5028 -49.4903 -49.4658 -49.4653
   -49.4576 -49.4573 -49.4298 -49.4296 -49.4257 -49.4080 -49.3996 -49.3996
   -49.3954 -49.3884 -49.3882 -49.3854 -49.3799 -49.3798 -49.2394 -49.2007
   -49.1964 -49.1699 -49.1502 -49.1461 -49.1430 -49.1419 -49.1352 -49.1328
   -49.1291 -49.1289 -49.0808 -49.0743 -49.0741 -49.0621 -49.0619 -49.0585
   -11.9575 -11.9547 -10.3579  -8.1159  -5.6456  -3.8925  -3.5764  -1.9908
    -1.6105  -1.6072  -0.1477  -0.0739  -0.0082   0.0004   0.0232   0.1717
     0.1735   0.2970   0.3154   0.3165   0.4188   0.4205   0.4355   0.4363
     0.4590   0.6683   0.6695   0.7206   0.8586   0.8623   0.9577   0.9628
     1.2182   1.2414   1.2433   1.3306   1.3352   1.3402   1.5026   1.5751
     1.5783   1.6138   1.6153   1.8110   1.8259   1.8325   2.0553   2.0569
     2.0853   2.1008   2.1061   2.1138   2.2206   2.2223   2.3103   2.3136
     2.4351   2.4906   2.4927   2.7050   2.7694   2.7703   2.8023   2.8030
     2.8487   2.9279   2.9299   3.0307   3.0723   3.1077   3.1212   3.1223
     3.1988   3.2241   3.2258   3.3514   3.4205   3.7678   3.7683   4.3104
     5.1135   5.4405   5.4412   5.9048   7.2110   7.3050   7.7503   7.7669
     8.9105   9.9179  10.0533  10.0690  10.5515  11.2154  11.6559  11.6584
    12.0334  12.1794  12.1816  12.6624  12.6634  13.2096  13.2633  13.2659
    13.7842  13.7864  13.8716  14.0897

     the Fermi energy is     6.2843 ev

!    total energy              =   -3595.82824781 Ry
     estimated scf accuracy    <          7.7E-09 Ry
     smearing contrib. (-TS)   =      -0.00224070 Ry
     internal energy E=F+TS    =   -3595.82600711 Ry

     The total energy is F=E-TS. E is the sum of the following terms:
     one-electron contribution =  -24427.91288939 Ry
     hartree contribution      =   12244.01025567 Ry
     xc contribution           =    -362.14762170 Ry
     ewald contribution        =    9000.05619342 Ry
     DFT-D3 Dispersion         =      -0.50438975 Ry
     electric field correction =       0.00006619 Ry
     one-center paw contrib.   =     -49.32762155 Ry

     convergence has been achieved in  25 iterations

     negative rho (up, down):  1.144E-04 0.000E+00

     Forces acting on atoms (cartesian axes, Ry/au):

     atom    1 type  1   force =     0.00010181    0.00051559    0.00140374
     atom    2 type  1   force =     0.00017810    0.00047287    0.00140511
     atom    3 type  1   force =    -0.00019909   -0.00011368   -0.00015750
     atom    4 type  1   force =     0.00000317   -0.00033669   -0.00380387
     atom    5 type  1   force =     0.00017942    0.00056016    0.00140102
     atom    6 type  1   force =    -0.00033032   -0.00003506   -0.00016963
     atom    7 type  1   force =     0.00009072   -0.00012334    0.00215256
     atom    8 type  1   force =     0.00000386   -0.00033729   -0.00381942
     atom    9 type  1   force =     0.00008482   -0.00012104    0.00249681
     atom   10 type  1   force =    -0.00019457    0.00004162   -0.00016829
     atom   11 type  1   force =     0.00000314   -0.00033677   -0.00380396
     atom   12 type  1   force =     0.00009123   -0.00012171    0.00213717
     atom   13 type  2   force =    -0.00000120   -0.00000712    0.00071424
     atom   14 type  2   force =     0.00098766    0.00054215   -0.00007679
     atom   15 type  2   force =     0.00098651   -0.00055919   -0.00008394
     atom   16 type  2   force =    -0.00001538   -0.00114195   -0.00007532
     atom   17 type  2   force =    -0.00001743    0.00112762   -0.00008320
     atom   18 type  2   force =    -0.00097512    0.00056990   -0.00007834
     atom   19 type  2   force =    -0.00097641   -0.00058593   -0.00008404
     atom   20 type  2   force =    -0.00000091   -0.00001016    0.00069365

     Total force =     0.008670     Total SCF correction =     0.000804

     Writing all to output data dir ./tmp/V2_top_fcc_G4_k1_bound.save/ :
     XML data file, charge density, pseudopotentials, collected wavefunctions
 
     init_run     :      3.90s CPU      4.21s WALL (       1 calls)
     electrons    :    147.07s CPU    163.97s WALL (       1 calls)
     forces       :      0.80s CPU      0.99s WALL (       1 calls)
     force_dftd3  :      0.04s CPU      0.03s WALL (       1 calls)

     Called by init_run:
     wfcinit      :      1.29s CPU      2.00s WALL (       1 calls)
     potinit      :      1.67s CPU      1.26s WALL (       1 calls)
     hinit0       :      0.62s CPU      0.54s WALL (       1 calls)

     Called by electrons:
     c_bands      :     85.73s CPU    105.58s WALL (      26 calls)
     sum_band     :     17.60s CPU     26.07s WALL (      26 calls)
     v_of_rho     :      6.32s CPU      5.38s WALL (      26 calls)
     newd         :      0.39s CPU      0.39s WALL (      26 calls)
                                        0.39s GPU  (      26 calls)
     PAW_pot      :     31.18s CPU     19.65s WALL (      26 calls)
     mix_rho      :      4.51s CPU      4.81s WALL (      26 calls)
     energy_dftd3 :      0.00s CPU      0.00s WALL (       1 calls)

     Called by c_bands:
     init_us_2    :      1.27s CPU      1.58s WALL (    1350 calls)
     cegterg      :     75.24s CPU     75.61s WALL (     650 calls)

     Called by *egterg:
     cdiaghg      :     12.90s CPU     13.23s WALL (    3248 calls)
                                       13.21s GPU  (    3248 calls)
     h_psi        :     49.49s CPU     49.78s WALL (    3298 calls)
                                       49.65s GPU  (    3298 calls)
     s_psi        :      1.36s CPU      1.33s WALL (    3298 calls)
     g_psi        :      0.02s CPU      0.38s WALL (    2623 calls)
                                        0.37s GPU  (    2623 calls)

     Called by h_psi:
     h_psi:calbec :      0.13s CPU      2.10s WALL (    3298 calls)
                                        2.08s GPU  (    3298 calls)
     vloc_psi     :     43.52s CPU     43.72s WALL (    3298 calls)
                                       43.70s GPU  (    3298 calls)
     add_vuspsi   :      1.38s CPU      3.42s WALL (    3298 calls)
                                        3.40s GPU  (    3298 calls)

     General routines
     calbec       :      0.15s CPU      0.16s WALL (    4048 calls)
     fft          :      1.23s CPU      1.34s WALL (     348 calls)
                                        0.10s GPU  (     322 calls)
     ffts         :      0.26s CPU      0.45s WALL (    2774 calls)
                                        0.21s GPU  (    2748 calls)
     fftw         :      0.50s CPU     37.11s WALL (   37474 calls)
                                       36.89s GPU  (   37474 calls)
     interpolate  :      1.62s CPU      1.95s WALL (      26 calls)
     davcio       :      2.34s CPU     30.10s WALL (    2431 calls)
 
     Parallel routines
 
     PWSCF        :   2m34.64s CPU   2m52.15s WALL

 
   This run was terminated on:  20:18:15  26Sep2026            

=------------------------------------------------------------------------------=
   JOB DONE.
=------------------------------------------------------------------------------=
