62
Lattice="6.1407362551629285 0.0 3.545357382964076 2.0469120850543097 5.789547334236039 3.545357382964076 0.0 0.0 35.45357382964076" Properties=species:S:1:pos:R:3:forces:R:3 energy=-18102.720579952005 free_energy=-18102.720579952005 stress="0.0008961218324346649 -0.0012486943566712542 0.0005518127267348705 -0.0012486943566712542 0.00215950671094911 0.0002148488819566717 0.0005518127267348705 0.0002148488819566717 -0.0011072980839305388" pbc="T T T"
Li       4.85056925       2.52573930      38.76083862       0.00084589      -0.00018666      -0.00070294
Li       1.64725209       3.78936556       9.16090860      -0.00049468       0.00118451       0.00006813
Li       1.37661065       2.35848022      29.89334658      -0.00091146      -0.00133517       0.00198026
Li       4.24445936       0.67384530      33.13541196      -0.00058570       0.00163548      -0.00048825
Li       4.15854721       0.54991944      30.28877464       0.00123310       0.00069805       0.00075796
Li       6.26645277       0.59902636       6.07260094      -0.00237416       0.00092920       0.00145087
Li       3.49490559       0.66292722      12.15413731       0.00047771      -0.00173627      -0.00095645
Li       4.15973672       0.10004549      18.87399444      -0.00164628      -0.00212013      -0.00074125
Li       4.27514389       0.41026666      25.73335542       0.00275777      -0.00000643       0.00059521
Li       2.72644007       0.55672588      36.47128503       0.00250065      -0.00075539      -0.00196561
Li       1.86222739       3.80588546      11.96995577      -0.00015324      -0.00049339      -0.00271303
Li       1.24867752       0.11796682      23.57593782      -0.00018023      -0.00045586       0.00142928
Li       1.77591966       3.39068082      33.24095948      -0.00119891       0.00283644      -0.00106058
Li       0.52873101       0.78726107      11.23863236       0.00054276       0.00138094      -0.00036947
Li       4.96658383       2.54769920      17.56425401       0.00096134      -0.00195224       0.00084641
Li       2.30379582       0.53240917       5.44999444      -0.00002443       0.00142593       0.00055279
Li       7.41135778       5.39752254      26.18418336      -0.00162262       0.00214919      -0.00133209
Li       2.07556504       0.06887011      15.96223825       0.00112280      -0.00300511       0.00109992
Li       1.27546357       2.23682683      26.64589290      -0.00030570      -0.00050291       0.00045971
Li       7.17590910       4.11634180       6.90116401      -0.00250245       0.00029516      -0.00050471
Li       4.75689391       2.56330839      10.35803713       0.00074845      -0.00019283       0.00060035
Li       1.68028688       2.10392936      20.08755032      -0.00106007      -0.00207899      -0.00060292
Li       3.72745763       3.79969863      24.56935600      -0.00118862      -0.00087855       0.00021649
Li       4.04954829       3.81135838      31.59142227       0.00110532       0.00169024       0.00117139
Li       0.94648963       0.43339344      32.47900076       0.00113566       0.00140871       0.00118862
Li       2.50086396       0.57316068       8.67013725      -0.00211242       0.00026919       0.00163214
Li       1.83493085       3.76389330      16.60498920      -0.00064355      -0.00054507      -0.00036073
P        4.19007091       3.39162011       6.86741275      -0.00297888      -0.00107935       0.00204146
P        4.45322570       3.36423126      14.16454914      -0.00065435      -0.00043040       0.00154678
P        4.49505190       3.17523179      21.14619464      -0.00012136      -0.00058467       0.00069420
P        4.61430467       3.19503258      28.08926099       0.00019540      -0.00090529       0.00340877
P        4.65733979       3.32087596      35.32868795      -0.00168176       0.00071194       0.00223917
S        4.13853155       1.31717330       6.91911508       0.00189413      -0.00341520      -0.00077879
S        4.33841933       1.31822223      14.30932747      -0.00238444      -0.00259501      -0.00007225
S        4.07473013       1.16369737      21.07516984       0.00043966      -0.00150050       0.00208028
S        4.91099967       1.15711687      27.99949477      -0.00136988      -0.00164345      -0.00139122
S        4.78925658       1.24662060      35.42483189       0.00010876      -0.00150152       0.00116008
S        2.27401910       4.08262202       6.82499661      -0.00245386       0.00130046      -0.00035533
S        2.54301051       4.14488172      14.27109812      -0.00005142       0.00308275      -0.00010490
S        2.70910912       4.20272644      20.96591581       0.00172315      -0.00216513       0.00164216
S        2.61436033       3.70765238      28.21429446      -0.00235590      -0.00015555      -0.00383814
S        2.69729679       3.88250871      35.41395667      -0.00280944       0.00187408       0.00106984
S        5.31054990       3.98564183       5.22770813       0.00272408       0.00330541       0.00024066
S        5.33958876       3.99536061      12.41260775       0.00224534       0.00033373      -0.00456268
S        5.62335620       3.84496669      19.53994879       0.00018692      -0.00018692      -0.00391168
S        5.27768542       4.21309644      26.42890910      -0.00204223       0.00173369      -0.00009873
S        5.61119465       3.94888591      33.60704095       0.00230165       0.00229085      -0.00467864
S        5.27491741       4.07082763       8.50084100       0.00199183       0.00002520      -0.00269169
S        5.52719863       4.05383527      15.79980283       0.00022137       0.00210213       0.00175941
S        5.51890417       3.61233277      22.88176729      -0.00022703       0.00003805       0.00072814
S        5.63675739       3.89419442      29.75615324       0.00381449       0.00282410       0.00007790
S        5.61034045       4.07329002      37.01144155       0.00079730      -0.00003111       0.00336686
Br       2.29232020       1.83807359       3.26044734      -0.00064818      -0.00064972       0.00158354
S        2.43618521       1.99525132      10.55899111      -0.00002263       0.00071811      -0.00088523
Cl       2.66030029       1.75760441      17.72111007      -0.00096211      -0.00145987      -0.00125367
Cl       2.58774668       1.73712599      24.76977476       0.00267498       0.00011467       0.00001388
S        2.71837852       1.83164255       8.30410315       0.00061501      -0.00015941      -0.00077416
Br       0.35670501       0.49590257      35.36932388      -0.00044352      -0.00122256      -0.00089140
Br       0.26184833       0.30910268       7.05509148      -0.00097239      -0.00005965      -0.00008279
Br       0.26445379       0.37309767      14.06601351       0.00216538      -0.00104670      -0.00021572
Cl       0.38613850       0.18881998      21.06567691       0.00140279       0.00104952       0.00041626
Br       0.41358410       0.34510225      28.26683729       0.00025043      -0.00037050       0.00026662
