62
Lattice="6.1152031464157055 0.0 3.5306158288823677 2.038401048805235 5.765474464869933 3.5306158288823677 0.0 0.0 35.306158288823674" Properties=species:S:1:pos:R:3:forces:R:3 energy=-17734.81916458304 free_energy=-17734.81916458304 stress="0.0013074564440440192 0.0003213551653198081 0.0015516863696870735 0.0003213551653198081 0.0009475386588858341 0.0014295714068655462 0.0015516863696870735 0.0014295714068655462 0.00011568785951513091" pbc="T T T"
Li       1.62128511       4.32291494       4.80706718      -0.00085669       0.00103256       0.00134906
Li       4.42354749       3.08816220      10.30202029      -0.00015478      -0.00084975       0.00145962
Li       1.49008596       4.02413787      30.25188530      -0.00082969       0.00186816       0.00048054
Li       1.59082383       4.41650343      37.21720451      -0.00067029       0.00089732      -0.00130175
Li       2.61752824       0.77800824      29.29241825      -0.00169359       0.00137811       0.00203940
Li       2.24393373       0.72566381      36.43617137       0.00057618       0.00156092      -0.00020620
Li       6.49705047       1.02784567      14.88945056       0.00013627      -0.00065460       0.00017329
Li       3.27192441       4.16678691      17.28943088       0.00128864       0.00009899       0.00076799
Li       3.68412020       0.46493881      24.84452437      -0.00076310       0.00071374       0.00227157
Li       0.37226460       0.89695119       4.56657679       0.00046228       0.00184322       0.00098653
Li       1.63771447       4.17038883      11.71634732       0.00162828       0.00014912      -0.00107652
Li       4.43331439       5.66950248      24.38059687       0.00164679       0.00163908      -0.00074022
Li       0.98988422       2.69525608      33.25584175       0.00051756      -0.00118014      -0.00033759
Li       7.22127645       3.11429908      12.19252896      -0.00006608      -0.00017149      -0.00090991
Li       6.50948407       2.38059982      22.73885165       0.00347510      -0.00269477       0.00196252
Li       4.51082023       1.85513754       4.53368737       0.00011801       0.00022009       0.00043143
Li       1.53225891       4.09825970      23.23547074      -0.00004422       0.00008870      -0.00017226
Li       0.16070981       0.36625531      16.43136645       0.00331081      -0.00485321       0.00013833
Li       0.29667199       0.69636456      23.39876717      -0.00285341      -0.00213299      -0.00118656
Li       6.28485791       0.73204021      34.22448215       0.00132592      -0.00038721      -0.00083947
Li       3.60437772       0.90344365      11.90678720       0.00144959       0.00145730       0.00014141
Li       1.02952072       2.55069272      26.46842818       0.00000309      -0.00127012      -0.00027819
Li       3.73941323       0.33617936      16.94762555      -0.00081941      -0.00370136      -0.00076156
Li       4.25893267       2.87010314      31.43073909      -0.00138994      -0.00035584       0.00407006
Li       3.39765955       0.48344785      32.60028703      -0.00280379      -0.00146681      -0.00238727
Li       2.57440046       0.83073356       8.59884523      -0.00004628      -0.00014167      -0.00029619
Li       6.97634073       2.74036278      18.56594817       0.00060909       0.00076002      -0.00091274
P        4.34755396       3.72670591       7.03228254      -0.00187896       0.00014218       0.00370342
P        4.24155799       3.61048124      14.07542853      -0.00153495      -0.00043632       0.00238881
P        4.13229757       3.43375012      20.85855666      -0.00000077      -0.00032782       0.00021186
P        4.19425373       3.51380644      27.81567214      -0.00522988      -0.00126704       0.00210573
P        4.10901279       3.41923084      34.93192040      -0.00322134      -0.00026945       0.00159074
S        4.32722041       1.65601449       7.06105950       0.00169307       0.00109426      -0.00065435
S        4.17396349       1.56809038      14.18387559      -0.00223763      -0.00001234       0.00014038
S        4.41071339       1.41943710      21.15577472      -0.00110403       0.00014810      -0.00030545
S        4.13418886       1.47806616      27.49634867       0.00507613       0.00120790       0.00203837
S        4.02129145       1.35056775      34.84851278       0.00043503       0.00295265      -0.00016532
S        2.38820900       4.42629579       7.06708784       0.00007071       0.00017586      -0.00191933
S        2.32634429       4.40814988      14.10445671       0.00120353      -0.00090477       0.00372733
S        2.11661370       3.87413091      20.84516520       0.00132952      -0.00036792       0.00385820
S        2.23955781       4.19402383      27.86933529      -0.00210548       0.00626835      -0.00062683
S        2.15426849       4.11595630      34.88864439       0.00040212       0.00205483       0.00112871
S        5.18680612       4.24604415       5.21929612       0.00241041      -0.00027357      -0.00167919
S        5.15867401       4.28231857      12.34542443      -0.00089577       0.00188925      -0.00475166
S        4.95732541       4.12576161      19.09061916       0.00461153      -0.00075308      -0.00241349
S        5.25504074       4.53250653      26.37747774       0.00120585       0.00273334       0.00263487
S        5.14695825       4.14918405      33.29514280       0.00146013       0.00099733      -0.00317403
S        5.32567557       4.55400492       8.62423699       0.00162982       0.00081401      -0.00219135
S        5.25161511       4.29925000      15.73580954      -0.00151798      -0.00182548      -0.00081324
S        5.17333041       4.44092862      22.33972790      -0.00495580      -0.00359389      -0.00182805
S        5.16430365       4.05702572      29.56516187       0.00355506      -0.00436548      -0.00316631
S        4.99359093       3.96771485      36.68815629      -0.00117885       0.00024708       0.00024297
Br       2.17747944       2.26078688       3.35515119      -0.00011030      -0.00026225       0.00048054
S        2.24260906       2.21728020      10.50403648      -0.00064689       0.00113720      -0.00152749
Cl       1.90098772       2.03472634      17.18267404       0.00082430      -0.00315834       0.00196869
Cl       1.95603533       2.06683221      24.36366761      -0.00201677      -0.00013113      -0.00139174
S        2.09764602       1.96115767      31.29996377       0.00252277       0.00025145      -0.00063378
Cl       6.23697686       0.50120365      38.76541972      -0.00097188       0.00140099      -0.00056924
Br       6.20516219       0.93970570      10.72402960       0.00028796      -0.00079447      -0.00038644
Cl       6.19283662       0.62586008      17.50874299      -0.00058415      -0.00072865      -0.00167893
Cl       6.23421316       0.49452916      24.39113862      -0.00234485       0.00085412       0.00067209
Br       6.06249023       0.66358697      31.54248863       0.00026200       0.00125573      -0.00188153
