
     Program PWSCF v.7.4.1 starts on 28Sep2026 at 13:12:34 

     This program is part of the open-source Quantum ESPRESSO suite
     for quantum simulation of materials; please cite
         "P. Giannozzi et al., J. Phys.:Condens. Matter 21 395502 (2009);
         "P. Giannozzi et al., J. Phys.:Condens. Matter 29 465901 (2017);
         "P. Giannozzi et al., J. Chem. Phys. 152 154105 (2020);
          URL http://www.quantum-espresso.org", 
     in publications or presentations arising from this work. More details at
     http://www.quantum-espresso.org/quote

     Parallel version (MPI & OpenMP), running on       1 processor cores
     Number of MPI processes:                 1
     Threads/MPI process:                     1

     MPI processes distributed on     1 nodes
     23614 MiB available memory on the printing compute node when the environment starts
 
     Reading input from pw.in

     Current dimensions of program PWSCF are:
     Max number of different atomic species (ntypx) = 10
     Max number of k-points (npk) =  40000
     Max angular momentum in pseudopotentials (lmaxx) =  4
     Presently no symmetry can be used with electric field

     file C.pbe-n-kjpaw_psl.1.0.0.UPF: wavefunction(s)  2S 2P renormalized
 
     Subspace diagonalization in iterative solution of the eigenvalue problem:
     a serial algorithm will be used

 
     G-vector sticks info
     --------------------
     sticks:   dense  smooth     PW     G-vecs:    dense   smooth      PW
     Sum       14929    5981   1565              5038009  1275059  170007
 
     Using Slab Decomposition
 


     bravais-lattice index     =            0
     lattice parameter (alat)  =      19.0014  a.u.
     unit-cell volume          =   25161.5541 (a.u.)^3
     number of atoms/cell      =          122
     number of atomic types    =            6
     number of electrons       =       534.00
     number of Kohn-Sham states=          320
     kinetic-energy cutoff     =      52.0000  Ry
     charge density cutoff     =     520.0000  Ry
     scf convergence threshold =      1.0E-08
     mixing beta               =       0.3000
     number of iterations used =            8  local-TF  mixing
     Exchange-correlation= PBE
                           (   1   4   3   4   0   0   0)

     GPU acceleration is ACTIVE.  1 visible GPUs per MPI rank


     celldm(1)=  19.001377  celldm(2)=   0.000000  celldm(3)=   0.000000
     celldm(4)=   0.000000  celldm(5)=   0.000000  celldm(6)=   0.000000

     crystal axes: (cart. coord. in units of alat)
               a(1) = (   1.000000   0.000000   0.000000 )  
               a(2) = (   0.000000   1.000000   0.000000 )  
               a(3) = (   0.000000   0.000000   3.667602 )  

     reciprocal axes: (cart. coord. in units 2 pi/alat)
               b(1) = (  1.000000  0.000000  0.000000 )  
               b(2) = (  0.000000  1.000000  0.000000 )  
               b(3) = (  0.000000  0.000000  0.272658 )  


     PseudoPot. # 1 for Li read from file:
     /data/work/pseudo/li_pbe_v1.4.uspp.F.UPF
     MD5 check sum: e912e257baa3777c20ea3d68f190483c
     Pseudo is Ultrasoft, Zval =  3.0
     Generated by new atomic code, or converted to UPF format
     Using radial grid of  751 points,  5 beta functions with: 
                l(1) =   0
                l(2) =   0
                l(3) =   0
                l(4) =   1
                l(5) =   1
     Q(r) pseudized with 10 coefficients,  rinner =    1.150   1.150   1.150


     PseudoPot. # 2 for P  read from file:
     /data/work/pseudo/P.pbe-n-rrkjus_psl.1.0.0.UPF
     MD5 check sum: 8b930f418f0a4573dca56cd030ffe088
     Pseudo is Ultrasoft + core correction, Zval =  5.0
     Generated using "atomic" code by A. Dal Corso  v.5.1
     Using radial grid of 1147 points,  6 beta functions with: 
                l(1) =   0
                l(2) =   0
                l(3) =   1
                l(4) =   1
                l(5) =   2
                l(6) =   2
     Q(r) pseudized with 0 coefficients 


     PseudoPot. # 3 for S  read from file:
     /data/work/pseudo/s_pbe_v1.4.uspp.F.UPF
     MD5 check sum: 88d86576ff6df21479756cfb9bdac1df
     Pseudo is Ultrasoft + core correction, Zval =  6.0
     Generated by new atomic code, or converted to UPF format
     Using radial grid of  907 points,  6 beta functions with: 
                l(1) =   0
                l(2) =   0
                l(3) =   1
                l(4) =   1
                l(5) =   2
                l(6) =   2
     Q(r) pseudized with  8 coefficients,  rinner =    1.300   1.300   1.300
                                                       1.300   1.300

     PseudoPot. # 4 for Cl read from file:
     /data/work/pseudo/cl_pbe_v1.4.uspp.F.UPF
     MD5 check sum: fc6f6913ecf08c9257cb748ef0700058
     Pseudo is Ultrasoft + core correction, Zval =  7.0
     Generated by new atomic code, or converted to UPF format
     Using radial grid of  909 points,  6 beta functions with: 
                l(1) =   0
                l(2) =   0
                l(3) =   1
                l(4) =   1
                l(5) =   2
                l(6) =   2
     Q(r) pseudized with  8 coefficients,  rinner =    1.300   1.300   1.300
                                                       1.300   1.300

     PseudoPot. # 5 for C  read from file:
     /data/work/pseudo/C.pbe-n-kjpaw_psl.1.0.0.UPF
     MD5 check sum: 5d2aebdfa2cae82b50a7e79e9516da0f
     Pseudo is Projector augmented-wave + core cor, Zval =  4.0
     Generated using "atomic" code by A. Dal Corso  v.5.1
     Shape of augmentation charge: PSQ
     Using radial grid of 1073 points,  4 beta functions with: 
                l(1) =   0
                l(2) =   0
                l(3) =   1
                l(4) =   1
     Q(r) pseudized with 0 coefficients 


     PseudoPot. # 6 for H  read from file:
     /data/work/pseudo/H.pbe-rrkjus_psl.1.0.0.UPF
     MD5 check sum: f52b6d4d1c606e5624b1dc7b2218f220
     Pseudo is Ultrasoft, Zval =  1.0
     Generated using "atomic" code by A. Dal Corso  v.5.1
     Using radial grid of  929 points,  2 beta functions with: 
                l(1) =   0
                l(2) =   0
     Q(r) pseudized with 0 coefficients 


     atomic species   valence    mass     pseudopotential
     Li                3.00     6.94100     Li( 1.00)
     P                 5.00    30.97400     P ( 1.00)
     S                 6.00    32.06000     S ( 1.00)
     Cl                7.00    35.45000     Cl( 1.00)
     C                 4.00    12.01100     C ( 1.00)
     H                 1.00     1.00800     H ( 1.00)

     No symmetry found



   Cartesian axes

     site n.     atom                  positions (alat units)
         1        P      tau(   1) = (   0.4635951   0.2323208   0.3088022  )
         2        P      tau(   2) = (  -0.0364106   0.7323232   0.3087915  )
         3        P      tau(   3) = (  -0.0152969   0.2331989   0.8047253  )
         4        P      tau(   4) = (   0.4846858   0.7332066   0.8047367  )
         5        S      tau(   5) = (   0.5848196   0.3468585   0.4258648  )
         6        S      tau(   6) = (   0.0848260   0.8468661   0.4258400  )
         7        S      tau(   7) = (   0.3339271   0.1168528   0.4177871  )
         8        S      tau(   8) = (   0.8339235   0.6168523   0.4177768  )
         9        S      tau(   9) = (   0.3627067   0.3546216   0.1789552  )
        10        S      tau(  10) = (   0.8627022   0.8546143   0.1789324  )
        11        S      tau(  11) = (   0.8620647   0.3503453   0.6869700  )
        12        S      tau(  12) = (   0.3620770   0.8503340   0.6869255  )
        13        S      tau(  13) = (   0.5688551   0.0973581   0.1889391  )
        14        S      tau(  14) = (   0.0688410   0.5973543   0.1889356  )
        15        S      tau(  15) = (   0.0895394   0.1031979   0.6851450  )
        16        S      tau(  16) = (   0.5895306   0.6031720   0.6851998  )
        17        Li     tau(  17) = (   0.3529737   0.1494441   0.0497375  )
        18        Li     tau(  18) = (   0.8529705   0.6494352   0.0497260  )
        19        Li     tau(  19) = (   0.7772028   0.2085136   0.5136441  )
        20        Li     tau(  20) = (   0.2771805   0.7085167   0.5136433  )
        21        Li     tau(  21) = (   0.2584211   0.5140343   0.3277597  )
        22        Li     tau(  22) = (   0.7584259   0.0140296   0.3277544  )
        23        Li     tau(  23) = (   0.6776495   1.0395111   0.7886453  )
        24        Li     tau(  24) = (   0.1775702   0.5395829   0.7886710  )
        25        Li     tau(  25) = (   0.3714957   0.9305884   0.2404712  )
        26        Li     tau(  26) = (   0.8714979   0.4305877   0.2404683  )
        27        Li     tau(  27) = (   0.4321433   0.4077248   0.6177265  )
        28        Li     tau(  28) = (   0.9321808   0.9077194   0.6177092  )
        29        Li     tau(  29) = (   0.6943539   0.2557918   0.0674048  )
        30        Li     tau(  30) = (   0.1943548   0.7558117   0.0674058  )
        31        Li     tau(  31) = (   0.0680017   0.0145682   0.2212104  )
        32        Li     tau(  32) = (   0.5680060   0.5145706   0.2212245  )
        33        Li     tau(  33) = (   0.4880322   0.0377006   0.5830036  )
        34        Li     tau(  34) = (  -0.0119870   0.5377430   0.5830335  )
        35        Li     tau(  35) = (   0.1439118   0.2601148   0.5027596  )
        36        Li     tau(  36) = (   0.6439028   0.7601001   0.5027820  )
        37        Cl     tau(  37) = (   0.9608592   0.7175740   0.7957810  )
        38        Cl     tau(  38) = (   0.4367340   0.7072180   0.3249158  )
        39        Cl     tau(  39) = (   0.9367358   0.2072229   0.3249118  )
        40        S      tau(  40) = (   0.2279615   0.9692079   0.0613823  )
        41        S      tau(  41) = (   0.7279589   0.4692179   0.0613837  )
        42        S      tau(  42) = (   0.7134713   0.9841488   0.5574398  )
        43        S      tau(  43) = (   0.2134529   0.4841597   0.5574431  )
        44        P      tau(  44) = (   0.4841755   0.2682925   1.2826612  )
        45        P      tau(  45) = (  -0.0153635   0.7680638   1.2827454  )
        46        P      tau(  46) = (  -0.0369321   0.2686269   1.7610744  )
        47        P      tau(  47) = (   0.4638001   0.7678125   1.7625677  )
        48        S      tau(  48) = (   0.5874596   0.3976960   1.4022252  )
        49        S      tau(  49) = (   0.0875457   0.8974522   1.4026659  )
        50        S      tau(  50) = (   0.0955060   0.3532222   0.9241804  )
        51        S      tau(  51) = (   0.5954895   0.8532593   0.9241698  )
        52        S      tau(  52) = (   0.3631472   0.1500425   1.3993556  )
        53        S      tau(  53) = (   0.8638765   0.6495275   1.3992513  )
        54        S      tau(  54) = (   0.8660882   0.1140262   0.9272192  )
        55        S      tau(  55) = (   0.3660496   0.6140808   0.9272431  )
        56        S      tau(  56) = (   0.3655452   0.3881784   1.1628520  )
        57        S      tau(  57) = (   0.8662614   0.8880562   1.1627401  )
        58        S      tau(  58) = (   0.8306161   0.3827537   1.6560785  )
        59        S      tau(  59) = (   0.3334070   0.8761085   1.6493821  )
        60        S      tau(  60) = (   0.5941574   0.1510428   1.1611892  )
        61        S      tau(  61) = (   0.0952699   0.6510757   1.1616274  )
        62        S      tau(  62) = (   0.0830779   0.1583580   1.6400182  )
        63        S      tau(  63) = (   0.5872275   0.6533451   1.6488401  )
        64        Li     tau(  64) = (   0.2737131   0.2207580   1.0223760  )
        65        Li     tau(  65) = (   0.7734609   0.7208088   1.0226320  )
        66        Li     tau(  66) = (   0.9270843   0.0941771   1.4586513  )
        67        Li     tau(  67) = (   0.4293912   0.5956256   1.4646993  )
        68        Li     tau(  68) = (   0.7849508   0.5316958   0.8267402  )
        69        Li     tau(  69) = (   0.2848661   0.0315984   0.8267048  )
        70        Li     tau(  70) = (   0.1769335   0.4648568   1.2944038  )
        71        Li     tau(  71) = (   0.6755590  -0.0369204   1.2923000  )
        72        Li     tau(  72) = (   0.7555733   0.9880082   1.7469075  )
        73        Li     tau(  73) = (   0.2593585   0.4877238   1.7493539  )
        74        Li     tau(  74) = (   0.2805791   0.9697182   1.2656273  )
        75        Li     tau(  75) = (   0.7810228   0.4694813   1.2655258  )
        76        Li     tau(  76) = (   0.2768877   0.2952569   1.5649781  )
        77        Li     tau(  77) = (   0.7743131   0.7937654   1.5641670  )
        78        Li     tau(  78) = (   0.7801958   0.2820247   1.0754431  )
        79        Li     tau(  79) = (   0.2801197   0.7822927   1.0743435  )
        80        Li     tau(  80) = (   0.0144713   0.0981506   1.1380944  )
        81        Li     tau(  81) = (   0.5145391   0.5969052   1.1398849  )
        82        Li     tau(  82) = (   0.6377138   0.2385342   1.5818278  )
        83        Li     tau(  83) = (   0.1359908   0.7365411   1.5816938  )
        84        Li     tau(  84) = (  -0.0114180   0.4588885   1.4961938  )
        85        Li     tau(  85) = (   0.4887832   0.9586240   1.4917717  )
        86        Li     tau(  86) = (   0.5138247   0.4040191   0.9514841  )
        87        Li     tau(  87) = (   0.0138855   0.9038210   0.9516380  )
        88        Cl     tau(  88) = (   0.9368527   0.7905388   1.7451087  )
        89        Cl     tau(  89) = (   0.4607402   0.2176445   0.7959013  )
        90        Cl     tau(  90) = (   0.4597107   0.7851524   1.2889518  )
        91        Cl     tau(  91) = (   0.9567996   0.2842796   1.2875870  )
        92        S      tau(  92) = (   0.2094277   1.0008611   1.0457570  )
        93        S      tau(  93) = (   0.7093636   0.5008054   1.0457678  )
        94        S      tau(  94) = (   0.7114929   1.0173214   1.5205179  )
        95        S      tau(  95) = (   0.2123017   0.5174120   1.5225033  )
        96        S      tau(  96) = (   0.0684592   0.4027043   1.8802950  )
        97        S      tau(  97) = (   0.5669239   0.9058841   1.8790936  )
        98        S      tau(  98) = (   0.8656116   0.1442044   1.8905206  )
        99        S      tau(  99) = (   0.3660007   0.6462040   1.8945211  )
       100        Li     tau( 100) = (   0.1855490   0.2368840   1.9976015  )
       101        Li     tau( 101) = (   0.6865380   0.7412380   1.9946052  )
       102        Li     tau( 102) = (   0.8708989   0.5686699   1.8293013  )
       103        Li     tau( 103) = (   0.3689872   0.0684910   1.8146787  )
       104        Li     tau( 104) = (   0.8511968   0.3492666   2.0152851  )
       105        Li     tau( 105) = (   0.3503033   0.8534480   2.0185157  )
       106        Li     tau( 106) = (   0.5693143   0.4840363   1.8486802  )
       107        Li     tau( 107) = (   0.0653148   0.9825822   1.8293880  )
       108        Cl     tau( 108) = (   0.4401201   0.2935044   1.7459105  )
       109        S      tau( 109) = (   0.2228733   1.0264506   1.9841609  )
       110        S      tau( 110) = (   0.7281363   0.5301468   2.0085688  )
       111        C      tau( 111) = (   0.2303667   1.1699286   2.3411346  )
       112        C      tau( 112) = (   0.3518203   1.1013758   2.3409521  )
       113        C      tau( 113) = (   0.3526859   0.9618440   2.3406267  )
       114        C      tau( 114) = (   0.2322371   0.8912952   2.3394898  )
       115        C      tau( 115) = (   0.1108990   0.9600114   2.3384366  )
       116        C      tau( 116) = (   0.1099563   1.0993206   2.3396634  )
       117        H      tau( 117) = (   0.2295354   1.2786526   2.3438190  )
       118        H      tau( 118) = (   0.4454655   1.1566750   2.3407281  )
       119        H      tau( 119) = (   0.4472905   0.9081399   2.3424491  )
       120        H      tau( 120) = (   0.2327710   0.7825387   2.3400692  )
       121        H      tau( 121) = (   0.0172549   0.9048446   2.3356913  )
       122        H      tau( 122) = (   0.0153046   1.1528460   2.3392941  )

     --------------------------------------------
     DFT-D3 Dispersion Correction (no 3-body):
     --------------------------------------------
       Reference C6 values for interpolation: 

         atom   Coordination number   C6
         H          0.912             6.05
         H          0.000            15.18
         Li         0.000          2326.89
         Li         0.987           170.64
         C          0.000            98.23
         C          0.987            86.49
         C          1.998            58.72
         C          2.999            51.56
         C          3.984            36.41
         P          0.000           383.38
         P          0.995           361.25
         P          2.010           351.11
         P          2.986           303.38
         S          0.000           268.01
         S          0.995           261.99
         S          1.990           251.62
         Cl         0.000           184.69
         Cl         0.997           180.80

       Values used:

         atom   Coordination number  R0_AB[au]  C6      C8
         P          6.107            3.309    303.38  16807.02
         P          6.107            3.309    303.38  16807.02
         P          5.029            3.309    303.38  16807.02
         P          5.028            3.309    303.38  16807.02
         S          4.126            3.128    251.62  12327.25
         S          4.126            3.128    251.62  12327.25
         S          4.208            3.128    251.62  12327.25
         S          4.208            3.128    251.62  12327.25
         S          4.063            3.128    251.62  12327.25
         S          4.063            3.128    251.62  12327.25
         S          4.267            3.128    251.62  12327.25
         S          4.268            3.128    251.62  12327.25
         S          4.897            3.128    251.62  12327.25
         S          4.897            3.128    251.62  12327.25
         S          4.182            3.128    251.62  12327.25
         S          4.182            3.128    251.62  12327.25
         Li         4.687            3.303    170.64  12899.87
         Li         4.687            3.303    170.64  12899.87
         Li         6.016            3.303    170.64  12899.87
         Li         6.016            3.303    170.64  12899.87
         Li         6.165            3.303    170.64  12899.87
         Li         6.165            3.303    170.64  12899.87
         Li         5.540            3.303    170.64  12899.87
         Li         5.544            3.303    170.64  12899.87
         Li         6.409            3.303    170.64  12899.87
         Li         6.408            3.303    170.64  12899.87
         Li         5.206            3.303    170.64  12899.87
         Li         5.206            3.303    170.64  12899.87
         Li         3.709            3.303    170.64  12899.87
         Li         3.709            3.303    170.64  12899.87
         Li         5.711            3.303    170.64  12899.87
         Li         5.711            3.303    170.64  12899.87
         Li         6.254            3.303    170.64  12899.87
         Li         6.257            3.303    170.64  12899.87
         Li         5.154            3.303    170.64  12899.87
         Li         5.154            3.303    170.64  12899.87
         Cl         4.497            2.933    180.80   7543.49
         Cl         4.431            2.933    180.80   7543.49
         Cl         4.431            2.933    180.80   7543.49
         S          4.020            3.128    251.62  12327.25
         S          4.020            3.128    251.62  12327.25
         S          5.965            3.128    251.62  12327.25
         S          5.965            3.128    251.62  12327.25
         P          5.134            3.309    303.38  16807.02
         P          5.134            3.309    303.38  16807.02
         P          6.377            3.309    303.38  16807.02
         P          6.337            3.309    303.38  16807.02
         S          4.250            3.128    251.62  12327.25
         S          4.248            3.128    251.62  12327.25
         S          3.404            3.128    251.62  12327.25
         S          3.400            3.128    251.62  12327.25
         S          4.329            3.128    251.62  12327.25
         S          4.334            3.128    251.62  12327.25
         S          5.086            3.128    251.62  12327.25
         S          5.078            3.128    251.62  12327.25
         S          5.122            3.128    251.62  12327.25
         S          5.127            3.128    251.62  12327.25
         S          4.299            3.128    251.62  12327.25
         S          4.326            3.128    251.62  12327.25
         S          3.433            3.128    251.62  12327.25
         S          3.429            3.128    251.62  12327.25
         S          4.270            3.128    251.62  12327.25
         S          4.232            3.128    251.62  12327.25
         Li         6.291            3.303    170.64  12899.87
         Li         6.274            3.303    170.64  12899.87
         Li         5.498            3.303    170.64  12899.87
         Li         5.474            3.303    170.64  12899.87
         Li         6.230            3.303    170.64  12899.87
         Li         6.237            3.303    170.64  12899.87
         Li         5.622            3.303    170.64  12899.87
         Li         5.723            3.303    170.64  12899.87
         Li         6.359            3.303    170.64  12899.87
         Li         6.291            3.303    170.64  12899.87
         Li         6.456            3.303    170.64  12899.87
         Li         6.441            3.303    170.64  12899.87
         Li         6.278            3.303    170.64  12899.87
         Li         6.215            3.303    170.64  12899.87
         Li         6.446            3.303    170.64  12899.87
         Li         6.395            3.303    170.64  12899.87
         Li         7.295            3.303    170.64  12899.87
         Li         7.239            3.303    170.64  12899.87
         Li         5.512            3.303    170.64  12899.87
         Li         5.586            3.303    170.64  12899.87
         Li         6.657            3.303    170.64  12899.87
         Li         6.720            3.303    170.64  12899.87
         Li         6.974            3.303    170.64  12899.87
         Li         6.983            3.303    170.64  12899.87
         Cl         4.625            2.933    180.80   7543.49
         Cl         4.498            2.933    180.80   7543.49
         Cl         4.878            2.933    180.80   7543.49
         Cl         4.832            2.933    180.80   7543.49
         S          6.025            3.128    251.62  12327.25
         S          6.024            3.128    251.62  12327.25
         S          5.994            3.128    251.62  12327.25
         S          5.997            3.128    251.62  12327.25
         S          4.933            3.128    251.62  12327.25
         S          4.918            3.128    251.62  12327.25
         S          4.111            3.128    251.62  12327.25
         S          4.105            3.128    251.62  12327.25
         Li         3.777            3.303    170.64  12899.87
         Li         4.013            3.303    170.64  12899.87
         Li         6.575            3.303    170.64  12899.87
         Li         6.512            3.303    170.64  12899.87
         Li         4.843            3.303    170.64  12899.87
         Li         4.676            3.303    170.64  12899.87
         Li         5.960            3.303    170.64  12899.87
         Li         5.993            3.303    170.64  12899.87
         Cl         4.621            2.933    180.80   7543.49
         S          4.062            3.128    251.62  12327.25
         S          4.025            3.128    251.62  12327.25
         C          3.141            2.750     50.60   1463.54
         C          3.130            2.750     50.68   1465.88
         C          3.148            2.750     50.55   1462.03
         C          3.146            2.750     50.57   1462.56
         C          3.130            2.750     50.69   1466.02
         C          3.134            2.750     50.66   1465.11
         H          1.004            2.062      6.18     74.68
         H          1.003            2.062      6.18     74.69
         H          1.004            2.062      6.18     74.68
         H          1.004            2.062      6.18     74.68
         H          1.003            2.062      6.18     74.69
         H          1.003            2.062      6.18     74.68

         Molecular C6 ( Ry / a.u.^6 ) =   2608434.16


     number of k points=     5  Gaussian smearing, width (Ry)=  0.0025
                       cart. coord. in units 2pi/alat
        k(    1) = (   0.0000000   0.0000000   0.0000000), wk =   0.2222222
        k(    2) = (   0.0000000   0.3333333   0.0000000), wk =   0.4444444
        k(    3) = (   0.3333333   0.0000000   0.0000000), wk =   0.4444444
        k(    4) = (   0.3333333   0.3333333   0.0000000), wk =   0.4444444
        k(    5) = (   0.3333333  -0.3333333   0.0000000), wk =   0.4444444

     Dense  grid:  5038009 G-vectors     FFT dimensions: ( 144, 144, 512)

     Smooth grid:  1275059 G-vectors     FFT dimensions: (  90,  90, 320)

     Estimated max dynamical RAM per process >      33.55 GB

     Initial potential from superposition of free atoms

     starting charge     510.5582, renormalised to     534.0000

     negative rho (up, down):  1.271E-01 0.000E+00
 
     Adding external electric field

     Computed dipole along edir(3) : 
        Dipole              -34.0575 Ry au,        -86.5655 Debye
        Dipole field         -0.0170 Ry au, 
 
        Potential amp.        2.3064 Ry
        Total length         67.7995 bohr
 
     Starting wfcs are  522 randomized atomic wfcs
     Checking if some PAW data can be deallocated... 

     total cpu time spent up to now is       70.2 secs

     Self-consistent Calculation

     iteration #  1     ecut=    52.00 Ry     beta= 0.30
     Davidson diagonalization with overlap
     ethr =  1.00E-02,  avg # of iterations = 12.4

     negative rho (up, down):  6.507E-01 0.000E+00
 
     Adding external electric field

     Computed dipole along edir(3) : 
        Dipole               12.8303 Ry au,         32.6114 Debye
        Dipole field          0.0064 Ry au, 
 
        Potential amp.       -0.8689 Ry
        Total length         67.7995 bohr
 

     total cpu time spent up to now is      230.6 secs

     total energy              =   -2109.49012131 Ry
     estimated scf accuracy    <   16305.70464401 Ry

     iteration #  2     ecut=    52.00 Ry     beta= 0.30
     Davidson diagonalization with overlap
     ethr =  1.00E-02,  avg # of iterations = 15.8

     negative rho (up, down):  5.298E-01 0.000E+00
 
     Adding external electric field

     Computed dipole along edir(3) : 
        Dipole                7.9282 Ry au,         20.1515 Debye
        Dipole field          0.0040 Ry au, 
 
        Potential amp.       -0.5369 Ry
        Total length         67.7995 bohr
 

     total cpu time spent up to now is      481.1 secs

     total energy              =   -2272.07028202 Ry
     estimated scf accuracy    <     134.13555797 Ry

     iteration #  3     ecut=    52.00 Ry     beta= 0.30
     Davidson diagonalization with overlap
     ethr =  1.00E-02,  avg # of iterations =  1.4

     negative rho (up, down):  3.953E-01 0.000E+00
 
     Adding external electric field

     Computed dipole along edir(3) : 
        Dipole                3.0391 Ry au,          7.7247 Debye
        Dipole field          0.0015 Ry au, 
 
        Potential amp.       -0.2058 Ry
        Total length         67.7995 bohr
 

     total cpu time spent up to now is      561.3 secs

     total energy              =   -2273.10934699 Ry
     estimated scf accuracy    <      14.43717740 Ry

     iteration #  4     ecut=    52.00 Ry     beta= 0.30
     Davidson diagonalization with overlap
     ethr =  2.70E-03,  avg # of iterations =  2.4

     negative rho (up, down):  1.686E-01 0.000E+00
 
     Adding external electric field

     Computed dipole along edir(3) : 
        Dipole               -9.2292 Ry au,        -23.4582 Debye
        Dipole field         -0.0046 Ry au, 
 
        Potential amp.        0.6250 Ry
        Total length         67.7995 bohr
 

     total cpu time spent up to now is      646.5 secs

     total energy              =   -2272.35246740 Ry
     estimated scf accuracy    <      13.89418678 Ry

     iteration #  5     ecut=    52.00 Ry     beta= 0.30
     Davidson diagonalization with overlap
     ethr =  2.60E-03,  avg # of iterations =  9.8

     negative rho (up, down):  1.784E-01 0.000E+00
 
     Adding external electric field

     Computed dipole along edir(3) : 
        Dipole               -8.8082 Ry au,        -22.3882 Debye
        Dipole field         -0.0044 Ry au, 
 
        Potential amp.        0.5965 Ry
        Total length         67.7995 bohr
 

     total cpu time spent up to now is      747.2 secs

     total energy              =   -2275.97885394 Ry
     estimated scf accuracy    <     385.06662554 Ry

     iteration #  6     ecut=    52.00 Ry     beta= 0.30
     Davidson diagonalization with overlap
     ethr =  2.60E-03,  avg # of iterations =  2.4

     negative rho (up, down):  2.959E-01 0.000E+00
 
     Adding external electric field

     Computed dipole along edir(3) : 
        Dipole               -5.5486 Ry au,        -14.1032 Debye
        Dipole field         -0.0028 Ry au, 
 
        Potential amp.        0.3758 Ry
        Total length         67.7995 bohr
 

     total cpu time spent up to now is      832.4 secs

     total energy              =   -2279.70617375 Ry
     estimated scf accuracy    <     388.99790436 Ry

     iteration #  7     ecut=    52.00 Ry     beta= 0.30
     Davidson diagonalization with overlap
     ethr =  2.60E-03,  avg # of iterations =  2.0

     negative rho (up, down):  1.838E-01 0.000E+00
 
     Adding external electric field

     Computed dipole along edir(3) : 
        Dipole               -7.3944 Ry au,        -18.7946 Debye
        Dipole field         -0.0037 Ry au, 
 
        Potential amp.        0.5008 Ry
        Total length         67.7995 bohr
 

     total cpu time spent up to now is      917.2 secs

     total energy              =   -2274.51510388 Ry
     estimated scf accuracy    <     542.54976383 Ry

     iteration #  8     ecut=    52.00 Ry     beta= 0.30
     Davidson diagonalization with overlap
     ethr =  2.60E-03,  avg # of iterations =  2.0

     negative rho (up, down):  1.873E-01 0.000E+00
 
     Adding external electric field

     Computed dipole along edir(3) : 
        Dipole               -6.6439 Ry au,        -16.8872 Debye
        Dipole field         -0.0033 Ry au, 
 
        Potential amp.        0.4499 Ry
        Total length         67.7995 bohr
 

     total cpu time spent up to now is     1002.0 secs

     total energy              =   -2274.47482390 Ry
     estimated scf accuracy    <     376.86855736 Ry

     iteration #  9     ecut=    52.00 Ry     beta= 0.30
     Davidson diagonalization with overlap
     ethr =  2.60E-03,  avg # of iterations =  1.0

     negative rho (up, down):  2.131E-01 0.000E+00
 
     Adding external electric field

     Computed dipole along edir(3) : 
        Dipole               -7.0894 Ry au,        -18.0195 Debye
        Dipole field         -0.0035 Ry au, 
 
        Potential amp.        0.4801 Ry
        Total length         67.7995 bohr
 

     total cpu time spent up to now is     1079.4 secs

     total energy              =   -2276.93362862 Ry
     estimated scf accuracy    <     341.45777191 Ry

     iteration # 10     ecut=    52.00 Ry     beta= 0.30
     Davidson diagonalization with overlap
     ethr =  2.60E-03,  avg # of iterations =  1.0

     negative rho (up, down):  2.807E-01 0.000E+00
 
     Adding external electric field

     Computed dipole along edir(3) : 
        Dipole               -8.3375 Ry au,        -21.1919 Debye
        Dipole field         -0.0042 Ry au, 
 
        Potential amp.        0.5646 Ry
        Total length         67.7995 bohr
 

     total cpu time spent up to now is     1156.7 secs

     total energy              =   -2282.48937290 Ry
     estimated scf accuracy    <     384.14032373 Ry

     iteration # 11     ecut=    52.00 Ry     beta= 0.30
     Davidson diagonalization with overlap
     ethr =  2.60E-03,  avg # of iterations =  7.0

     negative rho (up, down):  2.356E-01 0.000E+00
 
     Adding external electric field

     Computed dipole along edir(3) : 
        Dipole               -8.8470 Ry au,        -22.4868 Debye
        Dipole field         -0.0044 Ry au, 
 
        Potential amp.        0.5991 Ry
        Total length         67.7995 bohr
 

     total cpu time spent up to now is     1248.8 secs

     total energy              =   -2281.29438925 Ry
     estimated scf accuracy    <    1105.07973299 Ry

     iteration # 12     ecut=    52.00 Ry     beta= 0.30
     Davidson diagonalization with overlap
     ethr =  2.60E-03,  avg # of iterations =  2.0

     negative rho (up, down):  2.396E-01 0.000E+00
 
     Adding external electric field

     Computed dipole along edir(3) : 
        Dipole               -5.3056 Ry au,        -13.4856 Debye
        Dipole field         -0.0026 Ry au, 
 
        Potential amp.        0.3593 Ry
        Total length         67.7995 bohr
 

     total cpu time spent up to now is     1331.2 secs

     total energy              =   -2271.95628162 Ry
     estimated scf accuracy    <     942.20986683 Ry

     iteration # 13     ecut=    52.00 Ry     beta= 0.30
     Davidson diagonalization with overlap
     ethr =  2.60E-03,  avg # of iterations =  2.0

     negative rho (up, down):  1.700E-01 0.000E+00
 
     Adding external electric field

     Computed dipole along edir(3) : 
        Dipole               -8.1483 Ry au,        -20.7109 Debye
        Dipole field         -0.0041 Ry au, 
 
        Potential amp.        0.5518 Ry
        Total length         67.7995 bohr
 

     total cpu time spent up to now is     1416.0 secs

     total energy              =   -2256.62814469 Ry
     estimated scf accuracy    <     242.30779280 Ry

     iteration # 14     ecut=    52.00 Ry     beta= 0.30
     Davidson diagonalization with overlap
     ethr =  2.60E-03,  avg # of iterations = 12.2

     negative rho (up, down):  2.081E-01 0.000E+00
 
     Adding external electric field

     Computed dipole along edir(3) : 
        Dipole               -9.1613 Ry au,        -23.2856 Debye
        Dipole field         -0.0046 Ry au, 
 
        Potential amp.        0.6204 Ry
        Total length         67.7995 bohr
 

     total cpu time spent up to now is     1620.3 secs

     total energy              =   -2240.55425671 Ry
     estimated scf accuracy    <     469.69918390 Ry

     iteration # 15     ecut=    52.00 Ry     beta= 0.30
     Davidson diagonalization with overlap
     ethr =  2.60E-03,  avg # of iterations =  5.8

     negative rho (up, down):  1.741E-01 0.000E+00
 
     Adding external electric field

     Computed dipole along edir(3) : 
        Dipole               -7.8608 Ry au,        -19.9802 Debye
        Dipole field         -0.0039 Ry au, 
 
        Potential amp.        0.5323 Ry
        Total length         67.7995 bohr
 

     total cpu time spent up to now is     1721.6 secs

     total energy              =   -2272.99434401 Ry
     estimated scf accuracy    <     660.24004153 Ry

     iteration # 16     ecut=    52.00 Ry     beta= 0.30
     Davidson diagonalization with overlap
     ethr =  2.60E-03,  avg # of iterations =  2.0

     negative rho (up, down):  1.514E-01 0.000E+00
 
     Adding external electric field

     Computed dipole along edir(3) : 
        Dipole               -7.4955 Ry au,        -19.0516 Debye
        Dipole field         -0.0037 Ry au, 
 
        Potential amp.        0.5076 Ry
        Total length         67.7995 bohr
 

     total cpu time spent up to now is     1807.3 secs

     total energy              =   -2274.09958307 Ry
     estimated scf accuracy    <     240.22606744 Ry

     iteration # 17     ecut=    52.00 Ry     beta= 0.30
     Davidson diagonalization with overlap
     ethr =  2.60E-03,  avg # of iterations =  2.0

     negative rho (up, down):  1.243E-01 0.000E+00
 
     Adding external electric field

     Computed dipole along edir(3) : 
        Dipole               -9.2170 Ry au,        -23.4273 Debye
        Dipole field         -0.0046 Ry au, 
 
        Potential amp.        0.6242 Ry
        Total length         67.7995 bohr
 

     total cpu time spent up to now is     1892.0 secs

     total energy              =   -2273.78886486 Ry
     estimated scf accuracy    <      94.42338302 Ry

     iteration # 18     ecut=    52.00 Ry     beta= 0.30
     Davidson diagonalization with overlap
     ethr =  2.60E-03,  avg # of iterations =  2.0

     negative rho (up, down):  1.165E-01 0.000E+00
 
     Adding external electric field

     Computed dipole along edir(3) : 
        Dipole               -9.9645 Ry au,        -25.3273 Debye
        Dipole field         -0.0050 Ry au, 
 
        Potential amp.        0.6748 Ry
        Total length         67.7995 bohr
 

     total cpu time spent up to now is     1976.8 secs

     total energy              =   -2273.31311561 Ry
     estimated scf accuracy    <     233.10691819 Ry

     iteration # 19     ecut=    52.00 Ry     beta= 0.30
     Davidson diagonalization with overlap
     ethr =  2.60E-03,  avg # of iterations =  1.0

     negative rho (up, down):  1.359E-01 0.000E+00
 
     Adding external electric field

     Computed dipole along edir(3) : 
        Dipole               -7.8765 Ry au,        -20.0202 Debye
        Dipole field         -0.0039 Ry au, 
 
        Potential amp.        0.5334 Ry
        Total length         67.7995 bohr
 

     total cpu time spent up to now is     2054.1 secs

     total energy              =   -2273.38532985 Ry
     estimated scf accuracy    <     112.51011871 Ry

     iteration # 20     ecut=    52.00 Ry     beta= 0.30
     Davidson diagonalization with overlap
     ethr =  2.60E-03,  avg # of iterations =  1.0

     negative rho (up, down):  1.373E-01 0.000E+00
 
     Adding external electric field

     Computed dipole along edir(3) : 
        Dipole               -8.0187 Ry au,        -20.3814 Debye
        Dipole field         -0.0040 Ry au, 
 
        Potential amp.        0.5430 Ry
        Total length         67.7995 bohr
 

     total cpu time spent up to now is     2131.5 secs

     total energy              =   -2273.46889518 Ry
     estimated scf accuracy    <      56.20207437 Ry

     iteration # 21     ecut=    52.00 Ry     beta= 0.30
     Davidson diagonalization with overlap
     ethr =  2.60E-03,  avg # of iterations =  1.0

     negative rho (up, down):  1.335E-01 0.000E+00
 
     Adding external electric field

     Computed dipole along edir(3) : 
        Dipole               -8.3265 Ry au,        -21.1638 Debye
        Dipole field         -0.0042 Ry au, 
 
        Potential amp.        0.5639 Ry
        Total length         67.7995 bohr
 

     total cpu time spent up to now is     2208.9 secs

     total energy              =   -2273.49296390 Ry
     estimated scf accuracy    <      68.53584765 Ry

     iteration # 22     ecut=    52.00 Ry     beta= 0.30
     Davidson diagonalization with overlap
     ethr =  2.60E-03,  avg # of iterations =  1.0

     negative rho (up, down):  1.736E-01 0.000E+00
 
     Adding external electric field

     Computed dipole along edir(3) : 
        Dipole               -8.7595 Ry au,        -22.2644 Debye
        Dipole field         -0.0044 Ry au, 
 
        Potential amp.        0.5932 Ry
        Total length         67.7995 bohr
 

     total cpu time spent up to now is     2286.2 secs

     total energy              =   -2274.18426612 Ry
     estimated scf accuracy    <      71.99912616 Ry

     iteration # 23     ecut=    52.00 Ry     beta= 0.30
     Davidson diagonalization with overlap
     ethr =  2.60E-03,  avg # of iterations =  1.0

     negative rho (up, down):  1.339E-01 0.000E+00
 
     Adding external electric field

     Computed dipole along edir(3) : 
        Dipole              -10.0677 Ry au,        -25.5896 Debye
        Dipole field         -0.0050 Ry au, 
 
        Potential amp.        0.6818 Ry
        Total length         67.7995 bohr
 

     total cpu time spent up to now is     2363.5 secs

     total energy              =   -2274.80791304 Ry
     estimated scf accuracy    <     351.70210186 Ry

     iteration # 24     ecut=    52.00 Ry     beta= 0.30
     Davidson diagonalization with overlap
     ethr =  2.60E-03,  avg # of iterations =  1.0

     negative rho (up, down):  1.294E-01 0.000E+00
 
     Adding external electric field

     Computed dipole along edir(3) : 
        Dipole               -9.8857 Ry au,        -25.1269 Debye
        Dipole field         -0.0049 Ry au, 
 
        Potential amp.        0.6695 Ry
        Total length         67.7995 bohr
 

     total cpu time spent up to now is     2440.9 secs

     total energy              =   -2274.78688219 Ry
     estimated scf accuracy    <     502.03545762 Ry

     iteration # 25     ecut=    52.00 Ry     beta= 0.30
     Davidson diagonalization with overlap
     ethr =  2.60E-03,  avg # of iterations =  1.0

     negative rho (up, down):  1.218E-01 0.000E+00
 
     Adding external electric field

     Computed dipole along edir(3) : 
        Dipole               -9.4998 Ry au,        -24.1461 Debye
        Dipole field         -0.0047 Ry au, 
 
        Potential amp.        0.6433 Ry
        Total length         67.7995 bohr
 

     total cpu time spent up to now is     2518.2 secs

     total energy              =   -2271.38507105 Ry
     estimated scf accuracy    <     467.11317944 Ry

     iteration # 26     ecut=    52.00 Ry     beta= 0.30
     Davidson diagonalization with overlap
     ethr =  2.60E-03,  avg # of iterations =  2.0

     negative rho (up, down):  1.243E-01 0.000E+00
 
     Adding external electric field

     Computed dipole along edir(3) : 
        Dipole               -9.2894 Ry au,        -23.6112 Debye
        Dipole field         -0.0046 Ry au, 
 
        Potential amp.        0.6291 Ry
        Total length         67.7995 bohr
 

     total cpu time spent up to now is     2603.2 secs

     total energy              =   -2274.25763582 Ry
     estimated scf accuracy    <     117.89167359 Ry

     iteration # 27     ecut=    52.00 Ry     beta= 0.30
     Davidson diagonalization with overlap
     ethr =  2.60E-03,  avg # of iterations =  1.0

     negative rho (up, down):  1.248E-01 0.000E+00
 
     Adding external electric field

     Computed dipole along edir(3) : 
        Dipole               -9.1588 Ry au,        -23.2794 Debye
        Dipole field         -0.0046 Ry au, 
 
        Potential amp.        0.6203 Ry
        Total length         67.7995 bohr
 

     total cpu time spent up to now is     2680.5 secs

     total energy              =   -2274.09097458 Ry
     estimated scf accuracy    <     117.77940365 Ry

     iteration # 28     ecut=    52.00 Ry     beta= 0.30
     Davidson diagonalization with overlap
     ethr =  2.60E-03,  avg # of iterations =  1.0

     negative rho (up, down):  1.178E-01 0.000E+00
 
     Adding external electric field

     Computed dipole along edir(3) : 
        Dipole              -11.7146 Ry au,        -29.7756 Debye
        Dipole field         -0.0059 Ry au, 
 
        Potential amp.        0.7933 Ry
        Total length         67.7995 bohr
 

     total cpu time spent up to now is     2757.8 secs

     total energy              =   -2274.61187535 Ry
     estimated scf accuracy    <     117.37375906 Ry

     iteration # 29     ecut=    52.00 Ry     beta= 0.30
     Davidson diagonalization with overlap
     ethr =  2.60E-03,  avg # of iterations =  1.0

     negative rho (up, down):  1.539E-01 0.000E+00
 
     Adding external electric field

     Computed dipole along edir(3) : 
        Dipole               -7.6559 Ry au,        -19.4595 Debye
        Dipole field         -0.0038 Ry au, 
 
        Potential amp.        0.5185 Ry
        Total length         67.7995 bohr
 

     total cpu time spent up to now is     2835.2 secs

     total energy              =   -2271.82464166 Ry
     estimated scf accuracy    <     142.92967928 Ry

     iteration # 30     ecut=    52.00 Ry     beta= 0.30
     Davidson diagonalization with overlap
     ethr =  2.60E-03,  avg # of iterations =  2.0

     negative rho (up, down):  1.196E-01 0.000E+00
 
     Adding external electric field

     Computed dipole along edir(3) : 
        Dipole              -11.2107 Ry au,        -28.4948 Debye
        Dipole field         -0.0056 Ry au, 
 
        Potential amp.        0.7592 Ry
        Total length         67.7995 bohr
 

     total cpu time spent up to now is     2920.1 secs

     total energy              =   -2267.50620917 Ry
     estimated scf accuracy    <     205.22653526 Ry

     iteration # 31     ecut=    52.00 Ry     beta= 0.30
     Davidson diagonalization with overlap
     ethr =  2.60E-03,  avg # of iterations =  4.0

     negative rho (up, down):  1.174E-01 0.000E+00
 
     Adding external electric field

     Computed dipole along edir(3) : 
        Dipole              -10.9643 Ry au,        -27.8685 Debye
        Dipole field         -0.0055 Ry au, 
 
        Potential amp.        0.7425 Ry
        Total length         67.7995 bohr
 

     total cpu time spent up to now is     3009.2 secs

     total energy              =   -2273.73018258 Ry
     estimated scf accuracy    <      18.05172513 Ry

     iteration # 32     ecut=    52.00 Ry     beta= 0.30
     Davidson diagonalization with overlap
     ethr =  2.60E-03,  avg # of iterations =  1.0

     negative rho (up, down):  1.172E-01 0.000E+00
 
     Adding external electric field

     Computed dipole along edir(3) : 
        Dipole              -10.9932 Ry au,        -27.9419 Debye
        Dipole field         -0.0055 Ry au, 
 
        Potential amp.        0.7445 Ry
        Total length         67.7995 bohr
 

     total cpu time spent up to now is     3086.6 secs

     total energy              =   -2273.47129046 Ry
     estimated scf accuracy    <      28.95880698 Ry

     iteration # 33     ecut=    52.00 Ry     beta= 0.30
     Davidson diagonalization with overlap
     ethr =  2.60E-03,  avg # of iterations =  1.0

     negative rho (up, down):  1.204E-01 0.000E+00
 
     Adding external electric field

     Computed dipole along edir(3) : 
        Dipole              -11.6508 Ry au,        -29.6134 Debye
        Dipole field         -0.0058 Ry au, 
 
        Potential amp.        0.7890 Ry
        Total length         67.7995 bohr
 

     total cpu time spent up to now is     3163.9 secs

     total energy              =   -2273.01203994 Ry
     estimated scf accuracy    <      28.81387451 Ry

     iteration # 34     ecut=    52.00 Ry     beta= 0.30
     Davidson diagonalization with overlap
     ethr =  2.60E-03,  avg # of iterations =  2.0

     negative rho (up, down):  1.247E-01 0.000E+00
 
     Adding external electric field

     Computed dipole along edir(3) : 
        Dipole              -11.6443 Ry au,        -29.5969 Debye
        Dipole field         -0.0058 Ry au, 
 
        Potential amp.        0.7886 Ry
        Total length         67.7995 bohr
 

     total cpu time spent up to now is     3248.8 secs

     total energy              =   -2274.25765410 Ry
     estimated scf accuracy    <     175.68531743 Ry

     iteration # 35     ecut=    52.00 Ry     beta= 0.30
     Davidson diagonalization with overlap
     ethr =  2.60E-03,  avg # of iterations =  1.0

     negative rho (up, down):  1.227E-01 0.000E+00
 
     Adding external electric field

     Computed dipole along edir(3) : 
        Dipole              -12.5697 Ry au,        -31.9491 Debye
        Dipole field         -0.0063 Ry au, 
 
        Potential amp.        0.8512 Ry
        Total length         67.7995 bohr
 

     total cpu time spent up to now is     3326.2 secs

     total energy              =   -2273.10520227 Ry
     estimated scf accuracy    <     343.19620371 Ry

     iteration # 36     ecut=    52.00 Ry     beta= 0.30
     Davidson diagonalization with overlap
     ethr =  2.60E-03,  avg # of iterations =  1.0

     negative rho (up, down):  1.188E-01 0.000E+00
 
     Adding external electric field

     Computed dipole along edir(3) : 
        Dipole              -11.0002 Ry au,        -27.9596 Debye
        Dipole field         -0.0055 Ry au, 
 
        Potential amp.        0.7450 Ry
        Total length         67.7995 bohr
 

     total cpu time spent up to now is     3403.5 secs

     total energy              =   -2272.22950100 Ry
     estimated scf accuracy    <     137.84693238 Ry

     iteration # 37     ecut=    52.00 Ry     beta= 0.30
     Davidson diagonalization with overlap
     ethr =  2.60E-03,  avg # of iterations =  4.0

     negative rho (up, down):  1.188E-01 0.000E+00
 
     Adding external electric field

     Computed dipole along edir(3) : 
        Dipole              -11.0251 Ry au,        -28.0230 Debye
        Dipole field         -0.0055 Ry au, 
 
        Potential amp.        0.7466 Ry
        Total length         67.7995 bohr
 

     total cpu time spent up to now is     3488.6 secs

     total energy              =   -2273.14923375 Ry
     estimated scf accuracy    <      15.47609017 Ry

     iteration # 38     ecut=    52.00 Ry     beta= 0.30
     Davidson diagonalization with overlap
     ethr =  2.60E-03,  avg # of iterations =  1.4

     negative rho (up, down):  1.207E-01 0.000E+00
 
     Adding external electric field

     Computed dipole along edir(3) : 
        Dipole              -11.3071 Ry au,        -28.7397 Debye
        Dipole field         -0.0056 Ry au, 
 
        Potential amp.        0.7657 Ry
        Total length         67.7995 bohr
 

     total cpu time spent up to now is     3568.9 secs

     total energy              =   -2273.54488712 Ry
     estimated scf accuracy    <      15.78835081 Ry

     iteration # 39     ecut=    52.00 Ry     beta= 0.30
     Davidson diagonalization with overlap
     ethr =  2.60E-03,  avg # of iterations =  3.0

     negative rho (up, down):  1.207E-01 0.000E+00
 
     Adding external electric field

     Computed dipole along edir(3) : 
        Dipole              -11.1475 Ry au,        -28.3342 Debye
        Dipole field         -0.0056 Ry au, 
 
        Potential amp.        0.7549 Ry
        Total length         67.7995 bohr
 

     total cpu time spent up to now is     3655.2 secs

     total energy              =   -2273.78412935 Ry
     estimated scf accuracy    <       5.76554497 Ry

     iteration # 40     ecut=    52.00 Ry     beta= 0.30
     Davidson diagonalization with overlap
     ethr =  1.08E-03,  avg # of iterations =  2.2

     negative rho (up, down):  1.233E-01 0.000E+00
 
     Adding external electric field

     Computed dipole along edir(3) : 
        Dipole              -10.6338 Ry au,        -27.0284 Debye
        Dipole field         -0.0053 Ry au, 
 
        Potential amp.        0.7201 Ry
        Total length         67.7995 bohr
 

     total cpu time spent up to now is     3735.4 secs

     total energy              =   -2273.79407284 Ry
     estimated scf accuracy    <       5.10784853 Ry

     iteration # 41     ecut=    52.00 Ry     beta= 0.30
     Davidson diagonalization with overlap
     ethr =  9.57E-04,  avg # of iterations =  1.4

     negative rho (up, down):  1.238E-01 0.000E+00
 
     Adding external electric field

     Computed dipole along edir(3) : 
        Dipole              -10.4857 Ry au,        -26.6519 Debye
        Dipole field         -0.0052 Ry au, 
 
        Potential amp.        0.7101 Ry
        Total length         67.7995 bohr
 

     total cpu time spent up to now is     3815.7 secs

     total energy              =   -2273.74217764 Ry
     estimated scf accuracy    <       4.94572765 Ry

     iteration # 42     ecut=    52.00 Ry     beta= 0.30
     Davidson diagonalization with overlap
     ethr =  9.26E-04,  avg # of iterations =  1.0

     negative rho (up, down):  1.353E-01 0.000E+00
 
     Adding external electric field

     Computed dipole along edir(3) : 
        Dipole              -11.1774 Ry au,        -28.4100 Debye
        Dipole field         -0.0056 Ry au, 
 
        Potential amp.        0.7570 Ry
        Total length         67.7995 bohr
 

     total cpu time spent up to now is     3893.1 secs

     total energy              =   -2274.51667088 Ry
     estimated scf accuracy    <       4.85832873 Ry

     iteration # 43     ecut=    52.00 Ry     beta= 0.30
     Davidson diagonalization with overlap
     ethr =  9.10E-04,  avg # of iterations =  2.0

     negative rho (up, down):  1.213E-01 0.000E+00
 
     Adding external electric field

     Computed dipole along edir(3) : 
        Dipole               -9.2706 Ry au,        -23.5636 Debye
        Dipole field         -0.0046 Ry au, 
 
        Potential amp.        0.6278 Ry
        Total length         67.7995 bohr
 

     total cpu time spent up to now is     3979.1 secs

     total energy              =   -2271.79165163 Ry
     estimated scf accuracy    <      36.95874699 Ry

     iteration # 44     ecut=    52.00 Ry     beta= 0.30
     Davidson diagonalization with overlap
     ethr =  9.10E-04,  avg # of iterations =  4.0

     negative rho (up, down):  1.201E-01 0.000E+00
 
     Adding external electric field

     Computed dipole along edir(3) : 
        Dipole               -9.4787 Ry au,        -24.0925 Debye
        Dipole field         -0.0047 Ry au, 
 
        Potential amp.        0.6419 Ry
        Total length         67.7995 bohr
 

     total cpu time spent up to now is     4070.7 secs

     total energy              =   -2272.66216469 Ry
     estimated scf accuracy    <      23.86718754 Ry

     iteration # 45     ecut=    52.00 Ry     beta= 0.30
     Davidson diagonalization with overlap
     ethr =  9.10E-04,  avg # of iterations =  1.2

     negative rho (up, down):  1.189E-01 0.000E+00
 
     Adding external electric field

     Computed dipole along edir(3) : 
        Dipole              -10.1327 Ry au,        -25.7546 Debye
        Dipole field         -0.0051 Ry au, 
 
        Potential amp.        0.6862 Ry
        Total length         67.7995 bohr
 

     total cpu time spent up to now is     4149.5 secs

     total energy              =   -2273.03447293 Ry
     estimated scf accuracy    <      27.22923193 Ry

     iteration # 46     ecut=    52.00 Ry     beta= 0.30
     Davidson diagonalization with overlap
     ethr =  9.10E-04,  avg # of iterations =  2.0

     negative rho (up, down):  1.187E-01 0.000E+00
 
     Adding external electric field

     Computed dipole along edir(3) : 
        Dipole              -10.1321 Ry au,        -25.7533 Debye
        Dipole field         -0.0051 Ry au, 
 
        Potential amp.        0.6862 Ry
        Total length         67.7995 bohr
 

     total cpu time spent up to now is     4234.4 secs

     total energy              =   -2273.44929485 Ry
     estimated scf accuracy    <      85.64661401 Ry

     iteration # 47     ecut=    52.00 Ry     beta= 0.30
     Davidson diagonalization with overlap
     ethr =  9.10E-04,  avg # of iterations =  1.0

     negative rho (up, down):  1.188E-01 0.000E+00
 
     Adding external electric field

     Computed dipole along edir(3) : 
        Dipole              -11.2254 Ry au,        -28.5321 Debye
        Dipole field         -0.0056 Ry au, 
 
        Potential amp.        0.7602 Ry
        Total length         67.7995 bohr
 

     total cpu time spent up to now is     4311.8 secs

     total energy              =   -2273.43492499 Ry
     estimated scf accuracy    <     119.06096007 Ry

     iteration # 48     ecut=    52.00 Ry     beta= 0.30
     Davidson diagonalization with overlap
     ethr =  9.10E-04,  avg # of iterations =  1.4

     negative rho (up, down):  1.171E-01 0.000E+00
 
     Adding external electric field

     Computed dipole along edir(3) : 
        Dipole              -11.2162 Ry au,        -28.5087 Debye
        Dipole field         -0.0056 Ry au, 
 
        Potential amp.        0.7596 Ry
        Total length         67.7995 bohr
 

     total cpu time spent up to now is     4392.1 secs

     total energy              =   -2271.83498582 Ry
     estimated scf accuracy    <     146.22953906 Ry

     iteration # 49     ecut=    52.00 Ry     beta= 0.30
     Davidson diagonalization with overlap
     ethr =  9.10E-04,  avg # of iterations =  3.4

     negative rho (up, down):  1.195E-01 0.000E+00
 
     Adding external electric field

     Computed dipole along edir(3) : 
        Dipole              -13.6198 Ry au,        -34.6180 Debye
        Dipole field         -0.0068 Ry au, 
 
        Potential amp.        0.9224 Ry
        Total length         67.7995 bohr
 

     total cpu time spent up to now is     4478.9 secs

     total energy              =   -2272.26431368 Ry
     estimated scf accuracy    <      25.99925073 Ry

     iteration # 50     ecut=    52.00 Ry     beta= 0.30
     Davidson diagonalization with overlap
     ethr =  9.10E-04,  avg # of iterations =  2.0

     negative rho (up, down):  1.183E-01 0.000E+00
 
     Adding external electric field

     Computed dipole along edir(3) : 
        Dipole              -13.4142 Ry au,        -34.0955 Debye
        Dipole field         -0.0067 Ry au, 
 
        Potential amp.        0.9084 Ry
        Total length         67.7995 bohr
 

     total cpu time spent up to now is     4563.9 secs

     total energy              =   -2272.97404060 Ry
     estimated scf accuracy    <      29.82966296 Ry

     iteration # 51     ecut=    52.00 Ry     beta= 0.30
     Davidson diagonalization with overlap
     ethr =  9.10E-04,  avg # of iterations =  2.0

     negative rho (up, down):  1.183E-01 0.000E+00
 
     Adding external electric field

     Computed dipole along edir(3) : 
        Dipole              -13.5551 Ry au,        -34.4537 Debye
        Dipole field         -0.0068 Ry au, 
 
        Potential amp.        0.9180 Ry
        Total length         67.7995 bohr
 

     total cpu time spent up to now is     4648.8 secs

     total energy              =   -2274.97278238 Ry
     estimated scf accuracy    <     119.84561722 Ry

     iteration # 52     ecut=    52.00 Ry     beta= 0.30
     Davidson diagonalization with overlap
     ethr =  9.10E-04,  avg # of iterations =  1.0

     negative rho (up, down):  1.174E-01 0.000E+00
 
     Adding external electric field

     Computed dipole along edir(3) : 
        Dipole              -13.1546 Ry au,        -33.4356 Debye
        Dipole field         -0.0066 Ry au, 
 
        Potential amp.        0.8909 Ry
        Total length         67.7995 bohr
 

     total cpu time spent up to now is     4726.1 secs

     total energy              =   -2271.20104443 Ry
     estimated scf accuracy    <     167.97921451 Ry

     iteration # 53     ecut=    52.00 Ry     beta= 0.30
     Davidson diagonalization with overlap
     ethr =  9.10E-04,  avg # of iterations =  4.0

     negative rho (up, down):  1.173E-01 0.000E+00
 
     Adding external electric field

     Computed dipole along edir(3) : 
        Dipole              -13.4986 Ry au,        -34.3099 Debye
        Dipole field         -0.0067 Ry au, 
 
        Potential amp.        0.9141 Ry
        Total length         67.7995 bohr
 

     total cpu time spent up to now is     4814.4 secs

     total energy              =   -2272.50735230 Ry
     estimated scf accuracy    <      18.61302108 Ry

     iteration # 54     ecut=    52.00 Ry     beta= 0.30
     Davidson diagonalization with overlap
     ethr =  9.10E-04,  avg # of iterations =  1.0

     negative rho (up, down):  1.165E-01 0.000E+00
 
     Adding external electric field

     Computed dipole along edir(3) : 
        Dipole              -11.9635 Ry au,        -30.4081 Debye
        Dipole field         -0.0060 Ry au, 
 
        Potential amp.        0.8102 Ry
        Total length         67.7995 bohr
 

     total cpu time spent up to now is     4891.8 secs

     total energy              =   -2272.24609601 Ry
     estimated scf accuracy    <      10.94364750 Ry

     iteration # 55     ecut=    52.00 Ry     beta= 0.30
     Davidson diagonalization with overlap
     ethr =  9.10E-04,  avg # of iterations =  2.0

     negative rho (up, down):  1.164E-01 0.000E+00
 
     Adding external electric field

     Computed dipole along edir(3) : 
        Dipole              -11.9808 Ry au,        -30.4522 Debye
        Dipole field         -0.0060 Ry au, 
 
        Potential amp.        0.8114 Ry
        Total length         67.7995 bohr
 

     total cpu time spent up to now is     4976.6 secs

     total energy              =   -2272.45547904 Ry
     estimated scf accuracy    <       8.66116535 Ry

     iteration # 56     ecut=    52.00 Ry     beta= 0.30
     Davidson diagonalization with overlap
     ethr =  9.10E-04,  avg # of iterations =  1.0

     negative rho (up, down):  1.167E-01 0.000E+00
 
     Adding external electric field

     Computed dipole along edir(3) : 
        Dipole              -12.3440 Ry au,        -31.3753 Debye
        Dipole field         -0.0062 Ry au, 
 
        Potential amp.        0.8360 Ry
        Total length         67.7995 bohr
 

     total cpu time spent up to now is     5053.9 secs

     total energy              =   -2272.30113218 Ry
     estimated scf accuracy    <       7.84627619 Ry

     iteration # 57     ecut=    52.00 Ry     beta= 0.30
     Davidson diagonalization with overlap
     ethr =  9.10E-04,  avg # of iterations =  1.0

     negative rho (up, down):  1.166E-01 0.000E+00
 
     Adding external electric field

     Computed dipole along edir(3) : 
        Dipole              -12.0305 Ry au,        -30.5786 Debye
        Dipole field         -0.0060 Ry au, 
 
        Potential amp.        0.8147 Ry
        Total length         67.7995 bohr
 

     total cpu time spent up to now is     5131.3 secs

     total energy              =   -2272.35715297 Ry
     estimated scf accuracy    <       1.38821783 Ry

     iteration # 58     ecut=    52.00 Ry     beta= 0.30
     Davidson diagonalization with overlap
     ethr =  2.60E-04,  avg # of iterations =  7.0

     negative rho (up, down):  1.165E-01 0.000E+00
 
     Adding external electric field

     Computed dipole along edir(3) : 
        Dipole              -11.0317 Ry au,        -28.0399 Debye
        Dipole field         -0.0055 Ry au, 
 
        Potential amp.        0.7471 Ry
        Total length         67.7995 bohr
 

     total cpu time spent up to now is     5223.1 secs

     total energy              =   -2272.16387332 Ry
     estimated scf accuracy    <       1.18448752 Ry

     iteration # 59     ecut=    52.00 Ry     beta= 0.30
     Davidson diagonalization with overlap
     c_bands:  4 eigenvalues not converged
     c_bands:  1 eigenvalues not converged
     ethr =  2.22E-04,  avg # of iterations = 17.2

     negative rho (up, down):  1.159E-01 0.000E+00
 
     Adding external electric field

     Computed dipole along edir(3) : 
        Dipole              -10.3768 Ry au,        -26.3753 Debye
        Dipole field         -0.0052 Ry au, 
 
        Potential amp.        0.7027 Ry
        Total length         67.7995 bohr
 

     total cpu time spent up to now is     5351.1 secs

     total energy              =   -2272.14713957 Ry
     estimated scf accuracy    <       0.88893161 Ry

     iteration # 60     ecut=    52.00 Ry     beta= 0.30
     Davidson diagonalization with overlap
     ethr =  1.66E-04,  avg # of iterations =  9.0

     negative rho (up, down):  1.212E-01 0.000E+00
 
     Adding external electric field

     Computed dipole along edir(3) : 
        Dipole               -9.0629 Ry au,        -23.0356 Debye
        Dipole field         -0.0045 Ry au, 
 
        Potential amp.        0.6138 Ry
        Total length         67.7995 bohr
 

     total cpu time spent up to now is     5459.4 secs

     total energy              =   -2272.08860034 Ry
     estimated scf accuracy    <       0.71426313 Ry

     iteration # 61     ecut=    52.00 Ry     beta= 0.30
     Davidson diagonalization with overlap
     c_bands:  2 eigenvalues not converged
     c_bands:  5 eigenvalues not converged
     c_bands:  5 eigenvalues not converged
     ethr =  1.34E-04,  avg # of iterations = 16.8

     negative rho (up, down):  1.160E-01 0.000E+00
 
     Adding external electric field

     Computed dipole along edir(3) : 
        Dipole               -7.7347 Ry au,        -19.6598 Debye
        Dipole field         -0.0039 Ry au, 
 
        Potential amp.        0.5238 Ry
        Total length         67.7995 bohr
 

     total cpu time spent up to now is     5582.3 secs

     total energy              =   -2272.01339699 Ry
     estimated scf accuracy    <       0.64228100 Ry

     iteration # 62     ecut=    52.00 Ry     beta= 0.30
     Davidson diagonalization with overlap
     ethr =  1.20E-04,  avg # of iterations =  2.0

     negative rho (up, down):  1.200E-01 0.000E+00
 
     Adding external electric field

     Computed dipole along edir(3) : 
        Dipole               -5.0037 Ry au,        -12.7182 Debye
        Dipole field         -0.0025 Ry au, 
 
        Potential amp.        0.3389 Ry
        Total length         67.7995 bohr
 

     total cpu time spent up to now is     5667.3 secs

     total energy              =   -2271.92311092 Ry
     estimated scf accuracy    <       0.44329936 Ry

     iteration # 63     ecut=    52.00 Ry     beta= 0.30
     Davidson diagonalization with overlap
     c_bands:  3 eigenvalues not converged
     c_bands:  4 eigenvalues not converged
     c_bands:  2 eigenvalues not converged
     c_bands:  4 eigenvalues not converged
     c_bands:  4 eigenvalues not converged
     ethr =  8.30E-05,  avg # of iterations = 20.0

     negative rho (up, down):  1.178E-01 0.000E+00
 
     Adding external electric field

     Computed dipole along edir(3) : 
        Dipole               -4.0015 Ry au,        -10.1708 Debye
        Dipole field         -0.0020 Ry au, 
 
        Potential amp.        0.2710 Ry
        Total length         67.7995 bohr
 

     total cpu time spent up to now is     5785.3 secs

     total energy              =   -2271.89847222 Ry
     estimated scf accuracy    <       0.32475693 Ry

     iteration # 64     ecut=    52.00 Ry     beta= 0.30
     Davidson diagonalization with overlap
     ethr =  6.08E-05,  avg # of iterations =  4.6

     negative rho (up, down):  1.160E-01 0.000E+00
 
     Adding external electric field

     Computed dipole along edir(3) : 
        Dipole               -2.9062 Ry au,         -7.3868 Debye
        Dipole field         -0.0015 Ry au, 
 
        Potential amp.        0.1968 Ry
        Total length         67.7995 bohr
 

     total cpu time spent up to now is     5873.5 secs

     total energy              =   -2271.87021571 Ry
     estimated scf accuracy    <       0.25317324 Ry

     iteration # 65     ecut=    52.00 Ry     beta= 0.30
     Davidson diagonalization with overlap
     c_bands:  1 eigenvalues not converged
     c_bands:  1 eigenvalues not converged
     ethr =  4.74E-05,  avg # of iterations = 11.6

     negative rho (up, down):  1.172E-01 0.000E+00
 
     Adding external electric field

     Computed dipole along edir(3) : 
        Dipole               -1.8238 Ry au,         -4.6356 Debye
        Dipole field         -0.0009 Ry au, 
 
        Potential amp.        0.1235 Ry
        Total length         67.7995 bohr
 

     total cpu time spent up to now is     5971.9 secs

     total energy              =   -2271.84468876 Ry
     estimated scf accuracy    <       0.20989275 Ry

     iteration # 66     ecut=    52.00 Ry     beta= 0.30
     Davidson diagonalization with overlap
     c_bands:  1 eigenvalues not converged
     c_bands:  2 eigenvalues not converged
     c_bands:  5 eigenvalues not converged
     c_bands:  2 eigenvalues not converged
     ethr =  3.93E-05,  avg # of iterations = 18.6

     negative rho (up, down):  1.486E-01 0.000E+00
 
     Adding external electric field

     Computed dipole along edir(3) : 
        Dipole                0.0845 Ry au,          0.2147 Debye
        Dipole field          0.0000 Ry au, 
 
        Potential amp.       -0.0057 Ry
        Total length         67.7995 bohr
 

     total cpu time spent up to now is     6084.8 secs

     total energy              =   -2271.86966374 Ry
     estimated scf accuracy    <       0.33808918 Ry

     iteration # 67     ecut=    52.00 Ry     beta= 0.30
     Davidson diagonalization with overlap
     c_bands:  1 eigenvalues not converged
     c_bands:  1 eigenvalues not converged
     c_bands:  2 eigenvalues not converged
     c_bands:  3 eigenvalues not converged
     ethr =  3.93E-05,  avg # of iterations = 20.0

     negative rho (up, down):  1.413E-01 0.000E+00
 
     Adding external electric field

     Computed dipole along edir(3) : 
        Dipole                0.1828 Ry au,          0.4646 Debye
        Dipole field          0.0001 Ry au, 
 
        Potential amp.       -0.0124 Ry
        Total length         67.7995 bohr
 

     total cpu time spent up to now is     6203.0 secs

     total energy              =   -2271.93589838 Ry
     estimated scf accuracy    <      23.51210982 Ry

     iteration # 68     ecut=    52.00 Ry     beta= 0.30
     Davidson diagonalization with overlap
     ethr =  3.93E-05,  avg # of iterations =  2.0

     negative rho (up, down):  1.259E-01 0.000E+00
 
     Adding external electric field

     Computed dipole along edir(3) : 
        Dipole               -0.1923 Ry au,         -0.4889 Debye
        Dipole field         -0.0001 Ry au, 
 
        Potential amp.        0.0130 Ry
        Total length         67.7995 bohr
 

     total cpu time spent up to now is     6288.0 secs

     total energy              =   -2271.86239416 Ry
     estimated scf accuracy    <      16.06525931 Ry

     iteration # 69     ecut=    52.00 Ry     beta= 0.30
     Davidson diagonalization with overlap
     ethr =  3.93E-05,  avg # of iterations =  2.0

     negative rho (up, down):  1.266E-01 0.000E+00
 
     Adding external electric field

     Computed dipole along edir(3) : 
        Dipole               -0.1933 Ry au,         -0.4914 Debye
        Dipole field         -0.0001 Ry au, 
 
        Potential amp.        0.0131 Ry
        Total length         67.7995 bohr
 

     total cpu time spent up to now is     6372.9 secs

     total energy              =   -2271.88410153 Ry
     estimated scf accuracy    <       5.55311953 Ry

     iteration # 70     ecut=    52.00 Ry     beta= 0.30
     Davidson diagonalization with overlap
     ethr =  3.93E-05,  avg # of iterations =  1.0

     negative rho (up, down):  1.267E-01 0.000E+00
 
     Adding external electric field

     Computed dipole along edir(3) : 
        Dipole               -0.0843 Ry au,         -0.2143 Debye
        Dipole field         -0.0000 Ry au, 
 
        Potential amp.        0.0057 Ry
        Total length         67.7995 bohr
 

     total cpu time spent up to now is     6450.3 secs

     total energy              =   -2271.88956568 Ry
     estimated scf accuracy    <       5.58260484 Ry

     iteration # 71     ecut=    52.00 Ry     beta= 0.30
     Davidson diagonalization with overlap
     ethr =  3.93E-05,  avg # of iterations =  1.0

     negative rho (up, down):  1.176E-01 0.000E+00
 
     Adding external electric field

     Computed dipole along edir(3) : 
        Dipole               -0.9032 Ry au,         -2.2956 Debye
        Dipole field         -0.0005 Ry au, 
 
        Potential amp.        0.0612 Ry
        Total length         67.7995 bohr
 

     total cpu time spent up to now is     6527.6 secs

     total energy              =   -2271.83973074 Ry
     estimated scf accuracy    <       5.76566196 Ry

     iteration # 72     ecut=    52.00 Ry     beta= 0.30
     Davidson diagonalization with overlap
     c_bands:  2 eigenvalues not converged
     c_bands:  1 eigenvalues not converged
     ethr =  3.93E-05,  avg # of iterations = 13.6

     negative rho (up, down):  1.186E-01 0.000E+00
 
     Adding external electric field

     Computed dipole along edir(3) : 
        Dipole               -0.6902 Ry au,         -1.7544 Debye
        Dipole field         -0.0003 Ry au, 
 
        Potential amp.        0.0467 Ry
        Total length         67.7995 bohr
 

     total cpu time spent up to now is     6628.3 secs

     total energy              =   -2271.85164618 Ry
     estimated scf accuracy    <       1.83458571 Ry

     iteration # 73     ecut=    52.00 Ry     beta= 0.30
     Davidson diagonalization with overlap
     ethr =  3.93E-05,  avg # of iterations =  4.8

     negative rho (up, down):  1.251E-01 0.000E+00
 
     Adding external electric field

     Computed dipole along edir(3) : 
        Dipole               -0.7198 Ry au,         -1.8296 Debye
        Dipole field         -0.0004 Ry au, 
 
        Potential amp.        0.0487 Ry
        Total length         67.7995 bohr
 

     total cpu time spent up to now is     6714.3 secs

     total energy              =   -2271.87211929 Ry
     estimated scf accuracy    <       3.17404645 Ry

     iteration # 74     ecut=    52.00 Ry     beta= 0.30
     Davidson diagonalization with overlap
     ethr =  3.93E-05,  avg # of iterations =  1.4

     negative rho (up, down):  1.203E-01 0.000E+00
 
     Adding external electric field

     Computed dipole along edir(3) : 
        Dipole               -0.6559 Ry au,         -1.6672 Debye
        Dipole field         -0.0003 Ry au, 
 
        Potential amp.        0.0444 Ry
        Total length         67.7995 bohr
 

     total cpu time spent up to now is     6794.5 secs

     total energy              =   -2271.86319435 Ry
     estimated scf accuracy    <       5.55397278 Ry

     iteration # 75     ecut=    52.00 Ry     beta= 0.30
     Davidson diagonalization with overlap
     ethr =  3.93E-05,  avg # of iterations =  1.0

     negative rho (up, down):  1.502E-01 0.000E+00
 
     Adding external electric field

     Computed dipole along edir(3) : 
        Dipole                0.0949 Ry au,          0.2412 Debye
        Dipole field          0.0000 Ry au, 
 
        Potential amp.       -0.0064 Ry
        Total length         67.7995 bohr
 

     total cpu time spent up to now is     6871.9 secs

     total energy              =   -2271.96255234 Ry
     estimated scf accuracy    <       5.36209531 Ry

     iteration # 76     ecut=    52.00 Ry     beta= 0.30
     Davidson diagonalization with overlap
     ethr =  3.93E-05,  avg # of iterations =  6.4

     negative rho (up, down):  1.425E-01 0.000E+00
 
     Adding external electric field

     Computed dipole along edir(3) : 
        Dipole                0.1211 Ry au,          0.3079 Debye
        Dipole field          0.0001 Ry au, 
 
        Potential amp.       -0.0082 Ry
        Total length         67.7995 bohr
 

     total cpu time spent up to now is     6963.0 secs

     total energy              =   -2271.97762021 Ry
     estimated scf accuracy    <      28.54166499 Ry

     iteration # 77     ecut=    52.00 Ry     beta= 0.30
     Davidson diagonalization with overlap
     ethr =  3.93E-05,  avg # of iterations =  1.0

     negative rho (up, down):  1.292E-01 0.000E+00
 
     Adding external electric field

     Computed dipole along edir(3) : 
        Dipole               -0.2965 Ry au,         -0.7537 Debye
        Dipole field         -0.0001 Ry au, 
 
        Potential amp.        0.0201 Ry
        Total length         67.7995 bohr
 

     total cpu time spent up to now is     7040.3 secs

     total energy              =   -2271.89201627 Ry
     estimated scf accuracy    <      23.66509411 Ry

     iteration # 78     ecut=    52.00 Ry     beta= 0.30
     Davidson diagonalization with overlap
     ethr =  3.93E-05,  avg # of iterations =  1.2

     negative rho (up, down):  1.264E-01 0.000E+00
 
     Adding external electric field

     Computed dipole along edir(3) : 
        Dipole               -0.3094 Ry au,         -0.7864 Debye
        Dipole field         -0.0002 Ry au, 
 
        Potential amp.        0.0210 Ry
        Total length         67.7995 bohr
 

     total cpu time spent up to now is     7119.2 secs

     total energy              =   -2271.90803503 Ry
     estimated scf accuracy    <       9.90978542 Ry

     iteration # 79     ecut=    52.00 Ry     beta= 0.30
     Davidson diagonalization with overlap
     ethr =  3.93E-05,  avg # of iterations =  1.0

     negative rho (up, down):  1.252E-01 0.000E+00
 
     Adding external electric field

     Computed dipole along edir(3) : 
        Dipole               -0.3233 Ry au,         -0.8217 Debye
        Dipole field         -0.0002 Ry au, 
 
        Potential amp.        0.0219 Ry
        Total length         67.7995 bohr
 

     total cpu time spent up to now is     7196.5 secs

     total energy              =   -2271.90564688 Ry
     estimated scf accuracy    <       9.87265427 Ry

     iteration # 80     ecut=    52.00 Ry     beta= 0.30
     Davidson diagonalization with overlap
     ethr =  3.93E-05,  avg # of iterations =  1.0

     negative rho (up, down):  1.182E-01 0.000E+00
 
     Adding external electric field

     Computed dipole along edir(3) : 
        Dipole               -1.0046 Ry au,         -2.5535 Debye
        Dipole field         -0.0005 Ry au, 
 
        Potential amp.        0.0680 Ry
        Total length         67.7995 bohr
 

     total cpu time spent up to now is     7273.8 secs

     total energy              =   -2271.83808272 Ry
     estimated scf accuracy    <       9.35759931 Ry

     iteration # 81     ecut=    52.00 Ry     beta= 0.30
     Davidson diagonalization with overlap
     c_bands:  5 eigenvalues not converged
     ethr =  3.93E-05,  avg # of iterations =  5.4

     negative rho (up, down):  1.246E-01 0.000E+00
 
     Adding external electric field

     Computed dipole along edir(3) : 
        Dipole               -0.6637 Ry au,         -1.6870 Debye
        Dipole field         -0.0003 Ry au, 
 
        Potential amp.        0.0449 Ry
        Total length         67.7995 bohr
 

     total cpu time spent up to now is     7362.3 secs

     total energy              =   -2271.87892681 Ry
     estimated scf accuracy    <       3.13538999 Ry

     iteration # 82     ecut=    52.00 Ry     beta= 0.30
     Davidson diagonalization with overlap
     ethr =  3.93E-05,  avg # of iterations =  1.2

     negative rho (up, down):  1.161E-01 0.000E+00
 
     Adding external electric field

     Computed dipole along edir(3) : 
        Dipole               -1.0914 Ry au,         -2.7742 Debye
        Dipole field         -0.0005 Ry au, 
 
        Potential amp.        0.0739 Ry
        Total length         67.7995 bohr
 

     total cpu time spent up to now is     7441.2 secs

     total energy              =   -2271.85246049 Ry
     estimated scf accuracy    <       5.60568571 Ry

     iteration # 83     ecut=    52.00 Ry     beta= 0.30
     Davidson diagonalization with overlap
     ethr =  3.93E-05,  avg # of iterations =  1.0

     negative rho (up, down):  1.161E-01 0.000E+00
 
     Adding external electric field

     Computed dipole along edir(3) : 
        Dipole               -1.0699 Ry au,         -2.7195 Debye
        Dipole field         -0.0005 Ry au, 
 
        Potential amp.        0.0725 Ry
        Total length         67.7995 bohr
 

     total cpu time spent up to now is     7518.4 secs

     total energy              =   -2271.83476212 Ry
     estimated scf accuracy    <       2.73214394 Ry

     iteration # 84     ecut=    52.00 Ry     beta= 0.30
     Davidson diagonalization with overlap
     ethr =  3.93E-05,  avg # of iterations =  1.6

     negative rho (up, down):  1.163E-01 0.000E+00
 
     Adding external electric field

     Computed dipole along edir(3) : 
        Dipole                0.0571 Ry au,          0.1452 Debye
        Dipole field          0.0000 Ry au, 
 
        Potential amp.       -0.0039 Ry
        Total length         67.7995 bohr
 

     total cpu time spent up to now is     7600.2 secs

     total energy              =   -2271.84101932 Ry
     estimated scf accuracy    <       0.34636473 Ry

     iteration # 85     ecut=    52.00 Ry     beta= 0.30
     Davidson diagonalization with overlap
     ethr =  3.93E-05,  avg # of iterations =  2.0

     negative rho (up, down):  1.163E-01 0.000E+00
 
     Adding external electric field

     Computed dipole along edir(3) : 
        Dipole               -0.0829 Ry au,         -0.2106 Debye
        Dipole field         -0.0000 Ry au, 
 
        Potential amp.        0.0056 Ry
        Total length         67.7995 bohr
 

     total cpu time spent up to now is     7685.1 secs

     total energy              =   -2271.85805152 Ry
     estimated scf accuracy    <       4.33882224 Ry

     iteration # 86     ecut=    52.00 Ry     beta= 0.30
     Davidson diagonalization with overlap
     ethr =  3.93E-05,  avg # of iterations =  1.0

     negative rho (up, down):  1.162E-01 0.000E+00
 
     Adding external electric field

     Computed dipole along edir(3) : 
        Dipole               -0.2199 Ry au,         -0.5588 Debye
        Dipole field         -0.0001 Ry au, 
 
        Potential amp.        0.0149 Ry
        Total length         67.7995 bohr
 

     total cpu time spent up to now is     7762.5 secs

     total energy              =   -2271.85957577 Ry
     estimated scf accuracy    <       4.52172818 Ry

     iteration # 87     ecut=    52.00 Ry     beta= 0.30
     Davidson diagonalization with overlap
     ethr =  3.93E-05,  avg # of iterations =  1.0

     negative rho (up, down):  1.180E-01 0.000E+00
 
     Adding external electric field

     Computed dipole along edir(3) : 
        Dipole                0.4183 Ry au,          1.0633 Debye
        Dipole field          0.0002 Ry au, 
 
        Potential amp.       -0.0283 Ry
        Total length         67.7995 bohr
 

     total cpu time spent up to now is     7839.8 secs

     total energy              =   -2271.87398795 Ry
     estimated scf accuracy    <       4.53307538 Ry

     iteration # 88     ecut=    52.00 Ry     beta= 0.30
     Davidson diagonalization with overlap
     ethr =  3.93E-05,  avg # of iterations =  1.2

     negative rho (up, down):  1.257E-01 0.000E+00
 
     Adding external electric field

     Computed dipole along edir(3) : 
        Dipole                0.7515 Ry au,          1.9102 Debye
        Dipole field          0.0004 Ry au, 
 
        Potential amp.       -0.0509 Ry
        Total length         67.7995 bohr
 

     total cpu time spent up to now is     7918.6 secs

     total energy              =   -2271.89920435 Ry
     estimated scf accuracy    <       5.12040013 Ry

     iteration # 89     ecut=    52.00 Ry     beta= 0.30
     Davidson diagonalization with overlap
     ethr =  3.93E-05,  avg # of iterations =  1.2

     negative rho (up, down):  1.233E-01 0.000E+00
 
     Adding external electric field

     Computed dipole along edir(3) : 
        Dipole                0.8817 Ry au,          2.2410 Debye
        Dipole field          0.0004 Ry au, 
 
        Potential amp.       -0.0597 Ry
        Total length         67.7995 bohr
 

     total cpu time spent up to now is     7997.4 secs

     total energy              =   -2271.89379191 Ry
     estimated scf accuracy    <       6.99378634 Ry

     iteration # 90     ecut=    52.00 Ry     beta= 0.30
     Davidson diagonalization with overlap
     ethr =  3.93E-05,  avg # of iterations =  1.0

     negative rho (up, down):  1.168E-01 0.000E+00
 
     Adding external electric field

     Computed dipole along edir(3) : 
        Dipole                0.5724 Ry au,          1.4549 Debye
        Dipole field          0.0003 Ry au, 
 
        Potential amp.       -0.0388 Ry
        Total length         67.7995 bohr
 

     total cpu time spent up to now is     8074.8 secs

     total energy              =   -2271.86666592 Ry
     estimated scf accuracy    <       5.52253403 Ry

     iteration # 91     ecut=    52.00 Ry     beta= 0.30
     Davidson diagonalization with overlap
     ethr =  3.93E-05,  avg # of iterations =  1.2

     negative rho (up, down):  1.167E-01 0.000E+00
 
     Adding external electric field

     Computed dipole along edir(3) : 
        Dipole                0.3041 Ry au,          0.7731 Debye
        Dipole field          0.0002 Ry au, 
 
        Potential amp.       -0.0206 Ry
        Total length         67.7995 bohr
 

     total cpu time spent up to now is     8153.6 secs

     total energy              =   -2271.86629376 Ry
     estimated scf accuracy    <       5.27691928 Ry

     iteration # 92     ecut=    52.00 Ry     beta= 0.30
     Davidson diagonalization with overlap
     ethr =  3.93E-05,  avg # of iterations =  1.0

     negative rho (up, down):  1.174E-01 0.000E+00
 
     Adding external electric field

     Computed dipole along edir(3) : 
        Dipole                0.3450 Ry au,          0.8770 Debye
        Dipole field          0.0002 Ry au, 
 
        Potential amp.       -0.0234 Ry
        Total length         67.7995 bohr
 

     total cpu time spent up to now is     8230.9 secs

     total energy              =   -2271.86951073 Ry
     estimated scf accuracy    <       5.32999417 Ry

     iteration # 93     ecut=    52.00 Ry     beta= 0.30
     Davidson diagonalization with overlap
     ethr =  3.93E-05,  avg # of iterations =  1.0

     negative rho (up, down):  1.183E-01 0.000E+00
 
     Adding external electric field

     Computed dipole along edir(3) : 
        Dipole               -0.1241 Ry au,         -0.3155 Debye
        Dipole field         -0.0001 Ry au, 
 
        Potential amp.        0.0084 Ry
        Total length         67.7995 bohr
 

     total cpu time spent up to now is     8308.3 secs

     total energy              =   -2271.85066094 Ry
     estimated scf accuracy    <       5.36333512 Ry

     iteration # 94     ecut=    52.00 Ry     beta= 0.30
     Davidson diagonalization with overlap
     ethr =  3.93E-05,  avg # of iterations =  2.0

     negative rho (up, down):  1.205E-01 0.000E+00
 
     Adding external electric field

     Computed dipole along edir(3) : 
        Dipole               -0.1453 Ry au,         -0.3693 Debye
        Dipole field         -0.0001 Ry au, 
 
        Potential amp.        0.0098 Ry
        Total length         67.7995 bohr
 

     total cpu time spent up to now is     8393.1 secs

     total energy              =   -2271.87908017 Ry
     estimated scf accuracy    <       5.14338495 Ry

     iteration # 95     ecut=    52.00 Ry     beta= 0.30
     Davidson diagonalization with overlap
     ethr =  3.93E-05,  avg # of iterations =  2.0

     negative rho (up, down):  1.348E-01 0.000E+00
 
     Adding external electric field

     Computed dipole along edir(3) : 
        Dipole                0.7932 Ry au,          2.0161 Debye
        Dipole field          0.0004 Ry au, 
 
        Potential amp.       -0.0537 Ry
        Total length         67.7995 bohr
 

     total cpu time spent up to now is     8478.0 secs

     total energy              =   -2271.96130408 Ry
     estimated scf accuracy    <       5.88915737 Ry

     iteration # 96     ecut=    52.00 Ry     beta= 0.30
     Davidson diagonalization with overlap
     ethr =  3.93E-05,  avg # of iterations =  3.8

     negative rho (up, down):  1.209E-01 0.000E+00
 
     Adding external electric field

     Computed dipole along edir(3) : 
        Dipole                0.8615 Ry au,          2.1898 Debye
        Dipole field          0.0004 Ry au, 
 
        Potential amp.       -0.0583 Ry
        Total length         67.7995 bohr
 

     total cpu time spent up to now is     8564.0 secs

     total energy              =   -2271.84966206 Ry
     estimated scf accuracy    <      32.28253325 Ry

     iteration # 97     ecut=    52.00 Ry     beta= 0.30
     Davidson diagonalization with overlap
     ethr =  3.93E-05,  avg # of iterations =  4.8

     negative rho (up, down):  1.188E-01 0.000E+00
 
     Adding external electric field

     Computed dipole along edir(3) : 
        Dipole                0.4087 Ry au,          1.0388 Debye
        Dipole field          0.0002 Ry au, 
 
        Potential amp.       -0.0277 Ry
        Total length         67.7995 bohr
 

     total cpu time spent up to now is     8652.4 secs

     total energy              =   -2271.87315133 Ry
     estimated scf accuracy    <       7.94788204 Ry

     iteration # 98     ecut=    52.00 Ry     beta= 0.30
     Davidson diagonalization with overlap
     ethr =  3.93E-05,  avg # of iterations =  1.0

     negative rho (up, down):  1.175E-01 0.000E+00
 
     Adding external electric field

     Computed dipole along edir(3) : 
        Dipole                0.6908 Ry au,          1.7558 Debye
        Dipole field          0.0003 Ry au, 
 
        Potential amp.       -0.0468 Ry
        Total length         67.7995 bohr
 

     total cpu time spent up to now is     8729.7 secs

     total energy              =   -2271.82738511 Ry
     estimated scf accuracy    <       5.86006133 Ry

     iteration # 99     ecut=    52.00 Ry     beta= 0.30
     Davidson diagonalization with overlap
     ethr =  3.93E-05,  avg # of iterations =  1.8

     negative rho (up, down):  1.166E-01 0.000E+00
 
     Adding external electric field

     Computed dipole along edir(3) : 
        Dipole                0.8984 Ry au,          2.2836 Debye
        Dipole field          0.0004 Ry au, 
 
        Potential amp.       -0.0608 Ry
        Total length         67.7995 bohr
 

     total cpu time spent up to now is     8813.0 secs

     total energy              =   -2271.81764326 Ry
     estimated scf accuracy    <       2.97481527 Ry

     iteration #100     ecut=    52.00 Ry     beta= 0.30
     Davidson diagonalization with overlap
     c_bands:  1 eigenvalues not converged
     ethr =  3.93E-05,  avg # of iterations =  6.2

     negative rho (up, down):  1.225E-01 0.000E+00
 
     Adding external electric field

     Computed dipole along edir(3) : 
        Dipole                1.0876 Ry au,          2.7644 Debye
        Dipole field          0.0005 Ry au, 
 
        Potential amp.       -0.0737 Ry
        Total length         67.7995 bohr
 

     total cpu time spent up to now is     8899.4 secs

     total energy              =   -2271.81386418 Ry
     estimated scf accuracy    <       1.34863503 Ry

     iteration #101     ecut=    52.00 Ry     beta= 0.30
     Davidson diagonalization with overlap
     c_bands:  3 eigenvalues not converged
     ethr =  3.93E-05,  avg # of iterations =  5.6

     negative rho (up, down):  1.242E-01 0.000E+00
 
     Adding external electric field

     Computed dipole along edir(3) : 
        Dipole                1.1968 Ry au,          3.0418 Debye
        Dipole field          0.0006 Ry au, 
 
        Potential amp.       -0.0810 Ry
        Total length         67.7995 bohr
 

     total cpu time spent up to now is     8989.1 secs

     total energy              =   -2271.81636597 Ry
     estimated scf accuracy    <       0.33395595 Ry

     iteration #102     ecut=    52.00 Ry     beta= 0.30
     Davidson diagonalization with overlap
     ethr =  3.93E-05,  avg # of iterations =  1.4

     negative rho (up, down):  1.358E-01 0.000E+00
 
     Adding external electric field

     Computed dipole along edir(3) : 
        Dipole                1.3705 Ry au,          3.4834 Debye
        Dipole field          0.0007 Ry au, 
 
        Potential amp.       -0.0928 Ry
        Total length         67.7995 bohr
 

     total cpu time spent up to now is     9069.4 secs

     total energy              =   -2271.81458031 Ry
     estimated scf accuracy    <       0.63272761 Ry

     iteration #103     ecut=    52.00 Ry     beta= 0.30
     Davidson diagonalization with overlap
     c_bands:  1 eigenvalues not converged
     ethr =  3.93E-05,  avg # of iterations =  7.6

     negative rho (up, down):  1.278E-01 0.000E+00
 
     Adding external electric field

     Computed dipole along edir(3) : 
        Dipole                1.3782 Ry au,          3.5031 Debye
        Dipole field          0.0007 Ry au, 
 
        Potential amp.       -0.0933 Ry
        Total length         67.7995 bohr
 

     total cpu time spent up to now is     9161.4 secs

     total energy              =   -2271.81030204 Ry
     estimated scf accuracy    <       0.43101941 Ry

     iteration #104     ecut=    52.00 Ry     beta= 0.30
     Davidson diagonalization with overlap
     c_bands:  4 eigenvalues not converged
     c_bands:  3 eigenvalues not converged
     ethr =  3.93E-05,  avg # of iterations =  9.2

     negative rho (up, down):  1.158E-01 0.000E+00
 
     Adding external electric field

     Computed dipole along edir(3) : 
        Dipole                1.1216 Ry au,          2.8507 Debye
        Dipole field          0.0006 Ry au, 
 
        Potential amp.       -0.0760 Ry
        Total length         67.7995 bohr
 

     total cpu time spent up to now is     9256.4 secs

     total energy              =   -2271.80381956 Ry
     estimated scf accuracy    <       0.27271383 Ry

     iteration #105     ecut=    52.00 Ry     beta= 0.30
     Davidson diagonalization with overlap
     c_bands:  1 eigenvalues not converged
     ethr =  3.93E-05,  avg # of iterations =  5.4

     negative rho (up, down):  1.159E-01 0.000E+00
 
     Adding external electric field

     Computed dipole along edir(3) : 
        Dipole                1.2367 Ry au,          3.1435 Debye
        Dipole field          0.0006 Ry au, 
 
        Potential amp.       -0.0838 Ry
        Total length         67.7995 bohr
 

     total cpu time spent up to now is     9344.7 secs

     total energy              =   -2271.79708715 Ry
     estimated scf accuracy    <       0.24838497 Ry

     iteration #106     ecut=    52.00 Ry     beta= 0.30
     Davidson diagonalization with overlap
     ethr =  3.93E-05,  avg # of iterations =  1.6

     negative rho (up, down):  1.165E-01 0.000E+00
 
     Adding external electric field

     Computed dipole along edir(3) : 
        Dipole                1.4183 Ry au,          3.6050 Debye
        Dipole field          0.0007 Ry au, 
 
        Potential amp.       -0.0961 Ry
        Total length         67.7995 bohr
 

     total cpu time spent up to now is     9426.5 secs

     total energy              =   -2271.79641110 Ry
     estimated scf accuracy    <       0.07542897 Ry

     iteration #107     ecut=    52.00 Ry     beta= 0.30
     Davidson diagonalization with overlap
     ethr =  1.41E-05,  avg # of iterations = 19.0

     negative rho (up, down):  1.306E-01 0.000E+00
 
     Adding external electric field

     Computed dipole along edir(3) : 
        Dipole                1.7222 Ry au,          4.3773 Debye
        Dipole field          0.0009 Ry au, 
 
        Potential amp.       -0.1166 Ry
        Total length         67.7995 bohr
 

     total cpu time spent up to now is     9538.9 secs

     total energy              =   -2271.79323189 Ry
     estimated scf accuracy    <       0.06440986 Ry

     iteration #108     ecut=    52.00 Ry     beta= 0.30
     Davidson diagonalization with overlap
     c_bands:  1 eigenvalues not converged
     ethr =  1.21E-05,  avg # of iterations = 14.4

     negative rho (up, down):  1.226E-01 0.000E+00
 
     Adding external electric field

     Computed dipole along edir(3) : 
        Dipole                1.6269 Ry au,          4.1351 Debye
        Dipole field          0.0008 Ry au, 
 
        Potential amp.       -0.1102 Ry
        Total length         67.7995 bohr
 

     total cpu time spent up to now is     9642.9 secs

     total energy              =   -2271.78845878 Ry
     estimated scf accuracy    <       0.05215743 Ry

     iteration #109     ecut=    52.00 Ry     beta= 0.30
     Davidson diagonalization with overlap
     c_bands:  2 eigenvalues not converged
     c_bands:  1 eigenvalues not converged
     c_bands:  1 eigenvalues not converged
     c_bands:  1 eigenvalues not converged
     c_bands:  1 eigenvalues not converged
     ethr =  9.77E-06,  avg # of iterations = 20.0

     negative rho (up, down):  1.221E-01 0.000E+00
 
     Adding external electric field

     Computed dipole along edir(3) : 
        Dipole                1.5446 Ry au,          3.9260 Debye
        Dipole field          0.0008 Ry au, 
 
        Potential amp.       -0.1046 Ry
        Total length         67.7995 bohr
 

     total cpu time spent up to now is     9753.9 secs

     total energy              =   -2271.78699022 Ry
     estimated scf accuracy    <       0.03585281 Ry

     iteration #110     ecut=    52.00 Ry     beta= 0.30
     Davidson diagonalization with overlap
     c_bands:  1 eigenvalues not converged
     ethr =  6.71E-06,  avg # of iterations =  9.6

     negative rho (up, down):  1.220E-01 0.000E+00
 
     Adding external electric field

     Computed dipole along edir(3) : 
        Dipole                1.3269 Ry au,          3.3726 Debye
        Dipole field          0.0007 Ry au, 
 
        Potential amp.       -0.0899 Ry
        Total length         67.7995 bohr
 

     total cpu time spent up to now is     9849.1 secs

     total energy              =   -2271.78404065 Ry
     estimated scf accuracy    <       0.02828748 Ry

     iteration #111     ecut=    52.00 Ry     beta= 0.30
     Davidson diagonalization with overlap
     c_bands:  1 eigenvalues not converged
     c_bands:  1 eigenvalues not converged
     c_bands:  1 eigenvalues not converged
     c_bands:  1 eigenvalues not converged
     ethr =  5.30E-06,  avg # of iterations = 19.4

     negative rho (up, down):  1.185E-01 0.000E+00
 
     Adding external electric field

     Computed dipole along edir(3) : 
        Dipole                0.8571 Ry au,          2.1786 Debye
        Dipole field          0.0004 Ry au, 
 
        Potential amp.       -0.0580 Ry
        Total length         67.7995 bohr
 

     total cpu time spent up to now is     9965.9 secs

     total energy              =   -2271.78092284 Ry
     estimated scf accuracy    <       0.01737791 Ry

     iteration #112     ecut=    52.00 Ry     beta= 0.30
     Davidson diagonalization with overlap
     c_bands:  2 eigenvalues not converged
     c_bands:  1 eigenvalues not converged
     c_bands:  1 eigenvalues not converged
     c_bands:  1 eigenvalues not converged
     c_bands:  3 eigenvalues not converged
     ethr =  3.25E-06,  avg # of iterations = 20.0

     negative rho (up, down):  1.228E-01 0.000E+00
 
     Adding external electric field

     Computed dipole along edir(3) : 
        Dipole                0.5331 Ry au,          1.3551 Debye
        Dipole field          0.0003 Ry au, 
 
        Potential amp.       -0.0361 Ry
        Total length         67.7995 bohr
 

     total cpu time spent up to now is    10088.9 secs

     total energy              =   -2271.77968237 Ry
     estimated scf accuracy    <       0.00700484 Ry

     iteration #113     ecut=    52.00 Ry     beta= 0.30
     Davidson diagonalization with overlap
     c_bands:  1 eigenvalues not converged
     c_bands:  1 eigenvalues not converged
     c_bands:  2 eigenvalues not converged
     ethr =  1.31E-06,  avg # of iterations = 20.0

     negative rho (up, down):  1.209E-01 0.000E+00
 
     Adding external electric field

     Computed dipole along edir(3) : 
        Dipole                0.4735 Ry au,          1.2035 Debye
        Dipole field          0.0002 Ry au, 
 
        Potential amp.       -0.0321 Ry
        Total length         67.7995 bohr
 

     total cpu time spent up to now is    10215.3 secs

     total energy              =   -2271.78007651 Ry
     estimated scf accuracy    <       0.00151544 Ry

     iteration #114     ecut=    52.00 Ry     beta= 0.30
     Davidson diagonalization with overlap
     c_bands:  1 eigenvalues not converged
     c_bands:  2 eigenvalues not converged
     ethr =  2.84E-07,  avg # of iterations = 15.2

     negative rho (up, down):  1.191E-01 0.000E+00
 
     Adding external electric field

     Computed dipole along edir(3) : 
        Dipole                0.3133 Ry au,          0.7963 Debye
        Dipole field          0.0002 Ry au, 
 
        Potential amp.       -0.0212 Ry
        Total length         67.7995 bohr
 

     total cpu time spent up to now is    10324.1 secs

     total energy              =   -2271.77999976 Ry
     estimated scf accuracy    <       0.00056806 Ry

     iteration #115     ecut=    52.00 Ry     beta= 0.30
     Davidson diagonalization with overlap
     c_bands:  1 eigenvalues not converged
     c_bands:  1 eigenvalues not converged
     c_bands:  2 eigenvalues not converged
     c_bands:  1 eigenvalues not converged
     c_bands:  2 eigenvalues not converged
     ethr =  1.06E-07,  avg # of iterations = 20.0

     negative rho (up, down):  1.173E-01 0.000E+00
 
     Adding external electric field

     Computed dipole along edir(3) : 
        Dipole                0.2739 Ry au,          0.6961 Debye
        Dipole field          0.0001 Ry au, 
 
        Potential amp.       -0.0185 Ry
        Total length         67.7995 bohr
 

     total cpu time spent up to now is    10455.4 secs

     total energy              =   -2271.78006913 Ry
     estimated scf accuracy    <       0.00010140 Ry

     iteration #116     ecut=    52.00 Ry     beta= 0.30
     Davidson diagonalization with overlap
     c_bands:  1 eigenvalues not converged
     c_bands:  1 eigenvalues not converged
     ethr =  1.90E-08,  avg # of iterations = 12.0

     negative rho (up, down):  1.164E-01 0.000E+00
 
     Adding external electric field

     Computed dipole along edir(3) : 
        Dipole                0.2688 Ry au,          0.6831 Debye
        Dipole field          0.0001 Ry au, 
 
        Potential amp.       -0.0182 Ry
        Total length         67.7995 bohr
 

     total cpu time spent up to now is    10568.3 secs

     total energy              =   -2271.78007715 Ry
     estimated scf accuracy    <       0.00004397 Ry

     iteration #117     ecut=    52.00 Ry     beta= 0.30
     Davidson diagonalization with overlap
     ethr =  8.23E-09,  avg # of iterations =  3.8

     negative rho (up, down):  1.162E-01 0.000E+00
 
     Adding external electric field

     Computed dipole along edir(3) : 
        Dipole                0.2683 Ry au,          0.6818 Debye
        Dipole field          0.0001 Ry au, 
 
        Potential amp.       -0.0182 Ry
        Total length         67.7995 bohr
 

     total cpu time spent up to now is    10658.5 secs

     total energy              =   -2271.78007707 Ry
     estimated scf accuracy    <       0.00002558 Ry

     iteration #118     ecut=    52.00 Ry     beta= 0.30
     Davidson diagonalization with overlap
     ethr =  4.79E-09,  avg # of iterations =  2.8

     negative rho (up, down):  1.162E-01 0.000E+00
 
     Adding external electric field

     Computed dipole along edir(3) : 
        Dipole                0.2631 Ry au,          0.6686 Debye
        Dipole field          0.0001 Ry au, 
 
        Potential amp.       -0.0178 Ry
        Total length         67.7995 bohr
 

     total cpu time spent up to now is    10745.1 secs

     total energy              =   -2271.78007510 Ry
     estimated scf accuracy    <       0.00001996 Ry

     iteration #119     ecut=    52.00 Ry     beta= 0.30
     Davidson diagonalization with overlap
     ethr =  3.74E-09,  avg # of iterations =  4.8

     negative rho (up, down):  1.163E-01 0.000E+00
 
     Adding external electric field

     Computed dipole along edir(3) : 
        Dipole                0.2600 Ry au,          0.6610 Debye
        Dipole field          0.0001 Ry au, 
 
        Potential amp.       -0.0176 Ry
        Total length         67.7995 bohr
 

     total cpu time spent up to now is    10836.4 secs

     total energy              =   -2271.78007593 Ry
     estimated scf accuracy    <       0.00001348 Ry

     iteration #120     ecut=    52.00 Ry     beta= 0.30
     Davidson diagonalization with overlap
     ethr =  2.52E-09,  avg # of iterations =  1.8

     negative rho (up, down):  1.167E-01 0.000E+00
 
     Adding external electric field

     Computed dipole along edir(3) : 
        Dipole                0.2613 Ry au,          0.6642 Debye
        Dipole field          0.0001 Ry au, 
 
        Potential amp.       -0.0177 Ry
        Total length         67.7995 bohr
 

     total cpu time spent up to now is    10919.6 secs

     total energy              =   -2271.78007502 Ry
     estimated scf accuracy    <       0.00001082 Ry

     iteration #121     ecut=    52.00 Ry     beta= 0.30
     Davidson diagonalization with overlap
     ethr =  2.03E-09,  avg # of iterations =  5.0

     negative rho (up, down):  1.166E-01 0.000E+00
 
     Adding external electric field

     Computed dipole along edir(3) : 
        Dipole                0.2721 Ry au,          0.6917 Debye
        Dipole field          0.0001 Ry au, 
 
        Potential amp.       -0.0184 Ry
        Total length         67.7995 bohr
 

     total cpu time spent up to now is    11014.5 secs

     total energy              =   -2271.78007407 Ry
     estimated scf accuracy    <       0.00000898 Ry

     iteration #122     ecut=    52.00 Ry     beta= 0.30
     Davidson diagonalization with overlap
     ethr =  1.68E-09,  avg # of iterations =  4.6

     negative rho (up, down):  1.166E-01 0.000E+00
 
     Adding external electric field

     Computed dipole along edir(3) : 
        Dipole                0.2689 Ry au,          0.6835 Debye
        Dipole field          0.0001 Ry au, 
 
        Potential amp.       -0.0182 Ry
        Total length         67.7995 bohr
 

     total cpu time spent up to now is    11106.0 secs

     total energy              =   -2271.78007475 Ry
     estimated scf accuracy    <       0.00000520 Ry

     iteration #123     ecut=    52.00 Ry     beta= 0.30
     Davidson diagonalization with overlap
     ethr =  9.74E-10,  avg # of iterations =  5.6

     negative rho (up, down):  1.164E-01 0.000E+00
 
     Adding external electric field

     Computed dipole along edir(3) : 
        Dipole                0.2701 Ry au,          0.6866 Debye
        Dipole field          0.0001 Ry au, 
 
        Potential amp.       -0.0183 Ry
        Total length         67.7995 bohr
 

     total cpu time spent up to now is    11199.2 secs

     total energy              =   -2271.78007451 Ry
     estimated scf accuracy    <       0.00000650 Ry

     iteration #124     ecut=    52.00 Ry     beta= 0.30
     Davidson diagonalization with overlap
     ethr =  9.74E-10,  avg # of iterations =  3.6

     negative rho (up, down):  1.165E-01 0.000E+00
 
     Adding external electric field

     Computed dipole along edir(3) : 
        Dipole                0.2744 Ry au,          0.6975 Debye
        Dipole field          0.0001 Ry au, 
 
        Potential amp.       -0.0186 Ry
        Total length         67.7995 bohr
 

     total cpu time spent up to now is    11287.2 secs

     total energy              =   -2271.78007422 Ry
     estimated scf accuracy    <       0.00000390 Ry

     iteration #125     ecut=    52.00 Ry     beta= 0.30
     Davidson diagonalization with overlap
     ethr =  7.30E-10,  avg # of iterations =  3.2

     negative rho (up, down):  1.166E-01 0.000E+00
 
     Adding external electric field

     Computed dipole along edir(3) : 
        Dipole                0.2776 Ry au,          0.7055 Debye
        Dipole field          0.0001 Ry au, 
 
        Potential amp.       -0.0188 Ry
        Total length         67.7995 bohr
 

     total cpu time spent up to now is    11373.6 secs

     total energy              =   -2271.78007397 Ry
     estimated scf accuracy    <       0.00000253 Ry

     iteration #126     ecut=    52.00 Ry     beta= 0.30
     Davidson diagonalization with overlap
     ethr =  4.73E-10,  avg # of iterations =  5.2

     negative rho (up, down):  1.165E-01 0.000E+00
 
     Adding external electric field

     Computed dipole along edir(3) : 
        Dipole                0.2762 Ry au,          0.7019 Debye
        Dipole field          0.0001 Ry au, 
 
        Potential amp.       -0.0187 Ry
        Total length         67.7995 bohr
 

     total cpu time spent up to now is    11470.7 secs

     total energy              =   -2271.78007384 Ry
     estimated scf accuracy    <       0.00000217 Ry

     iteration #127     ecut=    52.00 Ry     beta= 0.30
     Davidson diagonalization with overlap
     ethr =  4.07E-10,  avg # of iterations =  2.0

     negative rho (up, down):  1.165E-01 0.000E+00
 
     Adding external electric field

     Computed dipole along edir(3) : 
        Dipole                0.2715 Ry au,          0.6901 Debye
        Dipole field          0.0001 Ry au, 
 
        Potential amp.       -0.0184 Ry
        Total length         67.7995 bohr
 

     total cpu time spent up to now is    11555.6 secs

     total energy              =   -2271.78007363 Ry
     estimated scf accuracy    <       0.00000121 Ry

     iteration #128     ecut=    52.00 Ry     beta= 0.30
     Davidson diagonalization with overlap
     ethr =  2.27E-10,  avg # of iterations =  5.4

     negative rho (up, down):  1.164E-01 0.000E+00
 
     Adding external electric field

     Computed dipole along edir(3) : 
        Dipole                0.2691 Ry au,          0.6839 Debye
        Dipole field          0.0001 Ry au, 
 
        Potential amp.       -0.0182 Ry
        Total length         67.7995 bohr
 

     total cpu time spent up to now is    11656.3 secs

     total energy              =   -2271.78007375 Ry
     estimated scf accuracy    <       0.00000088 Ry

     iteration #129     ecut=    52.00 Ry     beta= 0.30
     Davidson diagonalization with overlap
     ethr =  1.65E-10,  avg # of iterations =  2.0

     negative rho (up, down):  1.163E-01 0.000E+00
 
     Adding external electric field

     Computed dipole along edir(3) : 
        Dipole                0.2674 Ry au,          0.6796 Debye
        Dipole field          0.0001 Ry au, 
 
        Potential amp.       -0.0181 Ry
        Total length         67.7995 bohr
 

     total cpu time spent up to now is    11741.2 secs

     total energy              =   -2271.78007376 Ry
     estimated scf accuracy    <       0.00000063 Ry

     iteration #130     ecut=    52.00 Ry     beta= 0.30
     Davidson diagonalization with overlap
     ethr =  1.18E-10,  avg # of iterations =  2.4

     negative rho (up, down):  1.163E-01 0.000E+00
 
     Adding external electric field

     Computed dipole along edir(3) : 
        Dipole                0.2690 Ry au,          0.6838 Debye
        Dipole field          0.0001 Ry au, 
 
        Potential amp.       -0.0182 Ry
        Total length         67.7995 bohr
 

     total cpu time spent up to now is    11826.6 secs

     total energy              =   -2271.78007369 Ry
     estimated scf accuracy    <       0.00000052 Ry

     iteration #131     ecut=    52.00 Ry     beta= 0.30
     Davidson diagonalization with overlap
     ethr =  9.70E-11,  avg # of iterations =  3.2

     negative rho (up, down):  1.163E-01 0.000E+00
 
     Adding external electric field

     Computed dipole along edir(3) : 
        Dipole                0.2692 Ry au,          0.6842 Debye
        Dipole field          0.0001 Ry au, 
 
        Potential amp.       -0.0182 Ry
        Total length         67.7995 bohr
 

     total cpu time spent up to now is    11914.2 secs

     total energy              =   -2271.78007370 Ry
     estimated scf accuracy    <       0.00000037 Ry

     iteration #132     ecut=    52.00 Ry     beta= 0.30
     Davidson diagonalization with overlap
     ethr =  6.98E-11,  avg # of iterations =  2.0

     negative rho (up, down):  1.162E-01 0.000E+00
 
     Adding external electric field

     Computed dipole along edir(3) : 
        Dipole                0.2685 Ry au,          0.6825 Debye
        Dipole field          0.0001 Ry au, 
 
        Potential amp.       -0.0182 Ry
        Total length         67.7995 bohr
 

     total cpu time spent up to now is    11999.0 secs

     total energy              =   -2271.78007373 Ry
     estimated scf accuracy    <       0.00000026 Ry

     iteration #133     ecut=    52.00 Ry     beta= 0.30
     Davidson diagonalization with overlap
     ethr =  4.87E-11,  avg # of iterations =  5.0

     negative rho (up, down):  1.162E-01 0.000E+00
 
     Adding external electric field

     Computed dipole along edir(3) : 
        Dipole                0.2678 Ry au,          0.6806 Debye
        Dipole field          0.0001 Ry au, 
 
        Potential amp.       -0.0181 Ry
        Total length         67.7995 bohr
 

     total cpu time spent up to now is    12090.8 secs

     total energy              =   -2271.78007376 Ry
     estimated scf accuracy    <       0.00000023 Ry

     iteration #134     ecut=    52.00 Ry     beta= 0.30
     Davidson diagonalization with overlap
     ethr =  4.29E-11,  avg # of iterations =  4.6

     negative rho (up, down):  1.162E-01 0.000E+00
 
     Adding external electric field

     Computed dipole along edir(3) : 
        Dipole                0.2675 Ry au,          0.6800 Debye
        Dipole field          0.0001 Ry au, 
 
        Potential amp.       -0.0181 Ry
        Total length         67.7995 bohr
 

     total cpu time spent up to now is    12179.9 secs

     total energy              =   -2271.78007376 Ry
     estimated scf accuracy    <       0.00000016 Ry

     iteration #135     ecut=    52.00 Ry     beta= 0.30
     Davidson diagonalization with overlap
     ethr =  2.93E-11,  avg # of iterations =  1.2

     negative rho (up, down):  1.162E-01 0.000E+00
 
     Adding external electric field

     Computed dipole along edir(3) : 
        Dipole                0.2680 Ry au,          0.6813 Debye
        Dipole field          0.0001 Ry au, 
 
        Potential amp.       -0.0182 Ry
        Total length         67.7995 bohr
 

     total cpu time spent up to now is    12258.7 secs

     total energy              =   -2271.78007369 Ry
     estimated scf accuracy    <       0.00000014 Ry

     iteration #136     ecut=    52.00 Ry     beta= 0.30
     Davidson diagonalization with overlap
     ethr =  2.58E-11,  avg # of iterations =  2.0

     negative rho (up, down):  1.162E-01 0.000E+00
 
     Adding external electric field

     Computed dipole along edir(3) : 
        Dipole                0.2686 Ry au,          0.6828 Debye
        Dipole field          0.0001 Ry au, 
 
        Potential amp.       -0.0182 Ry
        Total length         67.7995 bohr
 

     total cpu time spent up to now is    12344.6 secs

     total energy              =   -2271.78007373 Ry
     estimated scf accuracy    <       0.00000008 Ry

     iteration #137     ecut=    52.00 Ry     beta= 0.30
     Davidson diagonalization with overlap
     ethr =  1.45E-11,  avg # of iterations =  3.0

     negative rho (up, down):  1.162E-01 0.000E+00
 
     Adding external electric field

     Computed dipole along edir(3) : 
        Dipole                0.2703 Ry au,          0.6869 Debye
        Dipole field          0.0001 Ry au, 
 
        Potential amp.       -0.0183 Ry
        Total length         67.7995 bohr
 

     total cpu time spent up to now is    12431.2 secs

     total energy              =   -2271.78007376 Ry
     estimated scf accuracy    <       0.00000006 Ry

     iteration #138     ecut=    52.00 Ry     beta= 0.30
     Davidson diagonalization with overlap
     ethr =  1.06E-11,  avg # of iterations =  5.0

     negative rho (up, down):  1.162E-01 0.000E+00
 
     Adding external electric field

     Computed dipole along edir(3) : 
        Dipole                0.2701 Ry au,          0.6865 Debye
        Dipole field          0.0001 Ry au, 
 
        Potential amp.       -0.0183 Ry
        Total length         67.7995 bohr
 

     total cpu time spent up to now is    12530.0 secs

     total energy              =   -2271.78007375 Ry
     estimated scf accuracy    <       0.00000001 Ry

     iteration #139     ecut=    52.00 Ry     beta= 0.30
     Davidson diagonalization with overlap
     ethr =  2.67E-12,  avg # of iterations =  4.0

     negative rho (up, down):  1.162E-01 0.000E+00
 
     Adding external electric field

     Computed dipole along edir(3) : 
        Dipole                0.2693 Ry au,          0.6845 Debye
        Dipole field          0.0001 Ry au, 
 
        Potential amp.       -0.0182 Ry
        Total length         67.7995 bohr
 

     total cpu time spent up to now is    12623.7 secs

     End of self-consistent calculation

          k = 0.0000 0.0000 0.0000 (159335 PWs)   bands (ev):

   -45.5505 -45.5431 -45.5362 -45.4963 -45.4920 -45.4458 -45.4456 -45.4295
   -45.4158 -45.4080 -45.4078 -45.4073 -45.4065 -45.4045 -45.3998 -45.3934
   -45.3924 -45.3793 -45.3786 -45.3673 -45.3667 -45.3557 -45.3549 -45.3360
   -45.3275 -45.3093 -45.3089 -45.2924 -45.2921 -45.2868 -45.2439 -45.2432
   -45.2087 -45.1964 -45.1949 -45.1838 -45.1838 -45.1772 -45.1657 -45.1632
   -45.1519 -45.1492 -45.1492 -45.1483 -45.1193 -45.1191 -45.0210 -45.0210
   -45.0014 -45.0013 -44.9933 -44.9389 -16.8555 -15.8916 -15.8688 -15.6853
   -15.6668 -15.6635 -15.6466 -15.5261 -15.5079 -15.1861 -15.1560 -15.1439
   -15.1343 -14.9359 -14.9331 -14.8976 -14.8938 -14.1354 -14.1042 -13.0542
   -13.0157 -12.9389 -12.9187 -12.9045 -12.8733 -12.8705 -12.8576 -12.8190
   -12.7746 -12.7439 -12.7330 -12.7156 -12.7126 -12.6864 -12.6711 -12.6701
   -12.6213 -12.5949 -12.5902 -12.5874 -12.5808 -12.5157 -12.4973 -11.1334
   -11.1280 -11.0233 -11.0116 -10.9854 -10.9804 -10.5421 -10.5234 -10.2103
   -10.0186 -10.0062 -10.0051  -8.8757  -8.6912  -8.5717  -8.5111  -8.4240
    -8.3210  -8.2782  -8.2767  -8.2416  -6.9507  -6.5891  -5.9750  -5.9570
    -5.9178  -5.8581  -5.8237  -5.7648  -5.6805  -5.5566  -5.5489  -5.5081
    -5.4094  -5.3753  -5.3672  -5.3216  -5.3145  -5.2790  -5.2533  -5.1970
    -5.1578  -5.1183  -5.0973  -5.0939  -5.0633  -5.0078  -4.9892  -4.8781
    -4.7478  -4.0713  -4.0286  -3.9874  -3.9605  -3.9500  -3.9365  -3.8947
    -3.8467  -3.8346  -3.8180  -3.8054  -3.7891  -3.7421  -3.7147  -3.7027
    -3.6930  -3.6482  -3.6158  -3.6064  -3.5930  -3.5714  -3.5474  -3.5192
    -3.4861  -3.4163  -3.3740  -3.3708  -3.3324  -3.3005  -3.2596  -3.2100
    -3.1318  -3.1237  -3.0718  -3.0643  -3.0027  -2.9746  -2.8705  -2.8558
    -2.8060  -2.7664  -2.7471  -2.7456  -2.7196  -2.7097  -2.6585  -2.6530
    -2.6345  -2.6276  -2.6141  -2.5940  -2.5733  -2.5581  -2.5313  -2.5182
    -2.4965  -2.4846  -2.4560  -2.4423  -2.3918  -2.3892  -2.3690  -2.3073
    -2.2858  -2.2037  -2.1909  -2.1206  -2.0501  -2.0188  -2.0021  -1.9278
    -1.9130  -1.8488  -1.8315  -1.8026  -1.7923  -1.7507  -1.7386  -1.7261
    -1.7046  -1.6883  -1.6559  -1.6504  -1.6201  -1.6132  -1.5946  -1.5862
    -1.5597  -1.5401  -1.5276  -1.4965  -1.4804  -1.4413  -1.4307  -1.4279
    -1.3987  -1.3953  -1.3688  -1.3572  -1.3158  -1.2914  -1.2707  -1.2572
    -1.2369  -1.2108  -1.2032  -1.1366  -1.1214  -1.0966  -1.0866  -1.0295
    -0.9427  -0.8300  -0.8090  -0.6492  -0.5768  -0.4985  -0.4380  -0.4347
    -0.4060  -0.3565  -0.3184   1.3502   1.6820   2.1420   2.5861   2.6817
     2.7812   2.7909   2.8204   2.8506   2.8953   2.9556   2.9763   2.9915
     3.0042   3.0481   3.0545   3.0842   3.1680   3.1812   3.2141   3.2226
     3.2463   3.3061   3.3092   3.4014   3.4491   3.5727   3.5800   3.6430
     3.7615   3.7746   3.9359   3.9742   3.9936   4.0643   4.0919   4.1226
     4.1566   4.1869   4.2485   4.2804   4.3714   4.3809   4.4056   4.4966
     4.5263   4.5757   4.5968   4.6046   4.6404   4.6565   4.6953   4.7208

          k = 0.0000 0.3333 0.0000 (159384 PWs)   bands (ev):

   -45.5505 -45.5431 -45.5362 -45.4963 -45.4920 -45.4458 -45.4456 -45.4295
   -45.4158 -45.4080 -45.4078 -45.4073 -45.4065 -45.4045 -45.3998 -45.3934
   -45.3924 -45.3793 -45.3786 -45.3673 -45.3667 -45.3557 -45.3549 -45.3360
   -45.3275 -45.3093 -45.3089 -45.2924 -45.2921 -45.2868 -45.2439 -45.2432
   -45.2087 -45.1964 -45.1949 -45.1838 -45.1838 -45.1772 -45.1657 -45.1632
   -45.1519 -45.1492 -45.1492 -45.1483 -45.1193 -45.1191 -45.0210 -45.0210
   -45.0014 -45.0013 -44.9933 -44.9389 -16.8555 -15.8878 -15.8720 -15.6798
   -15.6677 -15.6614 -15.6513 -15.5217 -15.5127 -15.1866 -15.1565 -15.1447
   -15.1354 -14.9357 -14.9343 -14.8980 -14.8952 -14.1354 -14.1042 -13.0362
   -13.0149 -12.9358 -12.9285 -12.9027 -12.8805 -12.8511 -12.8333 -12.8240
   -12.7909 -12.7496 -12.7448 -12.7264 -12.7236 -12.6763 -12.6683 -12.6503
   -12.6163 -12.6153 -12.5989 -12.5801 -12.5753 -12.5163 -12.5063 -11.1324
   -11.1286 -11.0230 -11.0115 -10.9841 -10.9814 -10.5420 -10.5234 -10.2102
   -10.0184 -10.0058 -10.0053  -8.7584  -8.6083  -8.5712  -8.5207  -8.4666
    -8.4205  -8.3592  -8.2793  -8.2715  -6.9514  -6.5891  -5.9582  -5.9186
    -5.8852  -5.8437  -5.7476  -5.6856  -5.6706  -5.5854  -5.5677  -5.5402
    -5.3941  -5.3903  -5.3747  -5.3351  -5.3006  -5.2589  -5.2353  -5.2220
    -5.1635  -5.1506  -5.1364  -5.0960  -5.0904  -5.0455  -4.9872  -4.9405
    -4.7476  -4.1160  -4.0899  -3.9929  -3.9855  -3.9772  -3.9593  -3.8735
    -3.8569  -3.8483  -3.8360  -3.8054  -3.7993  -3.7581  -3.7572  -3.7026
    -3.6720  -3.6219  -3.6028  -3.5990  -3.5924  -3.5608  -3.5471  -3.4722
    -3.4650  -3.3802  -3.3651  -3.2888  -3.2767  -3.2246  -3.1866  -3.1126
    -3.0867  -3.0805  -3.0458  -3.0324  -2.9320  -2.9074  -2.9009  -2.8456
    -2.8383  -2.7871  -2.7764  -2.7535  -2.7421  -2.6960  -2.6767  -2.6654
    -2.6513  -2.6180  -2.6141  -2.5898  -2.5856  -2.5552  -2.5497  -2.5221
    -2.5150  -2.4876  -2.4781  -2.4455  -2.3945  -2.3885  -2.3781  -2.3303
    -2.2948  -2.2059  -2.2010  -2.1214  -2.0435  -2.0062  -1.9726  -1.9504
    -1.8863  -1.8650  -1.8333  -1.8180  -1.8047  -1.7645  -1.7577  -1.7316
    -1.7078  -1.6652  -1.6625  -1.6397  -1.6253  -1.6191  -1.6100  -1.5753
    -1.5521  -1.5370  -1.5284  -1.4962  -1.4685  -1.4617  -1.4546  -1.4353
    -1.4050  -1.3928  -1.3837  -1.3791  -1.3303  -1.3205  -1.2978  -1.2685
    -1.2578  -1.2358  -1.2318  -1.1735  -1.1678  -1.1198  -1.0956  -1.0804
    -0.9214  -0.8687  -0.8315  -0.6312  -0.5740  -0.4726  -0.4448  -0.4359
    -0.3911  -0.3662  -0.3154   1.6490   1.8797   2.2490   2.3093   2.3837
     2.5359   2.6469   2.7170   2.8805   2.8988   3.0109   3.0424   3.0683
     3.1401   3.1604   3.1865   3.2170   3.2206   3.2349   3.3019   3.3197
     3.3603   3.3955   3.4171   3.4906   3.5157   3.5234   3.6238   3.6494
     3.6778   3.7143   3.8079   3.8158   3.9216   3.9419   3.9609   3.9861
     4.0876   4.1287   4.1935   4.2757   4.2997   4.3893   4.4330   4.4792
     4.5090   4.5557   4.5939   4.6174   4.6343   4.6967   4.7196   4.7556

          k = 0.3333 0.0000 0.0000 (159384 PWs)   bands (ev):

   -45.5505 -45.5431 -45.5362 -45.4963 -45.4920 -45.4458 -45.4456 -45.4295
   -45.4158 -45.4080 -45.4078 -45.4073 -45.4065 -45.4045 -45.3998 -45.3934
   -45.3924 -45.3793 -45.3786 -45.3673 -45.3667 -45.3557 -45.3549 -45.3360
   -45.3275 -45.3093 -45.3089 -45.2924 -45.2921 -45.2868 -45.2439 -45.2432
   -45.2087 -45.1964 -45.1949 -45.1838 -45.1838 -45.1772 -45.1657 -45.1632
   -45.1519 -45.1492 -45.1492 -45.1483 -45.1193 -45.1191 -45.0210 -45.0210
   -45.0014 -45.0013 -44.9933 -44.9389 -16.8555 -15.8878 -15.8719 -15.6802
   -15.6681 -15.6614 -15.6513 -15.5216 -15.5126 -15.1867 -15.1567 -15.1443
   -15.1352 -14.9358 -14.9344 -14.8977 -14.8950 -14.1354 -14.1042 -13.0449
   -13.0242 -12.9299 -12.9190 -12.8898 -12.8790 -12.8581 -12.8453 -12.8326
   -12.7969 -12.7355 -12.7307 -12.7089 -12.7069 -12.6843 -12.6774 -12.6632
   -12.6186 -12.6164 -12.6044 -12.5803 -12.5796 -12.5142 -12.5072 -11.1324
   -11.1286 -11.0229 -11.0114 -10.9841 -10.9814 -10.5421 -10.5235 -10.2102
   -10.0184 -10.0058 -10.0053  -8.7577  -8.6084  -8.5713  -8.5189  -8.4668
    -8.4267  -8.3583  -8.2753  -8.2627  -6.9504  -6.5891  -5.9575  -5.9239
    -5.9184  -5.8711  -5.7676  -5.6940  -5.6716  -5.5655  -5.5279  -5.4832
    -5.4313  -5.3603  -5.3499  -5.3386  -5.2964  -5.2641  -5.2408  -5.2270
    -5.1673  -5.1639  -5.1542  -5.1129  -5.0837  -5.0469  -4.9734  -4.9191
    -4.7475  -4.0540  -4.0296  -3.9874  -3.9611  -3.9504  -3.9384  -3.9137
    -3.8861  -3.8343  -3.8230  -3.8048  -3.7964  -3.7421  -3.7129  -3.7050
    -3.7001  -3.6697  -3.6428  -3.6232  -3.6081  -3.5773  -3.5622  -3.5213
    -3.5007  -3.4142  -3.4125  -3.3623  -3.3352  -3.2465  -3.2088  -3.1552
    -3.0900  -3.0494  -3.0297  -2.9913  -2.9819  -2.9505  -2.8989  -2.8080
    -2.7985  -2.7654  -2.7490  -2.7217  -2.7170  -2.7085  -2.6940  -2.6594
    -2.6532  -2.6349  -2.5959  -2.5944  -2.5724  -2.5646  -2.5312  -2.5267
    -2.4809  -2.4786  -2.4552  -2.4355  -2.4095  -2.3919  -2.3634  -2.2643
    -2.2594  -2.1953  -2.1783  -2.1214  -2.0466  -2.0129  -1.9705  -1.9426
    -1.8870  -1.8609  -1.8316  -1.8013  -1.7840  -1.7659  -1.7605  -1.7305
    -1.7212  -1.6849  -1.6639  -1.6561  -1.6453  -1.6195  -1.6026  -1.5750
    -1.5590  -1.5255  -1.5114  -1.5084  -1.4903  -1.4730  -1.4484  -1.4406
    -1.4073  -1.4012  -1.3653  -1.3606  -1.3318  -1.3190  -1.2968  -1.2894
    -1.2624  -1.2383  -1.1986  -1.1607  -1.1508  -1.1330  -1.0925  -1.0832
    -0.9180  -0.8641  -0.8280  -0.6302  -0.5777  -0.4724  -0.4438  -0.4389
    -0.3998  -0.3713  -0.3194   1.6797   1.8891   2.2382   2.3406   2.4120
     2.5454   2.6561   2.7790   2.8569   2.8918   2.9446   2.9950   3.0222
     3.0876   3.1006   3.1252   3.1382   3.2016   3.2182   3.2559   3.2964
     3.3658   3.3901   3.4591   3.5214   3.5586   3.5865   3.6472   3.7264
     3.7733   3.7932   3.8436   3.8771   3.8926   3.9133   4.0029   4.0367
     4.0612   4.1450   4.1681   4.2665   4.3050   4.3613   4.4126   4.4355
     4.4998   4.5225   4.5656   4.5785   4.6157   4.6462   4.6861   4.7057

          k = 0.3333 0.3333 0.0000 (159335 PWs)   bands (ev):

   -45.5505 -45.5431 -45.5362 -45.4963 -45.4920 -45.4458 -45.4456 -45.4295
   -45.4158 -45.4080 -45.4078 -45.4073 -45.4065 -45.4045 -45.3998 -45.3934
   -45.3924 -45.3793 -45.3786 -45.3673 -45.3667 -45.3557 -45.3549 -45.3360
   -45.3275 -45.3093 -45.3089 -45.2924 -45.2921 -45.2868 -45.2439 -45.2432
   -45.2087 -45.1964 -45.1949 -45.1838 -45.1838 -45.1772 -45.1657 -45.1632
   -45.1519 -45.1492 -45.1492 -45.1483 -45.1193 -45.1191 -45.0210 -45.0210
   -45.0014 -45.0013 -44.9933 -44.9389 -16.8555 -15.8867 -15.8722 -15.6773
   -15.6696 -15.6575 -15.6544 -15.5196 -15.5150 -15.1872 -15.1571 -15.1452
   -15.1362 -14.9363 -14.9351 -14.8985 -14.8960 -14.1354 -14.1042 -13.0347
   -13.0184 -12.9288 -12.9262 -12.8933 -12.8851 -12.8429 -12.8346 -12.8302
   -12.7929 -12.7505 -12.7500 -12.7256 -12.7074 -12.6862 -12.6650 -12.6459
   -12.6259 -12.6183 -12.6002 -12.5787 -12.5712 -12.5153 -12.5146 -11.1321
   -11.1289 -11.0230 -11.0115 -10.9836 -10.9820 -10.5419 -10.5234 -10.2103
   -10.0186 -10.0056 -10.0055  -8.6813  -8.5713  -8.5578  -8.5163  -8.4664
    -8.4441  -8.4113  -8.3377  -8.3103  -6.9511  -6.5891  -5.9586  -5.9193
    -5.8381  -5.8121  -5.6813  -5.6631  -5.6235  -5.5659  -5.5565  -5.5376
    -5.4015  -5.3977  -5.3483  -5.3432  -5.2995  -5.2846  -5.2534  -5.2288
    -5.1921  -5.1776  -5.1415  -5.1263  -5.1174  -5.1065  -4.9964  -4.9672
    -4.7475  -4.1048  -4.0789  -4.0170  -3.9918  -3.9857  -3.9598  -3.8866
    -3.8711  -3.8564  -3.8313  -3.8063  -3.7894  -3.7804  -3.7633  -3.7255
    -3.6883  -3.6436  -3.6224  -3.6057  -3.5610  -3.5588  -3.5155  -3.4994
    -3.4760  -3.3927  -3.3336  -3.2567  -3.2205  -3.1650  -3.1505  -3.0811
    -3.0782  -3.0588  -3.0044  -2.9948  -2.9198  -2.8939  -2.8555  -2.8429
    -2.8334  -2.8121  -2.8081  -2.7622  -2.7280  -2.7169  -2.7081  -2.6836
    -2.6662  -2.6452  -2.6397  -2.6234  -2.5751  -2.5639  -2.5585  -2.5440
    -2.5248  -2.4851  -2.4787  -2.4582  -2.4341  -2.3976  -2.3830  -2.3136
    -2.2895  -2.2100  -2.1763  -2.1206  -2.0479  -2.0149  -1.9851  -1.9624
    -1.8989  -1.8619  -1.8147  -1.8105  -1.7961  -1.7944  -1.7665  -1.7275
    -1.7242  -1.6868  -1.6812  -1.6603  -1.6443  -1.6276  -1.5867  -1.5678
    -1.5470  -1.5340  -1.5134  -1.4934  -1.4795  -1.4596  -1.4482  -1.4289
    -1.4047  -1.3964  -1.3550  -1.3271  -1.3164  -1.3009  -1.2789  -1.2702
    -1.2650  -1.2207  -1.1638  -1.1597  -1.1137  -1.1028  -1.0926  -1.0718
    -0.9134  -0.8755  -0.8166  -0.6470  -0.5789  -0.4738  -0.4402  -0.4372
    -0.4056  -0.3580  -0.3121   1.8308   1.9299   2.1710   2.1802   2.2414
     2.2952   2.4322   2.4885   2.8477   2.9001   2.9239   2.9918   3.0446
     3.0865   3.1572   3.2046   3.2283   3.2540   3.2861   3.3453   3.3638
     3.4011   3.4520   3.5002   3.5692   3.5926   3.6049   3.6855   3.7046
     3.7129   3.7619   3.7714   3.7990   3.8412   3.8996   3.9387   3.9860
     4.1209   4.1515   4.1660   4.2782   4.3281   4.3333   4.4139   4.4580
     4.4745   4.5244   4.5660   4.6135   4.6738   4.6987   4.8002   4.8141

          k = 0.3333-0.3333 0.0000 (159335 PWs)   bands (ev):

   -45.5505 -45.5431 -45.5362 -45.4963 -45.4920 -45.4458 -45.4456 -45.4295
   -45.4158 -45.4080 -45.4078 -45.4073 -45.4065 -45.4045 -45.3998 -45.3934
   -45.3924 -45.3793 -45.3786 -45.3673 -45.3667 -45.3557 -45.3549 -45.3360
   -45.3275 -45.3093 -45.3089 -45.2924 -45.2921 -45.2868 -45.2439 -45.2432
   -45.2087 -45.1964 -45.1949 -45.1838 -45.1838 -45.1772 -45.1657 -45.1632
   -45.1519 -45.1492 -45.1492 -45.1483 -45.1193 -45.1191 -45.0210 -45.0210
   -45.0014 -45.0013 -44.9933 -44.9389 -16.8555 -15.8860 -15.8729 -15.6777
   -15.6692 -15.6594 -15.6524 -15.5195 -15.5151 -15.1872 -15.1571 -15.1453
   -15.1361 -14.9358 -14.9355 -14.8984 -14.8961 -14.1354 -14.1042 -13.0319
   -13.0196 -12.9320 -12.9235 -12.8971 -12.8837 -12.8486 -12.8306 -12.8228
   -12.8043 -12.7467 -12.7453 -12.7267 -12.7065 -12.6814 -12.6702 -12.6440
   -12.6305 -12.6089 -12.6082 -12.5773 -12.5718 -12.5187 -12.5114 -11.1322
   -11.1288 -11.0230 -11.0115 -10.9836 -10.9820 -10.5419 -10.5234 -10.2102
   -10.0184 -10.0059 -10.0054  -8.6658  -8.5717  -8.5611  -8.5488  -8.4638
    -8.4560  -8.3736  -8.3399  -8.3155  -6.9511  -6.5891  -5.9586  -5.9193
    -5.8246  -5.8162  -5.7045  -5.6484  -5.6420  -5.5772  -5.5441  -5.5272
    -5.3948  -5.3800  -5.3680  -5.3480  -5.3030  -5.2625  -5.2493  -5.2208
    -5.2116  -5.1729  -5.1693  -5.1314  -5.1222  -5.0758  -4.9872  -4.9788
    -4.7474  -4.1149  -4.0698  -4.0204  -3.9921  -3.9857  -3.9598  -3.8934
    -3.8649  -3.8498  -3.8366  -3.7980  -3.7856  -3.7832  -3.7642  -3.7318
    -3.6865  -3.6347  -3.6324  -3.6080  -3.5751  -3.5522  -3.5166  -3.4885
    -3.4667  -3.3955  -3.3349  -3.2594  -3.2415  -3.1657  -3.1555  -3.0750
    -3.0514  -3.0236  -3.0189  -2.9773  -2.9463  -2.8926  -2.8881  -2.8729
    -2.8329  -2.8081  -2.8027  -2.7507  -2.7371  -2.7039  -2.6903  -2.6727
    -2.6596  -2.6473  -2.6247  -2.6169  -2.6000  -2.5755  -2.5636  -2.5340
    -2.5191  -2.5122  -2.4936  -2.4393  -2.4363  -2.3983  -2.3764  -2.3315
    -2.2597  -2.2176  -2.1708  -2.1208  -2.0434  -1.9832  -1.9657  -1.9542
    -1.9090  -1.8688  -1.8607  -1.8283  -1.7961  -1.7935  -1.7695  -1.7419
    -1.7125  -1.6826  -1.6661  -1.6458  -1.6247  -1.5998  -1.5944  -1.5796
    -1.5752  -1.5166  -1.5076  -1.5057  -1.4743  -1.4573  -1.4482  -1.4406
    -1.4163  -1.4033  -1.3810  -1.3699  -1.3188  -1.3137  -1.2908  -1.2266
    -1.2198  -1.2154  -1.1671  -1.1508  -1.1376  -1.1188  -1.0869  -1.0404
    -0.9388  -0.8437  -0.8323  -0.6311  -0.5757  -0.4952  -0.4361  -0.4298
    -0.4209  -0.3450  -0.3144   1.8232   1.9325   2.1455   2.2053   2.2447
     2.3175   2.4375   2.4737   2.8320   2.8885   2.9593   2.9857   3.0362
     3.1136   3.1323   3.1751   3.2011   3.2515   3.2575   3.3831   3.4526
     3.4578   3.4898   3.5027   3.5469   3.5589   3.6013   3.6142   3.7104
     3.7217   3.7570   3.7658   3.8199   3.8383   3.8773   3.9675   3.9892
     4.0157   4.1050   4.1480   4.2274   4.3613   4.3854   4.4320   4.4647
     4.5187   4.5262   4.5917   4.6029   4.6496   4.7555   4.7937   4.8344

     the Fermi energy is     0.3872 ev

!    total energy              =   -2271.78007372 Ry
     estimated scf accuracy    <          6.2E-09 Ry
     smearing contrib. (-TS)   =      -0.00000000 Ry
     internal energy E=F+TS    =   -2271.78007372 Ry

     The total energy is F=E-TS. E is the sum of the following terms:
     one-electron contribution =  -18985.40874748 Ry
     hartree contribution      =    9540.23226867 Ry
     xc contribution           =    -678.16392829 Ry
     ewald contribution        =    7890.32039677 Ry
     DFT-D3 Dispersion         =      -1.75574967 Ry
     electric field correction =       0.00003623 Ry
     one-center paw contrib.   =     -37.00434995 Ry

     convergence has been achieved in 139 iterations

     negative rho (up, down):  1.162E-01 0.000E+00

     Forces acting on atoms (cartesian axes, Ry/au):

     atom    1 type  2   force =     0.00022218    0.00013484    0.00193309
     atom    2 type  2   force =     0.00021653    0.00011805    0.00192346
     atom    3 type  2   force =    -0.00039462   -0.00062241   -0.00199517
     atom    4 type  2   force =    -0.00039209   -0.00088544   -0.00190067
     atom    5 type  3   force =     0.00024712    0.00002703    0.00060768
     atom    6 type  3   force =     0.00022890    0.00003006    0.00060348
     atom    7 type  3   force =    -0.00005215   -0.00032385    0.00071624
     atom    8 type  3   force =    -0.00006137   -0.00030299    0.00073298
     atom    9 type  3   force =     0.00023666   -0.00017671    0.00280950
     atom   10 type  3   force =     0.00024017   -0.00015455    0.00283687
     atom   11 type  3   force =    -0.00009976   -0.00022930    0.00002327
     atom   12 type  3   force =    -0.00009357   -0.00014037    0.00007659
     atom   13 type  3   force =     0.00006909    0.00028030    0.00313902
     atom   14 type  3   force =     0.00011134    0.00028864    0.00311626
     atom   15 type  3   force =     0.00005826    0.00067766    0.00030361
     atom   16 type  3   force =     0.00007292    0.00074927    0.00027181
     atom   17 type  1   force =     0.00009501    0.00015516    0.00221441
     atom   18 type  1   force =     0.00011369    0.00017519    0.00221760
     atom   19 type  1   force =    -0.00027963    0.00023667    0.00045078
     atom   20 type  1   force =    -0.00028761    0.00020373    0.00043066
     atom   21 type  1   force =    -0.00034503    0.00009303    0.00109245
     atom   22 type  1   force =    -0.00033718    0.00008848    0.00108323
     atom   23 type  1   force =     0.00005604    0.00021651    0.00018624
     atom   24 type  1   force =     0.00008623    0.00020103    0.00016626
     atom   25 type  1   force =    -0.00012914    0.00000840    0.00196615
     atom   26 type  1   force =    -0.00012861    0.00001251    0.00196776
     atom   27 type  1   force =     0.00009143   -0.00006840    0.00016971
     atom   28 type  1   force =     0.00009953   -0.00005381    0.00016070
     atom   29 type  1   force =    -0.00022745   -0.00011119    0.00245926
     atom   30 type  1   force =    -0.00024851   -0.00018615    0.00246761
     atom   31 type  1   force =     0.00019065   -0.00004867    0.00182404
     atom   32 type  1   force =     0.00019116   -0.00004866    0.00182451
     atom   33 type  1   force =    -0.00038422    0.00024283    0.00014910
     atom   34 type  1   force =    -0.00036881    0.00022199    0.00014204
     atom   35 type  1   force =     0.00024755   -0.00018670    0.00041306
     atom   36 type  1   force =     0.00025179   -0.00021056    0.00041360
     atom   37 type  4   force =    -0.00033805   -0.00006357   -0.00126070
     atom   38 type  4   force =    -0.00019031   -0.00002872    0.00175223
     atom   39 type  4   force =    -0.00018932   -0.00004145    0.00174649
     atom   40 type  3   force =    -0.00008992   -0.00003189    0.00376935
     atom   41 type  3   force =    -0.00012273   -0.00012005    0.00376846
     atom   42 type  3   force =     0.00028328   -0.00003169    0.00028601
     atom   43 type  3   force =     0.00027522   -0.00002359    0.00028672
     atom   44 type  2   force =     0.00040772   -0.00059151   -0.00101203
     atom   45 type  2   force =     0.00047546   -0.00055908   -0.00102535
     atom   46 type  2   force =    -0.00017179   -0.00084014   -0.00206311
     atom   47 type  2   force =     0.00009802   -0.00064546   -0.00208780
     atom   48 type  3   force =     0.00253336    0.00365549    0.00381192
     atom   49 type  3   force =     0.00249983    0.00370132    0.00389136
     atom   50 type  3   force =    -0.00022919   -0.00013230    0.00000922
     atom   51 type  3   force =    -0.00017139    0.00011213   -0.00004787
     atom   52 type  3   force =    -0.00303819   -0.00268053    0.00286831
     atom   53 type  3   force =    -0.00313467   -0.00267403    0.00278314
     atom   54 type  3   force =     0.00054168    0.00127027   -0.00246477
     atom   55 type  3   force =     0.00085128    0.00121937   -0.00240910
     atom   56 type  3   force =    -0.00300091    0.00329931   -0.00267201
     atom   57 type  3   force =    -0.00309102    0.00332861   -0.00259703
     atom   58 type  3   force =    -0.00307420    0.00305090   -0.00219532
     atom   59 type  3   force =    -0.00298448    0.00278007   -0.00246846
     atom   60 type  3   force =     0.00273998   -0.00372087   -0.00306303
     atom   61 type  3   force =     0.00275042   -0.00373285   -0.00309594
     atom   62 type  3   force =     0.00232754   -0.00284510   -0.00226324
     atom   63 type  3   force =     0.00232153   -0.00288463   -0.00204342
     atom   64 type  1   force =     0.00009877   -0.00016841   -0.00351944
     atom   65 type  1   force =    -0.00013662   -0.00037896   -0.00347348
     atom   66 type  1   force =     0.00047989   -0.00036022   -0.00078916
     atom   67 type  1   force =     0.00033678   -0.00044930   -0.00095797
     atom   68 type  1   force =     0.00053763    0.00049155   -0.00244216
     atom   69 type  1   force =     0.00060825    0.00058863   -0.00259716
     atom   70 type  1   force =     0.00014226    0.00049284   -0.00170760
     atom   71 type  1   force =     0.00006645    0.00043863   -0.00169630
     atom   72 type  1   force =    -0.00010586   -0.00013924   -0.00125922
     atom   73 type  1   force =    -0.00019548   -0.00015320   -0.00122775
     atom   74 type  1   force =    -0.00013905    0.00044360   -0.00029354
     atom   75 type  1   force =    -0.00013278    0.00044754   -0.00031153
     atom   76 type  1   force =    -0.00019597   -0.00023503   -0.00178026
     atom   77 type  1   force =     0.00004907   -0.00028824   -0.00167013
     atom   78 type  1   force =     0.00019498   -0.00011172   -0.00068030
     atom   79 type  1   force =     0.00021211   -0.00012644   -0.00063282
     atom   80 type  1   force =    -0.00053642    0.00001544   -0.00081322
     atom   81 type  1   force =    -0.00052772    0.00004468   -0.00084974
     atom   82 type  1   force =    -0.00020268    0.00040416   -0.00165730
     atom   83 type  1   force =    -0.00011577    0.00034861   -0.00172890
     atom   84 type  1   force =    -0.00005792    0.00018189   -0.00109402
     atom   85 type  1   force =    -0.00014058    0.00021795   -0.00087638
     atom   86 type  1   force =     0.00030354   -0.00203128   -0.00211100
     atom   87 type  1   force =     0.00021933   -0.00203872   -0.00229253
     atom   88 type  4   force =    -0.00010329   -0.00029167    0.00079996
     atom   89 type  4   force =    -0.00041425   -0.00008904   -0.00134904
     atom   90 type  4   force =    -0.00037616   -0.00004558    0.00029414
     atom   91 type  4   force =    -0.00037404   -0.00003993    0.00036552
     atom   92 type  3   force =     0.00047535    0.00000572    0.00038222
     atom   93 type  3   force =     0.00044391    0.00001058    0.00040632
     atom   94 type  3   force =    -0.00022603   -0.00007457    0.00097996
     atom   95 type  3   force =    -0.00017634   -0.00007010    0.00086379
     atom   96 type  3   force =     0.00132195    0.00301004    0.00236877
     atom   97 type  3   force =     0.00199284    0.00206221    0.00246861
     atom   98 type  3   force =    -0.00262929   -0.00210348    0.00181146
     atom   99 type  3   force =    -0.00179096   -0.00258254    0.00175598
     atom  100 type  1   force =     0.00082335   -0.00011056    0.00135018
     atom  101 type  1   force =     0.00038700    0.00067155   -0.00103623
     atom  102 type  1   force =     0.00028043   -0.00003072   -0.00172395
     atom  103 type  1   force =     0.00007791    0.00006455   -0.00073277
     atom  104 type  1   force =     0.00065703   -0.00004149   -0.00101761
     atom  105 type  1   force =    -0.00024015    0.00102317    0.00118931
     atom  106 type  1   force =    -0.00021053    0.00026878   -0.00202647
     atom  107 type  1   force =    -0.00007720    0.00016794   -0.00087613
     atom  108 type  4   force =     0.00008432   -0.00000821    0.00076996
     atom  109 type  3   force =     0.00014304   -0.00021886    0.00011570
     atom  110 type  3   force =     0.00024861   -0.00015393   -0.00011364
     atom  111 type  5   force =    -0.00019170   -0.00776621    0.00037277
     atom  112 type  5   force =    -0.00665252   -0.00390888   -0.00028505
     atom  113 type  5   force =    -0.00703346    0.00446080   -0.00017389
     atom  114 type  5   force =     0.00042028    0.00740429    0.00032660
     atom  115 type  5   force =     0.00634114    0.00343176   -0.00043833
     atom  116 type  5   force =     0.00778873   -0.00418902   -0.00024394
     atom  117 type  6   force =     0.00031090   -0.00261079   -0.00060802
     atom  118 type  6   force =    -0.00362456   -0.00234881    0.00057529
     atom  119 type  6   force =    -0.00273618    0.00153743    0.00002778
     atom  120 type  6   force =     0.00008461    0.00314351   -0.00029650
     atom  121 type  6   force =     0.00366719    0.00198815    0.00054466
     atom  122 type  6   force =     0.00297013   -0.00138246    0.00041324

     Total force =     0.033140     Total SCF correction =     0.000149

     Writing all to output data dir ./tmp/V4_s_outer_A_G4_s05_bound.save/ :
     XML data file, charge density, pseudopotentials, collected wavefunctions
 
     init_run     :     64.80s CPU     69.13s WALL (       1 calls)
     electrons    :  12171.66s CPU  12553.88s WALL (       1 calls)
     forces       :     34.86s CPU     35.68s WALL (       1 calls)
     force_dftd3  :      0.07s CPU      0.07s WALL (       1 calls)

     Called by init_run:
     wfcinit      :     46.75s CPU     48.68s WALL (       1 calls)
     potinit      :      8.25s CPU      8.67s WALL (       1 calls)
     hinit0       :      5.86s CPU      6.18s WALL (       1 calls)

     Called by electrons:
     c_bands      :  10204.76s CPU  10441.67s WALL (     139 calls)
     sum_band     :   1430.62s CPU   1526.54s WALL (     139 calls)
     v_of_rho     :     85.22s CPU     99.59s WALL (     140 calls)
     newd         :    269.90s CPU    270.01s WALL (     140 calls)
                                      270.01s GPU  (     140 calls)
     PAW_pot      :      7.23s CPU      7.23s WALL (     140 calls)
     mix_rho      :    124.79s CPU    149.41s WALL (     139 calls)
     energy_dftd3 :      0.03s CPU      0.03s WALL (       1 calls)

     Called by c_bands:
     init_us_2    :     37.52s CPU     37.56s WALL (    1400 calls)
     cegterg      :   9963.90s CPU   9966.59s WALL (     698 calls)

     Called by *egterg:
     cdiaghg      :    126.32s CPU    126.87s WALL (    3895 calls)
                                      126.85s GPU  (    3895 calls)
     h_psi        :   4920.76s CPU   4922.46s WALL (    3900 calls)
                                     4920.76s GPU  (    3900 calls)
     s_psi        :     18.68s CPU     18.70s WALL (    3900 calls)
     g_psi        :      0.02s CPU      9.11s WALL (    3197 calls)
                                        9.09s GPU  (    3197 calls)

     Called by h_psi:
     h_psi:calbec :      0.19s CPU   1935.84s WALL (    3900 calls)
                                     1935.81s GPU  (    3900 calls)
     vloc_psi     :   1099.71s CPU   1100.10s WALL (    3900 calls)
                                     1100.08s GPU  (    3900 calls)
     add_vuspsi   :     12.99s CPU   1880.32s WALL (    3900 calls)
                                     1880.29s GPU  (    3900 calls)

     General routines
     calbec       :      0.22s CPU      0.24s WALL (    4615 calls)
     fft          :     29.26s CPU     35.57s WALL (    1829 calls)
                                        6.28s GPU  (    1689 calls)
     ffts         :      6.31s CPU     24.72s WALL (   17137 calls)
                                       18.55s GPU  (   16997 calls)
     fftw         :      0.91s CPU   1183.74s WALL (   77872 calls)
                                     1183.44s GPU  (   77872 calls)
     interpolate  :     40.29s CPU     50.67s WALL (     140 calls)
     davcio       :      0.87s CPU    337.15s WALL (    4786 calls)
 
     Parallel routines
 
     PWSCF        :      3h24m CPU      3h31m WALL

 
   This run was terminated on:  16:43:38  28Sep2026            

=------------------------------------------------------------------------------=
   JOB DONE.
=------------------------------------------------------------------------------=
