
     Program PWSCF v.7.4.1 starts on  5Oct2026 at  0:48:22 

     This program is part of the open-source Quantum ESPRESSO suite
     for quantum simulation of materials; please cite
         "P. Giannozzi et al., J. Phys.:Condens. Matter 21 395502 (2009);
         "P. Giannozzi et al., J. Phys.:Condens. Matter 29 465901 (2017);
         "P. Giannozzi et al., J. Chem. Phys. 152 154105 (2020);
          URL http://www.quantum-espresso.org", 
     in publications or presentations arising from this work. More details at
     http://www.quantum-espresso.org/quote

     Parallel version (MPI & OpenMP), running on       1 processor cores
     Number of MPI processes:                 1
     Threads/MPI process:                     1

     MPI processes distributed on     1 nodes
     9954 MiB available memory on the printing compute node when the environment starts
 
     Reading input from pw.in

     Current dimensions of program PWSCF are:
     Max number of different atomic species (ntypx) = 10
     Max number of k-points (npk) =  40000
     Max angular momentum in pseudopotentials (lmaxx) =  4
     Presently no symmetry can be used with electric field

     file C.pbe-n-kjpaw_psl.1.0.0.UPF: wavefunction(s)  2S 2P renormalized
 
     Subspace diagonalization in iterative solution of the eigenvalue problem:
     a serial algorithm will be used

 
     G-vector sticks info
     --------------------
     sticks:   dense  smooth     PW     G-vecs:    dense   smooth      PW
     Sum        3193    1273    367              1013709   256635   40105
 
     Using Slab Decomposition
 


     bravais-lattice index     =            0
     lattice parameter (alat)  =       9.4208  a.u.
     unit-cell volume          =    5061.5040 (a.u.)^3
     number of atoms/cell      =           36
     number of atomic types    =            2
     number of electrons       =       324.00
     number of Kohn-Sham states=          194
     kinetic-energy cutoff     =      52.0000  Ry
     charge density cutoff     =     520.0000  Ry
     scf convergence threshold =      1.0E-08
     mixing beta               =       0.3000
     number of iterations used =            8  local-TF  mixing
     Exchange-correlation= SLA  PW   PBX  PBC
                           (   1   4   3   4   0   0   0)

     GPU acceleration is ACTIVE.  1 visible GPUs per MPI rank


     celldm(1)=   9.420781  celldm(2)=   0.000000  celldm(3)=   0.000000
     celldm(4)=   0.000000  celldm(5)=   0.000000  celldm(6)=   0.000000

     crystal axes: (cart. coord. in units of alat)
               a(1) = (   1.000000  -0.000000   0.000000 )  
               a(2) = (   0.500000   0.866025   0.000000 )  
               a(3) = (   0.000000   0.000000   6.990177 )  

     reciprocal axes: (cart. coord. in units 2 pi/alat)
               b(1) = (  1.000000 -0.577350  0.000000 )  
               b(2) = (  0.000000  1.154701 -0.000000 )  
               b(3) = ( -0.000000  0.000000  0.143058 )  


     PseudoPot. # 1 for Ag read from file:
     /home/kgy/work/pseudo/Ag_ONCV_PBE-1.0.oncvpsp.upf
     MD5 check sum: 94f47bd0669c641108e45594df92fabc
     Pseudo is Norm-conserving, Zval = 19.0
     Generated using ONCVPSP code by D. R. Hamann
     Using radial grid of 1398 points,  6 beta functions with: 
                l(1) =   0
                l(2) =   0
                l(3) =   1
                l(4) =   1
                l(5) =   2
                l(6) =   2

     PseudoPot. # 2 for C  read from file:
     /home/kgy/work/pseudo/C.pbe-n-kjpaw_psl.1.0.0.UPF
     MD5 check sum: 5d2aebdfa2cae82b50a7e79e9516da0f
     Pseudo is Projector augmented-wave + core cor, Zval =  4.0
     Generated using "atomic" code by A. Dal Corso  v.5.1
     Shape of augmentation charge: PSQ
     Using radial grid of 1073 points,  4 beta functions with: 
                l(1) =   0
                l(2) =   0
                l(3) =   1
                l(4) =   1
     Q(r) pseudized with 0 coefficients 


     atomic species   valence    mass     pseudopotential
     Ag               19.00   107.86820     Ag( 1.00)
     C                 4.00    12.01100     C ( 1.00)

     No symmetry found



   Cartesian axes

     site n.     atom                  positions (alat units)
         1        Ag     tau(   1) = (   0.3337695   0.5765948   0.5717001  )
         2        Ag     tau(   2) = (   0.8337695   0.8652699   0.5717001  )
         3        Ag     tau(   3) = (   0.1658131   0.2881628   1.0404978  )
         4        Ag     tau(   4) = (   0.5004501   0.2909658   0.1002956  )
         5        Ag     tau(   5) = (   0.8337695   0.2879196   0.5717001  )
         6        Ag     tau(   6) = (   0.6657286   0.5768865   1.0406295  )
         7        Ag     tau(   7) = (   0.5013979   0.2880440   1.5121792  )
         8        Ag     tau(   8) = (   1.0004501   0.5796409   0.1002956  )
         9        Ag     tau(   9) = (   1.0014376   0.5767316   1.5111335  )
        10        Ag     tau(  10) = (   0.6658079  -0.0004107   1.0405249  )
        11        Ag     tau(  11) = (   1.0004501   0.0022906   0.1002956  )
        12        Ag     tau(  12) = (   1.0014053  -0.0005819   1.5121715  )
        13        C      tau(  13) = (   0.5004501   0.2909658   2.1588612  )
        14        C      tau(  14) = (   0.7504501   0.4353033   2.1596280  )
        15        C      tau(  15) = (   0.7504501   0.7239785   2.1595212  )
        16        C      tau(  16) = (   1.0004501   0.8683160   2.1596269  )
        17        C      tau(  17) = (   1.0004501   0.2909658   2.1595202  )
        18        C      tau(  18) = (   1.2504501   0.4353033   2.1596268  )
        19        C      tau(  19) = (   1.2504501   0.7239785   2.1595215  )
        20        C      tau(  20) = (   1.5004501   0.8683160   2.1590097  )
        21        C      tau(  21) = (   0.7504501   0.4353033   2.8436957  )
        22        C      tau(  22) = (   1.0004501   0.5796409   2.8436374  )
        23        C      tau(  23) = (   1.0004501   0.8683160   2.8436957  )
        24        C      tau(  24) = (   1.2504501   1.0126536   2.8436253  )
        25        C      tau(  25) = (   1.2504501   0.4353033   2.8436957  )
        26        C      tau(  26) = (   1.5004501   0.5796409   2.8436253  )
        27        C      tau(  27) = (   1.5004501   0.8683160   2.8436904  )
        28        C      tau(  28) = (   1.7504501   1.0126536   2.8436253  )
        29        C      tau(  29) = (   0.5004501   0.2909658   3.5247375  )
        30        C      tau(  30) = (   0.7504501   0.4353033   3.5246104  )
        31        C      tau(  31) = (   0.7504501   0.7239785   3.5247390  )
        32        C      tau(  32) = (   1.0004501   0.8683160   3.5246104  )
        33        C      tau(  33) = (   1.0004501   0.2909658   3.5247390  )
        34        C      tau(  34) = (   1.2504501   0.4353033   3.5246104  )
        35        C      tau(  35) = (   1.2504501   0.7239785   3.5247390  )
        36        C      tau(  36) = (   1.5004501   0.8683160   3.5246123  )

     --------------------------------------------
     DFT-D3 Dispersion Correction (no 3-body):
     --------------------------------------------
       Reference C6 values for interpolation: 

         atom   Coordination number   C6
         C          0.000            98.23
         C          0.987            86.49
         C          1.998            58.72
         C          2.999            51.56
         C          3.984            36.41
         Ag         0.000           853.49
         Ag         0.968           537.23

       Values used:

         atom   Coordination number  R0_AB[au]  C6      C8
         Ag         9.096            3.147    537.23  47741.54
         Ag         9.096            3.147    537.23  47741.54
         Ag         9.100            3.147    537.23  47741.54
         Ag         6.767            3.147    537.23  47741.54
         Ag         9.096            3.147    537.23  47741.54
         Ag         9.100            3.147    537.23  47741.54
         Ag         6.853            3.147    537.23  47741.54
         Ag         6.767            3.147    537.23  47741.54
         Ag         6.858            3.147    537.23  47741.54
         Ag         9.100            3.147    537.23  47741.54
         Ag         6.767            3.147    537.23  47741.54
         Ag         6.853            3.147    537.23  47741.54
         C          3.316            2.750     48.24   1395.19
         C          3.304            2.750     48.48   1402.09
         C          3.304            2.750     48.48   1402.16
         C          3.304            2.750     48.48   1402.08
         C          3.304            2.750     48.48   1402.16
         C          3.304            2.750     48.48   1402.09
         C          3.304            2.750     48.48   1402.16
         C          3.316            2.750     48.24   1395.15
         C          3.281            2.750     48.91   1414.56
         C          3.281            2.750     48.92   1414.73
         C          3.281            2.750     48.91   1414.56
         C          3.281            2.750     48.92   1414.73
         C          3.281            2.750     48.91   1414.56
         C          3.281            2.750     48.92   1414.73
         C          3.281            2.750     48.91   1414.56
         C          3.281            2.750     48.92   1414.73
         C          3.274            2.750     49.03   1417.92
         C          3.275            2.750     49.02   1417.83
         C          3.274            2.750     49.03   1417.91
         C          3.275            2.750     49.02   1417.83
         C          3.274            2.750     49.03   1417.92
         C          3.275            2.750     49.02   1417.83
         C          3.274            2.750     49.03   1417.92
         C          3.275            2.750     49.02   1417.83

         Molecular C6 ( Ry / a.u.^6 ) =    198484.61


     number of k points=    20  Marzari-Vanderbilt smearing, width (Ry)=  0.0050
                       cart. coord. in units 2pi/alat
        k(    1) = (   0.0000000   0.0000000   0.0000000), wk =   0.0555556
        k(    2) = (   0.0000000   0.1924501   0.0000000), wk =   0.1111111
        k(    3) = (   0.0000000   0.3849002   0.0000000), wk =   0.1111111
        k(    4) = (   0.0000000  -0.5773503   0.0000000), wk =   0.0555556
        k(    5) = (   0.1666667  -0.0962250   0.0000000), wk =   0.1111111
        k(    6) = (   0.1666667   0.0962250   0.0000000), wk =   0.1111111
        k(    7) = (   0.1666667   0.2886751   0.0000000), wk =   0.1111111
        k(    8) = (   0.1666667  -0.6735753   0.0000000), wk =   0.1111111
        k(    9) = (   0.1666667  -0.4811252   0.0000000), wk =   0.1111111
        k(   10) = (   0.1666667  -0.2886751   0.0000000), wk =   0.1111111
        k(   11) = (   0.3333333  -0.1924501   0.0000000), wk =   0.1111111
        k(   12) = (   0.3333333  -0.0000000   0.0000000), wk =   0.1111111
        k(   13) = (   0.3333333   0.1924501   0.0000000), wk =   0.1111111
        k(   14) = (   0.3333333  -0.7698004   0.0000000), wk =   0.1111111
        k(   15) = (   0.3333333  -0.5773503   0.0000000), wk =   0.1111111
        k(   16) = (   0.3333333  -0.3849002   0.0000000), wk =   0.1111111
        k(   17) = (  -0.5000000   0.2886751   0.0000000), wk =   0.0555556
        k(   18) = (  -0.5000000   0.4811252   0.0000000), wk =   0.1111111
        k(   19) = (  -0.5000000   0.6735753   0.0000000), wk =   0.1111111
        k(   20) = (  -0.5000000  -0.2886751   0.0000000), wk =   0.0555556

     Dense  grid:  1013709 G-vectors     FFT dimensions: (  72,  72, 480)

     Smooth grid:   256635 G-vectors     FFT dimensions: (  45,  45, 320)

     Estimated max dynamical RAM per process >       2.73 GB

     Check: negative core charge=   -0.000002

     Initial potential from superposition of free atoms

     starting charge     323.9955, renormalised to     324.0000

     negative rho (up, down):  2.445E-04 0.000E+00
 
     Adding external electric field

     Computed dipole along edir(3) : 
        Dipole               -0.0064 Ry au,         -0.0164 Debye
        Dipole field         -0.0000 Ry au, 
 
        Potential amp.        0.0020 Ry
        Total length         63.9630 bohr
 
     Starting wfcs are  216 randomized atomic wfcs
     Checking if some PAW data can be deallocated... 

     total cpu time spent up to now is       27.7 secs

     Self-consistent Calculation

     iteration #  1     ecut=    52.00 Ry     beta= 0.30
     Davidson diagonalization with overlap
     ethr =  1.00E-02,  avg # of iterations =  7.9

     negative rho (up, down):  1.955E-07 0.000E+00
 
     Adding external electric field

     Computed dipole along edir(3) : 
        Dipole               -0.1582 Ry au,         -0.4020 Debye
        Dipole field         -0.0004 Ry au, 
 
        Potential amp.        0.0502 Ry
        Total length         63.9630 bohr
 

     total cpu time spent up to now is      117.1 secs

     total energy              =   -3891.66518263 Ry
     estimated scf accuracy    <       3.51881370 Ry

     iteration #  2     ecut=    52.00 Ry     beta= 0.30
     Davidson diagonalization with overlap
     ethr =  1.09E-03,  avg # of iterations =  2.2

     negative rho (up, down):  7.840E-08 0.000E+00
 
     Adding external electric field

     Computed dipole along edir(3) : 
        Dipole               -0.4631 Ry au,         -1.1771 Debye
        Dipole field         -0.0011 Ry au, 
 
        Potential amp.        0.1471 Ry
        Total length         63.9630 bohr
 

     total cpu time spent up to now is      178.7 secs

     total energy              =   -3891.14183474 Ry
     estimated scf accuracy    <       1.76314989 Ry

     iteration #  3     ecut=    52.00 Ry     beta= 0.30
     Davidson diagonalization with overlap
     ethr =  5.44E-04,  avg # of iterations =  7.8

     negative rho (up, down):  3.982E-08 0.000E+00
 
     Adding external electric field

     Computed dipole along edir(3) : 
        Dipole               -0.7410 Ry au,         -1.8834 Debye
        Dipole field         -0.0018 Ry au, 
 
        Potential amp.        0.2353 Ry
        Total length         63.9630 bohr
 

     total cpu time spent up to now is      257.9 secs

     total energy              =   -3891.09801749 Ry
     estimated scf accuracy    <       0.46284228 Ry

     iteration #  4     ecut=    52.00 Ry     beta= 0.30
     Davidson diagonalization with overlap
     c_bands:  1 eigenvalues not converged
     ethr =  1.43E-04,  avg # of iterations =  9.1

     negative rho (up, down):  1.501E-08 0.000E+00
 
     Adding external electric field

     Computed dipole along edir(3) : 
        Dipole               -0.8526 Ry au,         -2.1672 Debye
        Dipole field         -0.0021 Ry au, 
 
        Potential amp.        0.2708 Ry
        Total length         63.9630 bohr
 

     total cpu time spent up to now is      342.6 secs

     total energy              =   -3891.13409933 Ry
     estimated scf accuracy    <       0.57991046 Ry

     iteration #  5     ecut=    52.00 Ry     beta= 0.30
     Davidson diagonalization with overlap
     ethr =  1.43E-04,  avg # of iterations =  1.7
 
     Adding external electric field

     Computed dipole along edir(3) : 
        Dipole               -0.8292 Ry au,         -2.1075 Debye
        Dipole field         -0.0021 Ry au, 
 
        Potential amp.        0.2633 Ry
        Total length         63.9630 bohr
 

     total cpu time spent up to now is      399.7 secs

     total energy              =   -3891.13547633 Ry
     estimated scf accuracy    <       0.59312666 Ry

     iteration #  6     ecut=    52.00 Ry     beta= 0.30
     Davidson diagonalization with overlap
     ethr =  1.43E-04,  avg # of iterations =  1.0

     negative rho (up, down):  8.034E-05 0.000E+00
 
     Adding external electric field

     Computed dipole along edir(3) : 
        Dipole               -1.3327 Ry au,         -3.3875 Debye
        Dipole field         -0.0033 Ry au, 
 
        Potential amp.        0.4233 Ry
        Total length         63.9630 bohr
 

     total cpu time spent up to now is      455.9 secs

     total energy              =   -3891.10803263 Ry
     estimated scf accuracy    <       0.59595126 Ry

     iteration #  7     ecut=    52.00 Ry     beta= 0.30
     Davidson diagonalization with overlap
     ethr =  1.43E-04,  avg # of iterations =  5.7

     negative rho (up, down):  2.189E-05 0.000E+00
 
     Adding external electric field

     Computed dipole along edir(3) : 
        Dipole               -1.4507 Ry au,         -3.6874 Debye
        Dipole field         -0.0036 Ry au, 
 
        Potential amp.        0.4608 Ry
        Total length         63.9630 bohr
 

     total cpu time spent up to now is      525.4 secs

     total energy              =   -3891.15025477 Ry
     estimated scf accuracy    <       2.70822206 Ry

     iteration #  8     ecut=    52.00 Ry     beta= 0.30
     Davidson diagonalization with overlap
     ethr =  1.43E-04,  avg # of iterations =  3.3

     negative rho (up, down):  9.079E-06 0.000E+00
 
     Adding external electric field

     Computed dipole along edir(3) : 
        Dipole               -1.3101 Ry au,         -3.3299 Debye
        Dipole field         -0.0033 Ry au, 
 
        Potential amp.        0.4161 Ry
        Total length         63.9630 bohr
 

     total cpu time spent up to now is      588.3 secs

     total energy              =   -3891.12142269 Ry
     estimated scf accuracy    <       3.09111352 Ry

     iteration #  9     ecut=    52.00 Ry     beta= 0.30
     Davidson diagonalization with overlap
     ethr =  1.43E-04,  avg # of iterations =  1.4

     negative rho (up, down):  3.556E-04 0.000E+00
 
     Adding external electric field

     Computed dipole along edir(3) : 
        Dipole               -1.4945 Ry au,         -3.7986 Debye
        Dipole field         -0.0037 Ry au, 
 
        Potential amp.        0.4747 Ry
        Total length         63.9630 bohr
 

     total cpu time spent up to now is      642.2 secs

     total energy              =   -3891.14776602 Ry
     estimated scf accuracy    <       2.58528416 Ry

     iteration # 10     ecut=    52.00 Ry     beta= 0.30
     Davidson diagonalization with overlap
     ethr =  1.43E-04,  avg # of iterations =  1.9
     Minimization algorithm failed to find Fermi energy: reverting to bisection
     Possible cause: smearing is larger than the electronic band-gap.

     negative rho (up, down):  5.482E-06 0.000E+00
 
     Adding external electric field

     Computed dipole along edir(3) : 
        Dipole               -0.8248 Ry au,         -2.0963 Debye
        Dipole field         -0.0020 Ry au, 
 
        Potential amp.        0.2619 Ry
        Total length         63.9630 bohr
 

     total cpu time spent up to now is      699.9 secs

     total energy              =   -3891.02530668 Ry
     estimated scf accuracy    <       3.00802001 Ry

     iteration # 11     ecut=    52.00 Ry     beta= 0.30
     Davidson diagonalization with overlap
     ethr =  1.43E-04,  avg # of iterations =  8.0

     negative rho (up, down):  7.894E-06 0.000E+00
 
     Adding external electric field

     Computed dipole along edir(3) : 
        Dipole               -1.0124 Ry au,         -2.5733 Debye
        Dipole field         -0.0025 Ry au, 
 
        Potential amp.        0.3216 Ry
        Total length         63.9630 bohr
 

     total cpu time spent up to now is      775.0 secs

     total energy              =   -3891.09816782 Ry
     estimated scf accuracy    <       0.07699853 Ry

     iteration # 12     ecut=    52.00 Ry     beta= 0.30
     Davidson diagonalization with overlap
     ethr =  2.38E-05,  avg # of iterations =  8.3

     negative rho (up, down):  2.688E-06 0.000E+00
 
     Adding external electric field

     Computed dipole along edir(3) : 
        Dipole               -0.9864 Ry au,         -2.5072 Debye
        Dipole field         -0.0024 Ry au, 
 
        Potential amp.        0.3133 Ry
        Total length         63.9630 bohr
 

     total cpu time spent up to now is      852.4 secs

     total energy              =   -3891.10191491 Ry
     estimated scf accuracy    <       0.03675257 Ry

     iteration # 13     ecut=    52.00 Ry     beta= 0.30
     Davidson diagonalization with overlap
     ethr =  1.13E-05,  avg # of iterations =  1.1
 
     Adding external electric field

     Computed dipole along edir(3) : 
        Dipole               -0.9179 Ry au,         -2.3330 Debye
        Dipole field         -0.0023 Ry au, 
 
        Potential amp.        0.2915 Ry
        Total length         63.9630 bohr
 

     total cpu time spent up to now is      907.6 secs

     total energy              =   -3891.09975335 Ry
     estimated scf accuracy    <       0.04236310 Ry

     iteration # 14     ecut=    52.00 Ry     beta= 0.30
     Davidson diagonalization with overlap
     ethr =  1.13E-05,  avg # of iterations =  4.1
 
     Adding external electric field

     Computed dipole along edir(3) : 
        Dipole               -0.8036 Ry au,         -2.0426 Debye
        Dipole field         -0.0020 Ry au, 
 
        Potential amp.        0.2552 Ry
        Total length         63.9630 bohr
 

     total cpu time spent up to now is      972.2 secs

     total energy              =   -3891.09629106 Ry
     estimated scf accuracy    <       0.11838722 Ry

     iteration # 15     ecut=    52.00 Ry     beta= 0.30
     Davidson diagonalization with overlap
     ethr =  1.13E-05,  avg # of iterations = 10.1

     negative rho (up, down):  7.991E-07 0.000E+00
 
     Adding external electric field

     Computed dipole along edir(3) : 
        Dipole               -0.6516 Ry au,         -1.6562 Debye
        Dipole field         -0.0016 Ry au, 
 
        Potential amp.        0.2070 Ry
        Total length         63.9630 bohr
 

     total cpu time spent up to now is     1053.6 secs

     total energy              =   -3891.09611403 Ry
     estimated scf accuracy    <       0.02442496 Ry

     iteration # 16     ecut=    52.00 Ry     beta= 0.30
     Davidson diagonalization with overlap
     ethr =  7.54E-06,  avg # of iterations = 11.3

     negative rho (up, down):  3.125E-06 0.000E+00
 
     Adding external electric field

     Computed dipole along edir(3) : 
        Dipole               -0.5808 Ry au,         -1.4762 Debye
        Dipole field         -0.0014 Ry au, 
 
        Potential amp.        0.1845 Ry
        Total length         63.9630 bohr
 

     total cpu time spent up to now is     1140.6 secs

     total energy              =   -3891.09599875 Ry
     estimated scf accuracy    <       0.02136300 Ry

     iteration # 17     ecut=    52.00 Ry     beta= 0.30
     Davidson diagonalization with overlap
     ethr =  6.59E-06,  avg # of iterations =  4.8

     negative rho (up, down):  5.625E-06 0.000E+00
 
     Adding external electric field

     Computed dipole along edir(3) : 
        Dipole               -0.4413 Ry au,         -1.1218 Debye
        Dipole field         -0.0011 Ry au, 
 
        Potential amp.        0.1402 Ry
        Total length         63.9630 bohr
 

     total cpu time spent up to now is     1208.3 secs

     total energy              =   -3891.09627039 Ry
     estimated scf accuracy    <       0.04042641 Ry

     iteration # 18     ecut=    52.00 Ry     beta= 0.30
     Davidson diagonalization with overlap
     c_bands:  1 eigenvalues not converged
     ethr =  6.59E-06,  avg # of iterations = 12.0

     negative rho (up, down):  1.013E-03 0.000E+00
 
     Adding external electric field

     Computed dipole along edir(3) : 
        Dipole               -0.4226 Ry au,         -1.0742 Debye
        Dipole field         -0.0010 Ry au, 
 
        Potential amp.        0.1342 Ry
        Total length         63.9630 bohr
 

     total cpu time spent up to now is     1298.6 secs

     total energy              =   -3891.09409486 Ry
     estimated scf accuracy    <       0.07408831 Ry

     iteration # 19     ecut=    52.00 Ry     beta= 0.30
     Davidson diagonalization with overlap
     ethr =  6.59E-06,  avg # of iterations =  9.2

     negative rho (up, down):  3.527E-03 0.000E+00
 
     Adding external electric field

     Computed dipole along edir(3) : 
        Dipole               -0.3372 Ry au,         -0.8571 Debye
        Dipole field         -0.0008 Ry au, 
 
        Potential amp.        0.1071 Ry
        Total length         63.9630 bohr
 

     total cpu time spent up to now is     1379.2 secs

     total energy              =   -3891.09458594 Ry
     estimated scf accuracy    <       0.01830652 Ry

     iteration # 20     ecut=    52.00 Ry     beta= 0.30
     Davidson diagonalization with overlap
     ethr =  5.65E-06,  avg # of iterations =  7.0

     negative rho (up, down):  2.976E-03 0.000E+00
 
     Adding external electric field

     Computed dipole along edir(3) : 
        Dipole               -0.2830 Ry au,         -0.7193 Debye
        Dipole field         -0.0007 Ry au, 
 
        Potential amp.        0.0899 Ry
        Total length         63.9630 bohr
 

     total cpu time spent up to now is     1454.4 secs

     total energy              =   -3891.09400341 Ry
     estimated scf accuracy    <       0.01651323 Ry

     iteration # 21     ecut=    52.00 Ry     beta= 0.30
     Davidson diagonalization with overlap
     ethr =  5.10E-06,  avg # of iterations =  5.3

     negative rho (up, down):  7.510E-03 0.000E+00
 
     Adding external electric field

     Computed dipole along edir(3) : 
        Dipole               -0.0873 Ry au,         -0.2219 Debye
        Dipole field         -0.0002 Ry au, 
 
        Potential amp.        0.0277 Ry
        Total length         63.9630 bohr
 

     total cpu time spent up to now is     1522.5 secs

     total energy              =   -3891.09389692 Ry
     estimated scf accuracy    <       0.01514278 Ry

     iteration # 22     ecut=    52.00 Ry     beta= 0.30
     Davidson diagonalization with overlap
     ethr =  4.67E-06,  avg # of iterations =  8.7

     negative rho (up, down):  8.536E-03 0.000E+00
 
     Adding external electric field

     Computed dipole along edir(3) : 
        Dipole               -0.0881 Ry au,         -0.2239 Debye
        Dipole field         -0.0002 Ry au, 
 
        Potential amp.        0.0280 Ry
        Total length         63.9630 bohr
 

     total cpu time spent up to now is     1602.4 secs

     total energy              =   -3891.09595332 Ry
     estimated scf accuracy    <       0.06342935 Ry

     iteration # 23     ecut=    52.00 Ry     beta= 0.30
     Davidson diagonalization with overlap
     ethr =  4.67E-06,  avg # of iterations =  1.0

     negative rho (up, down):  2.682E-03 0.000E+00
 
     Adding external electric field

     Computed dipole along edir(3) : 
        Dipole                0.0424 Ry au,          0.1079 Debye
        Dipole field          0.0001 Ry au, 
 
        Potential amp.       -0.0135 Ry
        Total length         63.9630 bohr
 

     total cpu time spent up to now is     1656.5 secs

     total energy              =   -3891.09426822 Ry
     estimated scf accuracy    <       0.09239418 Ry

     iteration # 24     ecut=    52.00 Ry     beta= 0.30
     Davidson diagonalization with overlap
     ethr =  4.67E-06,  avg # of iterations =  8.4

     negative rho (up, down):  1.451E-03 0.000E+00
 
     Adding external electric field

     Computed dipole along edir(3) : 
        Dipole                0.0617 Ry au,          0.1569 Debye
        Dipole field          0.0002 Ry au, 
 
        Potential amp.       -0.0196 Ry
        Total length         63.9630 bohr
 

     total cpu time spent up to now is     1734.1 secs

     total energy              =   -3891.09436854 Ry
     estimated scf accuracy    <       0.06588953 Ry

     iteration # 25     ecut=    52.00 Ry     beta= 0.30
     Davidson diagonalization with overlap
     ethr =  4.67E-06,  avg # of iterations =  3.6

     negative rho (up, down):  7.875E-04 0.000E+00
 
     Adding external electric field

     Computed dipole along edir(3) : 
        Dipole                0.0660 Ry au,          0.1677 Debye
        Dipole field          0.0002 Ry au, 
 
        Potential amp.       -0.0210 Ry
        Total length         63.9630 bohr
 

     total cpu time spent up to now is     1798.1 secs

     total energy              =   -3891.09442334 Ry
     estimated scf accuracy    <       0.05746659 Ry

     iteration # 26     ecut=    52.00 Ry     beta= 0.30
     Davidson diagonalization with overlap
     ethr =  4.67E-06,  avg # of iterations =  9.2

     negative rho (up, down):  1.789E-04 0.000E+00
 
     Adding external electric field

     Computed dipole along edir(3) : 
        Dipole               -0.0714 Ry au,         -0.1815 Debye
        Dipole field         -0.0002 Ry au, 
 
        Potential amp.        0.0227 Ry
        Total length         63.9630 bohr
 

     total cpu time spent up to now is     1878.8 secs

     total energy              =   -3891.09140942 Ry
     estimated scf accuracy    <       0.08742857 Ry

     iteration # 27     ecut=    52.00 Ry     beta= 0.30
     Davidson diagonalization with overlap
     ethr =  4.67E-06,  avg # of iterations = 11.8

     negative rho (up, down):  5.800E-05 0.000E+00
 
     Adding external electric field

     Computed dipole along edir(3) : 
        Dipole               -0.0130 Ry au,         -0.0331 Debye
        Dipole field         -0.0000 Ry au, 
 
        Potential amp.        0.0041 Ry
        Total length         63.9630 bohr
 

     total cpu time spent up to now is     1966.9 secs

     total energy              =   -3891.09320785 Ry
     estimated scf accuracy    <       0.02603492 Ry

     iteration # 28     ecut=    52.00 Ry     beta= 0.30
     Davidson diagonalization with overlap
     ethr =  4.67E-06,  avg # of iterations =  7.8

     negative rho (up, down):  3.699E-05 0.000E+00
 
     Adding external electric field

     Computed dipole along edir(3) : 
        Dipole               -0.0358 Ry au,         -0.0909 Debye
        Dipole field         -0.0001 Ry au, 
 
        Potential amp.        0.0114 Ry
        Total length         63.9630 bohr
 

     total cpu time spent up to now is     2044.4 secs

     total energy              =   -3891.09324959 Ry
     estimated scf accuracy    <       0.04522305 Ry

     iteration # 29     ecut=    52.00 Ry     beta= 0.30
     Davidson diagonalization with overlap
     ethr =  4.67E-06,  avg # of iterations =  1.4

     negative rho (up, down):  8.472E-05 0.000E+00
 
     Adding external electric field

     Computed dipole along edir(3) : 
        Dipole               -0.0227 Ry au,         -0.0576 Debye
        Dipole field         -0.0001 Ry au, 
 
        Potential amp.        0.0072 Ry
        Total length         63.9630 bohr
 

     total cpu time spent up to now is     2101.0 secs

     total energy              =   -3891.09330242 Ry
     estimated scf accuracy    <       0.04177109 Ry

     iteration # 30     ecut=    52.00 Ry     beta= 0.30
     Davidson diagonalization with overlap
     ethr =  4.67E-06,  avg # of iterations =  1.0

     negative rho (up, down):  9.707E-04 0.000E+00
 
     Adding external electric field

     Computed dipole along edir(3) : 
        Dipole               -0.0482 Ry au,         -0.1224 Debye
        Dipole field         -0.0001 Ry au, 
 
        Potential amp.        0.0153 Ry
        Total length         63.9630 bohr
 

     total cpu time spent up to now is     2155.2 secs

     total energy              =   -3891.09161789 Ry
     estimated scf accuracy    <       0.04308317 Ry

     iteration # 31     ecut=    52.00 Ry     beta= 0.30
     Davidson diagonalization with overlap
     ethr =  4.67E-06,  avg # of iterations =  5.3

     negative rho (up, down):  4.331E-03 0.000E+00
 
     Adding external electric field

     Computed dipole along edir(3) : 
        Dipole               -0.1803 Ry au,         -0.4582 Debye
        Dipole field         -0.0004 Ry au, 
 
        Potential amp.        0.0573 Ry
        Total length         63.9630 bohr
 

     total cpu time spent up to now is     2226.3 secs

     total energy              =   -3891.08707638 Ry
     estimated scf accuracy    <       0.03144279 Ry

     iteration # 32     ecut=    52.00 Ry     beta= 0.30
     Davidson diagonalization with overlap
     ethr =  4.67E-06,  avg # of iterations = 11.8

     negative rho (up, down):  1.777E-03 0.000E+00
 
     Adding external electric field

     Computed dipole along edir(3) : 
        Dipole               -0.0423 Ry au,         -0.1075 Debye
        Dipole field         -0.0001 Ry au, 
 
        Potential amp.        0.0134 Ry
        Total length         63.9630 bohr
 

     total cpu time spent up to now is     2315.2 secs

     total energy              =   -3891.08832219 Ry
     estimated scf accuracy    <       0.15784756 Ry

     iteration # 33     ecut=    52.00 Ry     beta= 0.30
     Davidson diagonalization with overlap
     ethr =  4.67E-06,  avg # of iterations =  9.8

     negative rho (up, down):  5.180E-03 0.000E+00
 
     Adding external electric field

     Computed dipole along edir(3) : 
        Dipole               -0.0304 Ry au,         -0.0774 Debye
        Dipole field         -0.0001 Ry au, 
 
        Potential amp.        0.0097 Ry
        Total length         63.9630 bohr
 

     total cpu time spent up to now is     2398.6 secs

     total energy              =   -3891.09045506 Ry
     estimated scf accuracy    <       0.00427991 Ry

     iteration # 34     ecut=    52.00 Ry     beta= 0.30
     Davidson diagonalization with overlap
     ethr =  1.32E-06,  avg # of iterations = 10.3

     negative rho (up, down):  4.634E-03 0.000E+00
 
     Adding external electric field

     Computed dipole along edir(3) : 
        Dipole               -0.0468 Ry au,         -0.1190 Debye
        Dipole field         -0.0001 Ry au, 
 
        Potential amp.        0.0149 Ry
        Total length         63.9630 bohr
 

     total cpu time spent up to now is     2482.3 secs

     total energy              =   -3891.09070788 Ry
     estimated scf accuracy    <       0.01085174 Ry

     iteration # 35     ecut=    52.00 Ry     beta= 0.30
     Davidson diagonalization with overlap
     ethr =  1.32E-06,  avg # of iterations =  3.9

     negative rho (up, down):  1.332E-03 0.000E+00
 
     Adding external electric field

     Computed dipole along edir(3) : 
        Dipole               -0.0565 Ry au,         -0.1437 Debye
        Dipole field         -0.0001 Ry au, 
 
        Potential amp.        0.0180 Ry
        Total length         63.9630 bohr
 

     total cpu time spent up to now is     2547.1 secs

     total energy              =   -3891.09038500 Ry
     estimated scf accuracy    <       0.02351182 Ry

     iteration # 36     ecut=    52.00 Ry     beta= 0.30
     Davidson diagonalization with overlap
     ethr =  1.32E-06,  avg # of iterations =  7.3

     negative rho (up, down):  2.658E-03 0.000E+00
 
     Adding external electric field

     Computed dipole along edir(3) : 
        Dipole               -0.0466 Ry au,         -0.1184 Debye
        Dipole field         -0.0001 Ry au, 
 
        Potential amp.        0.0148 Ry
        Total length         63.9630 bohr
 

     total cpu time spent up to now is     2623.1 secs

     total energy              =   -3891.09052488 Ry
     estimated scf accuracy    <       0.00454040 Ry

     iteration # 37     ecut=    52.00 Ry     beta= 0.30
     Davidson diagonalization with overlap
     ethr =  1.32E-06,  avg # of iterations =  6.0

     negative rho (up, down):  2.261E-03 0.000E+00
 
     Adding external electric field

     Computed dipole along edir(3) : 
        Dipole               -0.0501 Ry au,         -0.1273 Debye
        Dipole field         -0.0001 Ry au, 
 
        Potential amp.        0.0159 Ry
        Total length         63.9630 bohr
 

     total cpu time spent up to now is     2694.5 secs

     total energy              =   -3891.09060484 Ry
     estimated scf accuracy    <       0.00417079 Ry

     iteration # 38     ecut=    52.00 Ry     beta= 0.30
     Davidson diagonalization with overlap
     ethr =  1.29E-06,  avg # of iterations =  2.0

     negative rho (up, down):  3.103E-03 0.000E+00
 
     Adding external electric field

     Computed dipole along edir(3) : 
        Dipole               -0.0171 Ry au,         -0.0435 Debye
        Dipole field         -0.0000 Ry au, 
 
        Potential amp.        0.0054 Ry
        Total length         63.9630 bohr
 

     total cpu time spent up to now is     2755.6 secs

     total energy              =   -3891.09039475 Ry
     estimated scf accuracy    <       0.00408927 Ry

     iteration # 39     ecut=    52.00 Ry     beta= 0.30
     Davidson diagonalization with overlap
     ethr =  1.26E-06,  avg # of iterations =  6.2

     negative rho (up, down):  3.413E-03 0.000E+00
 
     Adding external electric field

     Computed dipole along edir(3) : 
        Dipole               -0.0085 Ry au,         -0.0216 Debye
        Dipole field         -0.0000 Ry au, 
 
        Potential amp.        0.0027 Ry
        Total length         63.9630 bohr
 

     total cpu time spent up to now is     2827.7 secs

     total energy              =   -3891.09034460 Ry
     estimated scf accuracy    <       0.00364617 Ry

     iteration # 40     ecut=    52.00 Ry     beta= 0.30
     Davidson diagonalization with overlap
     ethr =  1.13E-06,  avg # of iterations =  3.2

     negative rho (up, down):  3.782E-03 0.000E+00
 
     Adding external electric field

     Computed dipole along edir(3) : 
        Dipole                0.0160 Ry au,          0.0407 Debye
        Dipole field          0.0000 Ry au, 
 
        Potential amp.       -0.0051 Ry
        Total length         63.9630 bohr
 

     total cpu time spent up to now is     2891.1 secs

     total energy              =   -3891.09040714 Ry
     estimated scf accuracy    <       0.00276034 Ry

     iteration # 41     ecut=    52.00 Ry     beta= 0.30
     Davidson diagonalization with overlap
     ethr =  8.52E-07,  avg # of iterations =  5.1

     negative rho (up, down):  2.948E-03 0.000E+00
 
     Adding external electric field

     Computed dipole along edir(3) : 
        Dipole               -0.0104 Ry au,         -0.0264 Debye
        Dipole field         -0.0000 Ry au, 
 
        Potential amp.        0.0033 Ry
        Total length         63.9630 bohr
 

     total cpu time spent up to now is     2959.9 secs

     total energy              =   -3891.08993598 Ry
     estimated scf accuracy    <       0.00995679 Ry

     iteration # 42     ecut=    52.00 Ry     beta= 0.30
     Davidson diagonalization with overlap
     ethr =  8.52E-07,  avg # of iterations =  6.0

     negative rho (up, down):  2.234E-03 0.000E+00
 
     Adding external electric field

     Computed dipole along edir(3) : 
        Dipole               -0.0046 Ry au,         -0.0116 Debye
        Dipole field         -0.0000 Ry au, 
 
        Potential amp.        0.0015 Ry
        Total length         63.9630 bohr
 

     total cpu time spent up to now is     3032.8 secs

     total energy              =   -3891.09028158 Ry
     estimated scf accuracy    <       0.00703995 Ry

     iteration # 43     ecut=    52.00 Ry     beta= 0.30
     Davidson diagonalization with overlap
     ethr =  8.52E-07,  avg # of iterations =  2.5

     negative rho (up, down):  2.025E-03 0.000E+00
 
     Adding external electric field

     Computed dipole along edir(3) : 
        Dipole                0.0014 Ry au,          0.0035 Debye
        Dipole field          0.0000 Ry au, 
 
        Potential amp.       -0.0004 Ry
        Total length         63.9630 bohr
 

     total cpu time spent up to now is     3095.1 secs

     total energy              =   -3891.09039725 Ry
     estimated scf accuracy    <       0.00260823 Ry

     iteration # 44     ecut=    52.00 Ry     beta= 0.30
     Davidson diagonalization with overlap
     ethr =  8.05E-07,  avg # of iterations =  2.8

     negative rho (up, down):  2.543E-03 0.000E+00
 
     Adding external electric field

     Computed dipole along edir(3) : 
        Dipole                0.0078 Ry au,          0.0199 Debye
        Dipole field          0.0000 Ry au, 
 
        Potential amp.       -0.0025 Ry
        Total length         63.9630 bohr
 

     total cpu time spent up to now is     3157.5 secs

     total energy              =   -3891.09042234 Ry
     estimated scf accuracy    <       0.00288934 Ry

     iteration # 45     ecut=    52.00 Ry     beta= 0.30
     Davidson diagonalization with overlap
     ethr =  8.05E-07,  avg # of iterations =  3.3

     negative rho (up, down):  3.175E-03 0.000E+00
 
     Adding external electric field

     Computed dipole along edir(3) : 
        Dipole                0.0161 Ry au,          0.0408 Debye
        Dipole field          0.0000 Ry au, 
 
        Potential amp.       -0.0051 Ry
        Total length         63.9630 bohr
 

     total cpu time spent up to now is     3221.1 secs

     total energy              =   -3891.09039290 Ry
     estimated scf accuracy    <       0.00284307 Ry

     iteration # 46     ecut=    52.00 Ry     beta= 0.30
     Davidson diagonalization with overlap
     ethr =  8.05E-07,  avg # of iterations =  3.5

     negative rho (up, down):  3.778E-03 0.000E+00
 
     Adding external electric field

     Computed dipole along edir(3) : 
        Dipole                0.0204 Ry au,          0.0519 Debye
        Dipole field          0.0001 Ry au, 
 
        Potential amp.       -0.0065 Ry
        Total length         63.9630 bohr
 

     total cpu time spent up to now is     3284.7 secs

     total energy              =   -3891.09038420 Ry
     estimated scf accuracy    <       0.00262250 Ry

     iteration # 47     ecut=    52.00 Ry     beta= 0.30
     Davidson diagonalization with overlap
     ethr =  8.05E-07,  avg # of iterations =  4.0

     negative rho (up, down):  3.410E-03 0.000E+00
 
     Adding external electric field

     Computed dipole along edir(3) : 
        Dipole                0.0168 Ry au,          0.0428 Debye
        Dipole field          0.0000 Ry au, 
 
        Potential amp.       -0.0053 Ry
        Total length         63.9630 bohr
 

     total cpu time spent up to now is     3351.2 secs

     total energy              =   -3891.09038487 Ry
     estimated scf accuracy    <       0.00242812 Ry

     iteration # 48     ecut=    52.00 Ry     beta= 0.30
     Davidson diagonalization with overlap
     ethr =  7.49E-07,  avg # of iterations =  1.5

     negative rho (up, down):  3.563E-03 0.000E+00
 
     Adding external electric field

     Computed dipole along edir(3) : 
        Dipole                0.0146 Ry au,          0.0371 Debye
        Dipole field          0.0000 Ry au, 
 
        Potential amp.       -0.0046 Ry
        Total length         63.9630 bohr
 

     total cpu time spent up to now is     3408.0 secs

     total energy              =   -3891.09039160 Ry
     estimated scf accuracy    <       0.00248638 Ry

     iteration # 49     ecut=    52.00 Ry     beta= 0.30
     Davidson diagonalization with overlap
     ethr =  7.49E-07,  avg # of iterations =  1.0

     negative rho (up, down):  4.861E-03 0.000E+00
 
     Adding external electric field

     Computed dipole along edir(3) : 
        Dipole                0.0284 Ry au,          0.0723 Debye
        Dipole field          0.0001 Ry au, 
 
        Potential amp.       -0.0090 Ry
        Total length         63.9630 bohr
 

     total cpu time spent up to now is     3462.9 secs

     total energy              =   -3891.09028417 Ry
     estimated scf accuracy    <       0.00252602 Ry

     iteration # 50     ecut=    52.00 Ry     beta= 0.30
     Davidson diagonalization with overlap
     ethr =  7.49E-07,  avg # of iterations =  6.3

     negative rho (up, down):  5.545E-03 0.000E+00
 
     Adding external electric field

     Computed dipole along edir(3) : 
        Dipole                0.0381 Ry au,          0.0969 Debye
        Dipole field          0.0001 Ry au, 
 
        Potential amp.       -0.0121 Ry
        Total length         63.9630 bohr
 

     total cpu time spent up to now is     3536.0 secs

     total energy              =   -3891.09028673 Ry
     estimated scf accuracy    <       0.00280320 Ry

     iteration # 51     ecut=    52.00 Ry     beta= 0.30
     Davidson diagonalization with overlap
     ethr =  7.49E-07,  avg # of iterations =  4.0

     negative rho (up, down):  3.363E-03 0.000E+00
 
     Adding external electric field

     Computed dipole along edir(3) : 
        Dipole                0.0004 Ry au,          0.0010 Debye
        Dipole field          0.0000 Ry au, 
 
        Potential amp.       -0.0001 Ry
        Total length         63.9630 bohr
 

     total cpu time spent up to now is     3600.5 secs

     total energy              =   -3891.08975895 Ry
     estimated scf accuracy    <       0.00487485 Ry

     iteration # 52     ecut=    52.00 Ry     beta= 0.30
     Davidson diagonalization with overlap
     ethr =  7.49E-07,  avg # of iterations =  8.2

     negative rho (up, down):  2.523E-03 0.000E+00
 
     Adding external electric field

     Computed dipole along edir(3) : 
        Dipole                0.0066 Ry au,          0.0167 Debye
        Dipole field          0.0000 Ry au, 
 
        Potential amp.       -0.0021 Ry
        Total length         63.9630 bohr
 

     total cpu time spent up to now is     3678.2 secs

     total energy              =   -3891.09012989 Ry
     estimated scf accuracy    <       0.05466235 Ry

     iteration # 53     ecut=    52.00 Ry     beta= 0.30
     Davidson diagonalization with overlap
     ethr =  7.49E-07,  avg # of iterations =  5.7

     negative rho (up, down):  3.343E-03 0.000E+00
 
     Adding external electric field

     Computed dipole along edir(3) : 
        Dipole                0.0211 Ry au,          0.0536 Debye
        Dipole field          0.0001 Ry au, 
 
        Potential amp.       -0.0067 Ry
        Total length         63.9630 bohr
 

     total cpu time spent up to now is     3748.1 secs

     total energy              =   -3891.09011829 Ry
     estimated scf accuracy    <       0.01384049 Ry

     iteration # 54     ecut=    52.00 Ry     beta= 0.30
     Davidson diagonalization with overlap
     ethr =  7.49E-07,  avg # of iterations =  5.6

     negative rho (up, down):  3.846E-03 0.000E+00
 
     Adding external electric field

     Computed dipole along edir(3) : 
        Dipole                0.0260 Ry au,          0.0660 Debye
        Dipole field          0.0001 Ry au, 
 
        Potential amp.       -0.0083 Ry
        Total length         63.9630 bohr
 

     total cpu time spent up to now is     3817.6 secs

     total energy              =   -3891.09024752 Ry
     estimated scf accuracy    <       0.00149347 Ry

     iteration # 55     ecut=    52.00 Ry     beta= 0.30
     Davidson diagonalization with overlap
     ethr =  4.61E-07,  avg # of iterations =  2.0

     negative rho (up, down):  2.003E-03 0.000E+00
 
     Adding external electric field

     Computed dipole along edir(3) : 
        Dipole                0.0003 Ry au,          0.0009 Debye
        Dipole field          0.0000 Ry au, 
 
        Potential amp.       -0.0001 Ry
        Total length         63.9630 bohr
 

     total cpu time spent up to now is     3878.3 secs

     total energy              =   -3891.09026890 Ry
     estimated scf accuracy    <       0.00555245 Ry

     iteration # 56     ecut=    52.00 Ry     beta= 0.30
     Davidson diagonalization with overlap
     ethr =  4.61E-07,  avg # of iterations =  6.8

     negative rho (up, down):  2.500E-03 0.000E+00
 
     Adding external electric field

     Computed dipole along edir(3) : 
        Dipole                0.0102 Ry au,          0.0260 Debye
        Dipole field          0.0000 Ry au, 
 
        Potential amp.       -0.0033 Ry
        Total length         63.9630 bohr
 

     total cpu time spent up to now is     3953.2 secs

     total energy              =   -3891.09026183 Ry
     estimated scf accuracy    <       0.00415822 Ry

     iteration # 57     ecut=    52.00 Ry     beta= 0.30
     Davidson diagonalization with overlap
     ethr =  4.61E-07,  avg # of iterations =  2.8

     negative rho (up, down):  3.242E-03 0.000E+00
 
     Adding external electric field

     Computed dipole along edir(3) : 
        Dipole                0.0056 Ry au,          0.0142 Debye
        Dipole field          0.0000 Ry au, 
 
        Potential amp.       -0.0018 Ry
        Total length         63.9630 bohr
 

     total cpu time spent up to now is     4015.7 secs

     total energy              =   -3891.09030832 Ry
     estimated scf accuracy    <       0.00341322 Ry

     iteration # 58     ecut=    52.00 Ry     beta= 0.30
     Davidson diagonalization with overlap
     ethr =  4.61E-07,  avg # of iterations =  3.9

     negative rho (up, down):  1.497E-03 0.000E+00
 
     Adding external electric field

     Computed dipole along edir(3) : 
        Dipole               -0.0100 Ry au,         -0.0254 Debye
        Dipole field         -0.0000 Ry au, 
 
        Potential amp.        0.0032 Ry
        Total length         63.9630 bohr
 

     total cpu time spent up to now is     4080.8 secs

     total energy              =   -3891.09031388 Ry
     estimated scf accuracy    <       0.01414563 Ry

     iteration # 59     ecut=    52.00 Ry     beta= 0.30
     Davidson diagonalization with overlap
     ethr =  4.61E-07,  avg # of iterations =  4.8

     negative rho (up, down):  1.031E-03 0.000E+00
 
     Adding external electric field

     Computed dipole along edir(3) : 
        Dipole               -0.0072 Ry au,         -0.0182 Debye
        Dipole field         -0.0000 Ry au, 
 
        Potential amp.        0.0023 Ry
        Total length         63.9630 bohr
 

     total cpu time spent up to now is     4149.2 secs

     total energy              =   -3891.08995758 Ry
     estimated scf accuracy    <       0.01393615 Ry

     iteration # 60     ecut=    52.00 Ry     beta= 0.30
     Davidson diagonalization with overlap
     ethr =  4.61E-07,  avg # of iterations =  5.5

     negative rho (up, down):  7.043E-04 0.000E+00
 
     Adding external electric field

     Computed dipole along edir(3) : 
        Dipole               -0.0042 Ry au,         -0.0107 Debye
        Dipole field         -0.0000 Ry au, 
 
        Potential amp.        0.0013 Ry
        Total length         63.9630 bohr
 

     total cpu time spent up to now is     4220.4 secs

     total energy              =   -3891.09009772 Ry
     estimated scf accuracy    <       0.00016665 Ry

     iteration # 61     ecut=    52.00 Ry     beta= 0.30
     Davidson diagonalization with overlap
     ethr =  5.14E-08,  avg # of iterations =  4.0

     negative rho (up, down):  4.542E-04 0.000E+00
 
     Adding external electric field

     Computed dipole along edir(3) : 
        Dipole                0.0070 Ry au,          0.0178 Debye
        Dipole field          0.0000 Ry au, 
 
        Potential amp.       -0.0022 Ry
        Total length         63.9630 bohr
 

     total cpu time spent up to now is     4286.5 secs

     total energy              =   -3891.09007086 Ry
     estimated scf accuracy    <       0.00088974 Ry

     iteration # 62     ecut=    52.00 Ry     beta= 0.30
     Davidson diagonalization with overlap
     ethr =  5.14E-08,  avg # of iterations =  3.1

     negative rho (up, down):  4.155E-04 0.000E+00
 
     Adding external electric field

     Computed dipole along edir(3) : 
        Dipole                0.0017 Ry au,          0.0042 Debye
        Dipole field          0.0000 Ry au, 
 
        Potential amp.       -0.0005 Ry
        Total length         63.9630 bohr
 

     total cpu time spent up to now is     4350.8 secs

     total energy              =   -3891.09005754 Ry
     estimated scf accuracy    <       0.00149054 Ry

     iteration # 63     ecut=    52.00 Ry     beta= 0.30
     Davidson diagonalization with overlap
     ethr =  5.14E-08,  avg # of iterations =  3.3

     negative rho (up, down):  4.401E-04 0.000E+00
 
     Adding external electric field

     Computed dipole along edir(3) : 
        Dipole                0.0055 Ry au,          0.0140 Debye
        Dipole field          0.0000 Ry au, 
 
        Potential amp.       -0.0017 Ry
        Total length         63.9630 bohr
 

     total cpu time spent up to now is     4415.1 secs

     total energy              =   -3891.09008735 Ry
     estimated scf accuracy    <       0.00075601 Ry

     iteration # 64     ecut=    52.00 Ry     beta= 0.30
     Davidson diagonalization with overlap
     ethr =  5.14E-08,  avg # of iterations =  1.0

     negative rho (up, down):  4.221E-04 0.000E+00
 
     Adding external electric field

     Computed dipole along edir(3) : 
        Dipole                0.0036 Ry au,          0.0093 Debye
        Dipole field          0.0000 Ry au, 
 
        Potential amp.       -0.0012 Ry
        Total length         63.9630 bohr
 

     total cpu time spent up to now is     4469.7 secs

     total energy              =   -3891.09009588 Ry
     estimated scf accuracy    <       0.00000436 Ry

     iteration # 65     ecut=    52.00 Ry     beta= 0.30
     Davidson diagonalization with overlap
     ethr =  1.35E-09,  avg # of iterations =  2.0

     negative rho (up, down):  3.532E-04 0.000E+00
 
     Adding external electric field

     Computed dipole along edir(3) : 
        Dipole                0.0042 Ry au,          0.0108 Debye
        Dipole field          0.0000 Ry au, 
 
        Potential amp.       -0.0013 Ry
        Total length         63.9630 bohr
 

     total cpu time spent up to now is     4529.2 secs

     total energy              =   -3891.09009457 Ry
     estimated scf accuracy    <       0.00009069 Ry

     iteration # 66     ecut=    52.00 Ry     beta= 0.30
     Davidson diagonalization with overlap
     ethr =  1.35E-09,  avg # of iterations =  2.0

     negative rho (up, down):  3.199E-04 0.000E+00
 
     Adding external electric field

     Computed dipole along edir(3) : 
        Dipole                0.0030 Ry au,          0.0076 Debye
        Dipole field          0.0000 Ry au, 
 
        Potential amp.       -0.0009 Ry
        Total length         63.9630 bohr
 

     total cpu time spent up to now is     4589.1 secs

     total energy              =   -3891.09009628 Ry
     estimated scf accuracy    <       0.00001202 Ry

     iteration # 67     ecut=    52.00 Ry     beta= 0.30
     Davidson diagonalization with overlap
     ethr =  1.35E-09,  avg # of iterations =  1.0

     negative rho (up, down):  2.738E-04 0.000E+00
 
     Adding external electric field

     Computed dipole along edir(3) : 
        Dipole                0.0020 Ry au,          0.0052 Debye
        Dipole field          0.0000 Ry au, 
 
        Potential amp.       -0.0006 Ry
        Total length         63.9630 bohr
 

     total cpu time spent up to now is     4643.9 secs

     total energy              =   -3891.09009639 Ry
     estimated scf accuracy    <       0.00000356 Ry

     iteration # 68     ecut=    52.00 Ry     beta= 0.30
     Davidson diagonalization with overlap
     ethr =  1.10E-09,  avg # of iterations =  1.0

     negative rho (up, down):  2.764E-04 0.000E+00
 
     Adding external electric field

     Computed dipole along edir(3) : 
        Dipole                0.0018 Ry au,          0.0047 Debye
        Dipole field          0.0000 Ry au, 
 
        Potential amp.       -0.0006 Ry
        Total length         63.9630 bohr
 

     total cpu time spent up to now is     4698.4 secs

     total energy              =   -3891.09009631 Ry
     estimated scf accuracy    <       0.00000294 Ry

     iteration # 69     ecut=    52.00 Ry     beta= 0.30
     Davidson diagonalization with overlap
     ethr =  9.08E-10,  avg # of iterations =  1.0

     negative rho (up, down):  2.934E-04 0.000E+00
 
     Adding external electric field

     Computed dipole along edir(3) : 
        Dipole                0.0024 Ry au,          0.0061 Debye
        Dipole field          0.0000 Ry au, 
 
        Potential amp.       -0.0008 Ry
        Total length         63.9630 bohr
 

     total cpu time spent up to now is     4754.0 secs

     total energy              =   -3891.09009635 Ry
     estimated scf accuracy    <       0.00000044 Ry

     iteration # 70     ecut=    52.00 Ry     beta= 0.30
     Davidson diagonalization with overlap
     ethr =  1.36E-10,  avg # of iterations =  1.4

     negative rho (up, down):  2.793E-04 0.000E+00
 
     Adding external electric field

     Computed dipole along edir(3) : 
        Dipole                0.0022 Ry au,          0.0056 Debye
        Dipole field          0.0000 Ry au, 
 
        Potential amp.       -0.0007 Ry
        Total length         63.9630 bohr
 

     total cpu time spent up to now is     4811.1 secs

     total energy              =   -3891.09009637 Ry
     estimated scf accuracy    <       0.00000053 Ry

     iteration # 71     ecut=    52.00 Ry     beta= 0.30
     Davidson diagonalization with overlap
     ethr =  1.36E-10,  avg # of iterations =  1.0

     negative rho (up, down):  2.800E-04 0.000E+00
 
     Adding external electric field

     Computed dipole along edir(3) : 
        Dipole                0.0023 Ry au,          0.0058 Debye
        Dipole field          0.0000 Ry au, 
 
        Potential amp.       -0.0007 Ry
        Total length         63.9630 bohr
 

     total cpu time spent up to now is     4865.2 secs

     total energy              =   -3891.09009636 Ry
     estimated scf accuracy    <       0.00000015 Ry

     iteration # 72     ecut=    52.00 Ry     beta= 0.30
     Davidson diagonalization with overlap
     ethr =  4.56E-11,  avg # of iterations =  1.0

     negative rho (up, down):  2.858E-04 0.000E+00
 
     Adding external electric field

     Computed dipole along edir(3) : 
        Dipole                0.0025 Ry au,          0.0062 Debye
        Dipole field          0.0000 Ry au, 
 
        Potential amp.       -0.0008 Ry
        Total length         63.9630 bohr
 

     total cpu time spent up to now is     4919.5 secs

     total energy              =   -3891.09009635 Ry
     estimated scf accuracy    <       0.00000002 Ry

     iteration # 73     ecut=    52.00 Ry     beta= 0.30
     Davidson diagonalization with overlap
     ethr =  4.90E-12,  avg # of iterations =  2.0

     negative rho (up, down):  2.763E-04 0.000E+00
 
     Adding external electric field

     Computed dipole along edir(3) : 
        Dipole                0.0023 Ry au,          0.0060 Debye
        Dipole field          0.0000 Ry au, 
 
        Potential amp.       -0.0007 Ry
        Total length         63.9630 bohr
 

     total cpu time spent up to now is     4981.0 secs

     total energy              =   -3891.09009637 Ry
     estimated scf accuracy    <       0.00000006 Ry

     iteration # 74     ecut=    52.00 Ry     beta= 0.30
     Davidson diagonalization with overlap
     ethr =  4.90E-12,  avg # of iterations =  2.0

     negative rho (up, down):  2.779E-04 0.000E+00
 
     Adding external electric field

     Computed dipole along edir(3) : 
        Dipole                0.0011 Ry au,          0.0029 Debye
        Dipole field          0.0000 Ry au, 
 
        Potential amp.       -0.0004 Ry
        Total length         63.9630 bohr
 

     total cpu time spent up to now is     5039.5 secs

     End of self-consistent calculation

          k = 0.0000 0.0000 0.0000 ( 32011 PWs)   bands (ev):

   -87.1567 -87.1463 -87.1400 -87.1399 -87.1357 -87.1357 -86.9893 -86.9767
   -86.9741 -86.9272 -86.9137 -86.9137 -50.6656 -50.6407 -50.6407 -50.6396
   -50.6395 -50.6386 -50.6386 -50.6130 -50.6129 -50.5875 -50.5874 -50.5837
   -50.5837 -50.5804 -50.5399 -50.5397 -50.5258 -50.5255 -50.4724 -50.4723
   -50.4681 -50.4680 -50.4133 -50.4093 -50.4093 -50.4071 -50.4071 -50.4035
   -50.4007 -50.3818 -50.3815 -50.3483 -50.3363 -50.3363 -50.3193 -50.3189
   -14.5051 -14.3171 -14.1833  -9.3964  -9.3844  -9.3844  -9.1911  -9.1911
    -9.1911  -9.1371  -9.1371  -9.1371  -8.2578  -8.2514  -8.2514  -8.0512
    -8.0511  -8.0511  -8.0087  -8.0087  -8.0087  -3.1793  -2.6472  -2.4542
    -1.8271  -1.5780  -1.5457  -1.5456  -1.5389  -1.3413  -1.3413  -1.3413
    -1.3294  -1.3122  -1.3122  -1.3122  -1.1686  -0.7015  -0.7009  -0.6862
    -0.6852  -0.6816  -0.6808  -0.3434  -0.3434  -0.3312  -0.3312  -0.1506
    -0.1496  -0.1253  -0.1248   0.1050   0.1581   0.1589   0.2053   0.2069
     0.2599   0.2604   0.2844   0.2848   0.3028   0.4052   0.4062   0.4839
     0.4863   0.5176   0.5182   0.5608   0.5615   0.6257   0.6257   0.6456
     0.6456   1.0517   1.0546   1.1699   1.1732   1.1743   1.1744   1.2181
     1.2182   1.3087   1.3243   1.5160   1.5866   1.6261   1.6490   1.6556
     1.7390   1.7391   1.7564   1.7793   1.8346   1.8350   1.8487   1.8490
     1.9055   1.9133   1.9458   1.9458   1.9616   1.9616   2.3493   2.3494
     2.3738   2.6052   2.6053   2.6113   2.8673   2.8674   2.8674   4.1220
     5.3869   6.2666   6.3253   6.3254   6.5611   6.5680   6.5680   6.8951
     6.9013   6.9013   8.3784   8.3814   8.5737   8.5740   8.5847   8.5849
     8.6196   8.9948   9.3609   9.3632   9.3783   9.3797   9.5263   9.7688
     9.7803  10.0461  10.7428  11.0373  11.0418  11.0452  11.0497  11.0600
    11.3200  11.3416

          k = 0.0000 0.1925 0.0000 ( 32019 PWs)   bands (ev):

   -87.1555 -87.1454 -87.1408 -87.1405 -87.1361 -87.1360 -86.9883 -86.9771
   -86.9747 -86.9261 -86.9143 -86.9141 -50.6625 -50.6583 -50.6524 -50.6508
   -50.6460 -50.6219 -50.6154 -50.6040 -50.6002 -50.5895 -50.5840 -50.5823
   -50.5804 -50.5777 -50.5489 -50.5439 -50.5368 -50.5284 -50.4885 -50.4834
   -50.4484 -50.4459 -50.4271 -50.4217 -50.4125 -50.4038 -50.4011 -50.3929
   -50.3862 -50.3845 -50.3835 -50.3473 -50.3368 -50.3367 -50.3302 -50.3220
   -14.3437 -14.1558 -14.0232 -10.5972 -10.4090 -10.3069  -9.7587  -9.7517
    -9.5656  -9.5654  -9.4764  -9.4763  -7.6378  -7.6330  -7.4431  -7.4430
    -7.3699  -7.3699  -6.8195  -6.6280  -6.5530  -2.9833  -2.4444  -2.2161
    -2.0244  -2.0195  -1.8214  -1.8214  -1.7866  -1.7866  -1.6372  -1.3853
    -1.3657  -1.1831  -1.1543  -1.1489  -0.9828  -0.9826  -0.8527  -0.7984
    -0.7896  -0.7139  -0.5814  -0.4883  -0.4074  -0.3900  -0.3508  -0.2987
    -0.2028  -0.1771  -0.1731  -0.0077   0.0707   0.0973   0.1653   0.2070
     0.2898   0.3049   0.3098   0.3347   0.3712   0.3830   0.3914   0.4387
     0.4495   0.5279   0.5336   0.6080   0.6086   0.6689   0.8005   0.8904
     0.9278   0.9509   0.9805   1.0846   1.0947   1.1021   1.1721   1.1855
     1.2640   1.2811   1.2832   1.2863   1.2996   1.3203   1.4123   1.4458
     1.4628   1.5195   1.5873   1.5990   1.6172   1.6359   1.6433   1.7148
     1.7836   1.8495   1.8924   1.9057   1.9391   1.9836   2.0519   2.1768
     2.2110   2.3069   2.3377   2.5019   2.5150   2.8777   2.8781   4.4718
     5.8302   5.8971   6.5241   6.5402   6.6995   6.8086   6.8102   6.9836
     7.1714   7.1723   7.2907   7.3419   7.5881   7.9178   8.0115   8.1939
     8.3794   8.8373   9.2093   9.6863   9.7413   9.8754  10.1994  10.2337
    10.3281  10.4708  10.9484  11.2444  11.2524  11.3434  11.3638  11.4669
    11.9091  12.1014

          k = 0.0000 0.3849 0.0000 ( 32055 PWs)   bands (ev):

   -87.1521 -87.1436 -87.1430 -87.1415 -87.1376 -87.1365 -86.9857 -86.9786
   -86.9758 -86.9233 -86.9164 -86.9149 -50.6715 -50.6634 -50.6544 -50.6491
   -50.6423 -50.6158 -50.6057 -50.5948 -50.5931 -50.5833 -50.5795 -50.5776
   -50.5697 -50.5675 -50.5646 -50.5641 -50.5504 -50.5373 -50.5007 -50.4779
   -50.4398 -50.4268 -50.4240 -50.4209 -50.4161 -50.4103 -50.4046 -50.4021
   -50.3933 -50.3644 -50.3607 -50.3590 -50.3446 -50.3386 -50.3374 -50.3309
   -13.8613 -13.6736 -13.5448 -11.9646 -11.7770 -11.6628 -10.1578 -10.1511
    -9.9661  -9.9659  -9.8677  -9.8676  -6.5100  -6.5051  -6.3147  -6.3146
    -6.2468  -6.2468  -4.7599  -4.5664  -4.5036  -3.1474  -3.1419  -2.9462
    -2.9462  -2.9023  -2.9023  -2.4027  -1.8632  -1.5765  -1.2310  -1.1313
    -1.1252  -1.0838  -0.9250  -0.8915  -0.8484  -0.8280  -0.8120  -0.7291
    -0.7225  -0.6945  -0.6644  -0.6479  -0.6013  -0.5241  -0.5062  -0.4255
    -0.3336  -0.3225  -0.2966  -0.2896  -0.2609  -0.1754  -0.1538  -0.1183
    -0.0851   0.0049   0.1122   0.1263   0.1687   0.2050   0.2746   0.2991
     0.3181   0.3479   0.4251   0.5405   0.5469   0.5744   0.6427   0.6683
     0.6734   0.6804   0.7219   0.7377   0.8473   0.8704   0.8765   0.8855
     0.9357   0.9624   1.0111   1.1245   1.1298   1.2136   1.2767   1.3275
     1.3413   1.3776   1.4498   1.5046   1.5826   1.6673   1.7196   1.7428
     1.7775   1.8631   1.8893   1.9192   1.9349   1.9611   1.9924   2.0087
     2.0654   2.0937   2.3237   2.3591   2.8210   2.8237   3.0818   3.6045
     4.3368   5.3000   5.6833   5.8620   6.3105   6.8184   7.0544   7.0861
     7.1423   7.2064   7.3443   7.3614   7.6677   7.6723   8.0361   9.1843
     9.3881   9.4890   9.6625   9.8250   9.8505  10.0421  10.3849  10.5255
    10.6601  10.8052  11.5601  11.8214  11.8360  12.0479  12.1603  12.2619
    12.3604  12.3930

          k = 0.0000-0.5774 0.0000 ( 32112 PWs)   bands (ev):

   -87.1478 -87.1477 -87.1419 -87.1401 -87.1401 -87.1368 -86.9836 -86.9801
   -86.9764 -86.9197 -86.9197 -86.9152 -50.6763 -50.6682 -50.6462 -50.6460
   -50.6216 -50.6215 -50.6074 -50.6020 -50.6019 -50.5847 -50.5763 -50.5724
   -50.5723 -50.5645 -50.5645 -50.5552 -50.5517 -50.5517 -50.5050 -50.4559
   -50.4531 -50.4443 -50.4140 -50.4099 -50.4086 -50.4067 -50.4049 -50.4028
   -50.3922 -50.3922 -50.3514 -50.3454 -50.3453 -50.3414 -50.3414 -50.3378
   -13.0652 -13.0629 -12.8766 -12.8764 -12.7538 -12.7537 -10.3008 -10.2942
   -10.1093 -10.1091 -10.0089 -10.0089  -5.6781  -5.6737  -5.4748  -5.4747
    -5.4362  -5.4362  -4.0114  -4.0051  -3.8036  -3.8035  -3.7735  -3.7735
    -2.5940  -2.5907  -2.3952  -2.3952  -2.3473  -2.3473  -1.4644  -1.4597
    -1.3847  -1.2930  -1.2271  -0.9872  -0.9521  -0.9499  -0.9222  -0.9192
    -0.8358  -0.7076  -0.7070  -0.5595  -0.5375  -0.5372  -0.4998  -0.4994
    -0.4022  -0.4012  -0.2697  -0.2688  -0.2121  -0.2113  -0.1803  -0.1802
    -0.0120  -0.0085  -0.0085   0.0085   0.0100   0.0177   0.0177   0.0571
     0.0848   0.0861   0.2545   0.2550   0.2797   0.3138   0.3157   0.3656
     0.3677   0.6028   0.6034   0.6727   0.6739   0.8379   0.8649   0.9168
     0.9197   1.1227   1.1258   1.1604   1.2278   1.2284   1.4600   1.5009
     1.5019   1.5696   1.5904   1.5932   1.7031   1.7036   1.7636   1.8545
     1.8588   1.8660   1.8667   1.9752   1.9905   2.0465   2.0469   2.0762
     2.1865   2.2380   2.2498   2.2834   2.5423   2.5434   2.7769   2.7822
     4.1595   4.1604   5.0709   5.8838   6.4238   6.4451   6.4502   6.6218
     7.4004   7.4099   7.6375   7.6416   7.8933   7.8951   8.7274   8.7372
     9.0641   9.6555  10.4138  10.5660  10.5660  10.9144  10.9145  11.4471
    11.4475  11.5998  11.6873  11.6923  11.7556  11.7581  11.9486  11.9497
    12.1806  12.1815

          k = 0.1667-0.0962 0.0000 ( 32019 PWs)   bands (ev):

   -87.1555 -87.1454 -87.1408 -87.1405 -87.1361 -87.1360 -86.9883 -86.9771
   -86.9747 -86.9261 -86.9143 -86.9141 -50.6625 -50.6580 -50.6526 -50.6508
   -50.6464 -50.6213 -50.6156 -50.6045 -50.6000 -50.5895 -50.5842 -50.5824
   -50.5800 -50.5779 -50.5490 -50.5437 -50.5368 -50.5284 -50.4886 -50.4834
   -50.4485 -50.4458 -50.4269 -50.4218 -50.4125 -50.4038 -50.4011 -50.3927
   -50.3861 -50.3847 -50.3837 -50.3473 -50.3369 -50.3366 -50.3304 -50.3218
   -14.3437 -14.1558 -14.0232 -10.5972 -10.4090 -10.3069  -9.7587  -9.7517
    -9.5656  -9.5654  -9.4764  -9.4763  -7.6378  -7.6330  -7.4432  -7.4430
    -7.3699  -7.3699  -6.8195  -6.6280  -6.5530  -2.9833  -2.4444  -2.2160
    -2.0244  -2.0195  -1.8214  -1.8214  -1.7866  -1.7866  -1.6372  -1.3853
    -1.3655  -1.1831  -1.1543  -1.1492  -0.9827  -0.9820  -0.8539  -0.7992
    -0.7888  -0.7144  -0.5801  -0.4888  -0.4092  -0.3909  -0.3483  -0.2987
    -0.2017  -0.1764  -0.1748  -0.0075   0.0705   0.0964   0.1654   0.2081
     0.2891   0.3050   0.3111   0.3345   0.3720   0.3799   0.3915   0.4388
     0.4504   0.5283   0.5339   0.6085   0.6098   0.6648   0.8013   0.8932
     0.9276   0.9543   0.9793   1.0845   1.0948   1.0984   1.1733   1.1866
     1.2644   1.2812   1.2834   1.2863   1.2996   1.3203   1.4122   1.4442
     1.4607   1.5188   1.5884   1.5994   1.6171   1.6359   1.6452   1.7149
     1.7819   1.8500   1.8935   1.9033   1.9397   1.9839   2.0503   2.1769
     2.2110   2.3070   2.3391   2.5019   2.5149   2.8777   2.8781   4.4721
     5.8302   5.8972   6.5241   6.5403   6.6989   6.8086   6.8103   6.9807
     7.1715   7.1723   7.2907   7.3458   7.5881   7.9176   8.0115   8.1940
     8.3832   8.8373   9.2093   9.6796   9.7412   9.8733  10.2020  10.2337
    10.3303  10.4711  10.9483  11.2444  11.2509  11.3441  11.3582  11.4671
    11.9091  12.1014

          k = 0.1667 0.0962 0.0000 ( 32019 PWs)   bands (ev):

   -87.1555 -87.1454 -87.1408 -87.1405 -87.1361 -87.1360 -86.9883 -86.9771
   -86.9747 -86.9261 -86.9143 -86.9141 -50.6625 -50.6582 -50.6525 -50.6508
   -50.6463 -50.6215 -50.6154 -50.6049 -50.5999 -50.5892 -50.5840 -50.5824
   -50.5798 -50.5783 -50.5490 -50.5438 -50.5365 -50.5286 -50.4886 -50.4833
   -50.4485 -50.4458 -50.4272 -50.4216 -50.4125 -50.4038 -50.4011 -50.3927
   -50.3863 -50.3847 -50.3834 -50.3473 -50.3368 -50.3367 -50.3301 -50.3222
   -14.3437 -14.1558 -14.0232 -10.5972 -10.4090 -10.3069  -9.7587  -9.7517
    -9.5656  -9.5654  -9.4764  -9.4763  -7.6378  -7.6330  -7.4431  -7.4430
    -7.3699  -7.3699  -6.8195  -6.6280  -6.5530  -2.9833  -2.4444  -2.2161
    -2.0244  -2.0195  -1.8214  -1.8214  -1.7866  -1.7866  -1.6372  -1.3853
    -1.3655  -1.1831  -1.1543  -1.1496  -0.9834  -0.9832  -0.8539  -0.7967
    -0.7882  -0.7141  -0.5799  -0.4880  -0.4112  -0.3918  -0.3493  -0.2988
    -0.2025  -0.1751  -0.1734  -0.0062   0.0702   0.0974   0.1632   0.2100
     0.2886   0.3040   0.3117   0.3345   0.3740   0.3823   0.3949   0.4364
     0.4499   0.5260   0.5291   0.6087   0.6106   0.6659   0.7980   0.8989
     0.9274   0.9520   0.9787   1.0883   1.0947   1.0993   1.1711   1.1877
     1.2645   1.2774   1.2813   1.2835   1.2996   1.3203   1.4122   1.4447
     1.4612   1.5190   1.5896   1.5941   1.6171   1.6359   1.6479   1.7150
     1.7839   1.8488   1.8919   1.9092   1.9395   1.9833   2.0532   2.1769
     2.2110   2.3070   2.3380   2.5020   2.5149   2.8777   2.8781   4.4712
     5.8306   5.8966   6.5241   6.5403   6.6989   6.8087   6.8102   6.9808
     7.1714   7.1724   7.2908   7.3486   7.5881   7.9111   8.0116   8.1956
     8.3731   8.8373   9.2094   9.6894   9.7413   9.8772  10.2027  10.2337
    10.3342  10.4644  10.9484  11.2444  11.2543  11.3400  11.3604  11.4666
    11.9091  12.1022

          k = 0.1667 0.2887 0.0000 ( 32043 PWs)   bands (ev):

   -87.1532 -87.1438 -87.1420 -87.1420 -87.1367 -87.1367 -86.9865 -86.9780
   -86.9756 -86.9242 -86.9152 -86.9152 -50.6601 -50.6600 -50.6569 -50.6537
   -50.6535 -50.6111 -50.6104 -50.5942 -50.5939 -50.5901 -50.5781 -50.5779
   -50.5709 -50.5705 -50.5631 -50.5572 -50.5492 -50.5330 -50.4905 -50.4900
   -50.4304 -50.4297 -50.4289 -50.4288 -50.4140 -50.4104 -50.4043 -50.4019
   -50.3897 -50.3675 -50.3674 -50.3509 -50.3453 -50.3377 -50.3376 -50.3274
   -14.0218 -13.8341 -13.7039 -11.1975 -11.1945 -11.0083 -11.0081 -10.9004
   -10.9003  -8.9703  -8.7726  -8.7206  -7.8752  -7.6713  -7.6337  -5.7443
    -5.7436  -5.5513  -5.5513  -5.4835  -5.4834  -3.3276  -3.1298  -3.0840
    -2.5950  -2.0545  -1.7822  -1.7030  -1.6991  -1.5001  -1.5001  -1.4665
    -1.4665  -1.2665  -1.0578  -1.0432  -1.0424  -0.9340  -0.9337  -0.8988
    -0.8987  -0.8616  -0.7023  -0.5975  -0.5947  -0.4233  -0.4218  -0.3827
    -0.3824  -0.2167  -0.1808  -0.1769  -0.0417   0.0013   0.0700   0.1904
     0.1992   0.2758   0.2817   0.2965   0.3426   0.3434   0.3502   0.4334
     0.4467   0.4543   0.5107   0.5329   0.5606   0.5809   0.5961   0.7333
     0.7337   0.7362   0.7558   0.8229   0.9621   0.9746   0.9796   0.9875
     0.9896   1.0485   1.0600   1.0851   1.1544   1.1626   1.2178   1.2647
     1.2673   1.3311   1.3796   1.3935   1.4812   1.4857   1.5628   1.5679
     1.6153   1.6492   1.7635   1.7722   1.9101   1.9150   1.9336   1.9826
     1.9878   2.1112   2.1153   2.8495   2.9205   3.1793   3.4414   4.6895
     4.6929   5.0414   5.4784   5.4842   6.1518   6.3873   6.5490   6.7514
     6.8944   6.9056   8.1921   8.2295   8.4913   8.5125   8.7011   8.7320
     8.8947   8.8988   9.2722   9.6368   9.7607   9.7678  10.1704  10.5563
    10.5619  10.6137  11.3586  11.4449  11.4566  11.6262  12.5011  12.5223
    12.7190  12.7260

          k = 0.1667-0.6736 0.0000 ( 32075 PWs)   bands (ev):

   -87.1494 -87.1452 -87.1429 -87.1411 -87.1385 -87.1372 -86.9839 -86.9793
   -86.9769 -86.9210 -86.9177 -86.9159 -50.6670 -50.6604 -50.6488 -50.6485
   -50.6423 -50.6149 -50.6114 -50.6098 -50.5905 -50.5833 -50.5789 -50.5745
   -50.5707 -50.5704 -50.5591 -50.5556 -50.5555 -50.5422 -50.4964 -50.4751
   -50.4457 -50.4353 -50.4143 -50.4134 -50.4131 -50.4094 -50.4049 -50.4030
   -50.3992 -50.3832 -50.3516 -50.3506 -50.3426 -50.3398 -50.3383 -50.3370
   -13.3820 -13.1944 -13.0692 -12.4333 -12.2458 -12.1280 -11.5022 -11.3145
   -11.2040  -8.9106  -8.7201  -8.6379  -7.0592  -6.8628  -6.8068  -4.7067
    -4.6387  -4.5072  -4.4624  -4.4415  -4.3920  -3.6588  -3.4628  -3.4103
    -2.5745  -2.3731  -2.3374  -1.8342  -1.6187  -1.4180  -1.3829  -1.3125
    -1.2716  -1.2076  -1.1998  -1.1333  -1.0810  -1.0026  -0.9566  -0.9038
    -0.9025  -0.8866  -0.8788  -0.8482  -0.7362  -0.7314  -0.7254  -0.6206
    -0.5522  -0.5317  -0.4954  -0.4248  -0.3575  -0.3549  -0.2166  -0.2066
    -0.1932  -0.0455  -0.0374  -0.0113   0.0133   0.0244   0.1300   0.2160
     0.2543   0.3027   0.3188   0.3694   0.3862   0.3984   0.4561   0.5290
     0.5822   0.6844   0.7206   0.7583   0.8066   0.8694   0.8913   0.9077
     0.9222   1.0451   1.0705   1.0954   1.0994   1.1735   1.2257   1.2860
     1.3883   1.4198   1.4234   1.4954   1.5412   1.5658   1.5759   1.6379
     1.7547   1.7974   1.8081   1.8303   1.8714   1.8959   1.9357   1.9730
     2.0091   2.0298   2.1116   2.6996   3.2313   3.3592   3.5607   3.6719
     3.8189   3.9650   4.5785   4.9917   5.9154   6.0144   6.0427   6.1782
     6.4223   7.2720   7.8958   8.1176   8.9680   9.2050   9.4699   9.4888
     9.7359  10.1389  10.1930  10.4277  10.4861  10.6552  10.9491  10.9798
    11.0258  11.3911  11.4375  11.6714  11.9973  12.1440  12.1601  12.3126
    12.4147  12.5765

          k = 0.1667-0.4811 0.0000 ( 32075 PWs)   bands (ev):

   -87.1494 -87.1452 -87.1429 -87.1411 -87.1385 -87.1372 -86.9839 -86.9793
   -86.9769 -86.9210 -86.9177 -86.9159 -50.6670 -50.6604 -50.6488 -50.6485
   -50.6423 -50.6150 -50.6111 -50.6098 -50.5907 -50.5834 -50.5789 -50.5744
   -50.5708 -50.5706 -50.5590 -50.5557 -50.5555 -50.5420 -50.4964 -50.4751
   -50.4457 -50.4353 -50.4143 -50.4133 -50.4130 -50.4094 -50.4049 -50.4030
   -50.3992 -50.3835 -50.3515 -50.3508 -50.3426 -50.3397 -50.3383 -50.3367
   -13.3820 -13.1944 -13.0692 -12.4333 -12.2458 -12.1280 -11.5022 -11.3145
   -11.2040  -8.9106  -8.7201  -8.6379  -7.0592  -6.8628  -6.8068  -4.7067
    -4.6387  -4.5072  -4.4624  -4.4415  -4.3920  -3.6588  -3.4628  -3.4103
    -2.5745  -2.3731  -2.3374  -1.8342  -1.6187  -1.4180  -1.3829  -1.3124
    -1.2715  -1.2078  -1.1992  -1.1335  -1.0810  -1.0035  -0.9572  -0.9031
    -0.9016  -0.8863  -0.8788  -0.8482  -0.7362  -0.7300  -0.7255  -0.6209
    -0.5524  -0.5304  -0.4957  -0.4273  -0.3582  -0.3542  -0.2167  -0.2069
    -0.1942  -0.0466  -0.0399  -0.0113   0.0133   0.0250   0.1309   0.2160
     0.2559   0.3031   0.3206   0.3633   0.3846   0.3982   0.4580   0.5295
     0.5821   0.6907   0.7251   0.7603   0.8039   0.8649   0.8936   0.9079
     0.9234   1.0434   1.0696   1.0947   1.1003   1.1714   1.2259   1.2869
     1.3901   1.4202   1.4243   1.4959   1.5415   1.5658   1.5743   1.6377
     1.7514   1.7962   1.8082   1.8319   1.8760   1.8968   1.9345   1.9719
     2.0093   2.0293   2.1077   2.6997   3.2313   3.3595   3.5607   3.6712
     3.8190   3.9650   4.5785   4.9935   5.9161   6.0157   6.0430   6.1782
     6.4223   7.2707   7.8961   8.1204   8.9680   9.2050   9.4699   9.4888
     9.7314  10.1389  10.1928  10.4276  10.4862  10.6552  10.9491  10.9798
    11.0258  11.3912  11.4375  11.6717  11.9952  12.1443  12.1601  12.3120
    12.4151  12.5761

          k = 0.1667-0.2887 0.0000 ( 32043 PWs)   bands (ev):

   -87.1532 -87.1438 -87.1420 -87.1420 -87.1367 -87.1367 -86.9865 -86.9780
   -86.9756 -86.9242 -86.9152 -86.9152 -50.6601 -50.6599 -50.6568 -50.6538
   -50.6536 -50.6109 -50.6104 -50.5941 -50.5939 -50.5902 -50.5785 -50.5782
   -50.5706 -50.5705 -50.5630 -50.5576 -50.5491 -50.5328 -50.4905 -50.4900
   -50.4304 -50.4297 -50.4289 -50.4288 -50.4141 -50.4104 -50.4043 -50.4019
   -50.3897 -50.3676 -50.3674 -50.3513 -50.3453 -50.3377 -50.3376 -50.3270
   -14.0218 -13.8341 -13.7039 -11.1975 -11.1945 -11.0083 -11.0081 -10.9004
   -10.9003  -8.9703  -8.7726  -8.7206  -7.8752  -7.6713  -7.6337  -5.7443
    -5.7436  -5.5513  -5.5513  -5.4835  -5.4834  -3.3276  -3.1298  -3.0840
    -2.5950  -2.0545  -1.7820  -1.7030  -1.6991  -1.5001  -1.5001  -1.4665
    -1.4665  -1.2665  -1.0577  -1.0429  -1.0420  -0.9349  -0.9344  -0.8991
    -0.8989  -0.8602  -0.6991  -0.5959  -0.5946  -0.4241  -0.4225  -0.3844
    -0.3841  -0.2205  -0.1799  -0.1788  -0.0431   0.0012   0.0700   0.1933
     0.2015   0.2758   0.2784   0.2965   0.3406   0.3423   0.3430   0.4347
     0.4461   0.4516   0.5161   0.5323   0.5692   0.5891   0.5933   0.7337
     0.7342   0.7369   0.7559   0.8225   0.9621   0.9700   0.9796   0.9876
     0.9897   1.0488   1.0599   1.0864   1.1542   1.1619   1.2155   1.2648
     1.2677   1.3375   1.3825   1.3961   1.4806   1.4848   1.5595   1.5639
     1.6199   1.6472   1.7641   1.7730   1.9108   1.9155   1.9291   1.9825
     1.9877   2.1088   2.1129   2.8497   2.9205   3.1793   3.4414   4.6894
     4.6928   5.0433   5.4786   5.4844   6.1518   6.3873   6.5490   6.7531
     6.8968   6.9074   8.1925   8.2295   8.4916   8.5125   8.7044   8.7348
     8.8947   8.8989   9.2722   9.6368   9.7564   9.7623  10.1703  10.5559
    10.5575  10.6136  11.3585  11.4442  11.4566  11.6261  12.4998  12.5121
    12.7190  12.7259

          k = 0.3333-0.1925 0.0000 ( 32055 PWs)   bands (ev):

   -87.1521 -87.1436 -87.1430 -87.1415 -87.1376 -87.1365 -86.9857 -86.9786
   -86.9758 -86.9233 -86.9164 -86.9149 -50.6713 -50.6633 -50.6543 -50.6492
   -50.6427 -50.6153 -50.6062 -50.5951 -50.5930 -50.5831 -50.5796 -50.5774
   -50.5696 -50.5675 -50.5647 -50.5642 -50.5502 -50.5373 -50.5007 -50.4779
   -50.4397 -50.4269 -50.4239 -50.4208 -50.4163 -50.4103 -50.4046 -50.4022
   -50.3935 -50.3642 -50.3609 -50.3592 -50.3446 -50.3387 -50.3374 -50.3307
   -13.8613 -13.6736 -13.5448 -11.9646 -11.7770 -11.6628 -10.1578 -10.1511
    -9.9661  -9.9659  -9.8677  -9.8676  -6.5100  -6.5051  -6.3147  -6.3146
    -6.2468  -6.2468  -4.7599  -4.5664  -4.5036  -3.1474  -3.1419  -2.9462
    -2.9461  -2.9023  -2.9023  -2.4027  -1.8632  -1.5762  -1.2310  -1.1316
    -1.1250  -1.0838  -0.9250  -0.8904  -0.8492  -0.8294  -0.8116  -0.7306
    -0.7225  -0.6946  -0.6632  -0.6475  -0.6012  -0.5241  -0.5060  -0.4262
    -0.3335  -0.3225  -0.2949  -0.2896  -0.2604  -0.1761  -0.1539  -0.1212
    -0.0829   0.0035   0.1115   0.1282   0.1688   0.2056   0.2747   0.2988
     0.3170   0.3511   0.4224   0.5430   0.5481   0.5730   0.6427   0.6674
     0.6749   0.6805   0.7202   0.7415   0.8472   0.8704   0.8762   0.8838
     0.9362   0.9613   1.0113   1.1235   1.1296   1.2136   1.2746   1.3269
     1.3406   1.3795   1.4501   1.5064   1.5856   1.6657   1.7193   1.7404
     1.7773   1.8628   1.8875   1.9201   1.9353   1.9630   1.9912   2.0090
     2.0632   2.0941   2.3238   2.3590   2.8210   2.8237   3.0832   3.6045
     4.3363   5.3004   5.6798   5.8626   6.3170   6.8137   7.0546   7.0928
     7.1425   7.2068   7.3443   7.3611   7.6677   7.6723   8.0363   9.1772
     9.3880   9.4890   9.6624   9.8276   9.8504  10.0421  10.3848  10.5265
    10.6523  10.8052  11.5600  11.8213  11.8382  12.0479  12.1602  12.2587
    12.3601  12.3976

          k = 0.3333-0.0000 0.0000 ( 32043 PWs)   bands (ev):

   -87.1532 -87.1438 -87.1420 -87.1420 -87.1367 -87.1367 -86.9865 -86.9780
   -86.9756 -86.9242 -86.9152 -86.9152 -50.6601 -50.6599 -50.6568 -50.6538
   -50.6537 -50.6107 -50.6105 -50.5944 -50.5942 -50.5904 -50.5779 -50.5778
   -50.5710 -50.5706 -50.5631 -50.5573 -50.5490 -50.5329 -50.4906 -50.4900
   -50.4303 -50.4297 -50.4290 -50.4287 -50.4139 -50.4104 -50.4043 -50.4019
   -50.3898 -50.3677 -50.3673 -50.3511 -50.3453 -50.3377 -50.3376 -50.3272
   -14.0218 -13.8341 -13.7039 -11.1975 -11.1945 -11.0083 -11.0081 -10.9004
   -10.9003  -8.9703  -8.7726  -8.7206  -7.8752  -7.6713  -7.6337  -5.7443
    -5.7435  -5.5513  -5.5513  -5.4835  -5.4834  -3.3276  -3.1298  -3.0840
    -2.5950  -2.0545  -1.7820  -1.7030  -1.6991  -1.5001  -1.5001  -1.4665
    -1.4665  -1.2665  -1.0566  -1.0433  -1.0420  -0.9340  -0.9338  -0.8992
    -0.8989  -0.8627  -0.7027  -0.5982  -0.5960  -0.4217  -0.4204  -0.3831
    -0.3826  -0.2175  -0.1810  -0.1783  -0.0413   0.0012   0.0700   0.1924
     0.2016   0.2758   0.2813   0.2965   0.3408   0.3424   0.3478   0.4340
     0.4474   0.4548   0.5123   0.5329   0.5614   0.5802   0.5971   0.7329
     0.7333   0.7360   0.7558   0.8233   0.9621   0.9740   0.9796   0.9877
     0.9898   1.0502   1.0620   1.0844   1.1546   1.1628   1.2176   1.2641
     1.2672   1.3309   1.3788   1.3931   1.4801   1.4839   1.5639   1.5687
     1.6130   1.6515   1.7637   1.7724   1.9102   1.9155   1.9316   1.9831
     1.9880   2.1098   2.1146   2.8511   2.9205   3.1793   3.4414   4.6894
     4.6926   5.0418   5.4789   5.4845   6.1518   6.3873   6.5490   6.7516
     6.8947   6.9054   8.1924   8.2295   8.4915   8.5125   8.7022   8.7332
     8.8947   8.8988   9.2722   9.6368   9.7569   9.7675  10.1703  10.5579
    10.5619  10.6137  11.3585  11.4425  11.4523  11.6261  12.5031  12.5221
    12.7191  12.7259

          k = 0.3333 0.1925 0.0000 ( 32055 PWs)   bands (ev):

   -87.1521 -87.1436 -87.1430 -87.1415 -87.1376 -87.1365 -86.9857 -86.9786
   -86.9758 -86.9233 -86.9164 -86.9149 -50.6715 -50.6633 -50.6543 -50.6492
   -50.6425 -50.6152 -50.6067 -50.5951 -50.5929 -50.5831 -50.5794 -50.5772
   -50.5695 -50.5680 -50.5645 -50.5641 -50.5503 -50.5375 -50.5007 -50.4779
   -50.4399 -50.4269 -50.4239 -50.4207 -50.4161 -50.4103 -50.4046 -50.4022
   -50.3935 -50.3645 -50.3605 -50.3588 -50.3446 -50.3386 -50.3375 -50.3310
   -13.8613 -13.6736 -13.5448 -11.9646 -11.7770 -11.6628 -10.1578 -10.1511
    -9.9661  -9.9659  -9.8677  -9.8676  -6.5100  -6.5051  -6.3147  -6.3146
    -6.2468  -6.2468  -4.7599  -4.5664  -4.5036  -3.1474  -3.1419  -2.9462
    -2.9461  -2.9023  -2.9023  -2.4027  -1.8632  -1.5764  -1.2308  -1.1313
    -1.1257  -1.0838  -0.9250  -0.8907  -0.8482  -0.8277  -0.8105  -0.7322
    -0.7225  -0.6946  -0.6636  -0.6460  -0.6031  -0.5240  -0.5043  -0.4281
    -0.3319  -0.3225  -0.2951  -0.2896  -0.2581  -0.1763  -0.1541  -0.1259
    -0.0807   0.0030   0.1069   0.1248   0.1688   0.2054   0.2753   0.2982
     0.3161   0.3531   0.4282   0.5379   0.5486   0.5734   0.6427   0.6685
     0.6748   0.6840   0.7226   0.7481   0.8473   0.8701   0.8704   0.8761
     0.9354   0.9660   1.0110   1.1183   1.1316   1.2151   1.2719   1.3271
     1.3389   1.3772   1.4509   1.5123   1.5888   1.6650   1.7185   1.7388
     1.7779   1.8608   1.8909   1.9190   1.9352   1.9638   1.9905   2.0089
     2.0674   2.0950   2.3238   2.3589   2.8210   2.8237   3.0819   3.6047
     4.3365   5.2985   5.6837   5.8626   6.3250   6.8027   7.0539   7.0819
     7.1410   7.1972   7.3443   7.3609   7.6677   7.6723   8.0347   9.1923
     9.3882   9.4890   9.6626   9.8338   9.8505  10.0422  10.3849  10.5231
    10.6544  10.8053  11.5601  11.8214  11.8637  12.0479  12.1602  12.2601
    12.3603  12.3951

          k = 0.3333-0.7698 0.0000 ( 32075 PWs)   bands (ev):

   -87.1494 -87.1452 -87.1429 -87.1412 -87.1385 -87.1372 -86.9839 -86.9793
   -86.9769 -86.9210 -86.9177 -86.9159 -50.6669 -50.6603 -50.6488 -50.6486
   -50.6424 -50.6150 -50.6108 -50.6106 -50.5904 -50.5830 -50.5788 -50.5744
   -50.5707 -50.5706 -50.5591 -50.5558 -50.5554 -50.5423 -50.4964 -50.4750
   -50.4457 -50.4354 -50.4142 -50.4134 -50.4131 -50.4094 -50.4048 -50.4030
   -50.3993 -50.3832 -50.3514 -50.3507 -50.3426 -50.3398 -50.3384 -50.3370
   -13.3820 -13.1944 -13.0692 -12.4333 -12.2458 -12.1280 -11.5022 -11.3145
   -11.2040  -8.9106  -8.7201  -8.6379  -7.0592  -6.8628  -6.8068  -4.7067
    -4.6387  -4.5072  -4.4624  -4.4415  -4.3920  -3.6588  -3.4628  -3.4103
    -2.5745  -2.3731  -2.3374  -1.8342  -1.6187  -1.4180  -1.3829  -1.3125
    -1.2709  -1.2078  -1.1996  -1.1344  -1.0810  -1.0023  -0.9573  -0.9031
    -0.9027  -0.8847  -0.8788  -0.8482  -0.7362  -0.7321  -0.7232  -0.6235
    -0.5520  -0.5314  -0.4936  -0.4261  -0.3568  -0.3550  -0.2165  -0.2064
    -0.1930  -0.0472  -0.0453  -0.0113   0.0133   0.0307   0.1267   0.2169
     0.2499   0.3024   0.3156   0.3707   0.3914   0.4000   0.4582   0.5298
     0.5807   0.6815   0.7299   0.7591   0.8079   0.8609   0.8933   0.9035
     0.9264   1.0435   1.0711   1.0965   1.0976   1.1669   1.2259   1.2899
     1.3878   1.4183   1.4241   1.4992   1.5416   1.5664   1.5760   1.6389
     1.7535   1.7971   1.8090   1.8311   1.8727   1.8988   1.9346   1.9752
     2.0083   2.0276   2.1106   2.6998   3.2313   3.3584   3.5606   3.6713
     3.8191   3.9650   4.5807   4.9935   5.9151   6.0138   6.0356   6.1782
     6.4223   7.2698   7.8929   8.1170   8.9680   9.2050   9.4700   9.4949
     9.7318  10.1389  10.2006  10.4277  10.4861  10.6552  10.9482  10.9743
    11.0258  11.3911  11.4375  11.6702  11.9969  12.1591  12.1702  12.3130
    12.4149  12.5759

          k = 0.3333-0.5774 0.0000 ( 32121 PWs)   bands (ev):

   -87.1459 -87.1459 -87.1458 -87.1389 -87.1389 -87.1389 -86.9829 -86.9788
   -86.9785 -86.9182 -86.9182 -86.9182 -50.6496 -50.6496 -50.6494 -50.6442
   -50.6440 -50.6439 -50.6099 -50.6096 -50.6095 -50.5762 -50.5761 -50.5760
   -50.5675 -50.5674 -50.5673 -50.5478 -50.5477 -50.5476 -50.4762 -50.4761
   -50.4741 -50.4138 -50.4137 -50.4135 -50.4090 -50.4067 -50.4065 -50.4046
   -50.4043 -50.4040 -50.3436 -50.3434 -50.3432 -50.3403 -50.3402 -50.3402
   -12.5920 -12.5918 -12.5883 -12.4033 -12.4032 -12.4029 -12.2842 -12.2841
   -12.2840  -7.7300  -7.7183  -7.5412  -7.5058  -7.4924  -7.4534  -5.5412
    -5.3294  -5.3133  -2.9427  -2.9386  -2.9385  -2.7365  -2.7365  -2.7364
    -2.7069  -2.7069  -2.7069  -1.5392  -1.5390  -1.5368  -1.3324  -1.3323
    -1.3323  -1.3089  -1.3089  -1.3089  -1.1740  -1.1734  -1.1728  -1.1344
    -1.1336  -1.1335  -0.9715  -0.9705  -0.9666  -0.9067  -0.9042  -0.9034
    -0.7729  -0.7722  -0.7672  -0.6088  -0.6086  -0.6061  -0.4159  -0.4155
    -0.4101  -0.2991  -0.2983  -0.2920   0.0874   0.0916   0.0928   0.2697
     0.2753   0.2759   0.3627   0.3642   0.3677   0.3905   0.3924   0.3936
     0.5211   0.5233   0.5269   0.8872   0.8888   0.8925   0.9582   0.9640
     0.9659   1.2614   1.2621   1.2661   1.3269   1.3286   1.3292   1.5240
     1.5261   1.5285   1.5764   1.5765   1.5770   1.6349   1.6354   1.6355
     1.7279   1.7283   1.7291   1.7811   1.7821   1.7823   1.9817   1.9825
     1.9834   2.0228   2.0237   2.0254   2.8178   2.8201   2.8206   4.4678
     4.6239   4.6298   4.6351   4.7495   4.8794   4.9713   5.0031   5.4020
     6.9722   6.9840   6.9856   9.4330   9.4424   9.4465  10.8835  10.8838
    10.8884  11.0966  11.0967  11.0979  11.2157  11.2157  11.2158  11.3081
    11.3090  11.3090  11.4396  11.4433  11.4443  11.8171  11.8397  11.8411
    12.0893  12.1001

          k = 0.3333-0.3849 0.0000 ( 32075 PWs)   bands (ev):

   -87.1494 -87.1452 -87.1429 -87.1411 -87.1385 -87.1372 -86.9839 -86.9793
   -86.9769 -86.9210 -86.9177 -86.9159 -50.6667 -50.6603 -50.6488 -50.6486
   -50.6425 -50.6151 -50.6109 -50.6102 -50.5906 -50.5832 -50.5788 -50.5745
   -50.5708 -50.5706 -50.5590 -50.5556 -50.5556 -50.5420 -50.4964 -50.4750
   -50.4457 -50.4351 -50.4142 -50.4134 -50.4132 -50.4094 -50.4048 -50.4030
   -50.3992 -50.3835 -50.3517 -50.3506 -50.3427 -50.3398 -50.3383 -50.3366
   -13.3820 -13.1944 -13.0692 -12.4333 -12.2458 -12.1280 -11.5022 -11.3145
   -11.2040  -8.9106  -8.7201  -8.6379  -7.0592  -6.8628  -6.8068  -4.7067
    -4.6387  -4.5072  -4.4624  -4.4415  -4.3920  -3.6588  -3.4628  -3.4103
    -2.5745  -2.3731  -2.3374  -1.8342  -1.6187  -1.4180  -1.3829  -1.3124
    -1.2717  -1.2084  -1.1991  -1.1332  -1.0810  -1.0029  -0.9569  -0.9038
    -0.9016  -0.8856  -0.8788  -0.8482  -0.7363  -0.7306  -0.7254  -0.6219
    -0.5524  -0.5305  -0.4955  -0.4272  -0.3575  -0.3539  -0.2167  -0.2068
    -0.1937  -0.0473  -0.0433  -0.0113   0.0133   0.0261   0.1344   0.2154
     0.2550   0.3010   0.3217   0.3645   0.3850   0.3985   0.4599   0.5294
     0.5818   0.6895   0.7276   0.7601   0.8042   0.8637   0.8936   0.9071
     0.9238   1.0418   1.0707   1.0941   1.0990   1.1699   1.2259   1.2884
     1.3899   1.4197   1.4243   1.4960   1.5418   1.5660   1.5744   1.6385
     1.7508   1.7963   1.8089   1.8327   1.8758   1.8954   1.9351   1.9703
     2.0086   2.0294   2.1085   2.7000   3.2313   3.3583   3.5606   3.6717
     3.8179   3.9650   4.5812   4.9945   5.9162   6.0158   6.0422   6.1782
     6.4223   7.2709   7.8985   8.1206   8.9680   9.2050   9.4698   9.4844
     9.7329  10.1389  10.1947  10.4278  10.4861  10.6552  10.9480  10.9730
    11.0257  11.3912  11.4375  11.6703  11.9965  12.1455  12.1600  12.3128
    12.4150  12.5759

          k =-0.5000 0.2887 0.0000 ( 32112 PWs)   bands (ev):

   -87.1478 -87.1477 -87.1420 -87.1401 -87.1401 -87.1367 -86.9836 -86.9801
   -86.9764 -86.9197 -86.9197 -86.9152 -50.6761 -50.6680 -50.6461 -50.6460
   -50.6219 -50.6218 -50.6079 -50.6019 -50.6018 -50.5843 -50.5764 -50.5724
   -50.5722 -50.5645 -50.5644 -50.5553 -50.5517 -50.5516 -50.5050 -50.4558
   -50.4530 -50.4442 -50.4139 -50.4097 -50.4088 -50.4066 -50.4050 -50.4029
   -50.3924 -50.3924 -50.3516 -50.3452 -50.3452 -50.3414 -50.3414 -50.3377
   -13.0652 -13.0629 -12.8766 -12.8764 -12.7538 -12.7537 -10.3008 -10.2942
   -10.1093 -10.1091 -10.0089 -10.0089  -5.6781  -5.6737  -5.4748  -5.4747
    -5.4362  -5.4362  -4.0114  -4.0051  -3.8036  -3.8035  -3.7735  -3.7735
    -2.5939  -2.5907  -2.3952  -2.3952  -2.3473  -2.3473  -1.4644  -1.4597
    -1.3849  -1.2936  -1.2270  -0.9865  -0.9523  -0.9502  -0.9214  -0.9186
    -0.8356  -0.7097  -0.7090  -0.5590  -0.5364  -0.5359  -0.4986  -0.4983
    -0.4038  -0.4028  -0.2697  -0.2686  -0.2121  -0.2113  -0.1804  -0.1803
    -0.0197  -0.0085  -0.0085   0.0122   0.0132   0.0177   0.0177   0.0642
     0.0831   0.0843   0.2537   0.2540   0.2783   0.3158   0.3173   0.3658
     0.3681   0.6031   0.6040   0.6720   0.6734   0.8380   0.8693   0.9156
     0.9180   1.1217   1.1251   1.1585   1.2265   1.2272   1.4593   1.5030
     1.5042   1.5679   1.5919   1.5941   1.7018   1.7022   1.7639   1.8556
     1.8588   1.8643   1.8651   1.9749   1.9915   2.0467   2.0470   2.0753
     2.1873   2.2382   2.2494   2.2832   2.5418   2.5430   2.7770   2.7822
     4.1605   4.1614   5.0670   5.8915   6.4192   6.4457   6.4504   6.6278
     7.4004   7.4099   7.6375   7.6416   7.8933   7.8951   8.7278   8.7379
     9.0570   9.6580  10.4057  10.5660  10.5660  10.9142  10.9145  11.4470
    11.4474  11.6021  11.6873  11.6923  11.7557  11.7581  11.9486  11.9497
    12.1806  12.1815

          k =-0.5000 0.4811 0.0000 ( 32075 PWs)   bands (ev):

   -87.1493 -87.1452 -87.1429 -87.1412 -87.1385 -87.1372 -86.9839 -86.9793
   -86.9769 -86.9210 -86.9177 -86.9159 -50.6667 -50.6603 -50.6488 -50.6486
   -50.6425 -50.6152 -50.6111 -50.6101 -50.5905 -50.5832 -50.5789 -50.5745
   -50.5707 -50.5704 -50.5589 -50.5557 -50.5555 -50.5421 -50.4964 -50.4751
   -50.4456 -50.4351 -50.4141 -50.4135 -50.4131 -50.4094 -50.4049 -50.4030
   -50.3994 -50.3834 -50.3518 -50.3505 -50.3427 -50.3398 -50.3383 -50.3367
   -13.3820 -13.1944 -13.0692 -12.4333 -12.2458 -12.1280 -11.5022 -11.3145
   -11.2040  -8.9106  -8.7201  -8.6379  -7.0592  -6.8628  -6.8068  -4.7067
    -4.6387  -4.5072  -4.4624  -4.4415  -4.3920  -3.6588  -3.4628  -3.4103
    -2.5745  -2.3731  -2.3374  -1.8342  -1.6187  -1.4180  -1.3829  -1.3127
    -1.2718  -1.2082  -1.1984  -1.1333  -1.0810  -1.0028  -0.9563  -0.9043
    -0.9013  -0.8861  -0.8788  -0.8482  -0.7365  -0.7341  -0.7252  -0.6218
    -0.5528  -0.5318  -0.4950  -0.4239  -0.3569  -0.3535  -0.2167  -0.2067
    -0.1929  -0.0468  -0.0414  -0.0113   0.0133   0.0234   0.1337   0.2163
     0.2539   0.3023   0.3238   0.3722   0.3846   0.3975   0.4583   0.5290
     0.5784   0.6838   0.7216   0.7592   0.8085   0.8676   0.8914   0.9067
     0.9226   1.0445   1.0711   1.0966   1.0989   1.1725   1.2240   1.2869
     1.3874   1.4188   1.4231   1.4951   1.5411   1.5662   1.5771   1.6403
     1.7545   1.7971   1.8087   1.8314   1.8726   1.8936   1.9348   1.9710
     2.0101   2.0282   2.1108   2.6997   3.2313   3.3592   3.5606   3.6735
     3.8178   3.9650   4.5811   4.9921   5.9155   6.0147   6.0420   6.1782
     6.4223   7.2722   7.8983   8.1183   8.9680   9.2050   9.4697   9.4844
     9.7362  10.1389  10.1948  10.4278  10.4860  10.6552  10.9480  10.9730
    11.0256  11.3911  11.4375  11.6715  11.9971  12.1451  12.1599  12.3125
    12.4149  12.5766

          k =-0.5000 0.6736 0.0000 ( 32075 PWs)   bands (ev):

   -87.1493 -87.1452 -87.1429 -87.1412 -87.1385 -87.1372 -86.9839 -86.9793
   -86.9769 -86.9210 -86.9177 -86.9159 -50.6669 -50.6603 -50.6487 -50.6486
   -50.6424 -50.6152 -50.6108 -50.6105 -50.5904 -50.5831 -50.5789 -50.5743
   -50.5707 -50.5705 -50.5589 -50.5558 -50.5554 -50.5422 -50.4964 -50.4751
   -50.4456 -50.4354 -50.4141 -50.4133 -50.4130 -50.4094 -50.4048 -50.4030
   -50.3994 -50.3833 -50.3514 -50.3509 -50.3426 -50.3397 -50.3384 -50.3368
   -13.3820 -13.1944 -13.0692 -12.4333 -12.2458 -12.1280 -11.5022 -11.3145
   -11.2040  -8.9106  -8.7201  -8.6379  -7.0592  -6.8628  -6.8068  -4.7067
    -4.6387  -4.5072  -4.4624  -4.4415  -4.3920  -3.6588  -3.4628  -3.4103
    -2.5745  -2.3731  -2.3374  -1.8342  -1.6187  -1.4180  -1.3829  -1.3127
    -1.2708  -1.2077  -1.1984  -1.1347  -1.0810  -1.0030  -0.9573  -0.9029
    -0.9015  -0.8849  -0.8788  -0.8482  -0.7364  -0.7341  -0.7231  -0.6237
    -0.5527  -0.5314  -0.4935  -0.4253  -0.3568  -0.3540  -0.2165  -0.2066
    -0.1931  -0.0477  -0.0459  -0.0113   0.0133   0.0285   0.1269   0.2178
     0.2502   0.3041   0.3196   0.3723   0.3896   0.3986   0.4584   0.5298
     0.5772   0.6821   0.7284   0.7602   0.8095   0.8603   0.8934   0.9033
     0.9265   1.0443   1.0708   1.0974   1.0991   1.1673   1.2243   1.2893
     1.3871   1.4178   1.4237   1.4988   1.5412   1.5665   1.5769   1.6405
     1.7539   1.7966   1.8089   1.8314   1.8741   1.8979   1.9330   1.9748
     2.0100   2.0259   2.1089   2.6995   3.2313   3.3595   3.5606   3.6725
     3.8191   3.9650   4.5806   4.9929   5.9152   6.0140   6.0357   6.1782
     6.4223   7.2698   7.8931   8.1176   8.9680   9.2050   9.4700   9.4949
     9.7306  10.1389  10.2006  10.4277  10.4861  10.6552  10.9482  10.9744
    11.0257  11.3911  11.4375  11.6716  11.9953  12.1590  12.1702  12.3120
    12.4149  12.5762

          k =-0.5000-0.2887 0.0000 ( 32112 PWs)   bands (ev):

   -87.1477 -87.1477 -87.1420 -87.1401 -87.1401 -87.1367 -86.9836 -86.9801
   -86.9764 -86.9197 -86.9197 -86.9152 -50.6762 -50.6680 -50.6461 -50.6460
   -50.6219 -50.6217 -50.6084 -50.6016 -50.6015 -50.5840 -50.5763 -50.5723
   -50.5722 -50.5645 -50.5644 -50.5551 -50.5520 -50.5519 -50.5050 -50.4557
   -50.4530 -50.4444 -50.4139 -50.4097 -50.4089 -50.4066 -50.4050 -50.4029
   -50.3921 -50.3921 -50.3513 -50.3455 -50.3454 -50.3414 -50.3414 -50.3379
   -13.0652 -13.0629 -12.8766 -12.8764 -12.7538 -12.7537 -10.3008 -10.2942
   -10.1093 -10.1091 -10.0089 -10.0089  -5.6781  -5.6737  -5.4748  -5.4747
    -5.4362  -5.4362  -4.0114  -4.0051  -3.8036  -3.8035  -3.7735  -3.7735
    -2.5939  -2.5907  -2.3952  -2.3952  -2.3473  -2.3473  -1.4644  -1.4597
    -1.3840  -1.2932  -1.2281  -0.9855  -0.9521  -0.9500  -0.9208  -0.9180
    -0.8333  -0.7093  -0.7086  -0.5567  -0.5374  -0.5370  -0.4993  -0.4989
    -0.4053  -0.4044  -0.2703  -0.2692  -0.2121  -0.2113  -0.1804  -0.1803
    -0.0240  -0.0085  -0.0085   0.0144   0.0152   0.0177   0.0177   0.0542
     0.0839   0.0850   0.2508   0.2509   0.2805   0.3153   0.3172   0.3695
     0.3715   0.6015   0.6022   0.6784   0.6799   0.8432   0.8764   0.9045
     0.9069   1.1229   1.1263   1.1504   1.2269   1.2277   1.4581   1.5057
     1.5070   1.5741   1.5946   1.5977   1.6997   1.7001   1.7626   1.8569
     1.8585   1.8687   1.8694   1.9728   1.9913   2.0462   2.0465   2.0734
     2.1872   2.2384   2.2502   2.2830   2.5418   2.5430   2.7770   2.7822
     4.1593   4.1601   5.0734   5.9017   6.4034   6.4436   6.4481   6.6057
     7.4003   7.4099   7.6375   7.6416   7.8933   7.8951   8.7253   8.7355
     9.0729   9.6654  10.4074  10.5660  10.5660  10.9142  10.9146  11.4470
    11.4475  11.6313  11.6880  11.6923  11.7557  11.7580  11.9486  11.9497
    12.1806  12.1815

     the Fermi energy is     4.9967 ev

!    total energy              =   -3891.09009636 Ry
     estimated scf accuracy    <          9.7E-09 Ry
     smearing contrib. (-TS)   =      -0.00080794 Ry
     internal energy E=F+TS    =   -3891.08928842 Ry

     The total energy is F=E-TS. E is the sum of the following terms:
     one-electron contribution =  -47677.34156496 Ry
     hartree contribution      =   23886.93490701 Ry
     xc contribution           =    -436.04671401 Ry
     ewald contribution        =   20484.03444345 Ry
     DFT-D3 Dispersion         =      -0.68860790 Ry
     electric field correction =       0.00000000 Ry
     one-center paw contrib.   =    -147.98175201 Ry

     convergence has been achieved in  74 iterations

     negative rho (up, down):  2.779E-04 0.000E+00

     Forces acting on atoms (cartesian axes, Ry/au):

     atom    1 type  1   force =    -0.00014938    0.00039750    0.00202059
     atom    2 type  1   force =    -0.00016633    0.00036753    0.00201825
     atom    3 type  1   force =     0.00047923   -0.00015641   -0.00007179
     atom    4 type  1   force =     0.00000796   -0.00033407   -0.00121107
     atom    5 type  1   force =    -0.00017442    0.00041379    0.00201867
     atom    6 type  1   force =     0.00028893   -0.00004420   -0.00018079
     atom    7 type  1   force =    -0.00024290    0.00004271    0.00048574
     atom    8 type  1   force =     0.00000621   -0.00033410   -0.00122106
     atom    9 type  1   force =    -0.00027279    0.00002485   -0.00047432
     atom   10 type  1   force =     0.00048431    0.00006493   -0.00009361
     atom   11 type  1   force =     0.00000739   -0.00033595   -0.00121200
     atom   12 type  1   force =    -0.00024670    0.00000492    0.00045043
     atom   13 type  2   force =     0.00000089   -0.00000842   -0.00073196
     atom   14 type  2   force =     0.00104599    0.00058654    0.00020379
     atom   15 type  2   force =     0.00100239   -0.00057705    0.00020085
     atom   16 type  2   force =    -0.00000629   -0.00120021    0.00020481
     atom   17 type  2   force =    -0.00000970    0.00116894    0.00020227
     atom   18 type  2   force =    -0.00104063    0.00060201    0.00020532
     atom   19 type  2   force =    -0.00100162   -0.00059176    0.00020160
     atom   20 type  2   force =     0.00000186   -0.00001518   -0.00070064
     atom   21 type  2   force =     0.00001865    0.00000795   -0.00015819
     atom   22 type  2   force =     0.00000009   -0.00000667   -0.00022263
     atom   23 type  2   force =    -0.00000261   -0.00002529   -0.00015805
     atom   24 type  2   force =     0.00001478   -0.00001383   -0.00022417
     atom   25 type  2   force =    -0.00002120    0.00000979   -0.00015811
     atom   26 type  2   force =    -0.00000110    0.00001063   -0.00022419
     atom   27 type  2   force =    -0.00000168   -0.00000294   -0.00013817
     atom   28 type  2   force =    -0.00001387   -0.00001575   -0.00022425
     atom   29 type  2   force =    -0.00000184   -0.00000313   -0.00005411
     atom   30 type  2   force =     0.00000028   -0.00000690   -0.00014626
     atom   31 type  2   force =    -0.00000316   -0.00000227   -0.00005599
     atom   32 type  2   force =    -0.00000010   -0.00000723   -0.00014629
     atom   33 type  2   force =    -0.00000194   -0.00000462   -0.00005591
     atom   34 type  2   force =    -0.00000027   -0.00000676   -0.00014628
     atom   35 type  2   force =    -0.00000045   -0.00000243   -0.00005593
     atom   36 type  2   force =     0.00000000   -0.00000696   -0.00014653

     Total force =     0.005392     Total SCF correction =     0.000843
     SCF correction compared to forces is large: reduce conv_thr to get better values

     Writing all to output data dir ./tmp/AGC_N3_top_fcc_G4_s05_bound.save/ :
     XML data file, charge density, pseudopotentials, collected wavefunctions
 
     init_run     :     26.38s CPU     27.53s WALL (       1 calls)
     electrons    :   4918.06s CPU   5011.85s WALL (       1 calls)
     forces       :     13.40s CPU     13.81s WALL (       1 calls)
     force_dftd3  :      0.02s CPU      0.02s WALL (       1 calls)

     Called by init_run:
     wfcinit      :     19.34s CPU     20.27s WALL (       1 calls)
     potinit      :      6.13s CPU      6.20s WALL (       1 calls)
     hinit0       :      0.36s CPU      0.39s WALL (       1 calls)

     Called by electrons:
     c_bands      :   3725.84s CPU   3793.64s WALL (      74 calls)
     sum_band     :    729.52s CPU    751.34s WALL (      74 calls)
     v_of_rho     :     12.50s CPU     13.62s WALL (      75 calls)
     newd         :     10.25s CPU     10.29s WALL (      75 calls)
                                       10.29s GPU  (      75 calls)
     PAW_pot      :    313.89s CPU    313.80s WALL (      75 calls)
     mix_rho      :    126.01s CPU    128.51s WALL (      74 calls)
     energy_dftd3 :      0.00s CPU      0.00s WALL (       1 calls)

     Called by c_bands:
     init_us_2    :    172.53s CPU    173.10s WALL (    3000 calls)
     cegterg      :   3475.47s CPU   3477.23s WALL (    1480 calls)

     Called by *egterg:
     cdiaghg      :    221.88s CPU    222.48s WALL (    8529 calls)
                                      214.06s GPU  (    8529 calls)
     h_psi        :   1737.59s CPU   1748.64s WALL (    8549 calls)
                                     1743.82s GPU  (    8549 calls)
     s_psi        :    216.04s CPU    216.16s WALL (    8549 calls)
     g_psi        :      0.03s CPU      7.75s WALL (    7049 calls)
                                        2.15s GPU  (    7049 calls)

     Called by h_psi:
     h_psi:calbec :      0.51s CPU    343.67s WALL (    8549 calls)
                                      339.65s GPU  (    8549 calls)
     vloc_psi     :    998.75s CPU   1003.40s WALL (    8549 calls)
                                      998.93s GPU  (    8549 calls)
     add_vuspsi   :    130.83s CPU    371.21s WALL (    8549 calls)
                                      367.17s GPU  (    8549 calls)

     General routines
     calbec       :      0.58s CPU      0.58s WALL (   10109 calls)
     fft          :      3.04s CPU      4.89s WALL (     984 calls)
                                        0.96s GPU  (     909 calls)
     ffts         :      1.07s CPU      8.46s WALL (    8852 calls)
                                        3.04s GPU  (    8777 calls)
     fftw         :      1.94s CPU    601.47s WALL (  108340 calls)
                                      533.19s GPU  (  108340 calls)
     interpolate  :      4.33s CPU      4.97s WALL (      75 calls)
     davcio       :      3.61s CPU     90.07s WALL (    5886 calls)
 
     Parallel routines
 
     PWSCF        :      1h22m CPU      1h24m WALL

 
   This run was terminated on:   2:12:37   5Oct2026            

=------------------------------------------------------------------------------=
   JOB DONE.
=------------------------------------------------------------------------------=
