
     Program PWSCF v.7.4.1 starts on 26Sep2026 at 19:46:14 

     This program is part of the open-source Quantum ESPRESSO suite
     for quantum simulation of materials; please cite
         "P. Giannozzi et al., J. Phys.:Condens. Matter 21 395502 (2009);
         "P. Giannozzi et al., J. Phys.:Condens. Matter 29 465901 (2017);
         "P. Giannozzi et al., J. Chem. Phys. 152 154105 (2020);
          URL http://www.quantum-espresso.org", 
     in publications or presentations arising from this work. More details at
     http://www.quantum-espresso.org/quote

     Parallel version (MPI & OpenMP), running on      16 processor cores
     Number of MPI processes:                 1
     Threads/MPI process:                    16

     MPI processes distributed on     1 nodes
     83991 MiB available memory on the printing compute node when the environment starts
 
     Reading input from pw.in

     Current dimensions of program PWSCF are:
     Max number of different atomic species (ntypx) = 10
     Max number of k-points (npk) =  40000
     Max angular momentum in pseudopotentials (lmaxx) =  4
     Presently no symmetry can be used with electric field

     file C.pbe-n-kjpaw_psl.1.0.0.UPF: wavefunction(s)  2S 2P renormalized
 
     Subspace diagonalization in iterative solution of the eigenvalue problem:
     a serial algorithm will be used

 
     G-vector sticks info
     --------------------
     sticks:   dense  smooth     PW     G-vecs:    dense   smooth      PW
     Sum        3193    1273    367               699545   177041   27695
 
     Using Slab Decomposition
 


     bravais-lattice index     =            0
     lattice parameter (alat)  =       9.4208  a.u.
     unit-cell volume          =    3493.5493 (a.u.)^3
     number of atoms/cell      =           20
     number of atomic types    =            2
     number of electrons       =       260.00
     number of Kohn-Sham states=          156
     kinetic-energy cutoff     =      52.0000  Ry
     charge density cutoff     =     520.0000  Ry
     scf convergence threshold =      1.0E-08
     mixing beta               =       0.3000
     number of iterations used =            8  local-TF  mixing
     Exchange-correlation= SLA  PW   PBX  PBC
                           (   1   4   3   4   0   0   0)

     GPU acceleration is ACTIVE.  1 visible GPUs per MPI rank


     celldm(1)=   9.420781  celldm(2)=   0.000000  celldm(3)=   0.000000
     celldm(4)=   0.000000  celldm(5)=   0.000000  celldm(6)=   0.000000

     crystal axes: (cart. coord. in units of alat)
               a(1) = (   1.000000  -0.000000   0.000000 )  
               a(2) = (   0.500000   0.866025   0.000000 )  
               a(3) = (   0.000000   0.000000   4.824757 )  

     reciprocal axes: (cart. coord. in units 2 pi/alat)
               b(1) = (  1.000000 -0.577350  0.000000 )  
               b(2) = (  0.000000  1.154701 -0.000000 )  
               b(3) = ( -0.000000  0.000000  0.207264 )  


     PseudoPot. # 1 for Ag read from file:
     /home/ubuntu/wad4l/pseudo_kgy/Ag_ONCV_PBE-1.0.oncvpsp.upf
     MD5 check sum: 94f47bd0669c641108e45594df92fabc
     Pseudo is Norm-conserving, Zval = 19.0
     Generated using ONCVPSP code by D. R. Hamann
     Using radial grid of 1398 points,  6 beta functions with: 
                l(1) =   0
                l(2) =   0
                l(3) =   1
                l(4) =   1
                l(5) =   2
                l(6) =   2

     PseudoPot. # 2 for C  read from file:
     /home/ubuntu/wad4l/pseudo_kgy/C.pbe-n-kjpaw_psl.1.0.0.UPF
     MD5 check sum: 5d2aebdfa2cae82b50a7e79e9516da0f
     Pseudo is Projector augmented-wave + core cor, Zval =  4.0
     Generated using "atomic" code by A. Dal Corso  v.5.1
     Shape of augmentation charge: PSQ
     Using radial grid of 1073 points,  4 beta functions with: 
                l(1) =   0
                l(2) =   0
                l(3) =   1
                l(4) =   1
     Q(r) pseudized with 0 coefficients 


     atomic species   valence    mass     pseudopotential
     Ag               19.00   107.86820     Ag( 1.00)
     C                 4.00    12.01100     C ( 1.00)

     No symmetry found



   Cartesian axes

     site n.     atom                  positions (alat units)
         1        Ag     tau(   1) = (   0.3337695   0.5765948   0.5717001  )
         2        Ag     tau(   2) = (   0.8337695   0.8652699   0.5717001  )
         3        Ag     tau(   3) = (   0.1686118   0.2891880   1.0412003  )
         4        Ag     tau(   4) = (   0.5004501   0.2909658   0.1002956  )
         5        Ag     tau(   5) = (   0.8337695   0.2879196   0.5717001  )
         6        Ag     tau(   6) = (   0.6682533   0.5780678   1.0411952  )
         7        Ag     tau(   7) = (   0.5010511   0.2905737   1.5138552  )
         8        Ag     tau(   8) = (   1.0004501   0.5796409   0.1002956  )
         9        Ag     tau(   9) = (   1.0010597   0.5792406   1.5110488  )
        10        Ag     tau(  10) = (   0.6686160   0.0009230   1.0411962  )
        11        Ag     tau(  11) = (   1.0004501   0.0022906   0.1002956  )
        12        Ag     tau(  12) = (   1.0010502   0.0018969   1.5138803  )
        13        C      tau(  13) = (   0.5004501   0.2909658   3.1186101  )
        14        C      tau(  14) = (   0.7504501   0.4353033   3.1197280  )
        15        C      tau(  15) = (   0.7504501   0.7239785   3.1197312  )
        16        C      tau(  16) = (   1.0004501   0.8683160   3.1197278  )
        17        C      tau(  17) = (   1.0004501   0.2909658   3.1197319  )
        18        C      tau(  18) = (   1.2504501   0.4353033   3.1197284  )
        19        C      tau(  19) = (   1.2504501   0.7239785   3.1197317  )
        20        C      tau(  20) = (   1.5004501   0.8683160   3.1186207  )

     --------------------------------------------
     DFT-D3 Dispersion Correction (no 3-body):
     --------------------------------------------
       Reference C6 values for interpolation: 

         atom   Coordination number   C6
         C          0.000            98.23
         C          0.987            86.49
         C          1.998            58.72
         C          2.999            51.56
         C          3.984            36.41
         Ag         0.000           853.49
         Ag         0.968           537.23

       Values used:

         atom   Coordination number  R0_AB[au]  C6      C8
         Ag         9.085            3.147    537.23  47741.54
         Ag         9.085            3.147    537.23  47741.54
         Ag         9.081            3.147    537.23  47741.54
         Ag         6.766            3.147    537.23  47741.54
         Ag         9.085            3.147    537.23  47741.54
         Ag         9.081            3.147    537.23  47741.54
         Ag         6.750            3.147    537.23  47741.54
         Ag         6.766            3.147    537.23  47741.54
         Ag         6.787            3.147    537.23  47741.54
         Ag         9.081            3.147    537.23  47741.54
         Ag         6.766            3.147    537.23  47741.54
         Ag         6.749            3.147    537.23  47741.54
         C          3.268            2.750     49.13   1420.95
         C          3.268            2.750     49.13   1420.95
         C          3.268            2.750     49.13   1420.95
         C          3.268            2.750     49.13   1420.95
         C          3.268            2.750     49.13   1420.95
         C          3.268            2.750     49.13   1420.95
         C          3.268            2.750     49.13   1420.95
         C          3.268            2.750     49.13   1420.95

         Molecular C6 ( Ry / a.u.^6 ) =    111572.13


     number of k points=    20  Marzari-Vanderbilt smearing, width (Ry)=  0.0100
                       cart. coord. in units 2pi/alat
        k(    1) = (   0.0000000   0.0000000   0.0000000), wk =   0.0555556
        k(    2) = (   0.0000000   0.1924501   0.0000000), wk =   0.1111111
        k(    3) = (   0.0000000   0.3849002   0.0000000), wk =   0.1111111
        k(    4) = (   0.0000000  -0.5773503   0.0000000), wk =   0.0555556
        k(    5) = (   0.1666667  -0.0962250   0.0000000), wk =   0.1111111
        k(    6) = (   0.1666667   0.0962250   0.0000000), wk =   0.1111111
        k(    7) = (   0.1666667   0.2886751   0.0000000), wk =   0.1111111
        k(    8) = (   0.1666667  -0.6735753   0.0000000), wk =   0.1111111
        k(    9) = (   0.1666667  -0.4811252   0.0000000), wk =   0.1111111
        k(   10) = (   0.1666667  -0.2886751   0.0000000), wk =   0.1111111
        k(   11) = (   0.3333333  -0.1924501   0.0000000), wk =   0.1111111
        k(   12) = (   0.3333333  -0.0000000   0.0000000), wk =   0.1111111
        k(   13) = (   0.3333333   0.1924501   0.0000000), wk =   0.1111111
        k(   14) = (   0.3333333  -0.7698004   0.0000000), wk =   0.1111111
        k(   15) = (   0.3333333  -0.5773503   0.0000000), wk =   0.1111111
        k(   16) = (   0.3333333  -0.3849002   0.0000000), wk =   0.1111111
        k(   17) = (  -0.5000000   0.2886751   0.0000000), wk =   0.0555556
        k(   18) = (  -0.5000000   0.4811252   0.0000000), wk =   0.1111111
        k(   19) = (  -0.5000000   0.6735753   0.0000000), wk =   0.1111111
        k(   20) = (  -0.5000000  -0.2886751   0.0000000), wk =   0.0555556

     Dense  grid:   699545 G-vectors     FFT dimensions: (  72,  72, 360)

     Smooth grid:   177041 G-vectors     FFT dimensions: (  45,  45, 216)

     Estimated max dynamical RAM per process >       1.34 GB

     Check: negative core charge=   -0.000001

     Initial potential from superposition of free atoms

     starting charge     259.9962, renormalised to     260.0000
 
     Adding external electric field

     Computed dipole along edir(3) : 
        Dipole               -0.0083 Ry au,         -0.0211 Debye
        Dipole field         -0.0000 Ry au, 
 
        Potential amp.        0.0026 Ry
        Total length         43.5630 bohr
 
     Starting wfcs are  152 randomized atomic wfcs +    4 random wfcs
     Checking if some PAW data can be deallocated... 

     total cpu time spent up to now is        4.0 secs

     Self-consistent Calculation

     iteration #  1     ecut=    52.00 Ry     beta= 0.30
     Davidson diagonalization with overlap
     ethr =  1.00E-02,  avg # of iterations =  4.3

     Threshold (ethr) on eigenvalues was too large:
     Diagonalizing with lowered threshold

     Davidson diagonalization with overlap
     ethr =  5.93E-04,  avg # of iterations =  2.5
 
     Adding external electric field

     Computed dipole along edir(3) : 
        Dipole               -0.0121 Ry au,         -0.0307 Debye
        Dipole field         -0.0000 Ry au, 
 
        Potential amp.        0.0038 Ry
        Total length         43.5630 bohr
 

     total cpu time spent up to now is       13.9 secs

     total energy              =   -3596.11402914 Ry
     estimated scf accuracy    <       1.56344856 Ry

     iteration #  2     ecut=    52.00 Ry     beta= 0.30
     Davidson diagonalization with overlap
     ethr =  6.01E-04,  avg # of iterations =  1.6
 
     Adding external electric field

     Computed dipole along edir(3) : 
        Dipole               -0.0225 Ry au,         -0.0573 Debye
        Dipole field         -0.0001 Ry au, 
 
        Potential amp.        0.0071 Ry
        Total length         43.5630 bohr
 

     total cpu time spent up to now is       18.8 secs

     total energy              =   -3595.76410932 Ry
     estimated scf accuracy    <       0.94764226 Ry

     iteration #  3     ecut=    52.00 Ry     beta= 0.30
     Davidson diagonalization with overlap
     ethr =  3.64E-04,  avg # of iterations =  8.1
 
     Adding external electric field

     Computed dipole along edir(3) : 
        Dipole               -0.0331 Ry au,         -0.0842 Debye
        Dipole field         -0.0001 Ry au, 
 
        Potential amp.        0.0104 Ry
        Total length         43.5630 bohr
 

     total cpu time spent up to now is       24.9 secs

     total energy              =   -3595.81272494 Ry
     estimated scf accuracy    <       0.17366441 Ry

     iteration #  4     ecut=    52.00 Ry     beta= 0.30
     Davidson diagonalization with overlap
     ethr =  6.68E-05,  avg # of iterations =  3.2
 
     Adding external electric field

     Computed dipole along edir(3) : 
        Dipole               -0.0631 Ry au,         -0.1604 Debye
        Dipole field         -0.0002 Ry au, 
 
        Potential amp.        0.0198 Ry
        Total length         43.5630 bohr
 

     total cpu time spent up to now is       30.2 secs

     total energy              =   -3595.78817740 Ry
     estimated scf accuracy    <       0.08984561 Ry

     iteration #  5     ecut=    52.00 Ry     beta= 0.30
     Davidson diagonalization with overlap
     c_bands:  2 eigenvalues not converged
     c_bands:  2 eigenvalues not converged
     c_bands:  1 eigenvalues not converged
     c_bands:  1 eigenvalues not converged
     c_bands:  2 eigenvalues not converged
     ethr =  3.46E-05,  avg # of iterations = 11.3
 
     Adding external electric field

     Computed dipole along edir(3) : 
        Dipole               -0.0621 Ry au,         -0.1578 Debye
        Dipole field         -0.0002 Ry au, 
 
        Potential amp.        0.0195 Ry
        Total length         43.5630 bohr
 

     total cpu time spent up to now is       36.6 secs

     total energy              =   -3595.79472582 Ry
     estimated scf accuracy    <       0.07282430 Ry

     iteration #  6     ecut=    52.00 Ry     beta= 0.30
     Davidson diagonalization with overlap
     ethr =  2.80E-05,  avg # of iterations =  1.4
 
     Adding external electric field

     Computed dipole along edir(3) : 
        Dipole               -0.0347 Ry au,         -0.0881 Debye
        Dipole field         -0.0001 Ry au, 
 
        Potential amp.        0.0109 Ry
        Total length         43.5630 bohr
 

     total cpu time spent up to now is       41.4 secs

     total energy              =   -3595.79052834 Ry
     estimated scf accuracy    <       0.06287705 Ry

     iteration #  7     ecut=    52.00 Ry     beta= 0.30
     Davidson diagonalization with overlap
     ethr =  2.42E-05,  avg # of iterations =  6.3
 
     Adding external electric field

     Computed dipole along edir(3) : 
        Dipole               -0.0310 Ry au,         -0.0788 Debye
        Dipole field         -0.0001 Ry au, 
 
        Potential amp.        0.0097 Ry
        Total length         43.5630 bohr
 

     total cpu time spent up to now is       47.0 secs

     total energy              =   -3595.79150476 Ry
     estimated scf accuracy    <       0.03051034 Ry

     iteration #  8     ecut=    52.00 Ry     beta= 0.30
     Davidson diagonalization with overlap
     ethr =  1.17E-05,  avg # of iterations =  1.3
 
     Adding external electric field

     Computed dipole along edir(3) : 
        Dipole               -0.0128 Ry au,         -0.0325 Debye
        Dipole field         -0.0000 Ry au, 
 
        Potential amp.        0.0040 Ry
        Total length         43.5630 bohr
 

     total cpu time spent up to now is       51.7 secs

     total energy              =   -3595.79165014 Ry
     estimated scf accuracy    <       0.02929127 Ry

     iteration #  9     ecut=    52.00 Ry     beta= 0.30
     Davidson diagonalization with overlap
     ethr =  1.13E-05,  avg # of iterations =  2.8
 
     Adding external electric field

     Computed dipole along edir(3) : 
        Dipole                0.0154 Ry au,          0.0391 Debye
        Dipole field          0.0001 Ry au, 
 
        Potential amp.       -0.0048 Ry
        Total length         43.5630 bohr
 

     total cpu time spent up to now is       56.9 secs

     total energy              =   -3595.79155325 Ry
     estimated scf accuracy    <       0.01836790 Ry

     iteration # 10     ecut=    52.00 Ry     beta= 0.30
     Davidson diagonalization with overlap
     ethr =  7.06E-06,  avg # of iterations =  9.8
 
     Adding external electric field

     Computed dipole along edir(3) : 
        Dipole                0.0313 Ry au,          0.0796 Debye
        Dipole field          0.0001 Ry au, 
 
        Potential amp.       -0.0098 Ry
        Total length         43.5630 bohr
 

     total cpu time spent up to now is       63.0 secs

     total energy              =   -3595.79152427 Ry
     estimated scf accuracy    <       0.00284448 Ry

     iteration # 11     ecut=    52.00 Ry     beta= 0.30
     Davidson diagonalization with overlap
     ethr =  1.09E-06,  avg # of iterations =  6.1

     negative rho (up, down):  3.604E-04 0.000E+00
 
     Adding external electric field

     Computed dipole along edir(3) : 
        Dipole                0.0403 Ry au,          0.1024 Debye
        Dipole field          0.0001 Ry au, 
 
        Potential amp.       -0.0126 Ry
        Total length         43.5630 bohr
 

     total cpu time spent up to now is       68.8 secs

     total energy              =   -3595.79179482 Ry
     estimated scf accuracy    <       0.00205311 Ry

     iteration # 12     ecut=    52.00 Ry     beta= 0.30
     Davidson diagonalization with overlap
     ethr =  7.90E-07,  avg # of iterations =  6.0

     negative rho (up, down):  6.019E-07 0.000E+00
 
     Adding external electric field

     Computed dipole along edir(3) : 
        Dipole                0.0195 Ry au,          0.0495 Debye
        Dipole field          0.0001 Ry au, 
 
        Potential amp.       -0.0061 Ry
        Total length         43.5630 bohr
 

     total cpu time spent up to now is       74.6 secs

     total energy              =   -3595.79150945 Ry
     estimated scf accuracy    <       0.00746012 Ry

     iteration # 13     ecut=    52.00 Ry     beta= 0.30
     Davidson diagonalization with overlap
     ethr =  7.90E-07,  avg # of iterations =  4.5

     negative rho (up, down):  6.942E-06 0.000E+00
 
     Adding external electric field

     Computed dipole along edir(3) : 
        Dipole                0.0264 Ry au,          0.0672 Debye
        Dipole field          0.0001 Ry au, 
 
        Potential amp.       -0.0083 Ry
        Total length         43.5630 bohr
 

     total cpu time spent up to now is       80.0 secs

     total energy              =   -3595.79169373 Ry
     estimated scf accuracy    <       0.00183792 Ry

     iteration # 14     ecut=    52.00 Ry     beta= 0.30
     Davidson diagonalization with overlap
     ethr =  7.07E-07,  avg # of iterations =  2.0

     negative rho (up, down):  3.659E-08 0.000E+00
 
     Adding external electric field

     Computed dipole along edir(3) : 
        Dipole                0.0207 Ry au,          0.0525 Debye
        Dipole field          0.0001 Ry au, 
 
        Potential amp.       -0.0065 Ry
        Total length         43.5630 bohr
 

     total cpu time spent up to now is       85.2 secs

     total energy              =   -3595.79173725 Ry
     estimated scf accuracy    <       0.00003922 Ry

     iteration # 15     ecut=    52.00 Ry     beta= 0.30
     Davidson diagonalization with overlap
     ethr =  1.51E-08,  avg # of iterations =  4.7

     negative rho (up, down):  1.309E-06 0.000E+00
 
     Adding external electric field

     Computed dipole along edir(3) : 
        Dipole                0.0224 Ry au,          0.0570 Debye
        Dipole field          0.0001 Ry au, 
 
        Potential amp.       -0.0070 Ry
        Total length         43.5630 bohr
 

     total cpu time spent up to now is       90.6 secs

     total energy              =   -3595.79174326 Ry
     estimated scf accuracy    <       0.00034848 Ry

     iteration # 16     ecut=    52.00 Ry     beta= 0.30
     Davidson diagonalization with overlap
     ethr =  1.51E-08,  avg # of iterations =  2.0

     negative rho (up, down):  9.206E-05 0.000E+00
 
     Adding external electric field

     Computed dipole along edir(3) : 
        Dipole                0.0267 Ry au,          0.0680 Debye
        Dipole field          0.0001 Ry au, 
 
        Potential amp.       -0.0084 Ry
        Total length         43.5630 bohr
 

     total cpu time spent up to now is       95.6 secs

     total energy              =   -3595.79173657 Ry
     estimated scf accuracy    <       0.00006920 Ry

     iteration # 17     ecut=    52.00 Ry     beta= 0.30
     Davidson diagonalization with overlap
     ethr =  1.51E-08,  avg # of iterations =  2.3

     negative rho (up, down):  1.822E-06 0.000E+00
 
     Adding external electric field

     Computed dipole along edir(3) : 
        Dipole                0.0245 Ry au,          0.0624 Debye
        Dipole field          0.0001 Ry au, 
 
        Potential amp.       -0.0077 Ry
        Total length         43.5630 bohr
 

     total cpu time spent up to now is      100.7 secs

     total energy              =   -3595.79173926 Ry
     estimated scf accuracy    <       0.00029475 Ry

     iteration # 18     ecut=    52.00 Ry     beta= 0.30
     Davidson diagonalization with overlap
     ethr =  1.51E-08,  avg # of iterations =  1.4

     negative rho (up, down):  1.597E-06 0.000E+00
 
     Adding external electric field

     Computed dipole along edir(3) : 
        Dipole                0.0250 Ry au,          0.0636 Debye
        Dipole field          0.0001 Ry au, 
 
        Potential amp.       -0.0078 Ry
        Total length         43.5630 bohr
 

     total cpu time spent up to now is      105.6 secs

     total energy              =   -3595.79174359 Ry
     estimated scf accuracy    <       0.00000033 Ry

     iteration # 19     ecut=    52.00 Ry     beta= 0.30
     Davidson diagonalization with overlap
     ethr =  1.27E-10,  avg # of iterations =  2.0

     negative rho (up, down):  1.180E-06 0.000E+00
 
     Adding external electric field

     Computed dipole along edir(3) : 
        Dipole                0.0250 Ry au,          0.0636 Debye
        Dipole field          0.0001 Ry au, 
 
        Potential amp.       -0.0078 Ry
        Total length         43.5630 bohr
 

     total cpu time spent up to now is      110.7 secs

     total energy              =   -3595.79174371 Ry
     estimated scf accuracy    <       0.00000378 Ry

     iteration # 20     ecut=    52.00 Ry     beta= 0.30
     Davidson diagonalization with overlap
     ethr =  1.27E-10,  avg # of iterations =  1.1

     negative rho (up, down):  1.587E-06 0.000E+00
 
     Adding external electric field

     Computed dipole along edir(3) : 
        Dipole                0.0247 Ry au,          0.0629 Debye
        Dipole field          0.0001 Ry au, 
 
        Potential amp.       -0.0078 Ry
        Total length         43.5630 bohr
 

     total cpu time spent up to now is      115.7 secs

     total energy              =   -3595.79174357 Ry
     estimated scf accuracy    <       0.00000338 Ry

     iteration # 21     ecut=    52.00 Ry     beta= 0.30
     Davidson diagonalization with overlap
     ethr =  1.27E-10,  avg # of iterations =  1.0

     negative rho (up, down):  1.171E-06 0.000E+00
 
     Adding external electric field

     Computed dipole along edir(3) : 
        Dipole                0.0247 Ry au,          0.0628 Debye
        Dipole field          0.0001 Ry au, 
 
        Potential amp.       -0.0077 Ry
        Total length         43.5630 bohr
 

     total cpu time spent up to now is      120.3 secs

     total energy              =   -3595.79174369 Ry
     estimated scf accuracy    <       0.00000032 Ry

     iteration # 22     ecut=    52.00 Ry     beta= 0.30
     Davidson diagonalization with overlap
     ethr =  1.24E-10,  avg # of iterations =  1.4

     negative rho (up, down):  8.191E-07 0.000E+00
 
     Adding external electric field

     Computed dipole along edir(3) : 
        Dipole                0.0250 Ry au,          0.0634 Debye
        Dipole field          0.0001 Ry au, 
 
        Potential amp.       -0.0078 Ry
        Total length         43.5630 bohr
 

     total cpu time spent up to now is      125.2 secs

     total energy              =   -3595.79174370 Ry
     estimated scf accuracy    <       0.00000174 Ry

     iteration # 23     ecut=    52.00 Ry     beta= 0.30
     Davidson diagonalization with overlap
     ethr =  1.24E-10,  avg # of iterations =  1.1

     negative rho (up, down):  6.855E-07 0.000E+00
 
     Adding external electric field

     Computed dipole along edir(3) : 
        Dipole                0.0250 Ry au,          0.0634 Debye
        Dipole field          0.0001 Ry au, 
 
        Potential amp.       -0.0078 Ry
        Total length         43.5630 bohr
 

     total cpu time spent up to now is      130.1 secs

     total energy              =   -3595.79174372 Ry
     estimated scf accuracy    <       0.00000001 Ry

     iteration # 24     ecut=    52.00 Ry     beta= 0.30
     Davidson diagonalization with overlap
     ethr =  5.04E-12,  avg # of iterations =  2.0

     negative rho (up, down):  6.453E-07 0.000E+00
 
     Adding external electric field

     Computed dipole along edir(3) : 
        Dipole                0.0257 Ry au,          0.0654 Debye
        Dipole field          0.0001 Ry au, 
 
        Potential amp.       -0.0081 Ry
        Total length         43.5630 bohr
 

     total cpu time spent up to now is      135.1 secs

     End of self-consistent calculation

          k = 0.0000 0.0000 0.0000 ( 22161 PWs)   bands (ev):

   -86.0436 -86.0341 -86.0255 -86.0255 -86.0248 -86.0248 -85.8331 -85.8331
   -85.8202 -85.8197 -85.8195 -85.8164 -49.5535 -49.5274 -49.5270 -49.5267
   -49.5264 -49.5247 -49.5245 -49.4997 -49.4995 -49.4743 -49.4740 -49.4735
   -49.4732 -49.4688 -49.4262 -49.4256 -49.4126 -49.4124 -49.3165 -49.3164
   -49.3160 -49.3160 -49.3136 -49.3136 -49.3116 -49.3114 -49.2544 -49.2519
   -49.2416 -49.2413 -49.2411 -49.2376 -49.2260 -49.2256 -49.2249 -49.2247
   -13.2495  -8.1551  -8.1551  -8.1550  -7.0246  -7.0246  -7.0246  -1.3869
    -1.3835  -0.4944  -0.3231  -0.3230  -0.3230  -0.2209  -0.0550   0.4149
     0.4163   0.4336   0.4351   0.4358   0.4373   0.7822   0.7832   0.7851
     0.7861   0.9756   0.9779   0.9874   0.9929   1.2179   1.2747   1.2759
     1.3212   1.3235   1.3916   1.3930   1.3963   1.3976   1.4034   1.5431
     1.5441   1.5960   1.5972   1.7145   1.7148   1.7174   1.7174   1.7398
     1.7399   1.7432   1.7434   2.1648   2.1671   2.2840   2.2908   2.3179
     2.3199   2.3205   2.3225   2.4335   2.4450   2.6741   2.7318   2.7329
     2.7780   2.7825   2.9043   2.9056   2.9552   2.9556   2.9569   2.9569
     2.9587   2.9591   3.0245   3.0262   3.7247   3.7248   3.7248   5.0691
     6.2826   7.6884   7.6888   7.6888   9.3094   9.4910   9.4952   9.6831
     9.6836   9.6876   9.6880   9.8174  10.4670  10.4696  10.4705  10.4732
    10.8710  10.8731  11.0173  11.3198  12.1306  12.1348  12.1376  12.1417
    12.3674  12.3683  13.0937  13.0937

          k = 0.0000 0.1925 0.0000 ( 22089 PWs)   bands (ev):

   -86.0423 -86.0332 -86.0268 -86.0265 -86.0247 -86.0246 -85.8322 -85.8320
   -85.8206 -85.8203 -85.8200 -85.8169 -49.5504 -49.5440 -49.5389 -49.5378
   -49.5332 -49.5079 -49.5020 -49.4922 -49.4866 -49.4771 -49.4711 -49.4706
   -49.4682 -49.4664 -49.4354 -49.4298 -49.4234 -49.4153 -49.3336 -49.3329
   -49.3283 -49.3275 -49.2929 -49.2919 -49.2903 -49.2892 -49.2533 -49.2513
   -49.2419 -49.2418 -49.2416 -49.2381 -49.2370 -49.2359 -49.2288 -49.2278
   -13.0887  -9.3548  -8.5165  -8.5165  -6.4019  -6.4018  -5.5862  -1.1926
    -1.1362  -0.8000  -0.8000  -0.2729  -0.1650  -0.0428   0.1328   0.1362
     0.2623   0.3206   0.3302   0.4038   0.5407   0.6367   0.7105   0.7351
     0.7693   0.8276   0.9258   0.9462   0.9478   1.1053   1.1871   1.2132
     1.2922   1.3417   1.4056   1.4220   1.4336   1.4631   1.4890   1.5151
     1.5218   1.5497   1.5942   1.6560   1.6622   1.7228   1.7436   1.8339
     1.9235   1.9954   2.0576   2.0983   2.1088   2.2128   2.2155   2.2903
     2.3134   2.3287   2.3908   2.3979   2.4190   2.5589   2.5887   2.6177
     2.6298   2.7063   2.7640   2.7794   2.9103   2.9196   2.9208   2.9808
     3.0200   3.0460   3.1002   3.1651   3.3944   3.6237   3.6237   5.4319
     6.8095   6.9466   7.8203   7.9492   7.9495   8.0880   8.4388   8.7453
     9.0023   9.2359   9.4807   9.5307  10.0192  10.7686  10.9454  11.2210
    11.3142  11.3768  11.5064  11.5452  12.3434  12.3684  12.4181  12.5772
    13.1784  13.3032  13.3672  13.8232

          k = 0.0000 0.3849 0.0000 ( 22135 PWs)   bands (ev):

   -86.0389 -86.0309 -86.0300 -86.0278 -86.0258 -86.0248 -85.8299 -85.8292
   -85.8223 -85.8216 -85.8208 -85.8182 -49.5572 -49.5503 -49.5423 -49.5362
   -49.5292 -49.5024 -49.4942 -49.4824 -49.4803 -49.4697 -49.4673 -49.4647
   -49.4559 -49.4550 -49.4521 -49.4513 -49.4363 -49.4242 -49.3462 -49.3455
   -49.3228 -49.3220 -49.2711 -49.2702 -49.2678 -49.2674 -49.2657 -49.2633
   -49.2507 -49.2492 -49.2436 -49.2425 -49.2423 -49.2393 -49.2376 -49.2366
   -12.6081 -10.7176  -8.9134  -8.9134  -5.2761  -5.2760  -3.5306  -1.9198
    -1.9197  -0.6253  -0.4792  -0.1120  -0.0131  -0.0070   0.2194   0.2691
     0.2892   0.2952   0.3170   0.3673   0.4590   0.4787   0.5183   0.6238
     0.6979   0.6990   0.8258   0.8472   0.8595   0.9639   1.0049   1.0218
     1.1154   1.2324   1.2479   1.2935   1.3292   1.3995   1.4418   1.4620
     1.5315   1.5405   1.6465   1.6617   1.7004   1.7804   1.7968   1.8044
     1.8386   1.8622   1.8845   1.9886   2.0043   2.0533   2.0734   2.2454
     2.2626   2.3186   2.3929   2.4473   2.4879   2.4913   2.5314   2.6953
     2.7130   2.7977   2.8308   2.8676   2.9545   2.9826   2.9920   3.0661
     3.0817   3.1129   3.1766   3.2101   3.4451   3.4452   4.1306   4.7186
     5.4328   6.2839   6.7913   6.9331   7.4349   7.9380   8.0514   8.2741
     8.4816   8.4820   9.0639  10.1941  10.2739  10.6220  10.8054  10.8734
    11.4335  11.6639  11.8159  12.1086  12.8094  12.9083  13.0557  13.4446
    13.4836  13.5471  13.9884  14.1032

          k = 0.0000-0.5774 0.0000 ( 22116 PWs)   bands (ev):

   -86.0344 -86.0344 -86.0283 -86.0281 -86.0281 -86.0250 -85.8284 -85.8257
   -85.8255 -85.8224 -85.8211 -85.8189 -49.5619 -49.5550 -49.5341 -49.5338
   -49.5084 -49.5082 -49.4959 -49.4885 -49.4884 -49.4725 -49.4626 -49.4608
   -49.4605 -49.4506 -49.4505 -49.4420 -49.4387 -49.4385 -49.3507 -49.3499
   -49.3003 -49.2990 -49.2988 -49.2958 -49.2582 -49.2570 -49.2533 -49.2521
   -49.2519 -49.2495 -49.2490 -49.2464 -49.2461 -49.2428 -49.2427 -49.2401
   -11.8135 -11.8135  -9.0558  -9.0558  -4.4490  -4.4490  -2.7832  -2.7832
    -1.3669  -1.3668  -0.2659  -0.1755  -0.1092   0.1446   0.1847   0.1864
     0.2881   0.2994   0.2994   0.3967   0.3989   0.5734   0.5810   0.5827
     0.6191   0.6208   0.7071   0.7075   0.8501   0.8527   1.0081   1.0082
     1.1251   1.1328   1.1335   1.1709   1.2032   1.2059   1.3775   1.3792
     1.3967   1.4278   1.4296   1.4768   1.4834   1.7232   1.7241   1.7829
     1.7859   1.9652   2.0197   2.0236   2.0362   2.2148   2.2186   2.3281
     2.3473   2.3483   2.5861   2.6213   2.6216   2.7146   2.7152   2.8083
     2.8118   2.8132   2.9740   2.9783   2.9798   3.0789   3.1071   3.1634
     3.1652   3.1902   3.3350   3.3498   3.3650   3.3651   3.6251   3.6265
     5.2135   5.2150   6.1733   7.0017   7.4580   7.4616   7.5160   7.7263
     8.7608   8.7611   9.6443   9.6497  10.1564  10.7172  11.2970  11.2976
    11.4289  11.6285  11.6313  12.6772  12.7447  12.7482  13.1088  13.1179
    13.1779  13.1864  13.8029  13.8030

          k = 0.1667-0.0962 0.0000 ( 22089 PWs)   bands (ev):

   -86.0423 -86.0332 -86.0269 -86.0264 -86.0247 -86.0247 -85.8322 -85.8320
   -85.8206 -85.8203 -85.8200 -85.8169 -49.5505 -49.5446 -49.5387 -49.5377
   -49.5326 -49.5090 -49.5018 -49.4913 -49.4867 -49.4772 -49.4711 -49.4705
   -49.4690 -49.4659 -49.4350 -49.4302 -49.4235 -49.4152 -49.3336 -49.3329
   -49.3283 -49.3275 -49.2928 -49.2919 -49.2904 -49.2892 -49.2533 -49.2513
   -49.2419 -49.2418 -49.2415 -49.2381 -49.2371 -49.2359 -49.2286 -49.2278
   -13.0887  -9.3548  -8.5165  -8.5165  -6.4019  -6.4018  -5.5862  -1.1926
    -1.1362  -0.8000  -0.7999  -0.2734  -0.1650  -0.0424   0.1331   0.1353
     0.2646   0.3216   0.3285   0.4046   0.5380   0.6369   0.7148   0.7374
     0.7644   0.8282   0.9245   0.9440   0.9501   1.1048   1.1878   1.2145
     1.2932   1.3402   1.4070   1.4219   1.4302   1.4627   1.4873   1.5160
     1.5209   1.5500   1.5945   1.6602   1.6616   1.7228   1.7421   1.8363
     1.9249   1.9894   2.0537   2.1008   2.1087   2.2099   2.2214   2.2863
     2.3134   2.3259   2.3907   2.4022   2.4204   2.5618   2.5891   2.6198
     2.6298   2.7119   2.7595   2.7769   2.9103   2.9194   2.9217   2.9806
     3.0211   3.0443   3.0997   3.1669   3.3913   3.6237   3.6237   5.4321
     6.8094   6.9465   7.8214   7.9492   7.9495   8.0927   8.4304   8.7453
     9.0052   9.2348   9.4767   9.5307  10.0192  10.7778  10.9483  11.2210
    11.3090  11.3737  11.5065  11.5473  12.3405  12.3768  12.4212  12.5769
    13.1784  13.2976  13.3673  13.8232

          k = 0.1667 0.0962 0.0000 ( 22089 PWs)   bands (ev):

   -86.0423 -86.0332 -86.0269 -86.0265 -86.0247 -86.0246 -85.8322 -85.8320
   -85.8206 -85.8203 -85.8200 -85.8169 -49.5504 -49.5443 -49.5388 -49.5377
   -49.5330 -49.5083 -49.5019 -49.4921 -49.4866 -49.4771 -49.4711 -49.4706
   -49.4684 -49.4663 -49.4353 -49.4299 -49.4234 -49.4153 -49.3337 -49.3328
   -49.3282 -49.3276 -49.2930 -49.2918 -49.2901 -49.2893 -49.2533 -49.2513
   -49.2419 -49.2418 -49.2416 -49.2381 -49.2368 -49.2360 -49.2289 -49.2277
   -13.0887  -9.3548  -8.5165  -8.5165  -6.4019  -6.4018  -5.5862  -1.1926
    -1.1362  -0.8000  -0.7999  -0.2730  -0.1650  -0.0428   0.1328   0.1356
     0.2629   0.3214   0.3299   0.4041   0.5400   0.6368   0.7113   0.7354
     0.7678   0.8278   0.9252   0.9461   0.9486   1.1054   1.1873   1.2139
     1.2920   1.3419   1.4058   1.4215   1.4328   1.4633   1.4887   1.5171
     1.5205   1.5493   1.5943   1.6560   1.6621   1.7230   1.7436   1.8341
     1.9235   1.9950   2.0560   2.0989   2.1088   2.2127   2.2172   2.2886
     2.3134   2.3283   2.3907   2.3982   2.4189   2.5598   2.5885   2.6184
     2.6298   2.7066   2.7638   2.7791   2.9103   2.9201   2.9206   2.9803
     3.0215   3.0454   3.0999   3.1662   3.3933   3.6237   3.6237   5.4318
     6.8093   6.9466   7.8206   7.9492   7.9495   8.0893   8.4372   8.7453
     9.0017   9.2359   9.4774   9.5307  10.0192  10.7731  10.9470  11.2211
    11.3129  11.3769  11.5064  11.5445  12.3426  12.3711  12.4188  12.5770
    13.1784  13.3010  13.3673  13.8232

          k = 0.1667 0.2887 0.0000 ( 22093 PWs)   bands (ev):

   -86.0399 -86.0316 -86.0283 -86.0283 -86.0251 -86.0250 -85.8306 -85.8301
   -85.8212 -85.8212 -85.8210 -85.8179 -49.5462 -49.5459 -49.5447 -49.5409
   -49.5406 -49.4982 -49.4979 -49.4814 -49.4814 -49.4780 -49.4657 -49.4654
   -49.4579 -49.4576 -49.4500 -49.4443 -49.4350 -49.4198 -49.3355 -49.3354
   -49.3350 -49.3342 -49.2743 -49.2741 -49.2739 -49.2729 -49.2576 -49.2567
   -49.2513 -49.2497 -49.2427 -49.2425 -49.2423 -49.2390 -49.2341 -49.2328
   -12.7680  -9.9515  -9.9515  -7.7378  -6.6471  -4.5130  -4.5129  -2.1024
    -0.8134  -0.6893  -0.4793  -0.4793   0.0494   0.0751   0.0769   0.1842
     0.1857   0.2195   0.2199   0.2394   0.4151   0.5248   0.5264   0.7202
     0.7210   0.7328   0.7339   0.8991   0.9494   0.9499   1.0764   1.1146
     1.2903   1.3275   1.3309   1.3998   1.4677   1.4915   1.4943   1.5526
     1.5806   1.5816   1.6264   1.6499   1.7076   1.7331   1.7335   1.8598
     1.9437   1.9743   2.0913   2.1138   2.1175   2.2016   2.2077   2.2084
     2.3253   2.3576   2.3576   2.3781   2.3797   2.4519   2.4772   2.4772
     2.5936   2.5942   2.6629   2.6655   2.6901   2.7776   2.9560   2.9566
     3.0463   3.0947   3.0959   3.2211   3.2224   3.8983   4.3070   5.8041
     5.8043   6.0197   6.5858   6.5870   7.4527   7.6719   7.9867   7.9899
     9.6536   9.6544   9.7598   9.7632   9.9737  10.4210  10.8442  10.8482
    11.6187  11.6222  11.6269  11.9017  12.4229  12.4279  13.5243  13.5258
    13.7818  13.8690  13.8693  14.0619

          k = 0.1667-0.6736 0.0000 ( 22151 PWs)   bands (ev):

   -86.0360 -86.0318 -86.0293 -86.0291 -86.0266 -86.0254 -85.8285 -85.8269
   -85.8236 -85.8219 -85.8218 -85.8192 -49.5527 -49.5474 -49.5367 -49.5358
   -49.5288 -49.5018 -49.4982 -49.4981 -49.4772 -49.4712 -49.4669 -49.4610
   -49.4590 -49.4572 -49.4450 -49.4425 -49.4423 -49.4289 -49.3418 -49.3409
   -49.3200 -49.3190 -49.2900 -49.2892 -49.2583 -49.2575 -49.2573 -49.2564
   -49.2497 -49.2474 -49.2447 -49.2436 -49.2433 -49.2425 -49.2423 -49.2402
   -12.1303 -11.1848 -10.2567  -7.6743  -5.8291  -3.4795  -3.4116  -2.4320
    -1.3507  -0.3955  -0.1528  -0.1021  -0.0894  -0.0662  -0.0148   0.1224
     0.1404   0.1621   0.2161   0.2196   0.2440   0.3792   0.3991   0.4967
     0.5761   0.6402   0.6977   0.7482   0.7744   0.9222   1.0044   1.0189
     1.0666   1.1086   1.1177   1.2584   1.3354   1.3719   1.4401   1.4422
     1.4892   1.5062   1.5774   1.7020   1.7998   1.8795   1.8818   1.9395
     1.9835   2.0228   2.0377   2.0621   2.1396   2.1964   2.1987   2.2129
     2.2447   2.3283   2.4104   2.5018   2.5441   2.5489   2.6503   2.6602
     2.6841   2.7617   2.8551   2.9112   2.9247   2.9421   2.9759   3.0039
     3.0497   3.0843   3.1030   3.1301   3.2235   3.8158   4.4500   4.7073
     4.7216   4.9199   5.6766   6.0536   6.9802   7.1149   7.2882   8.2929
     8.9693   9.0388  10.3281  10.5757  10.6625  10.8568  11.2228  11.2571
    11.7766  11.9542  12.1645  12.3966  12.4248  12.7444  13.0524  13.1529
    13.4886  13.5848  13.8620  13.8756

          k = 0.1667-0.4811 0.0000 ( 22151 PWs)   bands (ev):

   -86.0360 -86.0317 -86.0294 -86.0291 -86.0266 -86.0254 -85.8285 -85.8269
   -85.8236 -85.8219 -85.8218 -85.8192 -49.5527 -49.5473 -49.5368 -49.5359
   -49.5289 -49.5015 -49.4983 -49.4981 -49.4773 -49.4711 -49.4668 -49.4610
   -49.4591 -49.4573 -49.4451 -49.4425 -49.4423 -49.4289 -49.3418 -49.3409
   -49.3199 -49.3190 -49.2902 -49.2891 -49.2583 -49.2575 -49.2574 -49.2564
   -49.2497 -49.2475 -49.2446 -49.2434 -49.2433 -49.2426 -49.2423 -49.2402
   -12.1303 -11.1848 -10.2567  -7.6743  -5.8291  -3.4795  -3.4116  -2.4320
    -1.3507  -0.3955  -0.1529  -0.1030  -0.0896  -0.0662  -0.0145   0.1234
     0.1404   0.1618   0.2148   0.2193   0.2444   0.3830   0.3990   0.4969
     0.5779   0.6398   0.6958   0.7467   0.7741   0.9219   1.0044   1.0189
     1.0672   1.1091   1.1206   1.2570   1.3342   1.3718   1.4362   1.4407
     1.4845   1.5085   1.5778   1.7054   1.8025   1.8810   1.8871   1.9361
     1.9809   2.0237   2.0388   2.0621   2.1379   2.1941   2.1979   2.2123
     2.2431   2.3305   2.4115   2.5034   2.5451   2.5497   2.6520   2.6608
     2.6807   2.7599   2.8532   2.9115   2.9249   2.9425   2.9764   3.0061
     3.0503   3.0843   3.1040   3.1293   3.2232   3.8160   4.4487   4.7073
     4.7195   4.9198   5.6767   6.0554   6.9811   7.1149   7.2882   8.2921
     8.9692   9.0391  10.3281  10.5757  10.6622  10.8568  11.2228  11.2571
    11.7766  11.9542  12.1644  12.3965  12.4247  12.7447  13.0526  13.1530
    13.4886  13.5850  13.8620  13.8757

          k = 0.1667-0.2887 0.0000 ( 22093 PWs)   bands (ev):

   -86.0400 -86.0316 -86.0283 -86.0282 -86.0251 -86.0250 -85.8306 -85.8301
   -85.8212 -85.8212 -85.8210 -85.8179 -49.5465 -49.5459 -49.5448 -49.5407
   -49.5405 -49.4987 -49.4977 -49.4811 -49.4809 -49.4777 -49.4662 -49.4657
   -49.4578 -49.4575 -49.4499 -49.4444 -49.4353 -49.4197 -49.3355 -49.3354
   -49.3350 -49.3342 -49.2743 -49.2742 -49.2739 -49.2729 -49.2580 -49.2565
   -49.2513 -49.2497 -49.2427 -49.2424 -49.2423 -49.2390 -49.2338 -49.2330
   -12.7680  -9.9515  -9.9515  -7.7378  -6.6471  -4.5130  -4.5129  -2.1024
    -0.8134  -0.6895  -0.4793  -0.4793   0.0477   0.0750   0.0768   0.1839
     0.1854   0.2198   0.2202   0.2413   0.4174   0.5260   0.5285   0.7171
     0.7193   0.7327   0.7336   0.8987   0.9493   0.9523   1.0754   1.1144
     1.2903   1.3259   1.3290   1.3983   1.4680   1.4903   1.4946   1.5524
     1.5781   1.5815   1.6274   1.6496   1.7050   1.7380   1.7387   1.8598
     1.9432   1.9743   2.0909   2.1128   2.1167   2.2005   2.2069   2.2081
     2.3243   2.3576   2.3576   2.3774   2.3798   2.4554   2.4804   2.4812
     2.5939   2.5961   2.6587   2.6627   2.6952   2.7746   2.9561   2.9570
     3.0463   3.0934   3.0960   3.2211   3.2229   3.8958   4.3070   5.8041
     5.8046   6.0204   6.5846   6.5872   7.4527   7.6722   7.9872   7.9911
     9.6536   9.6544   9.7590   9.7630   9.9737  10.4210  10.8444  10.8492
    11.6185  11.6207  11.6258  11.9019  12.4234  12.4347  13.5171  13.5258
    13.7817  13.8677  13.8691  14.0613

          k = 0.3333-0.1925 0.0000 ( 22135 PWs)   bands (ev):

   -86.0389 -86.0309 -86.0301 -86.0277 -86.0257 -86.0250 -85.8299 -85.8292
   -85.8223 -85.8216 -85.8208 -85.8182 -49.5577 -49.5503 -49.5424 -49.5360
   -49.5286 -49.5034 -49.4930 -49.4819 -49.4806 -49.4698 -49.4673 -49.4650
   -49.4561 -49.4547 -49.4520 -49.4513 -49.4366 -49.4241 -49.3462 -49.3455
   -49.3228 -49.3219 -49.2710 -49.2703 -49.2677 -49.2675 -49.2658 -49.2633
   -49.2507 -49.2492 -49.2436 -49.2425 -49.2423 -49.2393 -49.2375 -49.2366
   -12.6081 -10.7176  -8.9134  -8.9134  -5.2761  -5.2760  -3.5306  -1.9198
    -1.9197  -0.6253  -0.4795  -0.1120  -0.0126  -0.0070   0.2172   0.2706
     0.2916   0.2952   0.3158   0.3704   0.4565   0.4773   0.5192   0.6228
     0.6979   0.7004   0.8247   0.8456   0.8580   0.9640   1.0108   1.0181
     1.1177   1.2351   1.2461   1.2941   1.3273   1.4000   1.4450   1.4553
     1.5315   1.5428   1.6465   1.6574   1.7006   1.7799   1.7955   1.8052
     1.8380   1.8622   1.8763   1.9925   2.0110   2.0547   2.0730   2.2445
     2.2658   2.3192   2.3956   2.4482   2.4863   2.4921   2.5302   2.6906
     2.7088   2.7991   2.8348   2.8690   2.9550   2.9816   2.9933   3.0668
     3.0785   3.1151   3.1788   3.2085   3.4451   3.4452   4.1280   4.7186
     5.4335   6.2843   6.7967   6.9319   7.4201   7.9455   8.0512   8.2722
     8.4816   8.4820   9.0641  10.1941  10.2821  10.6220  10.8054  10.8698
    11.4327  11.6754  11.8159  12.1087  12.8093  12.8954  13.0559  13.4443
    13.4885  13.5423  13.9886  14.1032

          k = 0.3333-0.0000 0.0000 ( 22093 PWs)   bands (ev):

   -86.0400 -86.0316 -86.0283 -86.0282 -86.0251 -86.0250 -85.8306 -85.8301
   -85.8212 -85.8212 -85.8210 -85.8179 -49.5465 -49.5461 -49.5448 -49.5406
   -49.5404 -49.4987 -49.4979 -49.4809 -49.4807 -49.4776 -49.4662 -49.4658
   -49.4578 -49.4575 -49.4499 -49.4444 -49.4354 -49.4197 -49.3355 -49.3353
   -49.3350 -49.3342 -49.2743 -49.2741 -49.2739 -49.2729 -49.2578 -49.2566
   -49.2513 -49.2497 -49.2427 -49.2424 -49.2423 -49.2390 -49.2339 -49.2328
   -12.7680  -9.9515  -9.9515  -7.7378  -6.6471  -4.5130  -4.5129  -2.1024
    -0.8134  -0.6897  -0.4793  -0.4793   0.0471   0.0749   0.0767   0.1841
     0.1855   0.2200   0.2203   0.2414   0.4174   0.5263   0.5287   0.7174
     0.7193   0.7324   0.7334   0.8998   0.9501   0.9528   1.0755   1.1141
     1.2903   1.3243   1.3277   1.3988   1.4680   1.4911   1.4961   1.5517
     1.5778   1.5814   1.6264   1.6497   1.7049   1.7371   1.7380   1.8597
     1.9434   1.9743   2.0922   2.1124   2.1160   2.2003   2.2067   2.2079
     2.3243   2.3576   2.3576   2.3774   2.3795   2.4549   2.4808   2.4816
     2.5948   2.5965   2.6587   2.6625   2.6957   2.7742   2.9559   2.9564
     3.0475   3.0935   3.0956   3.2223   3.2233   3.8947   4.3070   5.8042
     5.8046   6.0202   6.5847   6.5866   7.4527   7.6717   7.9869   7.9909
     9.6536   9.6544   9.7583   9.7612   9.9737  10.4210  10.8469  10.8498
    11.6186  11.6210  11.6262  11.9018  12.4259  12.4347  13.5170  13.5264
    13.7819  13.8677  13.8694  14.0614

          k = 0.3333 0.1925 0.0000 ( 22135 PWs)   bands (ev):

   -86.0389 -86.0309 -86.0300 -86.0278 -86.0258 -86.0249 -85.8299 -85.8292
   -85.8223 -85.8216 -85.8208 -85.8182 -49.5574 -49.5502 -49.5423 -49.5361
   -49.5290 -49.5027 -49.4940 -49.4822 -49.4803 -49.4697 -49.4673 -49.4647
   -49.4559 -49.4550 -49.4521 -49.4513 -49.4364 -49.4243 -49.3463 -49.3454
   -49.3227 -49.3220 -49.2712 -49.2702 -49.2679 -49.2672 -49.2656 -49.2634
   -49.2507 -49.2492 -49.2435 -49.2425 -49.2424 -49.2393 -49.2378 -49.2364
   -12.6081 -10.7176  -8.9134  -8.9134  -5.2761  -5.2760  -3.5306  -1.9198
    -1.9197  -0.6253  -0.4793  -0.1120  -0.0129  -0.0071   0.2187   0.2698
     0.2903   0.2952   0.3169   0.3677   0.4582   0.4786   0.5182   0.6239
     0.6979   0.6990   0.8256   0.8469   0.8597   0.9639   1.0055   1.0213
     1.1159   1.2320   1.2468   1.2937   1.3286   1.3996   1.4425   1.4607
     1.5315   1.5424   1.6471   1.6593   1.7002   1.7802   1.7972   1.8046
     1.8387   1.8622   1.8840   1.9884   2.0045   2.0537   2.0743   2.2456
     2.2621   2.3191   2.3927   2.4476   2.4872   2.4912   2.5313   2.6957
     2.7127   2.7977   2.8314   2.8679   2.9542   2.9823   2.9932   3.0659
     3.0811   3.1134   3.1780   3.2098   3.4451   3.4452   4.1296   4.7187
     5.4330   6.2837   6.7936   6.9328   7.4326   7.9366   8.0510   8.2700
     8.4817   8.4820   9.0636  10.1941  10.2791  10.6220  10.8054  10.8741
    11.4326  11.6673  11.8160  12.1085  12.8093  12.9105  13.0558  13.4445
    13.4851  13.5462  13.9886  14.1032

          k = 0.3333-0.7698 0.0000 ( 22151 PWs)   bands (ev):

   -86.0360 -86.0318 -86.0293 -86.0291 -86.0266 -86.0254 -85.8285 -85.8269
   -85.8236 -85.8219 -85.8218 -85.8192 -49.5529 -49.5473 -49.5367 -49.5358
   -49.5287 -49.5017 -49.4983 -49.4979 -49.4772 -49.4713 -49.4669 -49.4609
   -49.4590 -49.4573 -49.4450 -49.4425 -49.4423 -49.4289 -49.3419 -49.3408
   -49.3199 -49.3190 -49.2899 -49.2892 -49.2581 -49.2575 -49.2575 -49.2564
   -49.2497 -49.2474 -49.2447 -49.2437 -49.2433 -49.2426 -49.2421 -49.2402
   -12.1303 -11.1848 -10.2567  -7.6743  -5.8291  -3.4795  -3.4116  -2.4320
    -1.3507  -0.3955  -0.1525  -0.1021  -0.0890  -0.0662  -0.0152   0.1220
     0.1404   0.1618   0.2160   0.2205   0.2438   0.3796   0.3991   0.4970
     0.5761   0.6403   0.6976   0.7480   0.7739   0.9219   1.0044   1.0189
     1.0669   1.1078   1.1180   1.2582   1.3363   1.3710   1.4396   1.4427
     1.4881   1.5071   1.5766   1.7018   1.8001   1.8793   1.8815   1.9395
     1.9834   2.0227   2.0378   2.0621   2.1404   2.1972   2.1983   2.2133
     2.2445   2.3284   2.4101   2.5018   2.5441   2.5489   2.6508   2.6600
     2.6840   2.7617   2.8554   2.9110   2.9243   2.9418   2.9763   3.0047
     3.0495   3.0855   3.1029   3.1302   3.2230   3.8157   4.4505   4.7073
     4.7212   4.9206   5.6752   6.0531   6.9801   7.1146   7.2882   8.2926
     8.9672   9.0386  10.3281  10.5790  10.6610  10.8568  11.2228  11.2580
    11.7766  11.9574  12.1643  12.3967  12.4248  12.7444  13.0523  13.1548
    13.4894  13.5840  13.8618  13.8741

          k = 0.3333-0.5774 0.0000 ( 22161 PWs)   bands (ev):

   -86.0325 -86.0325 -86.0324 -86.0270 -86.0270 -86.0269 -85.8279 -85.8243
   -85.8240 -85.8240 -85.8209 -85.8209 -49.5370 -49.5370 -49.5366 -49.5306
   -49.5303 -49.5302 -49.4972 -49.4970 -49.4968 -49.4648 -49.4646 -49.4645
   -49.4536 -49.4535 -49.4533 -49.4345 -49.4345 -49.4344 -49.3208 -49.3208
   -49.3202 -49.3200 -49.3200 -49.3172 -49.2503 -49.2502 -49.2501 -49.2501
   -49.2499 -49.2493 -49.2470 -49.2454 -49.2451 -49.2450 -49.2416 -49.2415
   -11.3417 -11.3417 -11.3417  -6.4924  -6.4924  -4.3150  -1.7163  -1.7163
    -1.7161  -0.3163  -0.3162  -0.3162  -0.0501  -0.0495  -0.0486  -0.0142
    -0.0135  -0.0126   0.1654   0.1667   0.1676   0.3432   0.3440   0.3451
     0.5110   0.5122   0.5124   0.7794   0.7796   0.7815   0.8450   0.8450
     0.8450   1.2016   1.2026   1.2041   1.4001   1.4011   1.4050   1.5083
     1.5095   1.5125   1.6252   1.6296   1.6301   2.0092   2.0122   2.0155
     2.0458   2.0506   2.0513   2.3773   2.3780   2.3810   2.4498   2.4500
     2.4511   2.6339   2.6354   2.6360   2.6931   2.6943   2.6949   2.7608
     2.7617   2.7623   2.8584   2.8585   2.8592   2.8941   2.8942   2.8951
     3.0959   3.0980   3.0985   3.1338   3.1346   3.1365   3.8982   3.9011
     3.9024   5.6856   5.6870   5.6908   6.0238   6.0238   7.9976   7.9995
     8.0001  10.3658  10.3668  10.3740  11.9424  11.9425  11.9433  12.1861
    12.1862  12.1928  12.2093  12.2108  12.2108  12.8881  12.8883  12.8905
    13.3519  13.3527  13.3602  13.7562

          k = 0.3333-0.3849 0.0000 ( 22151 PWs)   bands (ev):

   -86.0361 -86.0318 -86.0292 -86.0291 -86.0266 -86.0255 -85.8285 -85.8269
   -85.8236 -85.8219 -85.8218 -85.8192 -49.5532 -49.5473 -49.5368 -49.5357
   -49.5285 -49.5013 -49.4987 -49.4974 -49.4774 -49.4716 -49.4668 -49.4609
   -49.4591 -49.4574 -49.4452 -49.4424 -49.4423 -49.4289 -49.3418 -49.3409
   -49.3199 -49.3190 -49.2902 -49.2891 -49.2584 -49.2574 -49.2574 -49.2564
   -49.2497 -49.2475 -49.2447 -49.2433 -49.2432 -49.2426 -49.2423 -49.2402
   -12.1303 -11.1848 -10.2567  -7.6743  -5.8291  -3.4795  -3.4116  -2.4320
    -1.3507  -0.3955  -0.1527  -0.1031  -0.0885  -0.0662  -0.0147   0.1219
     0.1404   0.1614   0.2147   0.2212   0.2429   0.3842   0.3975   0.4992
     0.5777   0.6390   0.6962   0.7461   0.7724   0.9211   1.0044   1.0189
     1.0679   1.1130   1.1172   1.2588   1.3361   1.3731   1.4362   1.4436
     1.4809   1.5049   1.5748   1.7058   1.8052   1.8766   1.8807   1.9359
     1.9868   2.0261   2.0364   2.0621   2.1404   2.1940   2.1979   2.2153
     2.2479   2.3303   2.4085   2.5040   2.5448   2.5503   2.6495   2.6603
     2.6808   2.7592   2.8551   2.9117   2.9229   2.9403   2.9770   3.0059
     3.0509   3.0856   3.1052   3.1298   3.2227   3.8158   4.4505   4.7073
     4.7189   4.9215   5.6719   6.0529   6.9811   7.1186   7.2882   8.2928
     8.9660   9.0390  10.3281  10.5803  10.6611  10.8568  11.2229  11.2546
    11.7766  11.9656  12.1643  12.3965  12.4249  12.7448  13.0524  13.1440
    13.4866  13.5840  13.8618  13.8741

          k =-0.5000 0.2887 0.0000 ( 22116 PWs)   bands (ev):

   -86.0344 -86.0344 -86.0282 -86.0281 -86.0280 -86.0252 -85.8284 -85.8257
   -85.8255 -85.8224 -85.8211 -85.8189 -49.5625 -49.5550 -49.5341 -49.5339
   -49.5078 -49.5076 -49.4948 -49.4889 -49.4888 -49.4734 -49.4624 -49.4609
   -49.4606 -49.4508 -49.4507 -49.4419 -49.4386 -49.4384 -49.3507 -49.3499
   -49.3003 -49.2990 -49.2989 -49.2958 -49.2583 -49.2570 -49.2533 -49.2521
   -49.2519 -49.2495 -49.2490 -49.2464 -49.2461 -49.2428 -49.2427 -49.2401
   -11.8135 -11.8135  -9.0558  -9.0558  -4.4490  -4.4490  -2.7832  -2.7832
    -1.3669  -1.3668  -0.2658  -0.1744  -0.1089   0.1434   0.1839   0.1856
     0.2865   0.2994   0.2994   0.4004   0.4026   0.5716   0.5787   0.5805
     0.6167   0.6183   0.7107   0.7112   0.8500   0.8526   1.0081   1.0082
     1.1276   1.1281   1.1331   1.1694   1.2034   1.2062   1.3812   1.3823
     1.3987   1.4269   1.4278   1.4747   1.4816   1.7212   1.7220   1.7818
     1.7848   1.9627   2.0257   2.0267   2.0304   2.2162   2.2200   2.3364
     2.3494   2.3505   2.5876   2.6174   2.6178   2.7112   2.7117   2.8050
     2.8142   2.8156   2.9743   2.9795   2.9810   3.0807   3.1048   3.1635
     3.1653   3.1923   3.3348   3.3495   3.3650   3.3651   3.6257   3.6271
     5.2119   5.2133   6.1783   6.9849   7.4583   7.4619   7.5258   7.7249
     8.7608   8.7611   9.6439   9.6493  10.1644  10.7134  11.2970  11.2976
    11.4411  11.6286  11.6314  12.6628  12.7448  12.7482  13.1088  13.1179
    13.1780  13.1865  13.8029  13.8030

          k =-0.5000 0.4811 0.0000 ( 22151 PWs)   bands (ev):

   -86.0361 -86.0318 -86.0292 -86.0291 -86.0266 -86.0255 -85.8285 -85.8269
   -85.8236 -85.8219 -85.8218 -85.8192 -49.5532 -49.5473 -49.5368 -49.5357
   -49.5286 -49.5012 -49.4987 -49.4974 -49.4774 -49.4715 -49.4667 -49.4609
   -49.4591 -49.4573 -49.4453 -49.4424 -49.4423 -49.4289 -49.3418 -49.3409
   -49.3200 -49.3189 -49.2901 -49.2891 -49.2584 -49.2574 -49.2573 -49.2564
   -49.2497 -49.2475 -49.2447 -49.2435 -49.2432 -49.2425 -49.2423 -49.2402
   -12.1303 -11.1848 -10.2567  -7.6743  -5.8291  -3.4795  -3.4116  -2.4320
    -1.3507  -0.3955  -0.1528  -0.1037  -0.0885  -0.0662  -0.0145   0.1225
     0.1404   0.1615   0.2139   0.2208   0.2430   0.3851   0.3975   0.4993
     0.5783   0.6389   0.6964   0.7452   0.7724   0.9213   1.0044   1.0189
     1.0685   1.1144   1.1182   1.2573   1.3356   1.3727   1.4339   1.4436
     1.4810   1.5064   1.5742   1.7069   1.8041   1.8765   1.8807   1.9356
     1.9874   2.0262   2.0365   2.0621   2.1401   2.1934   2.1979   2.2150
     2.2479   2.3309   2.4086   2.5043   2.5449   2.5503   2.6497   2.6604
     2.6807   2.7586   2.8554   2.9120   2.9230   2.9402   2.9755   3.0062
     3.0514   3.0858   3.1059   3.1298   3.2236   3.8159   4.4500   4.7073
     4.7183   4.9215   5.6720   6.0531   6.9809   7.1185   7.2882   8.2928
     8.9659   9.0382  10.3281  10.5803  10.6623  10.8568  11.2229  11.2546
    11.7766  11.9656  12.1645  12.3966  12.4248  12.7445  13.0525  13.1440
    13.4866  13.5850  13.8618  13.8741

          k =-0.5000 0.6736 0.0000 ( 22151 PWs)   bands (ev):

   -86.0361 -86.0317 -86.0293 -86.0291 -86.0266 -86.0254 -85.8285 -85.8269
   -85.8236 -85.8219 -85.8218 -85.8192 -49.5529 -49.5473 -49.5368 -49.5359
   -49.5288 -49.5013 -49.4982 -49.4981 -49.4773 -49.4711 -49.4667 -49.4610
   -49.4591 -49.4573 -49.4453 -49.4425 -49.4423 -49.4289 -49.3419 -49.3408
   -49.3198 -49.3190 -49.2900 -49.2892 -49.2581 -49.2576 -49.2575 -49.2563
   -49.2497 -49.2474 -49.2446 -49.2436 -49.2433 -49.2426 -49.2421 -49.2402
   -12.1303 -11.1848 -10.2567  -7.6743  -5.8291  -3.4795  -3.4116  -2.4320
    -1.3507  -0.3955  -0.1527  -0.1036  -0.0892  -0.0662  -0.0147   0.1235
     0.1404   0.1615   0.2140   0.2198   0.2443   0.3842   0.3990   0.4972
     0.5784   0.6399   0.6958   0.7456   0.7736   0.9218   1.0044   1.0189
     1.0680   1.1096   1.1219   1.2554   1.3347   1.3705   1.4330   1.4415
     1.4835   1.5108   1.5764   1.7063   1.8018   1.8809   1.8864   1.9360
     1.9814   2.0238   2.0391   2.0621   2.1384   2.1941   2.1976   2.2124
     2.2429   2.3312   2.4114   2.5038   2.5452   2.5498   2.6527   2.6607
     2.6806   2.7592   2.8537   2.9116   2.9245   2.9419   2.9754   3.0072
     3.0506   3.0857   3.1046   3.1294   3.2236   3.8160   4.4487   4.7073
     4.7185   4.9206   5.6753   6.0551   6.9807   7.1145   7.2882   8.2919
     8.9671   9.0381  10.3281  10.5791  10.6620  10.8568  11.2229  11.2580
    11.7766  11.9573  12.1643  12.3967  12.4248  12.7444  13.0527  13.1549
    13.4894  13.5852  13.8618  13.8742

          k =-0.5000-0.2887 0.0000 ( 22116 PWs)   bands (ev):

   -86.0344 -86.0344 -86.0283 -86.0281 -86.0281 -86.0250 -85.8284 -85.8257
   -85.8255 -85.8224 -85.8211 -85.8189 -49.5622 -49.5549 -49.5341 -49.5338
   -49.5082 -49.5080 -49.4957 -49.4886 -49.4885 -49.4727 -49.4625 -49.4608
   -49.4605 -49.4507 -49.4506 -49.4419 -49.4388 -49.4385 -49.3508 -49.3498
   -49.3004 -49.2988 -49.2987 -49.2959 -49.2580 -49.2571 -49.2532 -49.2523
   -49.2521 -49.2495 -49.2489 -49.2464 -49.2461 -49.2428 -49.2428 -49.2400
   -11.8135 -11.8135  -9.0558  -9.0558  -4.4490  -4.4490  -2.7832  -2.7832
    -1.3669  -1.3668  -0.2657  -0.1751  -0.1094   0.1445   0.1847   0.1864
     0.2881   0.2994   0.2994   0.3978   0.4000   0.5734   0.5801   0.5818
     0.6182   0.6200   0.7078   0.7083   0.8499   0.8525   1.0081   1.0082
     1.1247   1.1322   1.1329   1.1701   1.2030   1.2057   1.3778   1.3794
     1.3977   1.4271   1.4297   1.4775   1.4834   1.7219   1.7229   1.7842
     1.7873   1.9650   2.0191   2.0231   2.0354   2.2155   2.2193   2.3285
     2.3480   2.3490   2.5864   2.6209   2.6212   2.7143   2.7148   2.8093
     2.8120   2.8133   2.9740   2.9795   2.9811   3.0787   3.1063   3.1633
     3.1652   3.1904   3.3351   3.3498   3.3650   3.3651   3.6253   3.6267
     5.2128   5.2142   6.1761   6.9995   7.4576   7.4612   7.5140   7.7223
     8.7608   8.7611   9.6436   9.6490  10.1617  10.7180  11.2969  11.2975
    11.4324  11.6286  11.6314  12.6799  12.7449  12.7484  13.1089  13.1180
    13.1777  13.1861  13.8029  13.8030

     the Fermi energy is     6.0403 ev

!    total energy              =   -3595.79174373 Ry
     estimated scf accuracy    <          4.4E-09 Ry
     smearing contrib. (-TS)   =      -0.00097327 Ry
     internal energy E=F+TS    =   -3595.79077046 Ry

     The total energy is F=E-TS. E is the sum of the following terms:
     one-electron contribution =  -19417.26077386 Ry
     hartree contribution      =    9738.72656383 Ry
     xc contribution           =    -362.10633572 Ry
     ewald contribution        =    6494.63263252 Ry
     DFT-D3 Dispersion         =      -0.45596048 Ry
     electric field correction =       0.00000238 Ry
     one-center paw contrib.   =     -49.32689914 Ry

     convergence has been achieved in  24 iterations

     negative rho (up, down):  6.453E-07 0.000E+00

     Forces acting on atoms (cartesian axes, Ry/au):

     atom    1 type  1   force =     0.00015007    0.00053409    0.00171915
     atom    2 type  1   force =     0.00017268    0.00052229    0.00172040
     atom    3 type  1   force =    -0.00022599   -0.00010237   -0.00148352
     atom    4 type  1   force =     0.00000389   -0.00034288   -0.00083965
     atom    5 type  1   force =     0.00017411    0.00054824    0.00171644
     atom    6 type  1   force =    -0.00031767   -0.00004587   -0.00149536
     atom    7 type  1   force =     0.00009228   -0.00012726    0.00019675
     atom    8 type  1   force =     0.00000367   -0.00034249   -0.00084447
     atom    9 type  1   force =     0.00008399   -0.00012254    0.00186075
     atom   10 type  1   force =    -0.00022223    0.00000780   -0.00149403
     atom   11 type  1   force =     0.00000412   -0.00034272   -0.00083955
     atom   12 type  1   force =     0.00009283   -0.00012524    0.00018152
     atom   13 type  2   force =    -0.00000239   -0.00000553    0.00291506
     atom   14 type  2   force =    -0.00000625   -0.00001298   -0.00103109
     atom   15 type  2   force =    -0.00000800   -0.00000232   -0.00103734
     atom   16 type  2   force =    -0.00000055   -0.00000312   -0.00103066
     atom   17 type  2   force =    -0.00000242   -0.00001229   -0.00103885
     atom   18 type  2   force =     0.00000520   -0.00001295   -0.00103156
     atom   19 type  2   force =     0.00000314   -0.00000230   -0.00103837
     atom   20 type  2   force =    -0.00000050   -0.00000956    0.00289439

     Total force =     0.006787     Total SCF correction =     0.000565

     Writing all to output data dir ./tmp/V2_top_fcc_dft_far.save/ :
     XML data file, charge density, pseudopotentials, collected wavefunctions
 
     init_run     :      3.60s CPU      3.75s WALL (       1 calls)
     electrons    :    119.39s CPU    131.15s WALL (       1 calls)
     forces       :      0.74s CPU      0.85s WALL (       1 calls)
     force_dftd3  :      0.03s CPU      0.02s WALL (       1 calls)

     Called by init_run:
     wfcinit      :      1.03s CPU      1.60s WALL (       1 calls)
     potinit      :      1.69s CPU      1.25s WALL (       1 calls)
     hinit0       :      0.59s CPU      0.50s WALL (       1 calls)

     Called by electrons:
     c_bands      :     64.16s CPU     80.20s WALL (      25 calls)
     sum_band     :     13.72s CPU     20.28s WALL (      25 calls)
     v_of_rho     :      6.32s CPU      5.27s WALL (      25 calls)
     newd         :      0.37s CPU      0.38s WALL (      25 calls)
                                        0.38s GPU  (      25 calls)
     PAW_pot      :     29.70s CPU     18.75s WALL (      25 calls)
     mix_rho      :      4.04s CPU      4.37s WALL (      25 calls)
     energy_dftd3 :      0.00s CPU      0.00s WALL (       1 calls)

     Called by c_bands:
     init_us_2    :      0.95s CPU      1.22s WALL (    1040 calls)
     cegterg      :     56.08s CPU     56.28s WALL (     500 calls)

     Called by *egterg:
     cdiaghg      :      9.08s CPU      9.31s WALL (    2276 calls)
                                        9.29s GPU  (    2276 calls)
     h_psi        :     37.47s CPU     37.66s WALL (    2316 calls)
                                       37.56s GPU  (    2316 calls)
     s_psi        :      0.98s CPU      0.95s WALL (    2316 calls)
     g_psi        :      0.01s CPU      0.28s WALL (    1796 calls)
                                        0.27s GPU  (    1796 calls)

     Called by h_psi:
     h_psi:calbec :      0.09s CPU      1.57s WALL (    2316 calls)
                                        1.56s GPU  (    2316 calls)
     vloc_psi     :     33.07s CPU     33.19s WALL (    2316 calls)
                                       33.18s GPU  (    2316 calls)
     add_vuspsi   :      0.97s CPU      2.49s WALL (    2316 calls)
                                        2.47s GPU  (    2316 calls)

     General routines
     calbec       :      0.12s CPU      0.12s WALL (    2896 calls)
     fft          :      1.15s CPU      1.25s WALL (     335 calls)
                                        0.10s GPU  (     310 calls)
     ffts         :      0.24s CPU      0.39s WALL (    2189 calls)
                                        0.17s GPU  (    2164 calls)
     fftw         :      0.37s CPU     28.25s WALL (   28284 calls)
                                       28.09s GPU  (   28284 calls)
     interpolate  :      1.51s CPU      1.84s WALL (      25 calls)
     davcio       :      1.81s CPU     23.26s WALL (    1946 calls)
 
     Parallel routines
 
     PWSCF        :   2m 6.23s CPU   2m18.40s WALL

 
   This run was terminated on:  19:48:32  26Sep2026            

=------------------------------------------------------------------------------=
   JOB DONE.
=------------------------------------------------------------------------------=
