gas-phase ptfe_c10 (+20 A box)          
   1.00000000000000     
    23.2560975463999995    0.0000000000000000    0.0000000000000000
     0.0000000000000000   23.2445446504000017    0.0000000000000000
     0.0000000000000000    0.0000000000000000   33.8666709913999995
   C    F 
    10    22
Direct
  0.5159598782065444  0.5012840682469317  0.3264835154865935
  0.4789723222039157  0.5004900463816924  0.3650649446306531
  0.5148942470080797  0.4913616387277102  0.4037067447926006
  0.4815650804334410  0.5088194980406513  0.4421816790821467
  0.5090318118455173  0.4831637918752136  0.4807467465944413
  0.4892595840466498  0.5152438925833707  0.5192347747573223
  0.5010007805502852  0.4797925496599547  0.5578939852546441
  0.4999137967410050  0.5178031299655004  0.5962053488731556
  0.4924329091048563  0.4818276891135937  0.6349845680096777
  0.5091448350083567  0.5150748666136593  0.6734733023801454
  0.4806568021009312  0.4994363900133507  0.2952819005428466
  0.5475384388629365  0.5492027718331869  0.3242424235021062
  0.5508290049455411  0.4553979325302819  0.3254015304574338
  0.4403888791043258  0.4574534448588139  0.3616822458962830
  0.4507251768825924  0.5512672687988953  0.3672269709962990
  0.5633122192389450  0.5233195077448300  0.4013108876999212
  0.5294139261686155  0.4351541359458722  0.4060993051307733
  0.4268395739050632  0.4898118559446161  0.4392525956914284
  0.4814734798329638  0.5668086604515707  0.4449681801593854
  0.5668500610430485  0.4870695524984257  0.4779112959909781
  0.4938262479715902  0.4272256013209983  0.4836187508408827
  0.4322457492854852  0.5257523253177467  0.5166694920573462
  0.5179060736165724  0.5656927048159517  0.5216625238537986
  0.5532731183006163  0.4547808584849236  0.5549581223195119
  0.4603839960095684  0.4385346841898468  0.5612319143126498
  0.4556913518811996  0.5553722917853676  0.5936723996729896
  0.5497615170985171  0.5474933889651794  0.5984755559543160
  0.5258464576913937  0.4342668428321446  0.6330757757809877
  0.4368942057681053  0.4658534421715856  0.6383523740933938
  0.5660070077379586  0.5226749109103750  0.6757797728513566
  0.4830328292219832  0.5664534753651722  0.6744106070330886
  0.4920507796275331  0.4842267774691109  0.7047307948531696
 
  0.00000000E+00  0.00000000E+00  0.00000000E+00
  0.00000000E+00  0.00000000E+00  0.00000000E+00
  0.00000000E+00  0.00000000E+00  0.00000000E+00
  0.00000000E+00  0.00000000E+00  0.00000000E+00
  0.00000000E+00  0.00000000E+00  0.00000000E+00
  0.00000000E+00  0.00000000E+00  0.00000000E+00
  0.00000000E+00  0.00000000E+00  0.00000000E+00
  0.00000000E+00  0.00000000E+00  0.00000000E+00
  0.00000000E+00  0.00000000E+00  0.00000000E+00
  0.00000000E+00  0.00000000E+00  0.00000000E+00
  0.00000000E+00  0.00000000E+00  0.00000000E+00
  0.00000000E+00  0.00000000E+00  0.00000000E+00
  0.00000000E+00  0.00000000E+00  0.00000000E+00
  0.00000000E+00  0.00000000E+00  0.00000000E+00
  0.00000000E+00  0.00000000E+00  0.00000000E+00
  0.00000000E+00  0.00000000E+00  0.00000000E+00
  0.00000000E+00  0.00000000E+00  0.00000000E+00
  0.00000000E+00  0.00000000E+00  0.00000000E+00
  0.00000000E+00  0.00000000E+00  0.00000000E+00
  0.00000000E+00  0.00000000E+00  0.00000000E+00
  0.00000000E+00  0.00000000E+00  0.00000000E+00
  0.00000000E+00  0.00000000E+00  0.00000000E+00
  0.00000000E+00  0.00000000E+00  0.00000000E+00
  0.00000000E+00  0.00000000E+00  0.00000000E+00
  0.00000000E+00  0.00000000E+00  0.00000000E+00
  0.00000000E+00  0.00000000E+00  0.00000000E+00
  0.00000000E+00  0.00000000E+00  0.00000000E+00
  0.00000000E+00  0.00000000E+00  0.00000000E+00
  0.00000000E+00  0.00000000E+00  0.00000000E+00
  0.00000000E+00  0.00000000E+00  0.00000000E+00
  0.00000000E+00  0.00000000E+00  0.00000000E+00
  0.00000000E+00  0.00000000E+00  0.00000000E+00
