
     Program PWSCF v.7.4.1 starts on  4Oct2026 at 19:47:11 

     This program is part of the open-source Quantum ESPRESSO suite
     for quantum simulation of materials; please cite
         "P. Giannozzi et al., J. Phys.:Condens. Matter 21 395502 (2009);
         "P. Giannozzi et al., J. Phys.:Condens. Matter 29 465901 (2017);
         "P. Giannozzi et al., J. Chem. Phys. 152 154105 (2020);
          URL http://www.quantum-espresso.org", 
     in publications or presentations arising from this work. More details at
     http://www.quantum-espresso.org/quote

     Parallel version (MPI & OpenMP), running on       1 processor cores
     Number of MPI processes:                 1
     Threads/MPI process:                     1

     MPI processes distributed on     1 nodes
     7502 MiB available memory on the printing compute node when the environment starts
 
     Reading input from pw.in

     Current dimensions of program PWSCF are:
     Max number of different atomic species (ntypx) = 10
     Max number of k-points (npk) =  40000
     Max angular momentum in pseudopotentials (lmaxx) =  4
     Presently no symmetry can be used with electric field

     file C.pbe-n-kjpaw_psl.1.0.0.UPF: wavefunction(s)  2S 2P renormalized
 
     Subspace diagonalization in iterative solution of the eigenvalue problem:
     a serial algorithm will be used

 
     G-vector sticks info
     --------------------
     sticks:   dense  smooth     PW     G-vecs:    dense   smooth      PW
     Sum        3193    1273    367              1071829   271339   42503
 
     Using Slab Decomposition
 


     bravais-lattice index     =            0
     lattice parameter (alat)  =       9.4208  a.u.
     unit-cell volume          =    5351.9954 (a.u.)^3
     number of atoms/cell      =           36
     number of atomic types    =            2
     number of electrons       =       324.00
     number of Kohn-Sham states=          194
     kinetic-energy cutoff     =      52.0000  Ry
     charge density cutoff     =     520.0000  Ry
     scf convergence threshold =      1.0E-08
     mixing beta               =       0.3000
     number of iterations used =            8  local-TF  mixing
     Exchange-correlation= SLA  PW   PBX  PBC
                           (   1   4   3   4   0   0   0)

     GPU acceleration is ACTIVE.  1 visible GPUs per MPI rank


     celldm(1)=   9.420781  celldm(2)=   0.000000  celldm(3)=   0.000000
     celldm(4)=   0.000000  celldm(5)=   0.000000  celldm(6)=   0.000000

     crystal axes: (cart. coord. in units of alat)
               a(1) = (   1.000000  -0.000000   0.000000 )  
               a(2) = (   0.500000   0.866025   0.000000 )  
               a(3) = (   0.000000   0.000000   7.391360 )  

     reciprocal axes: (cart. coord. in units 2 pi/alat)
               b(1) = (  1.000000 -0.577350  0.000000 )  
               b(2) = (  0.000000  1.154701 -0.000000 )  
               b(3) = ( -0.000000  0.000000  0.135293 )  


     PseudoPot. # 1 for Ag read from file:
     /home/kgy/work/pseudo/Ag_ONCV_PBE-1.0.oncvpsp.upf
     MD5 check sum: 94f47bd0669c641108e45594df92fabc
     Pseudo is Norm-conserving, Zval = 19.0
     Generated using ONCVPSP code by D. R. Hamann
     Using radial grid of 1398 points,  6 beta functions with: 
                l(1) =   0
                l(2) =   0
                l(3) =   1
                l(4) =   1
                l(5) =   2
                l(6) =   2

     PseudoPot. # 2 for C  read from file:
     /home/kgy/work/pseudo/C.pbe-n-kjpaw_psl.1.0.0.UPF
     MD5 check sum: 5d2aebdfa2cae82b50a7e79e9516da0f
     Pseudo is Projector augmented-wave + core cor, Zval =  4.0
     Generated using "atomic" code by A. Dal Corso  v.5.1
     Shape of augmentation charge: PSQ
     Using radial grid of 1073 points,  4 beta functions with: 
                l(1) =   0
                l(2) =   0
                l(3) =   1
                l(4) =   1
     Q(r) pseudized with 0 coefficients 


     atomic species   valence    mass     pseudopotential
     Ag               19.00   107.86820     Ag( 1.00)
     C                 4.00    12.01100     C ( 1.00)

     No symmetry found



   Cartesian axes

     site n.     atom                  positions (alat units)
         1        Ag     tau(   1) = (   0.3337695   0.5765948   0.5717001  )
         2        Ag     tau(   2) = (   0.8337695   0.8652699   0.5717001  )
         3        Ag     tau(   3) = (   0.1658131   0.2881628   1.0404978  )
         4        Ag     tau(   4) = (   0.5004501   0.2909658   0.1002956  )
         5        Ag     tau(   5) = (   0.8337695   0.2879196   0.5717001  )
         6        Ag     tau(   6) = (   0.6657286   0.5768865   1.0406295  )
         7        Ag     tau(   7) = (   0.5013979   0.2880440   1.5121792  )
         8        Ag     tau(   8) = (   1.0004501   0.5796409   0.1002956  )
         9        Ag     tau(   9) = (   1.0014376   0.5767316   1.5111335  )
        10        Ag     tau(  10) = (   0.6658079  -0.0004107   1.0405249  )
        11        Ag     tau(  11) = (   1.0004501   0.0022906   0.1002956  )
        12        Ag     tau(  12) = (   1.0014053  -0.0005819   1.5121715  )
        13        C      tau(  13) = (   0.5004501   0.2909658   2.1588612  )
        14        C      tau(  14) = (   0.7504501   0.4353033   2.1596280  )
        15        C      tau(  15) = (   0.7504501   0.7239785   2.1595212  )
        16        C      tau(  16) = (   1.0004501   0.8683160   2.1596269  )
        17        C      tau(  17) = (   1.0004501   0.2909658   2.1595202  )
        18        C      tau(  18) = (   1.2504501   0.4353033   2.1596268  )
        19        C      tau(  19) = (   1.2504501   0.7239785   2.1595215  )
        20        C      tau(  20) = (   1.5004501   0.8683160   2.1590097  )
        21        C      tau(  21) = (   0.7504501   0.4353033   2.8436957  )
        22        C      tau(  22) = (   1.0004501   0.5796409   2.8436374  )
        23        C      tau(  23) = (   1.0004501   0.8683160   2.8436957  )
        24        C      tau(  24) = (   1.2504501   1.0126536   2.8436253  )
        25        C      tau(  25) = (   1.2504501   0.4353033   2.8436957  )
        26        C      tau(  26) = (   1.5004501   0.5796409   2.8436253  )
        27        C      tau(  27) = (   1.5004501   0.8683160   2.8436904  )
        28        C      tau(  28) = (   1.7504501   1.0126536   2.8436253  )
        29        C      tau(  29) = (   0.5004501   0.2909658   3.5247375  )
        30        C      tau(  30) = (   0.7504501   0.4353033   3.5246104  )
        31        C      tau(  31) = (   0.7504501   0.7239785   3.5247390  )
        32        C      tau(  32) = (   1.0004501   0.8683160   3.5246104  )
        33        C      tau(  33) = (   1.0004501   0.2909658   3.5247390  )
        34        C      tau(  34) = (   1.2504501   0.4353033   3.5246104  )
        35        C      tau(  35) = (   1.2504501   0.7239785   3.5247390  )
        36        C      tau(  36) = (   1.5004501   0.8683160   3.5246123  )

     --------------------------------------------
     DFT-D3 Dispersion Correction (no 3-body):
     --------------------------------------------
       Reference C6 values for interpolation: 

         atom   Coordination number   C6
         C          0.000            98.23
         C          0.987            86.49
         C          1.998            58.72
         C          2.999            51.56
         C          3.984            36.41
         Ag         0.000           853.49
         Ag         0.968           537.23

       Values used:

         atom   Coordination number  R0_AB[au]  C6      C8
         Ag         9.096            3.147    537.23  47741.54
         Ag         9.096            3.147    537.23  47741.54
         Ag         9.100            3.147    537.23  47741.54
         Ag         6.766            3.147    537.23  47741.54
         Ag         9.096            3.147    537.23  47741.54
         Ag         9.100            3.147    537.23  47741.54
         Ag         6.853            3.147    537.23  47741.54
         Ag         6.766            3.147    537.23  47741.54
         Ag         6.858            3.147    537.23  47741.54
         Ag         9.100            3.147    537.23  47741.54
         Ag         6.766            3.147    537.23  47741.54
         Ag         6.853            3.147    537.23  47741.54
         C          3.316            2.750     48.24   1395.19
         C          3.304            2.750     48.48   1402.09
         C          3.304            2.750     48.48   1402.16
         C          3.304            2.750     48.48   1402.08
         C          3.304            2.750     48.48   1402.16
         C          3.304            2.750     48.48   1402.09
         C          3.304            2.750     48.48   1402.16
         C          3.316            2.750     48.24   1395.15
         C          3.281            2.750     48.91   1414.56
         C          3.281            2.750     48.92   1414.73
         C          3.281            2.750     48.91   1414.56
         C          3.281            2.750     48.92   1414.73
         C          3.281            2.750     48.91   1414.56
         C          3.281            2.750     48.92   1414.73
         C          3.281            2.750     48.91   1414.56
         C          3.281            2.750     48.92   1414.73
         C          3.274            2.750     49.03   1417.94
         C          3.275            2.750     49.02   1417.85
         C          3.274            2.750     49.03   1417.94
         C          3.275            2.750     49.02   1417.85
         C          3.274            2.750     49.03   1417.94
         C          3.275            2.750     49.02   1417.85
         C          3.274            2.750     49.03   1417.94
         C          3.275            2.750     49.02   1417.85

         Molecular C6 ( Ry / a.u.^6 ) =    198484.90


     number of k points=    20  Marzari-Vanderbilt smearing, width (Ry)=  0.0100
                       cart. coord. in units 2pi/alat
        k(    1) = (   0.0000000   0.0000000   0.0000000), wk =   0.0555556
        k(    2) = (   0.0000000   0.1924501   0.0000000), wk =   0.1111111
        k(    3) = (   0.0000000   0.3849002   0.0000000), wk =   0.1111111
        k(    4) = (   0.0000000  -0.5773503   0.0000000), wk =   0.0555556
        k(    5) = (   0.1666667  -0.0962250   0.0000000), wk =   0.1111111
        k(    6) = (   0.1666667   0.0962250   0.0000000), wk =   0.1111111
        k(    7) = (   0.1666667   0.2886751   0.0000000), wk =   0.1111111
        k(    8) = (   0.1666667  -0.6735753   0.0000000), wk =   0.1111111
        k(    9) = (   0.1666667  -0.4811252   0.0000000), wk =   0.1111111
        k(   10) = (   0.1666667  -0.2886751   0.0000000), wk =   0.1111111
        k(   11) = (   0.3333333  -0.1924501   0.0000000), wk =   0.1111111
        k(   12) = (   0.3333333  -0.0000000   0.0000000), wk =   0.1111111
        k(   13) = (   0.3333333   0.1924501   0.0000000), wk =   0.1111111
        k(   14) = (   0.3333333  -0.7698004   0.0000000), wk =   0.1111111
        k(   15) = (   0.3333333  -0.5773503   0.0000000), wk =   0.1111111
        k(   16) = (   0.3333333  -0.3849002   0.0000000), wk =   0.1111111
        k(   17) = (  -0.5000000   0.2886751   0.0000000), wk =   0.0555556
        k(   18) = (  -0.5000000   0.4811252   0.0000000), wk =   0.1111111
        k(   19) = (  -0.5000000   0.6735753   0.0000000), wk =   0.1111111
        k(   20) = (  -0.5000000  -0.2886751   0.0000000), wk =   0.0555556

     Dense  grid:  1071829 G-vectors     FFT dimensions: (  72,  72, 512)

     Smooth grid:   271339 G-vectors     FFT dimensions: (  45,  45, 320)

     Estimated max dynamical RAM per process >       2.89 GB

     Check: negative core charge=   -0.000002

     Initial potential from superposition of free atoms

     starting charge     323.9955, renormalised to     324.0000

     negative rho (up, down):  2.814E-04 0.000E+00
 
     Adding external electric field

     Computed dipole along edir(3) : 
        Dipole               -0.0065 Ry au,         -0.0164 Debye
        Dipole field         -0.0000 Ry au, 
 
        Potential amp.        0.0021 Ry
        Total length         67.7426 bohr
 
     Starting wfcs are  216 randomized atomic wfcs
     Checking if some PAW data can be deallocated... 

     total cpu time spent up to now is       28.4 secs

     Self-consistent Calculation

     iteration #  1     ecut=    52.00 Ry     beta= 0.30
     Davidson diagonalization with overlap
     ethr =  1.00E-02,  avg # of iterations =  8.3

     negative rho (up, down):  5.174E-07 0.000E+00
 
     Adding external electric field

     Computed dipole along edir(3) : 
        Dipole               -0.1819 Ry au,         -0.4623 Debye
        Dipole field         -0.0004 Ry au, 
 
        Potential amp.        0.0579 Ry
        Total length         67.7426 bohr
 

     total cpu time spent up to now is      119.3 secs

     total energy              =   -3891.66230427 Ry
     estimated scf accuracy    <       3.41137249 Ry

     iteration #  2     ecut=    52.00 Ry     beta= 0.30
     Davidson diagonalization with overlap
     ethr =  1.05E-03,  avg # of iterations =  1.9

     negative rho (up, down):  2.897E-07 0.000E+00
 
     Adding external electric field

     Computed dipole along edir(3) : 
        Dipole               -0.5475 Ry au,         -1.3916 Debye
        Dipole field         -0.0013 Ry au, 
 
        Potential amp.        0.1742 Ry
        Total length         67.7426 bohr
 

     total cpu time spent up to now is      180.8 secs

     total energy              =   -3891.10388160 Ry
     estimated scf accuracy    <       1.75036678 Ry

     iteration #  3     ecut=    52.00 Ry     beta= 0.30
     Davidson diagonalization with overlap
     ethr =  5.40E-04,  avg # of iterations = 11.2

     negative rho (up, down):  3.929E-08 0.000E+00
 
     Adding external electric field

     Computed dipole along edir(3) : 
        Dipole               -0.7305 Ry au,         -1.8567 Debye
        Dipole field         -0.0017 Ry au, 
 
        Potential amp.        0.2324 Ry
        Total length         67.7426 bohr
 

     total cpu time spent up to now is      270.3 secs

     total energy              =   -3891.15809964 Ry
     estimated scf accuracy    <       0.55734351 Ry

     iteration #  4     ecut=    52.00 Ry     beta= 0.30
     Davidson diagonalization with overlap
     ethr =  1.72E-04,  avg # of iterations =  5.2

     negative rho (up, down):  8.765E-08 0.000E+00
 
     Adding external electric field

     Computed dipole along edir(3) : 
        Dipole               -1.0980 Ry au,         -2.7908 Debye
        Dipole field         -0.0026 Ry au, 
 
        Potential amp.        0.3493 Ry
        Total length         67.7426 bohr
 

     total cpu time spent up to now is      340.9 secs

     total energy              =   -3891.15729452 Ry
     estimated scf accuracy    <       0.54129462 Ry

     iteration #  5     ecut=    52.00 Ry     beta= 0.30
     Davidson diagonalization with overlap
     ethr =  1.67E-04,  avg # of iterations =  2.9

     negative rho (up, down):  3.740E-08 0.000E+00
 
     Adding external electric field

     Computed dipole along edir(3) : 
        Dipole               -1.3355 Ry au,         -3.3944 Debye
        Dipole field         -0.0031 Ry au, 
 
        Potential amp.        0.4248 Ry
        Total length         67.7426 bohr
 

     total cpu time spent up to now is      404.0 secs

     total energy              =   -3891.13376163 Ry
     estimated scf accuracy    <       0.42606903 Ry

     iteration #  6     ecut=    52.00 Ry     beta= 0.30
     Davidson diagonalization with overlap
     ethr =  1.32E-04,  avg # of iterations =  8.2
 
     Adding external electric field

     Computed dipole along edir(3) : 
        Dipole               -1.1606 Ry au,         -2.9499 Debye
        Dipole field         -0.0027 Ry au, 
 
        Potential amp.        0.3692 Ry
        Total length         67.7426 bohr
 

     total cpu time spent up to now is      482.5 secs

     total energy              =   -3891.13055355 Ry
     estimated scf accuracy    <       1.05926939 Ry

     iteration #  7     ecut=    52.00 Ry     beta= 0.30
     Davidson diagonalization with overlap
     ethr =  1.32E-04,  avg # of iterations =  2.6
 
     Adding external electric field

     Computed dipole along edir(3) : 
        Dipole               -1.4205 Ry au,         -3.6105 Debye
        Dipole field         -0.0033 Ry au, 
 
        Potential amp.        0.4519 Ry
        Total length         67.7426 bohr
 

     total cpu time spent up to now is      545.2 secs

     total energy              =   -3891.11663324 Ry
     estimated scf accuracy    <       3.24816046 Ry

     iteration #  8     ecut=    52.00 Ry     beta= 0.30
     Davidson diagonalization with overlap
     ethr =  1.32E-04,  avg # of iterations =  3.4
 
     Adding external electric field

     Computed dipole along edir(3) : 
        Dipole               -1.2648 Ry au,         -3.2147 Debye
        Dipole field         -0.0030 Ry au, 
 
        Potential amp.        0.4023 Ry
        Total length         67.7426 bohr
 

     total cpu time spent up to now is      610.8 secs

     total energy              =   -3891.10699204 Ry
     estimated scf accuracy    <       2.14982124 Ry

     iteration #  9     ecut=    52.00 Ry     beta= 0.30
     Davidson diagonalization with overlap
     ethr =  1.32E-04,  avg # of iterations =  1.0
 
     Adding external electric field

     Computed dipole along edir(3) : 
        Dipole               -1.1305 Ry au,         -2.8734 Debye
        Dipole field         -0.0027 Ry au, 
 
        Potential amp.        0.3596 Ry
        Total length         67.7426 bohr
 

     total cpu time spent up to now is      667.4 secs

     total energy              =   -3891.10804894 Ry
     estimated scf accuracy    <       0.19608086 Ry

     iteration # 10     ecut=    52.00 Ry     beta= 0.30
     Davidson diagonalization with overlap
     ethr =  6.05E-05,  avg # of iterations =  4.3
 
     Adding external electric field

     Computed dipole along edir(3) : 
        Dipole               -1.0271 Ry au,         -2.6107 Debye
        Dipole field         -0.0024 Ry au, 
 
        Potential amp.        0.3267 Ry
        Total length         67.7426 bohr
 

     total cpu time spent up to now is      735.2 secs

     total energy              =   -3891.10629815 Ry
     estimated scf accuracy    <       0.16078347 Ry

     iteration # 11     ecut=    52.00 Ry     beta= 0.30
     Davidson diagonalization with overlap
     ethr =  4.96E-05,  avg # of iterations =  3.0
 
     Adding external electric field

     Computed dipole along edir(3) : 
        Dipole               -0.9865 Ry au,         -2.5073 Debye
        Dipole field         -0.0023 Ry au, 
 
        Potential amp.        0.3138 Ry
        Total length         67.7426 bohr
 

     total cpu time spent up to now is      799.0 secs

     total energy              =   -3891.10489436 Ry
     estimated scf accuracy    <       0.15992300 Ry

     iteration # 12     ecut=    52.00 Ry     beta= 0.30
     Davidson diagonalization with overlap
     ethr =  4.94E-05,  avg # of iterations =  1.2
 
     Adding external electric field

     Computed dipole along edir(3) : 
        Dipole               -0.7474 Ry au,         -1.8997 Debye
        Dipole field         -0.0018 Ry au, 
 
        Potential amp.        0.2378 Ry
        Total length         67.7426 bohr
 

     total cpu time spent up to now is      856.0 secs

     total energy              =   -3891.09769633 Ry
     estimated scf accuracy    <       0.14602210 Ry

     iteration # 13     ecut=    52.00 Ry     beta= 0.30
     Davidson diagonalization with overlap
     ethr =  4.51E-05,  avg # of iterations =  9.4
 
     Adding external electric field

     Computed dipole along edir(3) : 
        Dipole               -0.7845 Ry au,         -1.9940 Debye
        Dipole field         -0.0018 Ry au, 
 
        Potential amp.        0.2496 Ry
        Total length         67.7426 bohr
 

     total cpu time spent up to now is      938.1 secs

     total energy              =   -3891.10068454 Ry
     estimated scf accuracy    <       0.03316712 Ry

     iteration # 14     ecut=    52.00 Ry     beta= 0.30
     Davidson diagonalization with overlap
     c_bands:  1 eigenvalues not converged
     c_bands:  1 eigenvalues not converged
     c_bands:  1 eigenvalues not converged
     ethr =  1.02E-05,  avg # of iterations =  5.8

     negative rho (up, down):  1.146E-04 0.000E+00
 
     Adding external electric field

     Computed dipole along edir(3) : 
        Dipole               -0.7260 Ry au,         -1.8454 Debye
        Dipole field         -0.0017 Ry au, 
 
        Potential amp.        0.2310 Ry
        Total length         67.7426 bohr
 

     total cpu time spent up to now is     1010.8 secs

     total energy              =   -3891.09843457 Ry
     estimated scf accuracy    <       0.03988143 Ry

     iteration # 15     ecut=    52.00 Ry     beta= 0.30
     Davidson diagonalization with overlap
     c_bands:  1 eigenvalues not converged
     c_bands:  1 eigenvalues not converged
     c_bands:  1 eigenvalues not converged
     c_bands:  1 eigenvalues not converged
     ethr =  1.02E-05,  avg # of iterations =  9.7

     negative rho (up, down):  5.561E-04 0.000E+00
 
     Adding external electric field

     Computed dipole along edir(3) : 
        Dipole               -0.6861 Ry au,         -1.7440 Debye
        Dipole field         -0.0016 Ry au, 
 
        Potential amp.        0.2183 Ry
        Total length         67.7426 bohr
 

     total cpu time spent up to now is     1092.7 secs

     total energy              =   -3891.09812099 Ry
     estimated scf accuracy    <       0.06156789 Ry

     iteration # 16     ecut=    52.00 Ry     beta= 0.30
     Davidson diagonalization with overlap
     ethr =  1.02E-05,  avg # of iterations =  6.6

     negative rho (up, down):  8.416E-03 0.000E+00
 
     Adding external electric field

     Computed dipole along edir(3) : 
        Dipole               -0.4791 Ry au,         -1.2178 Debye
        Dipole field         -0.0011 Ry au, 
 
        Potential amp.        0.1524 Ry
        Total length         67.7426 bohr
 

     total cpu time spent up to now is     1168.7 secs

     total energy              =   -3891.09477448 Ry
     estimated scf accuracy    <       0.08731387 Ry

     iteration # 17     ecut=    52.00 Ry     beta= 0.30
     Davidson diagonalization with overlap
     ethr =  1.02E-05,  avg # of iterations =  9.6

     negative rho (up, down):  1.391E-02 0.000E+00
 
     Adding external electric field

     Computed dipole along edir(3) : 
        Dipole               -0.4161 Ry au,         -1.0576 Debye
        Dipole field         -0.0010 Ry au, 
 
        Potential amp.        0.1324 Ry
        Total length         67.7426 bohr
 

     total cpu time spent up to now is     1251.9 secs

     total energy              =   -3891.09441360 Ry
     estimated scf accuracy    <       0.03478076 Ry

     iteration # 18     ecut=    52.00 Ry     beta= 0.30
     Davidson diagonalization with overlap
     ethr =  1.02E-05,  avg # of iterations =  9.4

     negative rho (up, down):  3.391E-02 0.000E+00
 
     Adding external electric field

     Computed dipole along edir(3) : 
        Dipole               -0.1087 Ry au,         -0.2762 Debye
        Dipole field         -0.0003 Ry au, 
 
        Potential amp.        0.0346 Ry
        Total length         67.7426 bohr
 

     total cpu time spent up to now is     1335.2 secs

     total energy              =   -3891.09351214 Ry
     estimated scf accuracy    <       0.13460873 Ry

     iteration # 19     ecut=    52.00 Ry     beta= 0.30
     Davidson diagonalization with overlap
     ethr =  1.02E-05,  avg # of iterations =  9.8

     negative rho (up, down):  3.161E-02 0.000E+00
 
     Adding external electric field

     Computed dipole along edir(3) : 
        Dipole                0.0659 Ry au,          0.1674 Debye
        Dipole field          0.0002 Ry au, 
 
        Potential amp.       -0.0210 Ry
        Total length         67.7426 bohr
 

     total cpu time spent up to now is     1421.6 secs

     total energy              =   -3891.09273458 Ry
     estimated scf accuracy    <       0.07505966 Ry

     iteration # 20     ecut=    52.00 Ry     beta= 0.30
     Davidson diagonalization with overlap
     ethr =  1.02E-05,  avg # of iterations =  9.2

     negative rho (up, down):  9.938E-03 0.000E+00
 
     Adding external electric field

     Computed dipole along edir(3) : 
        Dipole                0.0230 Ry au,          0.0586 Debye
        Dipole field          0.0001 Ry au, 
 
        Potential amp.       -0.0073 Ry
        Total length         67.7426 bohr
 

     total cpu time spent up to now is     1503.6 secs

     total energy              =   -3891.09074822 Ry
     estimated scf accuracy    <       0.03973042 Ry

     iteration # 21     ecut=    52.00 Ry     beta= 0.30
     Davidson diagonalization with overlap
     ethr =  1.02E-05,  avg # of iterations =  9.3

     negative rho (up, down):  1.374E-02 0.000E+00
 
     Adding external electric field

     Computed dipole along edir(3) : 
        Dipole                0.1525 Ry au,          0.3877 Debye
        Dipole field          0.0004 Ry au, 
 
        Potential amp.       -0.0485 Ry
        Total length         67.7426 bohr
 

     total cpu time spent up to now is     1586.1 secs

     total energy              =   -3891.09114522 Ry
     estimated scf accuracy    <       0.00701769 Ry

     iteration # 22     ecut=    52.00 Ry     beta= 0.30
     Davidson diagonalization with overlap
     c_bands:  1 eigenvalues not converged
     c_bands:  1 eigenvalues not converged
     ethr =  2.17E-06,  avg # of iterations = 13.1

     negative rho (up, down):  3.690E-03 0.000E+00
 
     Adding external electric field

     Computed dipole along edir(3) : 
        Dipole               -0.0548 Ry au,         -0.1393 Debye
        Dipole field         -0.0001 Ry au, 
 
        Potential amp.        0.0174 Ry
        Total length         67.7426 bohr
 

     total cpu time spent up to now is     1681.0 secs

     total energy              =   -3891.09070832 Ry
     estimated scf accuracy    <       0.00319604 Ry

     iteration # 23     ecut=    52.00 Ry     beta= 0.30
     Davidson diagonalization with overlap
     c_bands:  2 eigenvalues not converged
     c_bands:  1 eigenvalues not converged
     c_bands:  1 eigenvalues not converged
     c_bands:  2 eigenvalues not converged
     c_bands:  1 eigenvalues not converged
     c_bands:  2 eigenvalues not converged
     ethr =  9.86E-07,  avg # of iterations = 13.2

     negative rho (up, down):  3.777E-03 0.000E+00
 
     Adding external electric field

     Computed dipole along edir(3) : 
        Dipole               -0.0192 Ry au,         -0.0488 Debye
        Dipole field         -0.0000 Ry au, 
 
        Potential amp.        0.0061 Ry
        Total length         67.7426 bohr
 

     total cpu time spent up to now is     1776.9 secs

     total energy              =   -3891.09112778 Ry
     estimated scf accuracy    <       0.01141918 Ry

     iteration # 24     ecut=    52.00 Ry     beta= 0.30
     Davidson diagonalization with overlap
     ethr =  9.86E-07,  avg # of iterations =  7.2

     negative rho (up, down):  3.619E-03 0.000E+00
 
     Adding external electric field

     Computed dipole along edir(3) : 
        Dipole               -0.0378 Ry au,         -0.0960 Debye
        Dipole field         -0.0001 Ry au, 
 
        Potential amp.        0.0120 Ry
        Total length         67.7426 bohr
 

     total cpu time spent up to now is     1854.7 secs

     total energy              =   -3891.09117522 Ry
     estimated scf accuracy    <       0.00948443 Ry

     iteration # 25     ecut=    52.00 Ry     beta= 0.30
     Davidson diagonalization with overlap
     ethr =  9.86E-07,  avg # of iterations =  3.8

     negative rho (up, down):  3.647E-03 0.000E+00
 
     Adding external electric field

     Computed dipole along edir(3) : 
        Dipole                0.0002 Ry au,          0.0005 Debye
        Dipole field          0.0000 Ry au, 
 
        Potential amp.       -0.0001 Ry
        Total length         67.7426 bohr
 

     total cpu time spent up to now is     1922.5 secs

     total energy              =   -3891.09106752 Ry
     estimated scf accuracy    <       0.01060423 Ry

     iteration # 26     ecut=    52.00 Ry     beta= 0.30
     Davidson diagonalization with overlap
     ethr =  9.86E-07,  avg # of iterations =  4.8

     negative rho (up, down):  4.957E-03 0.000E+00
 
     Adding external electric field

     Computed dipole along edir(3) : 
        Dipole                0.0729 Ry au,          0.1854 Debye
        Dipole field          0.0002 Ry au, 
 
        Potential amp.       -0.0232 Ry
        Total length         67.7426 bohr
 

     total cpu time spent up to now is     1992.0 secs

     total energy              =   -3891.09084197 Ry
     estimated scf accuracy    <       0.01019371 Ry

     iteration # 27     ecut=    52.00 Ry     beta= 0.30
     Davidson diagonalization with overlap
     ethr =  9.86E-07,  avg # of iterations = 10.7

     negative rho (up, down):  5.288E-03 0.000E+00
 
     Adding external electric field

     Computed dipole along edir(3) : 
        Dipole                0.0637 Ry au,          0.1620 Debye
        Dipole field          0.0001 Ry au, 
 
        Potential amp.       -0.0203 Ry
        Total length         67.7426 bohr
 

     total cpu time spent up to now is     2076.3 secs

     total energy              =   -3891.09091895 Ry
     estimated scf accuracy    <       0.00122560 Ry

     iteration # 28     ecut=    52.00 Ry     beta= 0.30
     Davidson diagonalization with overlap
     ethr =  3.78E-07,  avg # of iterations =  5.2

     negative rho (up, down):  6.412E-03 0.000E+00
 
     Adding external electric field

     Computed dipole along edir(3) : 
        Dipole                0.0730 Ry au,          0.1856 Debye
        Dipole field          0.0002 Ry au, 
 
        Potential amp.       -0.0232 Ry
        Total length         67.7426 bohr
 

     total cpu time spent up to now is     2143.2 secs

     total energy              =   -3891.09093762 Ry
     estimated scf accuracy    <       0.00161049 Ry

     iteration # 29     ecut=    52.00 Ry     beta= 0.30
     Davidson diagonalization with overlap
     ethr =  3.78E-07,  avg # of iterations =  3.3

     negative rho (up, down):  6.257E-03 0.000E+00
 
     Adding external electric field

     Computed dipole along edir(3) : 
        Dipole                0.0716 Ry au,          0.1819 Debye
        Dipole field          0.0002 Ry au, 
 
        Potential amp.       -0.0228 Ry
        Total length         67.7426 bohr
 

     total cpu time spent up to now is     2203.6 secs

     total energy              =   -3891.09094585 Ry
     estimated scf accuracy    <       0.00061690 Ry

     iteration # 30     ecut=    52.00 Ry     beta= 0.30
     Davidson diagonalization with overlap
     ethr =  1.90E-07,  avg # of iterations =  1.0

     negative rho (up, down):  6.830E-03 0.000E+00
 
     Adding external electric field

     Computed dipole along edir(3) : 
        Dipole                0.0790 Ry au,          0.2008 Debye
        Dipole field          0.0002 Ry au, 
 
        Potential amp.       -0.0251 Ry
        Total length         67.7426 bohr
 

     total cpu time spent up to now is     2255.8 secs

     total energy              =   -3891.09096591 Ry
     estimated scf accuracy    <       0.00064728 Ry

     iteration # 31     ecut=    52.00 Ry     beta= 0.30
     Davidson diagonalization with overlap
     ethr =  1.90E-07,  avg # of iterations =  2.6

     negative rho (up, down):  4.809E-03 0.000E+00
 
     Adding external electric field

     Computed dipole along edir(3) : 
        Dipole                0.0641 Ry au,          0.1628 Debye
        Dipole field          0.0002 Ry au, 
 
        Potential amp.       -0.0204 Ry
        Total length         67.7426 bohr
 

     total cpu time spent up to now is     2315.0 secs

     total energy              =   -3891.09083853 Ry
     estimated scf accuracy    <       0.00057816 Ry

     iteration # 32     ecut=    52.00 Ry     beta= 0.30
     Davidson diagonalization with overlap
     ethr =  1.78E-07,  avg # of iterations =  7.8

     negative rho (up, down):  3.911E-03 0.000E+00
 
     Adding external electric field

     Computed dipole along edir(3) : 
        Dipole                0.0472 Ry au,          0.1199 Debye
        Dipole field          0.0001 Ry au, 
 
        Potential amp.       -0.0150 Ry
        Total length         67.7426 bohr
 

     total cpu time spent up to now is     2389.4 secs

     total energy              =   -3891.09082682 Ry
     estimated scf accuracy    <       0.00012985 Ry

     iteration # 33     ecut=    52.00 Ry     beta= 0.30
     Davidson diagonalization with overlap
     ethr =  4.01E-08,  avg # of iterations =  5.0

     negative rho (up, down):  3.533E-03 0.000E+00
 
     Adding external electric field

     Computed dipole along edir(3) : 
        Dipole                0.0453 Ry au,          0.1150 Debye
        Dipole field          0.0001 Ry au, 
 
        Potential amp.       -0.0144 Ry
        Total length         67.7426 bohr
 

     total cpu time spent up to now is     2458.8 secs

     total energy              =   -3891.09082601 Ry
     estimated scf accuracy    <       0.00024716 Ry

     iteration # 34     ecut=    52.00 Ry     beta= 0.30
     Davidson diagonalization with overlap
     ethr =  4.01E-08,  avg # of iterations =  1.4

     negative rho (up, down):  2.533E-03 0.000E+00
 
     Adding external electric field

     Computed dipole along edir(3) : 
        Dipole                0.0337 Ry au,          0.0856 Debye
        Dipole field          0.0001 Ry au, 
 
        Potential amp.       -0.0107 Ry
        Total length         67.7426 bohr
 

     total cpu time spent up to now is     2518.4 secs

     total energy              =   -3891.09080761 Ry
     estimated scf accuracy    <       0.00011328 Ry

     iteration # 35     ecut=    52.00 Ry     beta= 0.30
     Davidson diagonalization with overlap
     ethr =  3.50E-08,  avg # of iterations =  8.2

     negative rho (up, down):  1.564E-03 0.000E+00
 
     Adding external electric field

     Computed dipole along edir(3) : 
        Dipole                0.0252 Ry au,          0.0640 Debye
        Dipole field          0.0001 Ry au, 
 
        Potential amp.       -0.0080 Ry
        Total length         67.7426 bohr
 

     total cpu time spent up to now is     2598.0 secs

     total energy              =   -3891.09079211 Ry
     estimated scf accuracy    <       0.00002360 Ry

     iteration # 36     ecut=    52.00 Ry     beta= 0.30
     Davidson diagonalization with overlap
     ethr =  7.28E-09,  avg # of iterations =  7.0

     negative rho (up, down):  1.680E-03 0.000E+00
 
     Adding external electric field

     Computed dipole along edir(3) : 
        Dipole                0.0263 Ry au,          0.0668 Debye
        Dipole field          0.0001 Ry au, 
 
        Potential amp.       -0.0084 Ry
        Total length         67.7426 bohr
 

     total cpu time spent up to now is     2677.6 secs

     total energy              =   -3891.09079194 Ry
     estimated scf accuracy    <       0.00001735 Ry

     iteration # 37     ecut=    52.00 Ry     beta= 0.30
     Davidson diagonalization with overlap
     ethr =  5.36E-09,  avg # of iterations =  2.5

     negative rho (up, down):  1.440E-03 0.000E+00
 
     Adding external electric field

     Computed dipole along edir(3) : 
        Dipole                0.0229 Ry au,          0.0581 Debye
        Dipole field          0.0001 Ry au, 
 
        Potential amp.       -0.0073 Ry
        Total length         67.7426 bohr
 

     total cpu time spent up to now is     2741.9 secs

     total energy              =   -3891.09078886 Ry
     estimated scf accuracy    <       0.00004719 Ry

     iteration # 38     ecut=    52.00 Ry     beta= 0.30
     Davidson diagonalization with overlap
     ethr =  5.36E-09,  avg # of iterations =  3.0

     negative rho (up, down):  6.431E-04 0.000E+00
 
     Adding external electric field

     Computed dipole along edir(3) : 
        Dipole                0.0126 Ry au,          0.0319 Debye
        Dipole field          0.0000 Ry au, 
 
        Potential amp.       -0.0040 Ry
        Total length         67.7426 bohr
 

     total cpu time spent up to now is     2807.9 secs

     total energy              =   -3891.09078069 Ry
     estimated scf accuracy    <       0.00004011 Ry

     iteration # 39     ecut=    52.00 Ry     beta= 0.30
     Davidson diagonalization with overlap
     ethr =  5.36E-09,  avg # of iterations =  5.3

     negative rho (up, down):  4.942E-04 0.000E+00
 
     Adding external electric field

     Computed dipole along edir(3) : 
        Dipole                0.0098 Ry au,          0.0248 Debye
        Dipole field          0.0000 Ry au, 
 
        Potential amp.       -0.0031 Ry
        Total length         67.7426 bohr
 

     total cpu time spent up to now is     2879.8 secs

     total energy              =   -3891.09078087 Ry
     estimated scf accuracy    <       0.00000390 Ry

     iteration # 40     ecut=    52.00 Ry     beta= 0.30
     Davidson diagonalization with overlap
     ethr =  1.20E-09,  avg # of iterations =  2.0

     negative rho (up, down):  3.257E-04 0.000E+00
 
     Adding external electric field

     Computed dipole along edir(3) : 
        Dipole                0.0083 Ry au,          0.0210 Debye
        Dipole field          0.0000 Ry au, 
 
        Potential amp.       -0.0026 Ry
        Total length         67.7426 bohr
 

     total cpu time spent up to now is     2942.4 secs

     total energy              =   -3891.09078076 Ry
     estimated scf accuracy    <       0.00000167 Ry

     iteration # 41     ecut=    52.00 Ry     beta= 0.30
     Davidson diagonalization with overlap
     ethr =  5.16E-10,  avg # of iterations =  2.0

     negative rho (up, down):  3.103E-04 0.000E+00
 
     Adding external electric field

     Computed dipole along edir(3) : 
        Dipole                0.0079 Ry au,          0.0201 Debye
        Dipole field          0.0000 Ry au, 
 
        Potential amp.       -0.0025 Ry
        Total length         67.7426 bohr
 

     total cpu time spent up to now is     3003.8 secs

     total energy              =   -3891.09078084 Ry
     estimated scf accuracy    <       0.00000029 Ry

     iteration # 42     ecut=    52.00 Ry     beta= 0.30
     Davidson diagonalization with overlap
     ethr =  8.86E-11,  avg # of iterations =  2.0

     negative rho (up, down):  3.192E-04 0.000E+00
 
     Adding external electric field

     Computed dipole along edir(3) : 
        Dipole                0.0082 Ry au,          0.0208 Debye
        Dipole field          0.0000 Ry au, 
 
        Potential amp.       -0.0026 Ry
        Total length         67.7426 bohr
 

     total cpu time spent up to now is     3066.2 secs

     total energy              =   -3891.09078082 Ry
     estimated scf accuracy    <       0.00000008 Ry

     iteration # 43     ecut=    52.00 Ry     beta= 0.30
     Davidson diagonalization with overlap
     ethr =  2.54E-11,  avg # of iterations =  2.5

     negative rho (up, down):  3.125E-04 0.000E+00
 
     Adding external electric field

     Computed dipole along edir(3) : 
        Dipole                0.0081 Ry au,          0.0205 Debye
        Dipole field          0.0000 Ry au, 
 
        Potential amp.       -0.0026 Ry
        Total length         67.7426 bohr
 

     total cpu time spent up to now is     3131.7 secs

     total energy              =   -3891.09078082 Ry
     estimated scf accuracy    <       0.00000006 Ry

     iteration # 44     ecut=    52.00 Ry     beta= 0.30
     Davidson diagonalization with overlap
     ethr =  1.98E-11,  avg # of iterations =  2.0

     negative rho (up, down):  3.091E-04 0.000E+00
 
     Adding external electric field

     Computed dipole along edir(3) : 
        Dipole                0.0079 Ry au,          0.0201 Debye
        Dipole field          0.0000 Ry au, 
 
        Potential amp.       -0.0025 Ry
        Total length         67.7426 bohr
 

     total cpu time spent up to now is     3193.6 secs

     total energy              =   -3891.09078083 Ry
     estimated scf accuracy    <       0.00000003 Ry

     iteration # 45     ecut=    52.00 Ry     beta= 0.30
     Davidson diagonalization with overlap
     ethr =  7.98E-12,  avg # of iterations =  1.0

     negative rho (up, down):  3.165E-04 0.000E+00
 
     Adding external electric field

     Computed dipole along edir(3) : 
        Dipole                0.0077 Ry au,          0.0194 Debye
        Dipole field          0.0000 Ry au, 
 
        Potential amp.       -0.0024 Ry
        Total length         67.7426 bohr
 

     total cpu time spent up to now is     3247.8 secs

     End of self-consistent calculation

          k = 0.0000 0.0000 0.0000 ( 33915 PWs)   bands (ev):

   -87.6488 -87.6383 -87.6320 -87.6319 -87.6277 -87.6277 -87.4891 -87.4764
   -87.4739 -87.4262 -87.4128 -87.4127 -51.1589 -51.1326 -51.1325 -51.1316
   -51.1315 -51.1301 -51.1300 -51.1044 -51.1043 -51.0803 -51.0803 -51.0764
   -51.0764 -51.0738 -51.0313 -51.0310 -51.0172 -51.0169 -50.9724 -50.9723
   -50.9680 -50.9680 -50.9121 -50.9088 -50.9088 -50.9065 -50.9065 -50.9024
   -50.8996 -50.8819 -50.8817 -50.8464 -50.8345 -50.8344 -50.8188 -50.8183
   -15.0107 -14.8397 -14.7067  -9.8995  -9.8877  -9.8877  -9.7179  -9.7178
    -9.7178  -9.6588  -9.6588  -9.6588  -8.7608  -8.7544  -8.7544  -8.5786
    -8.5784  -8.5784  -8.5300  -8.5300  -8.5300  -3.6937  -3.1584  -2.9510
    -2.3479  -2.0723  -2.0483  -2.0483  -2.0415  -1.8699  -1.8699  -1.8699
    -1.8325  -1.8325  -1.8325  -1.8275  -1.6666  -1.1946  -1.1940  -1.1808
    -1.1798  -1.1762  -1.1754  -0.8385  -0.8385  -0.8263  -0.8263  -0.6431
    -0.6420  -0.6180  -0.6176  -0.3895  -0.3336  -0.3328  -0.2864  -0.2848
    -0.2358  -0.2353  -0.2113  -0.2110  -0.1936  -0.0942  -0.0932  -0.0153
    -0.0128   0.0171   0.0177   0.0606   0.0614   0.1259   0.1259   0.1459
     0.1459   0.5600   0.5629   0.6762   0.6782   0.6783   0.6796   0.7224
     0.7224   0.8123   0.8278   1.0181   1.0892   1.1291   1.1507   1.1574
     1.2365   1.2366   1.2595   1.2825   1.3405   1.3408   1.3547   1.3550
     1.4101   1.4149   1.4149   1.4179   1.4433   1.4434   1.8352   1.8353
     1.8591   2.0906   2.0906   2.0979   2.3447   2.3448   2.3448   3.6241
     4.8891   5.7597   5.8169   5.8170   6.0396   6.0477   6.0477   6.3722
     6.3787   6.3787   7.8849   7.8879   8.0798   8.0801   8.0908   8.0910
     8.1041   8.4843   8.8635   8.8658   8.8810   8.8825   8.8838   9.2726
     9.2842   9.3875  10.0025  10.2713  10.5393  10.5440  10.5471  10.5517
    10.8216  10.8431

          k = 0.0000 0.1925 0.0000 ( 33843 PWs)   bands (ev):

   -87.6475 -87.6374 -87.6328 -87.6325 -87.6281 -87.6280 -87.4880 -87.4769
   -87.4744 -87.4251 -87.4134 -87.4131 -51.1558 -51.1499 -51.1441 -51.1427
   -51.1378 -51.1139 -51.1073 -51.0965 -51.0920 -51.0818 -51.0760 -51.0756
   -51.0731 -51.0704 -51.0404 -51.0352 -51.0282 -51.0198 -50.9884 -50.9833
   -50.9485 -50.9460 -50.9265 -50.9211 -50.9113 -50.9027 -50.9000 -50.8930
   -50.8857 -50.8846 -50.8830 -50.8454 -50.8350 -50.8348 -50.8297 -50.8215
   -14.8492 -14.6785 -14.5466 -11.1017 -10.9331 -10.8301 -10.2627 -10.2558
   -10.0903 -10.0900  -9.9993  -9.9993  -8.1414  -8.1366  -7.9686  -7.9684
    -7.8925  -7.8925  -7.3231  -7.1533  -7.0758  -3.4977  -2.9568  -2.7116
    -2.5271  -2.5222  -2.3493  -2.3493  -2.3075  -2.3075  -2.1583  -1.8880
    -1.8589  -1.7118  -1.6746  -1.6475  -1.4804  -1.4765  -1.3463  -1.2927
    -1.2834  -1.2067  -1.0750  -0.9835  -0.9019  -0.8846  -0.8453  -0.7955
    -0.6982  -0.6742  -0.6677  -0.5010  -0.4212  -0.3980  -0.3320  -0.2902
    -0.2021  -0.1873  -0.1856  -0.1638  -0.1240  -0.1140  -0.1042  -0.0593
    -0.0492   0.0292   0.0385   0.1091   0.1117   0.1703   0.3014   0.3947
     0.4320   0.4528   0.4854   0.5858   0.5922   0.6072   0.6779   0.6881
     0.7622   0.7697   0.7824   0.7863   0.7887   0.8011   0.9097   0.9519
     0.9647   1.0110   1.0869   1.0899   1.1014   1.1170   1.1454   1.2120
     1.2867   1.3547   1.3926   1.4105   1.4395   1.4889   1.5569   1.6609
     1.6947   1.7865   1.8418   1.9891   2.0035   2.3554   2.3559   3.9742
     5.3364   5.3996   6.0153   6.0307   6.2012   6.2897   6.2914   6.4898
     6.6486   6.6501   6.7792   6.8466   7.0718   7.4201   7.4896   7.6950
     7.8830   8.3216   8.7003   9.1009   9.1894   9.3808   9.5839   9.7053
     9.8293   9.9758  10.2077  10.4582  10.7550  10.8462  10.8667  10.9729
    11.4027  11.4315

          k = 0.0000 0.3849 0.0000 ( 33899 PWs)   bands (ev):

   -87.6441 -87.6356 -87.6350 -87.6335 -87.6296 -87.6285 -87.4855 -87.4783
   -87.4756 -87.4223 -87.4154 -87.4139 -51.1631 -51.1552 -51.1476 -51.1412
   -51.1340 -51.1082 -51.0987 -51.0873 -51.0855 -51.0756 -51.0714 -51.0699
   -51.0612 -51.0594 -51.0564 -51.0561 -51.0418 -51.0287 -51.0005 -50.9779
   -50.9392 -50.9269 -50.9241 -50.9210 -50.9156 -50.9091 -50.9035 -50.9010
   -50.8934 -50.8638 -50.8601 -50.8585 -50.8427 -50.8368 -50.8356 -50.8304
   -14.3667 -14.1965 -14.0681 -12.4694 -12.3005 -12.1861 -10.6620 -10.6555
   -10.4904 -10.4900 -10.3908 -10.3907  -7.0134  -7.0086  -6.8404  -6.8403
    -6.7693  -6.7693  -5.2632  -5.0923  -5.0260  -3.6503  -3.6448  -3.4734
    -3.4733  -3.4239  -3.4239  -2.9172  -2.3767  -2.0711  -1.7243  -1.6241
    -1.6181  -1.6051  -1.4276  -1.3838  -1.3426  -1.3219  -1.3098  -1.2512
    -1.2269  -1.2148  -1.1578  -1.1464  -1.0973  -1.0266  -1.0031  -0.9203
    -0.8507  -0.8335  -0.8103  -0.7909  -0.7550  -0.6795  -0.6482  -0.6142
    -0.5856  -0.4901  -0.3868  -0.3687  -0.3301  -0.2918  -0.2214  -0.2104
    -0.1781  -0.1481  -0.0697   0.0453   0.0488   0.0769   0.1402   0.1718
     0.1750   0.1878   0.2246   0.2416   0.3178   0.3508   0.3789   0.3882
     0.4401   0.4667   0.4940   0.6275   0.6310   0.7156   0.7785   0.8315
     0.8436   0.8825   0.9528   1.0065   1.0846   1.1708   1.2215   1.2460
     1.2819   1.3667   1.3945   1.4175   1.4231   1.4648   1.4939   1.5001
     1.5710   1.5950   1.8120   1.8499   2.2990   2.3021   2.5853   3.1106
     3.8395   4.8028   5.1893   5.3643   5.8154   6.3206   6.5466   6.5806
     6.6423   6.7023   6.8266   6.8467   7.1447   7.1495   7.5398   8.6880
     8.8755   8.9729   9.1469   9.3254   9.3455   9.5196   9.7513  10.0283
    10.1626  10.1762  10.8233  11.0375  11.3406  11.5309  11.6556  11.7645
    11.8395  11.8986

          k = 0.0000-0.5774 0.0000 ( 33912 PWs)   bands (ev):

   -87.6398 -87.6397 -87.6340 -87.6321 -87.6321 -87.6288 -87.4833 -87.4799
   -87.4762 -87.4188 -87.4187 -87.4142 -51.1678 -51.1599 -51.1392 -51.1390
   -51.1135 -51.1133 -51.1005 -51.0937 -51.0936 -51.0780 -51.0677 -51.0653
   -51.0651 -51.0559 -51.0559 -51.0466 -51.0431 -51.0431 -51.0047 -50.9559
   -50.9531 -50.9437 -50.9142 -50.9096 -50.9078 -50.9067 -50.9039 -50.9016
   -50.8917 -50.8916 -50.8509 -50.8448 -50.8448 -50.8396 -50.8395 -50.8360
   -13.5703 -13.5681 -13.3997 -13.3994 -13.2771 -13.2770 -10.8051 -10.7986
   -10.6335 -10.6331 -10.5321 -10.5320  -6.1809  -6.1766  -6.0026  -6.0025
    -5.9572  -5.9571  -4.5142  -4.5079  -4.3322  -4.3322  -4.2937  -4.2937
    -3.0969  -3.0937  -2.9221  -2.9221  -2.8691  -2.8691  -1.9784  -1.9738
    -1.8774  -1.7855  -1.7205  -1.4858  -1.4620  -1.4585  -1.4208  -1.4187
    -1.3346  -1.2021  -1.2014  -1.0562  -1.0302  -1.0299  -0.9934  -0.9930
    -0.8969  -0.8959  -0.7658  -0.7655  -0.7148  -0.7140  -0.6998  -0.6992
    -0.5375  -0.5374  -0.5094  -0.5023  -0.5023  -0.4889  -0.4875  -0.4376
    -0.4135  -0.4122  -0.2436  -0.2429  -0.2141  -0.1818  -0.1800  -0.1328
    -0.1306   0.1076   0.1082   0.1765   0.1778   0.3414   0.3680   0.4212
     0.4240   0.6251   0.6282   0.6634   0.7332   0.7338   0.9621   1.0035
     1.0046   1.0705   1.0944   1.0970   1.2068   1.2073   1.2533   1.3416
     1.3640   1.3707   1.3713   1.4688   1.4994   1.5517   1.5520   1.5836
     1.6868   1.7266   1.7503   1.7747   2.0451   2.0462   2.2549   2.2607
     3.6623   3.6632   4.5764   5.3887   5.9270   5.9484   5.9535   6.1255
     6.8905   6.8993   7.1191   7.1237   7.3702   7.3720   8.2304   8.2401
     8.5681   9.1563   9.9163  10.0493  10.0493  10.4148  10.4149  10.8298
    10.8300  11.1034  11.1419  11.1454  11.2051  11.2084  11.3924  11.3925
    11.6557  11.6563

          k = 0.1667-0.0962 0.0000 ( 33843 PWs)   bands (ev):

   -87.6475 -87.6374 -87.6328 -87.6325 -87.6281 -87.6280 -87.4880 -87.4769
   -87.4744 -87.4251 -87.4134 -87.4131 -51.1558 -51.1496 -51.1443 -51.1426
   -51.1382 -51.1134 -51.1074 -51.0969 -51.0919 -51.0818 -51.0761 -51.0757
   -51.0728 -51.0706 -51.0405 -51.0351 -51.0282 -51.0197 -50.9885 -50.9833
   -50.9486 -50.9459 -50.9263 -50.9212 -50.9113 -50.9027 -50.9000 -50.8929
   -50.8855 -50.8848 -50.8832 -50.8454 -50.8350 -50.8348 -50.8299 -50.8213
   -14.8492 -14.6785 -14.5466 -11.1017 -10.9331 -10.8301 -10.2627 -10.2558
   -10.0903 -10.0900  -9.9993  -9.9993  -8.1414  -8.1366  -7.9686  -7.9684
    -7.8925  -7.8925  -7.3231  -7.1533  -7.0758  -3.4977  -2.9568  -2.7116
    -2.5271  -2.5222  -2.3493  -2.3493  -2.3075  -2.3075  -2.1583  -1.8880
    -1.8586  -1.7118  -1.6746  -1.6477  -1.4804  -1.4759  -1.3476  -1.2935
    -1.2826  -1.2071  -1.0737  -0.9840  -0.9037  -0.8855  -0.8428  -0.7954
    -0.6972  -0.6732  -0.6696  -0.5008  -0.4214  -0.3990  -0.3319  -0.2890
    -0.2028  -0.1873  -0.1844  -0.1640  -0.1231  -0.1173  -0.1039  -0.0592
    -0.0483   0.0296   0.0387   0.1096   0.1130   0.1662   0.3022   0.3975
     0.4315   0.4565   0.4842   0.5857   0.5923   0.6035   0.6790   0.6890
     0.7628   0.7697   0.7824   0.7867   0.7887   0.8011   0.9097   0.9503
     0.9626   1.0103   1.0869   1.0910   1.1019   1.1170   1.1473   1.2120
     1.2850   1.3551   1.3935   1.4080   1.4404   1.4893   1.5553   1.6611
     1.6946   1.7866   1.8433   1.9891   2.0034   2.3554   2.3559   3.9744
     5.3364   5.3997   6.0153   6.0309   6.2007   6.2897   6.2915   6.4869
     6.6487   6.6501   6.7791   6.8505   7.0718   7.4198   7.4896   7.6952
     7.8868   8.3216   8.7003   9.1009   9.1827   9.3787   9.5839   9.7079
     9.8315   9.9761  10.2077  10.4582  10.7535  10.8469  10.8611  10.9731
    11.4027  11.4315

          k = 0.1667 0.0962 0.0000 ( 33843 PWs)   bands (ev):

   -87.6475 -87.6374 -87.6328 -87.6325 -87.6281 -87.6280 -87.4880 -87.4769
   -87.4744 -87.4251 -87.4134 -87.4131 -51.1558 -51.1498 -51.1442 -51.1426
   -51.1380 -51.1135 -51.1072 -51.0973 -51.0918 -51.0815 -51.0759 -51.0757
   -51.0726 -51.0710 -51.0404 -51.0351 -51.0279 -51.0200 -50.9885 -50.9833
   -50.9486 -50.9459 -50.9266 -50.9210 -50.9113 -50.9027 -50.9000 -50.8928
   -50.8858 -50.8848 -50.8828 -50.8454 -50.8350 -50.8349 -50.8296 -50.8217
   -14.8492 -14.6785 -14.5466 -11.1017 -10.9331 -10.8301 -10.2627 -10.2558
   -10.0903 -10.0900  -9.9993  -9.9993  -8.1414  -8.1366  -7.9686  -7.9684
    -7.8925  -7.8925  -7.3231  -7.1533  -7.0758  -3.4977  -2.9568  -2.7116
    -2.5271  -2.5222  -2.3493  -2.3493  -2.3075  -2.3075  -2.1583  -1.8880
    -1.8586  -1.7118  -1.6746  -1.6481  -1.4810  -1.4772  -1.3475  -1.2910
    -1.2820  -1.2068  -1.0734  -0.9832  -0.9057  -0.8864  -0.8438  -0.7955
    -0.6980  -0.6719  -0.6681  -0.4996  -0.4217  -0.3980  -0.3342  -0.2871
    -0.2033  -0.1883  -0.1838  -0.1642  -0.1210  -0.1154  -0.1000  -0.0616
    -0.0488   0.0301   0.0311   0.1098   0.1137   0.1674   0.2989   0.4033
     0.4314   0.4540   0.4836   0.5894   0.5923   0.6044   0.6768   0.6902
     0.7629   0.7697   0.7806   0.7825   0.7859   0.8011   0.9097   0.9508
     0.9631   1.0105   1.0869   1.0922   1.0966   1.1170   1.1499   1.2121
     1.2870   1.3539   1.3920   1.4139   1.4400   1.4886   1.5583   1.6610
     1.6946   1.7866   1.8422   1.9891   2.0034   2.3554   2.3559   3.9735
     5.3368   5.3990   6.0153   6.0308   6.2007   6.2897   6.2914   6.4870
     6.6486   6.6502   6.7792   6.8533   7.0718   7.4134   7.4897   7.6968
     7.8767   8.3216   8.7003   9.1009   9.1925   9.3827   9.5839   9.7086
     9.8354   9.9694  10.2077  10.4583  10.7569  10.8428  10.8633  10.9727
    11.4027  11.4316

          k = 0.1667 0.2887 0.0000 ( 33863 PWs)   bands (ev):

   -87.6452 -87.6358 -87.6340 -87.6340 -87.6287 -87.6287 -87.4862 -87.4777
   -87.4754 -87.4232 -87.4143 -87.4142 -51.1517 -51.1517 -51.1501 -51.1456
   -51.1454 -51.1038 -51.1031 -51.0864 -51.0861 -51.0829 -51.0705 -51.0702
   -51.0626 -51.0622 -51.0550 -51.0487 -51.0406 -51.0244 -50.9903 -50.9899
   -50.9305 -50.9298 -50.9283 -50.9282 -50.9140 -50.9093 -50.9032 -50.9008
   -50.8898 -50.8670 -50.8668 -50.8504 -50.8434 -50.8359 -50.8358 -50.8269
   -14.5273 -14.3568 -14.2273 -11.7021 -11.6992 -11.5321 -11.5318 -11.4236
   -11.4235  -9.4735  -9.2995  -9.2422  -8.3781  -8.1991  -8.1546  -6.2477
    -6.2470  -6.0770  -6.0769  -6.0060  -6.0060  -3.8306  -3.6568  -3.6057
    -3.1095  -2.5677  -2.2770  -2.2057  -2.2018  -2.0282  -2.0282  -1.9873
    -1.9873  -1.7878  -1.5502  -1.5370  -1.5362  -1.4274  -1.4271  -1.3915
    -1.3914  -1.3603  -1.1991  -1.0933  -1.0906  -0.9208  -0.9193  -0.8801
    -0.8798  -0.7110  -0.6767  -0.6728  -0.5353  -0.4939  -0.4326  -0.3056
    -0.2966  -0.2542  -0.2226  -0.2134  -0.1552  -0.1542  -0.1468  -0.0597
    -0.0482  -0.0404   0.0152   0.0410   0.0620   0.0829   0.0993   0.2240
     0.2266   0.2388   0.2532   0.3242   0.4316   0.4610   0.4782   0.4878
     0.4907   0.5462   0.5587   0.5880   0.6480   0.6563   0.7196   0.7662
     0.7685   0.8352   0.8814   0.8946   0.9868   0.9911   1.0646   1.0693
     1.1189   1.1515   1.2501   1.2589   1.4081   1.4142   1.4384   1.4854
     1.4899   1.6163   1.6201   2.3532   2.4073   2.6639   2.9187   4.1957
     4.1991   4.5441   4.9813   4.9871   5.6468   5.8638   6.0261   6.2541
     6.3965   6.4077   7.6818   7.7166   7.9747   7.9970   8.2055   8.2338
     8.3722   8.3777   8.7562   9.1306   9.2659   9.2730   9.5344   9.9784
    10.0587  10.0643  10.6197  10.8417  10.9465  10.9583  11.8390  12.0042
    12.0255  12.3192

          k = 0.1667-0.6736 0.0000 ( 33899 PWs)   bands (ev):

   -87.6414 -87.6372 -87.6349 -87.6332 -87.6305 -87.6292 -87.4836 -87.4791
   -87.4766 -87.4200 -87.4167 -87.4149 -51.1585 -51.1523 -51.1420 -51.1409
   -51.1341 -51.1068 -51.1036 -51.1027 -51.0821 -51.0763 -51.0716 -51.0661
   -51.0636 -51.0622 -51.0505 -51.0470 -51.0469 -51.0336 -50.9962 -50.9751
   -50.9458 -50.9347 -50.9144 -50.9133 -50.9127 -50.9083 -50.9037 -50.9018
   -50.8993 -50.8827 -50.8511 -50.8501 -50.8407 -50.8379 -50.8365 -50.8364
   -13.8872 -13.7174 -13.5925 -12.9383 -12.7691 -12.6512 -12.0069 -11.8382
   -11.7273  -9.4144  -9.2450  -9.1607  -7.5623  -7.3892  -7.3289  -5.2096
    -5.1417  -5.0343  -4.9839  -4.9683  -4.9138  -4.1618  -3.9893  -3.9323
    -3.0772  -2.9010  -2.8583  -2.3484  -2.1215  -1.9460  -1.9036  -1.8246
    -1.7643  -1.7003  -1.6958  -1.6269  -1.5837  -1.4965  -1.4496  -1.4073
    -1.3978  -1.3952  -1.3848  -1.3687  -1.2465  -1.2280  -1.2244  -1.1184
    -1.0640  -1.0365  -0.9920  -0.9230  -0.8575  -0.8522  -0.7214  -0.7144
    -0.6890  -0.5406  -0.5398  -0.5346  -0.5065  -0.4732  -0.3653  -0.2795
    -0.2406  -0.1948  -0.1755  -0.1265  -0.1157  -0.1082  -0.0384   0.0123
     0.0852   0.1876   0.2157   0.2603   0.3098   0.3726   0.3868   0.4103
     0.4280   0.5488   0.5725   0.5980   0.6050   0.6740   0.7313   0.7894
     0.8918   0.9212   0.9247   0.9858   1.0448   1.0618   1.0777   1.1414
     1.2595   1.3018   1.3151   1.3343   1.3757   1.4000   1.4408   1.4776
     1.5103   1.5338   1.6142   2.2054   2.7171   2.8617   3.0470   3.1749
     3.3232   3.4436   4.0815   4.4941   5.4114   5.5121   5.5447   5.6592
     5.8993   6.7756   7.4007   7.6205   8.4576   8.6870   8.9471   8.9939
     9.2388   9.6225   9.6951   9.9162   9.9849  10.1384  10.3996  10.4276
    10.4799  10.7761  10.9202  11.1768  11.4354  11.4948  11.6326  11.6472
    11.7114  11.9884

          k = 0.1667-0.4811 0.0000 ( 33899 PWs)   bands (ev):

   -87.6414 -87.6372 -87.6349 -87.6331 -87.6305 -87.6292 -87.4836 -87.4791
   -87.4766 -87.4200 -87.4167 -87.4149 -51.1585 -51.1523 -51.1419 -51.1409
   -51.1340 -51.1069 -51.1034 -51.1027 -51.0823 -51.0764 -51.0716 -51.0661
   -51.0636 -51.0624 -51.0504 -51.0471 -51.0469 -51.0334 -50.9962 -50.9751
   -50.9458 -50.9347 -50.9144 -50.9133 -50.9125 -50.9083 -50.9037 -50.9018
   -50.8993 -50.8829 -50.8510 -50.8503 -50.8408 -50.8379 -50.8365 -50.8362
   -13.8872 -13.7174 -13.5925 -12.9383 -12.7691 -12.6512 -12.0069 -11.8382
   -11.7273  -9.4144  -9.2450  -9.1607  -7.5623  -7.3892  -7.3289  -5.2096
    -5.1417  -5.0343  -4.9839  -4.9683  -4.9138  -4.1618  -3.9893  -3.9323
    -3.0772  -2.9010  -2.8583  -2.3484  -2.1215  -1.9460  -1.9036  -1.8245
    -1.7642  -1.7005  -1.6951  -1.6270  -1.5837  -1.4973  -1.4501  -1.4073
    -1.3972  -1.3944  -1.3845  -1.3687  -1.2465  -1.2265  -1.2246  -1.1186
    -1.0643  -1.0352  -0.9924  -0.9255  -0.8582  -0.8514  -0.7216  -0.7146
    -0.6901  -0.5409  -0.5406  -0.5370  -0.5065  -0.4726  -0.3645  -0.2795
    -0.2390  -0.1941  -0.1736  -0.1324  -0.1170  -0.1090  -0.0366   0.0126
     0.0851   0.1940   0.2200   0.2623   0.3071   0.3681   0.3893   0.4105
     0.4293   0.5470   0.5716   0.5973   0.6059   0.6719   0.7316   0.7902
     0.8936   0.9215   0.9255   0.9860   1.0451   1.0635   1.0745   1.1412
     1.2561   1.3005   1.3152   1.3360   1.3804   1.4010   1.4396   1.4766
     1.5104   1.5332   1.6102   2.2055   2.7171   2.8620   3.0470   3.1743
     3.3233   3.4436   4.0815   4.4959   5.4120   5.5135   5.5450   5.6592
     5.8993   6.7743   7.4010   7.6233   8.4576   8.6870   8.9471   8.9939
     9.2343   9.6225   9.6950   9.9162   9.9849  10.1384  10.3996  10.4276
    10.4799  10.7762  10.9202  11.1770  11.4354  11.4929  11.6328  11.6475
    11.7105  11.9883

          k = 0.1667-0.2887 0.0000 ( 33863 PWs)   bands (ev):

   -87.6452 -87.6358 -87.6340 -87.6340 -87.6287 -87.6287 -87.4862 -87.4777
   -87.4754 -87.4232 -87.4143 -87.4142 -51.1517 -51.1515 -51.1501 -51.1457
   -51.1455 -51.1036 -51.1031 -51.0862 -51.0861 -51.0829 -51.0708 -51.0706
   -51.0623 -51.0623 -51.0549 -51.0491 -51.0405 -51.0241 -50.9903 -50.9899
   -50.9305 -50.9298 -50.9283 -50.9282 -50.9140 -50.9093 -50.9032 -50.9008
   -50.8898 -50.8671 -50.8669 -50.8507 -50.8434 -50.8359 -50.8357 -50.8265
   -14.5273 -14.3568 -14.2273 -11.7021 -11.6992 -11.5321 -11.5318 -11.4236
   -11.4235  -9.4735  -9.2995  -9.2422  -8.3781  -8.1991  -8.1546  -6.2477
    -6.2470  -6.0770  -6.0769  -6.0060  -6.0060  -3.8306  -3.6568  -3.6057
    -3.1095  -2.5677  -2.2767  -2.2057  -2.2018  -2.0282  -2.0282  -1.9873
    -1.9873  -1.7878  -1.5501  -1.5367  -1.5358  -1.4283  -1.4279  -1.3918
    -1.3916  -1.3589  -1.1959  -1.0917  -1.0905  -0.9215  -0.9199  -0.8818
    -0.8816  -0.7149  -0.6758  -0.6747  -0.5366  -0.4940  -0.4326  -0.3027
    -0.2943  -0.2542  -0.2226  -0.2166  -0.1565  -0.1560  -0.1543  -0.0583
    -0.0488  -0.0431   0.0207   0.0404   0.0703   0.0909   0.0965   0.2248
     0.2279   0.2390   0.2533   0.3238   0.4316   0.4610   0.4737   0.4878
     0.4904   0.5469   0.5590   0.5893   0.6476   0.6556   0.7173   0.7662
     0.7690   0.8416   0.8843   0.8972   0.9862   0.9903   1.0612   1.0653
     1.1234   1.1495   1.2506   1.2596   1.4088   1.4148   1.4339   1.4854
     1.4898   1.6140   1.6178   2.3534   2.4073   2.6639   2.9187   4.1957
     4.1990   4.5460   4.9814   4.9873   5.6468   5.8638   6.0261   6.2558
     6.3989   6.4095   7.6821   7.7167   7.9749   7.9970   8.2088   8.2366
     8.3722   8.3779   8.7562   9.1305   9.2617   9.2675   9.5344   9.9783
    10.0583  10.0598  10.6197  10.8416  10.9459  10.9583  11.8389  12.0029
    12.0153  12.3191

          k = 0.3333-0.1925 0.0000 ( 33899 PWs)   bands (ev):

   -87.6441 -87.6356 -87.6350 -87.6335 -87.6296 -87.6285 -87.4855 -87.4783
   -87.4756 -87.4223 -87.4154 -87.4139 -51.1628 -51.1551 -51.1476 -51.1413
   -51.1344 -51.1077 -51.0993 -51.0876 -51.0854 -51.0754 -51.0716 -51.0697
   -51.0611 -51.0594 -51.0565 -51.0561 -51.0416 -51.0287 -51.0005 -50.9778
   -50.9391 -50.9270 -50.9240 -50.9209 -50.9157 -50.9091 -50.9035 -50.9011
   -50.8936 -50.8637 -50.8603 -50.8586 -50.8427 -50.8368 -50.8355 -50.8302
   -14.3667 -14.1965 -14.0681 -12.4694 -12.3005 -12.1861 -10.6620 -10.6555
   -10.4904 -10.4900 -10.3908 -10.3907  -7.0134  -7.0086  -6.8404  -6.8403
    -6.7693  -6.7693  -5.2632  -5.0923  -5.0260  -3.6503  -3.6448  -3.4733
    -3.4733  -3.4239  -3.4239  -2.9172  -2.3767  -2.0708  -1.7243  -1.6245
    -1.6180  -1.6051  -1.4277  -1.3827  -1.3434  -1.3233  -1.3093  -1.2512
    -1.2285  -1.2148  -1.1565  -1.1460  -1.0971  -1.0266  -1.0029  -0.9211
    -0.8507  -0.8333  -0.8103  -0.7893  -0.7545  -0.6803  -0.6483  -0.6172
    -0.5834  -0.4915  -0.3874  -0.3668  -0.3300  -0.2912  -0.2213  -0.2108
    -0.1792  -0.1450  -0.0724   0.0477   0.0499   0.0757   0.1402   0.1712
     0.1760   0.1879   0.2228   0.2455   0.3178   0.3508   0.3785   0.3865
     0.4406   0.4656   0.4942   0.6267   0.6306   0.7156   0.7765   0.8309
     0.8429   0.8844   0.9531   1.0083   1.0876   1.1692   1.2212   1.2435
     1.2817   1.3664   1.3928   1.4175   1.4244   1.4667   1.4926   1.5004
     1.5688   1.5955   1.8121   1.8498   2.2990   2.3021   2.5867   3.1106
     3.8390   4.8032   5.1858   5.3649   5.8219   6.3159   6.5468   6.5868
     6.6426   6.7033   6.8266   6.8463   7.1447   7.1495   7.5400   8.6809
     8.8753   8.9729   9.1468   9.3280   9.3455   9.5196   9.7512  10.0293
    10.1548  10.1762  10.8233  11.0374  11.3428  11.5309  11.6555  11.7615
    11.8390  11.9034

          k = 0.3333-0.0000 0.0000 ( 33863 PWs)   bands (ev):

   -87.6452 -87.6358 -87.6340 -87.6340 -87.6287 -87.6287 -87.4862 -87.4777
   -87.4754 -87.4232 -87.4143 -87.4142 -51.1517 -51.1515 -51.1501 -51.1457
   -51.1456 -51.1034 -51.1032 -51.0865 -51.0864 -51.0831 -51.0703 -51.0702
   -51.0627 -51.0623 -51.0550 -51.0488 -51.0404 -51.0243 -50.9904 -50.9899
   -50.9304 -50.9298 -50.9284 -50.9281 -50.9138 -50.9093 -50.9032 -50.9008
   -50.8900 -50.8671 -50.8668 -50.8506 -50.8434 -50.8359 -50.8357 -50.8266
   -14.5273 -14.3568 -14.2273 -11.7021 -11.6992 -11.5321 -11.5318 -11.4236
   -11.4235  -9.4735  -9.2995  -9.2422  -8.3781  -8.1991  -8.1546  -6.2477
    -6.2470  -6.0770  -6.0769  -6.0060  -6.0060  -3.8306  -3.6568  -3.6057
    -3.1096  -2.5678  -2.2767  -2.2057  -2.2018  -2.0282  -2.0282  -1.9873
    -1.9873  -1.7878  -1.5490  -1.5371  -1.5359  -1.4274  -1.4273  -1.3918
    -1.3915  -1.3613  -1.1995  -1.0940  -1.0918  -0.9193  -0.9179  -0.8805
    -0.8800  -0.7118  -0.6769  -0.6742  -0.5348  -0.4940  -0.4326  -0.3035
    -0.2943  -0.2542  -0.2226  -0.2137  -0.1564  -0.1559  -0.1493  -0.0591
    -0.0475  -0.0399   0.0168   0.0410   0.0628   0.0822   0.1003   0.2237
     0.2260   0.2388   0.2532   0.3246   0.4316   0.4610   0.4776   0.4877
     0.4905   0.5482   0.5611   0.5873   0.6481   0.6565   0.7194   0.7656
     0.7685   0.8350   0.8806   0.8941   0.9858   0.9893   1.0657   1.0701
     1.1165   1.1538   1.2503   1.2592   1.4082   1.4146   1.4364   1.4861
     1.4901   1.6150   1.6195   2.3548   2.4073   2.6639   2.9187   4.1957
     4.1988   4.5445   4.9818   4.9874   5.6468   5.8638   6.0261   6.2544
     6.3968   6.4076   7.6820   7.7167   7.9748   7.9970   8.2066   8.2350
     8.3722   8.3778   8.7562   9.1305   9.2622   9.2727   9.5344   9.9783
    10.0602  10.0643  10.6197  10.8417  10.9441  10.9540  11.8389  12.0062
    12.0253  12.3192

          k = 0.3333 0.1925 0.0000 ( 33899 PWs)   bands (ev):

   -87.6441 -87.6356 -87.6350 -87.6336 -87.6296 -87.6285 -87.4855 -87.4783
   -87.4756 -87.4223 -87.4154 -87.4139 -51.1630 -51.1551 -51.1476 -51.1412
   -51.1343 -51.1076 -51.0997 -51.0875 -51.0852 -51.0753 -51.0714 -51.0695
   -51.0609 -51.0599 -51.0564 -51.0559 -51.0417 -51.0289 -51.0005 -50.9778
   -50.9393 -50.9271 -50.9239 -50.9208 -50.9155 -50.9091 -50.9035 -50.9011
   -50.8936 -50.8640 -50.8600 -50.8583 -50.8427 -50.8368 -50.8357 -50.8305
   -14.3667 -14.1965 -14.0681 -12.4694 -12.3005 -12.1861 -10.6620 -10.6555
   -10.4904 -10.4900 -10.3908 -10.3907  -7.0134  -7.0086  -6.8404  -6.8403
    -6.7693  -6.7693  -5.2632  -5.0923  -5.0260  -3.6503  -3.6448  -3.4734
    -3.4733  -3.4239  -3.4239  -2.9172  -2.3767  -2.0711  -1.7241  -1.6241
    -1.6186  -1.6051  -1.4277  -1.3830  -1.3424  -1.3216  -1.3083  -1.2512
    -1.2300  -1.2148  -1.1569  -1.1445  -1.0991  -1.0266  -1.0012  -0.9230
    -0.8507  -0.8318  -0.8103  -0.7895  -0.7521  -0.6805  -0.6485  -0.6218
    -0.5812  -0.4920  -0.3920  -0.3702  -0.3300  -0.2913  -0.2207  -0.2115
    -0.1801  -0.1429  -0.0667   0.0427   0.0504   0.0758   0.1402   0.1723
     0.1760   0.1914   0.2253   0.2521   0.3178   0.3508   0.3727   0.3789
     0.4399   0.4702   0.4937   0.6217   0.6324   0.7171   0.7737   0.8311
     0.8412   0.8822   0.9539   1.0141   1.0909   1.1683   1.2206   1.2420
     1.2823   1.3644   1.3961   1.4174   1.4236   1.4674   1.4919   1.5002
     1.5729   1.5965   1.8121   1.8497   2.2990   2.3021   2.5854   3.1108
     3.8392   4.8013   5.1897   5.3649   5.8298   6.3050   6.5463   6.5770
     6.6411   6.6925   6.8266   6.8460   7.1447   7.1495   7.5384   8.6960
     8.8755   8.9729   9.1470   9.3342   9.3456   9.5196   9.7513  10.0259
    10.1569  10.1762  10.8233  11.0375  11.3684  11.5308  11.6555  11.7628
    11.8393  11.9007

          k = 0.3333-0.7698 0.0000 ( 33899 PWs)   bands (ev):

   -87.6414 -87.6372 -87.6349 -87.6332 -87.6306 -87.6292 -87.4836 -87.4791
   -87.4766 -87.4200 -87.4167 -87.4149 -51.1585 -51.1522 -51.1420 -51.1410
   -51.1342 -51.1069 -51.1035 -51.1031 -51.0820 -51.0760 -51.0715 -51.0660
   -51.0635 -51.0624 -51.0505 -51.0472 -51.0468 -51.0336 -50.9962 -50.9750
   -50.9457 -50.9348 -50.9143 -50.9134 -50.9126 -50.9082 -50.9037 -50.9019
   -50.8994 -50.8826 -50.8509 -50.8502 -50.8407 -50.8379 -50.8366 -50.8365
   -13.8872 -13.7174 -13.5925 -12.9383 -12.7691 -12.6512 -12.0069 -11.8382
   -11.7273  -9.4144  -9.2450  -9.1607  -7.5623  -7.3892  -7.3289  -5.2096
    -5.1417  -5.0343  -4.9839  -4.9683  -4.9138  -4.1618  -3.9893  -3.9322
    -3.0772  -2.9010  -2.8583  -2.3484  -2.1215  -1.9460  -1.9036  -1.8246
    -1.7636  -1.7005  -1.6956  -1.6280  -1.5837  -1.4961  -1.4503  -1.4073
    -1.3972  -1.3954  -1.3829  -1.3687  -1.2466  -1.2287  -1.2221  -1.1212
    -1.0640  -1.0361  -0.9902  -0.9243  -0.8566  -0.8524  -0.7212  -0.7143
    -0.6888  -0.5441  -0.5406  -0.5398  -0.5065  -0.4668  -0.3685  -0.2786
    -0.2450  -0.1949  -0.1787  -0.1252  -0.1138  -0.1037  -0.0364   0.0134
     0.0836   0.1847   0.2245   0.2611   0.3113   0.3641   0.3894   0.4060
     0.4323   0.5472   0.5730   0.6000   0.6024   0.6674   0.7315   0.7932
     0.8914   0.9196   0.9254   0.9887   1.0452   1.0631   1.0777   1.1423
     1.2582   1.3016   1.3159   1.3350   1.3770   1.4030   1.4396   1.4798
     1.5095   1.5316   1.6131   2.2056   2.7170   2.8609   3.0469   3.1743
     3.3233   3.4436   4.0837   4.4960   5.4112   5.5116   5.5376   5.6592
     5.8993   6.7735   7.3978   7.6199   8.4576   8.6870   8.9471   9.0001
     9.2348   9.6225   9.7027   9.9163   9.9849  10.1384  10.3996  10.4273
    10.4738  10.7761  10.9202  11.1756  11.4354  11.4943  11.6329  11.6720
    11.7119  11.9881

          k = 0.3333-0.5774 0.0000 ( 33957 PWs)   bands (ev):

   -87.6379 -87.6379 -87.6378 -87.6310 -87.6309 -87.6309 -87.4826 -87.4786
   -87.4782 -87.4173 -87.4172 -87.4171 -51.1421 -51.1421 -51.1419 -51.1360
   -51.1358 -51.1356 -51.1022 -51.1018 -51.1017 -51.0694 -51.0693 -51.0691
   -51.0588 -51.0587 -51.0586 -51.0392 -51.0391 -51.0389 -50.9762 -50.9760
   -50.9741 -50.9132 -50.9131 -50.9129 -50.9079 -50.9068 -50.9066 -50.9047
   -50.9033 -50.9028 -50.8431 -50.8429 -50.8427 -50.8385 -50.8384 -50.8383
   -13.0969 -13.0968 -13.0934 -12.9266 -12.9265 -12.9261 -12.8075 -12.8074
   -12.8073  -8.2345  -8.2205  -8.0662  -8.0372  -8.0096  -7.9764  -6.0439
    -5.8606  -5.8310  -3.4454  -3.4413  -3.4413  -3.2652  -3.2652  -3.2651
    -3.2271  -3.2271  -3.2271  -2.0418  -2.0417  -2.0394  -1.8619  -1.8618
    -1.8618  -1.8284  -1.8284  -1.8284  -1.6671  -1.6665  -1.6658  -1.6274
    -1.6266  -1.6264  -1.4708  -1.4697  -1.4652  -1.4128  -1.4100  -1.4091
    -1.2729  -1.2722  -1.2679  -1.1081  -1.1080  -1.1055  -0.9251  -0.9248
    -0.9183  -0.7995  -0.7988  -0.7930  -0.4091  -0.4049  -0.4038  -0.2338
    -0.2295  -0.2282  -0.1497  -0.1474  -0.1448  -0.1034  -0.1016  -0.1003
     0.0246   0.0268   0.0305   0.3911   0.3927   0.3964   0.4603   0.4661
     0.4680   0.7653   0.7660   0.7700   0.8322   0.8340   0.8346   1.0277
     1.0298   1.0321   1.0831   1.0832   1.0837   1.1386   1.1390   1.1392
     1.2296   1.2300   1.2308   1.2834   1.2844   1.2845   1.4862   1.4870
     1.4880   1.5282   1.5291   1.5307   2.3208   2.3231   2.3236   3.9516
     4.1260   4.1323   4.1370   4.2479   4.3654   4.4408   4.4862   4.8792
     6.4758   6.4876   6.4892   8.9361   8.9455   8.9496  10.3751  10.3754
    10.3797  10.5765  10.5766  10.5781  10.6986  10.6987  10.6988  10.7851
    10.7859  10.7860  10.9448  10.9485  10.9495  11.3103  11.3293  11.3310
    11.4923  11.5045

          k = 0.3333-0.3849 0.0000 ( 33899 PWs)   bands (ev):

   -87.6414 -87.6372 -87.6349 -87.6332 -87.6305 -87.6292 -87.4836 -87.4791
   -87.4766 -87.4200 -87.4167 -87.4149 -51.1583 -51.1522 -51.1419 -51.1410
   -51.1342 -51.1070 -51.1032 -51.1031 -51.0822 -51.0762 -51.0715 -51.0662
   -51.0636 -51.0624 -51.0503 -51.0470 -51.0470 -51.0334 -50.9962 -50.9750
   -50.9458 -50.9345 -50.9143 -50.9134 -50.9127 -50.9082 -50.9037 -50.9019
   -50.8994 -50.8830 -50.8512 -50.8501 -50.8408 -50.8379 -50.8364 -50.8361
   -13.8872 -13.7174 -13.5925 -12.9383 -12.7691 -12.6512 -12.0069 -11.8382
   -11.7273  -9.4144  -9.2450  -9.1607  -7.5623  -7.3892  -7.3289  -5.2096
    -5.1417  -5.0343  -4.9839  -4.9683  -4.9138  -4.1618  -3.9893  -3.9322
    -3.0772  -2.9010  -2.8583  -2.3484  -2.1215  -1.9460  -1.9036  -1.8245
    -1.7644  -1.7011  -1.6950  -1.6267  -1.5837  -1.4967  -1.4499  -1.4073
    -1.3979  -1.3943  -1.3838  -1.3687  -1.2467  -1.2271  -1.2244  -1.1195
    -1.0642  -1.0353  -0.9922  -0.9255  -0.8575  -0.8511  -0.7216  -0.7145
    -0.6896  -0.5420  -0.5406  -0.5401  -0.5065  -0.4714  -0.3610  -0.2801
    -0.2398  -0.1962  -0.1726  -0.1313  -0.1168  -0.1085  -0.0346   0.0126
     0.0848   0.1927   0.2224   0.2622   0.3075   0.3668   0.3894   0.4097
     0.4297   0.5455   0.5726   0.5967   0.6047   0.6704   0.7316   0.7917
     0.8934   0.9210   0.9255   0.9860   1.0454   1.0637   1.0747   1.1420
     1.2555   1.3007   1.3159   1.3367   1.3802   1.3996   1.4402   1.4750
     1.5097   1.5333   1.6110   2.2058   2.7170   2.8608   3.0469   3.1747
     3.3221   3.4436   4.0842   4.4970   5.4121   5.5136   5.5442   5.6592
     5.8993   6.7746   7.4033   7.6235   8.4576   8.6870   8.9471   8.9894
     9.2358   9.6225   9.6968   9.9163   9.9849  10.1384  10.3995  10.4273
    10.4723  10.7762  10.9202  11.1757  11.4354  11.4940  11.6328  11.6486
    11.7114  11.9881

          k =-0.5000 0.2887 0.0000 ( 33912 PWs)   bands (ev):

   -87.6398 -87.6397 -87.6340 -87.6321 -87.6321 -87.6287 -87.4833 -87.4799
   -87.4762 -87.4188 -87.4187 -87.4142 -51.1676 -51.1598 -51.1391 -51.1390
   -51.1138 -51.1136 -51.1011 -51.0936 -51.0934 -51.0776 -51.0678 -51.0652
   -51.0651 -51.0559 -51.0558 -51.0467 -51.0431 -51.0430 -51.0047 -50.9558
   -50.9531 -50.9435 -50.9140 -50.9095 -50.9080 -50.9067 -50.9039 -50.9017
   -50.8919 -50.8918 -50.8511 -50.8447 -50.8446 -50.8396 -50.8395 -50.8359
   -13.5703 -13.5681 -13.3997 -13.3994 -13.2771 -13.2770 -10.8051 -10.7986
   -10.6335 -10.6331 -10.5321 -10.5320  -6.1809  -6.1766  -6.0026  -6.0025
    -5.9572  -5.9572  -4.5142  -4.5079  -4.3322  -4.3322  -4.2937  -4.2937
    -3.0969  -3.0937  -2.9221  -2.9221  -2.8691  -2.8691  -1.9783  -1.9738
    -1.8776  -1.7862  -1.7204  -1.4851  -1.4621  -1.4588  -1.4200  -1.4181
    -1.3344  -1.2042  -1.2034  -1.0556  -1.0291  -1.0287  -0.9922  -0.9919
    -0.8984  -0.8975  -0.7659  -0.7653  -0.7148  -0.7140  -0.6999  -0.6993
    -0.5375  -0.5375  -0.5170  -0.5023  -0.5023  -0.4852  -0.4842  -0.4306
    -0.4152  -0.4140  -0.2442  -0.2437  -0.2155  -0.1799  -0.1785  -0.1325
    -0.1302   0.1079   0.1088   0.1758   0.1772   0.3414   0.3725   0.4200
     0.4224   0.6241   0.6275   0.6615   0.7319   0.7327   0.9613   1.0057
     1.0069   1.0687   1.0960   1.0980   1.2055   1.2059   1.2535   1.3426
     1.3642   1.3689   1.3695   1.4686   1.5005   1.5519   1.5521   1.5827
     1.6876   1.7269   1.7499   1.7745   2.0446   2.0458   2.2550   2.2606
     3.6633   3.6642   4.5725   5.3963   5.9224   5.9490   5.9537   6.1316
     6.8905   6.8993   7.1191   7.1237   7.3702   7.3720   8.2308   8.2408
     8.5611   9.1587   9.9082  10.0493  10.0493  10.4145  10.4148  10.8297
    10.8300  11.1057  11.1420  11.1454  11.2052  11.2084  11.3924  11.3925
    11.6557  11.6563

          k =-0.5000 0.4811 0.0000 ( 33899 PWs)   bands (ev):

   -87.6414 -87.6372 -87.6349 -87.6332 -87.6305 -87.6292 -87.4836 -87.4790
   -87.4766 -87.4200 -87.4167 -87.4149 -51.1583 -51.1522 -51.1419 -51.1410
   -51.1342 -51.1071 -51.1034 -51.1030 -51.0821 -51.0762 -51.0716 -51.0662
   -51.0635 -51.0622 -51.0503 -51.0471 -51.0469 -51.0335 -50.9962 -50.9751
   -50.9457 -50.9345 -50.9143 -50.9133 -50.9128 -50.9082 -50.9037 -50.9019
   -50.8995 -50.8829 -50.8512 -50.8500 -50.8408 -50.8379 -50.8364 -50.8362
   -13.8872 -13.7174 -13.5925 -12.9383 -12.7691 -12.6512 -12.0069 -11.8382
   -11.7273  -9.4144  -9.2450  -9.1607  -7.5623  -7.3892  -7.3289  -5.2096
    -5.1417  -5.0343  -4.9839  -4.9683  -4.9138  -4.1618  -3.9893  -3.9322
    -3.0772  -2.9010  -2.8583  -2.3485  -2.1215  -1.9460  -1.9036  -1.8248
    -1.7645  -1.7009  -1.6944  -1.6269  -1.5837  -1.4966  -1.4493  -1.4073
    -1.3983  -1.3940  -1.3843  -1.3687  -1.2466  -1.2309  -1.2242  -1.1195
    -1.0640  -1.0373  -0.9917  -0.9222  -0.8569  -0.8507  -0.7215  -0.7144
    -0.6887  -0.5412  -0.5406  -0.5385  -0.5065  -0.4742  -0.3615  -0.2791
    -0.2410  -0.1951  -0.1704  -0.1240  -0.1169  -0.1093  -0.0362   0.0123
     0.0814   0.1870   0.2167   0.2612   0.3118   0.3709   0.3869   0.4093
     0.4284   0.5482   0.5731   0.5992   0.6046   0.6730   0.7295   0.7902
     0.8909   0.9202   0.9243   0.9854   1.0447   1.0619   1.0790   1.1438
     1.2592   1.3015   1.3157   1.3355   1.3769   1.3977   1.4398   1.4756
     1.5112   1.5322   1.6133   2.2055   2.7170   2.8617   3.0469   3.1766
     3.3221   3.4436   4.0841   4.4945   5.4115   5.5124   5.5440   5.6592
     5.8993   6.7759   7.4031   7.6212   8.4576   8.6870   8.9471   8.9894
     9.2391   9.6225   9.6970   9.9163   9.9848  10.1384  10.3995  10.4273
    10.4724  10.7761  10.9202  11.1768  11.4354  11.4947  11.6326  11.6483
    11.7112  11.9884

          k =-0.5000 0.6736 0.0000 ( 33899 PWs)   bands (ev):

   -87.6414 -87.6372 -87.6349 -87.6332 -87.6305 -87.6292 -87.4836 -87.4790
   -87.4766 -87.4200 -87.4167 -87.4149 -51.1585 -51.1522 -51.1419 -51.1409
   -51.1341 -51.1071 -51.1034 -51.1031 -51.0820 -51.0760 -51.0716 -51.0660
   -51.0635 -51.0624 -51.0503 -51.0473 -51.0468 -51.0336 -50.9962 -50.9750
   -50.9456 -50.9348 -50.9142 -50.9133 -50.9125 -50.9082 -50.9037 -50.9019
   -50.8995 -50.8828 -50.8509 -50.8504 -50.8407 -50.8379 -50.8366 -50.8363
   -13.8872 -13.7174 -13.5925 -12.9383 -12.7691 -12.6512 -12.0069 -11.8382
   -11.7273  -9.4144  -9.2450  -9.1607  -7.5623  -7.3892  -7.3289  -5.2096
    -5.1417  -5.0343  -4.9839  -4.9683  -4.9138  -4.1618  -3.9893  -3.9322
    -3.0772  -2.9010  -2.8583  -2.3485  -2.1215  -1.9460  -1.9036  -1.8247
    -1.7635  -1.7005  -1.6943  -1.6282  -1.5837  -1.4968  -1.4502  -1.4073
    -1.3970  -1.3942  -1.3831  -1.3687  -1.2465  -1.2310  -1.2220  -1.1214
    -1.0641  -1.0368  -0.9901  -0.9236  -0.8567  -0.8512  -0.7213  -0.7145
    -0.6889  -0.5445  -0.5406  -0.5405  -0.5065  -0.4690  -0.3684  -0.2777
    -0.2447  -0.1931  -0.1746  -0.1238  -0.1151  -0.1055  -0.0362   0.0134
     0.0802   0.1853   0.2229   0.2623   0.3129   0.3636   0.3894   0.4058
     0.4323   0.5481   0.5727   0.6015   0.6032   0.6677   0.7298   0.7926
     0.8907   0.9192   0.9250   0.9885   1.0448   1.0629   1.0788   1.1439
     1.2586   1.3011   1.3158   1.3354   1.3785   1.4021   1.4381   1.4795
     1.5111   1.5299   1.6115   2.2053   2.7170   2.8621   3.0469   3.1755
     3.3233   3.4436   4.0836   4.4953   5.4113   5.5118   5.5377   5.6592
     5.8993   6.7735   7.3979   7.6205   8.4576   8.6870   8.9471   9.0000
     9.2335   9.6225   9.7027   9.9163   9.9848  10.1384  10.3995  10.4273
    10.4739  10.7761  10.9202  11.1770  11.4354  11.4930  11.6328  11.6719
    11.7109  11.9883

          k =-0.5000-0.2887 0.0000 ( 33912 PWs)   bands (ev):

   -87.6398 -87.6397 -87.6340 -87.6321 -87.6321 -87.6287 -87.4833 -87.4799
   -87.4762 -87.4188 -87.4187 -87.4142 -51.1678 -51.1598 -51.1391 -51.1391
   -51.1137 -51.1135 -51.1015 -51.0933 -51.0932 -51.0773 -51.0677 -51.0652
   -51.0650 -51.0560 -51.0558 -51.0464 -51.0435 -51.0434 -51.0047 -50.9558
   -50.9531 -50.9438 -50.9140 -50.9095 -50.9080 -50.9068 -50.9039 -50.9017
   -50.8916 -50.8915 -50.8508 -50.8450 -50.8449 -50.8396 -50.8395 -50.8360
   -13.5703 -13.5681 -13.3997 -13.3994 -13.2771 -13.2770 -10.8051 -10.7986
   -10.6335 -10.6331 -10.5321 -10.5320  -6.1809  -6.1766  -6.0026  -6.0025
    -5.9572  -5.9571  -4.5142  -4.5079  -4.3322  -4.3322  -4.2937  -4.2937
    -3.0969  -3.0937  -2.9221  -2.9221  -2.8691  -2.8691  -1.9783  -1.9738
    -1.8767  -1.7858  -1.7216  -1.4842  -1.4621  -1.4587  -1.4192  -1.4174
    -1.3322  -1.2038  -1.2030  -1.0533  -1.0302  -1.0297  -0.9929  -0.9925
    -0.9000  -0.8991  -0.7665  -0.7658  -0.7148  -0.7140  -0.6999  -0.6993
    -0.5375  -0.5374  -0.5215  -0.5023  -0.5023  -0.4831  -0.4823  -0.4405
    -0.4144  -0.4133  -0.2471  -0.2468  -0.2134  -0.1805  -0.1787  -0.1288
    -0.1269   0.1062   0.1070   0.1822   0.1837   0.3467   0.3795   0.4088
     0.4113   0.6253   0.6287   0.6535   0.7324   0.7332   0.9601   1.0084
     1.0097   1.0748   1.0987   1.1014   1.2034   1.2038   1.2523   1.3446
     1.3633   1.3733   1.3739   1.4663   1.5002   1.5514   1.5516   1.5808
     1.6876   1.7270   1.7507   1.7742   2.0446   2.0458   2.2550   2.2606
     3.6621   3.6629   4.5790   5.4065   5.9066   5.9469   5.9515   6.1095
     6.8904   6.8993   7.1191   7.1237   7.3702   7.3720   8.2282   8.2384
     8.5769   9.1661   9.9099  10.0493  10.0493  10.4146  10.4149  10.8297
    10.8301  11.1311  11.1453  11.1463  11.2052  11.2086  11.3924  11.3925
    11.6557  11.6563

     the Fermi energy is     4.4848 ev

!    total energy              =   -3891.09078083 Ry
     estimated scf accuracy    <          6.0E-09 Ry
     smearing contrib. (-TS)   =      -0.00115049 Ry
     internal energy E=F+TS    =   -3891.08963034 Ry

     The total energy is F=E-TS. E is the sum of the following terms:
     one-electron contribution =  -55585.39356643 Ry
     hartree contribution      =   27834.92848602 Ry
     xc contribution           =    -436.04666133 Ry
     ewald contribution        =   24444.09236526 Ry
     DFT-D3 Dispersion         =      -0.68849995 Ry
     electric field correction =       0.00000014 Ry
     one-center paw contrib.   =    -147.98175404 Ry

     convergence has been achieved in  45 iterations

     negative rho (up, down):  3.165E-04 0.000E+00

     Forces acting on atoms (cartesian axes, Ry/au):

     atom    1 type  1   force =    -0.00014563    0.00039665    0.00180071
     atom    2 type  1   force =    -0.00017169    0.00038000    0.00179829
     atom    3 type  1   force =     0.00049127   -0.00016369    0.00010319
     atom    4 type  1   force =     0.00000943   -0.00033466   -0.00093204
     atom    5 type  1   force =    -0.00018763    0.00041172    0.00179872
     atom    6 type  1   force =     0.00028700   -0.00005211   -0.00000583
     atom    7 type  1   force =    -0.00024379    0.00004301    0.00016798
     atom    8 type  1   force =     0.00000722   -0.00033444   -0.00094320
     atom    9 type  1   force =    -0.00027372    0.00002551   -0.00080461
     atom   10 type  1   force =     0.00048833    0.00006961    0.00008134
     atom   11 type  1   force =     0.00000861   -0.00033656   -0.00093001
     atom   12 type  1   force =    -0.00024770    0.00000557    0.00014060
     atom   13 type  2   force =     0.00000130   -0.00000816   -0.00069122
     atom   14 type  2   force =     0.00103612    0.00058642    0.00026973
     atom   15 type  2   force =     0.00100790   -0.00058495    0.00022363
     atom   16 type  2   force =    -0.00000165   -0.00119047    0.00027025
     atom   17 type  2   force =    -0.00000557    0.00117844    0.00022504
     atom   18 type  2   force =    -0.00103556    0.00059413    0.00027099
     atom   19 type  2   force =    -0.00101083   -0.00059249    0.00022437
     atom   20 type  2   force =     0.00000196   -0.00001495   -0.00066670
     atom   21 type  2   force =     0.00001854    0.00000761   -0.00019002
     atom   22 type  2   force =    -0.00000012   -0.00000710   -0.00019178
     atom   23 type  2   force =    -0.00000295   -0.00002612   -0.00018995
     atom   24 type  2   force =     0.00001384   -0.00001414   -0.00019406
     atom   25 type  2   force =    -0.00002149    0.00000934   -0.00018999
     atom   26 type  2   force =    -0.00000104    0.00000913   -0.00019406
     atom   27 type  2   force =    -0.00000178   -0.00000362   -0.00017170
     atom   28 type  2   force =    -0.00001301   -0.00001634   -0.00019404
     atom   29 type  2   force =    -0.00000183   -0.00000271   -0.00008800
     atom   30 type  2   force =     0.00000024   -0.00000650   -0.00013195
     atom   31 type  2   force =    -0.00000317   -0.00000192   -0.00008992
     atom   32 type  2   force =    -0.00000004   -0.00000691   -0.00013195
     atom   33 type  2   force =    -0.00000189   -0.00000422   -0.00008988
     atom   34 type  2   force =    -0.00000024   -0.00000641   -0.00013195
     atom   35 type  2   force =    -0.00000043   -0.00000202   -0.00008991
     atom   36 type  2   force =    -0.00000001   -0.00000665   -0.00013206

     Total force =     0.004980     Total SCF correction =     0.000333

     Writing all to output data dir ./tmp/AGC_N3_top_fcc_G3_c2_bound.save/ :
     XML data file, charge density, pseudopotentials, collected wavefunctions
 
     init_run     :     27.12s CPU     28.26s WALL (       1 calls)
     electrons    :   3159.58s CPU   3219.47s WALL (       1 calls)
     forces       :     14.18s CPU     14.58s WALL (       1 calls)
     force_dftd3  :      0.01s CPU      0.01s WALL (       1 calls)

     Called by init_run:
     wfcinit      :     19.74s CPU     20.66s WALL (       1 calls)
     potinit      :      6.45s CPU      6.53s WALL (       1 calls)
     hinit0       :      0.44s CPU      0.48s WALL (       1 calls)

     Called by electrons:
     c_bands      :   2437.21s CPU   2480.87s WALL (      45 calls)
     sum_band     :    447.63s CPU    461.02s WALL (      45 calls)
     v_of_rho     :      8.33s CPU      9.14s WALL (      46 calls)
     newd         :      6.28s CPU      6.30s WALL (      46 calls)
                                        6.30s GPU  (      46 calls)
     PAW_pot      :    186.40s CPU    186.44s WALL (      46 calls)
     mix_rho      :     75.69s CPU     77.23s WALL (      45 calls)
     energy_dftd3 :      0.00s CPU      0.00s WALL (       1 calls)

     Called by c_bands:
     init_us_2    :    109.94s CPU    110.34s WALL (    1840 calls)
     cegterg      :   2276.46s CPU   2279.50s WALL (     900 calls)

     Called by *egterg:
     cdiaghg      :    153.91s CPU    154.44s WALL (    5865 calls)
                                      148.92s GPU  (    5865 calls)
     h_psi        :   1142.60s CPU   1150.48s WALL (    5885 calls)
                                     1146.74s GPU  (    5885 calls)
     s_psi        :    140.47s CPU    140.60s WALL (    5885 calls)
     g_psi        :      0.02s CPU      5.23s WALL (    4965 calls)
                                        1.48s GPU  (    4965 calls)

     Called by h_psi:
     h_psi:calbec :      0.37s CPU    220.16s WALL (    5885 calls)
                                      217.18s GPU  (    5885 calls)
     vloc_psi     :    634.60s CPU    638.54s WALL (    5885 calls)
                                      634.97s GPU  (    5885 calls)
     add_vuspsi   :    106.44s CPU    270.76s WALL (    5885 calls)
                                      267.09s GPU  (    5885 calls)

     General routines
     calbec       :      0.41s CPU      0.43s WALL (    6865 calls)
     fft          :      2.30s CPU      3.40s WALL (     607 calls)
                                        0.62s GPU  (     561 calls)
     ffts         :      0.89s CPU      5.33s WALL (    5439 calls)
                                        1.88s GPU  (    5393 calls)
     fftw         :      1.30s CPU    375.19s WALL (   67834 calls)
                                      331.15s GPU  (   67834 calls)
     interpolate  :      3.28s CPU      3.73s WALL (      46 calls)
     davcio       :      2.39s CPU     55.59s WALL (    3566 calls)
 
     Parallel routines
 
     PWSCF        :  53m21.24s CPU  54m23.71s WALL

 
   This run was terminated on:  20:41:35   4Oct2026            

=------------------------------------------------------------------------------=
   JOB DONE.
=------------------------------------------------------------------------------=
