102
Lattice="10.055095635733188 0.0 0.0 0.0 10.055095635733188 0.0 0.0 0.0 37.045839118881126" Properties=species:S:1:pos:R:3 source=db/raw/wad_sese_4L_2026_09_25/li_outer_relaxed_final_coords.txt source_sha256=7e0b1daea3467b1f25e72d9689ca41f76646907ed74cbad1ad628507f66fcce5 charge=0 spin=0 pbc="T T F"
P        4.93424100       2.06296700       1.74074200
P       -0.09333100       7.09049800       1.74071000
P       -0.05861700       2.33843100       6.89456800
P        4.96889700       7.36598800       6.89456200
S        6.38173700       3.19542700       2.78569800
S        1.35412000       8.22300600       2.78566700
S        3.83039100       1.04514300       3.23778100
S        8.85793400       6.07265700       3.23775200
S        3.84486600       3.45948300       0.75102400
S        8.87236800       8.48697800       0.75097000
S        8.62861300       3.38523600       5.71638800
S        3.60106300       8.41278800       5.71634600
S        5.60408800       0.60552800       0.50001100
S        0.57656300       5.63307200       0.50000000
S        1.03570200       1.05818900       5.72973400
S        6.06321400       6.08567100       5.72979100
Li       8.23494000       1.96179800       3.79093200
Li       3.20730400       6.98939200       3.79092400
Li       1.83837300       4.03990700       1.90374300
Li       6.86586600      -0.98772200       1.90370600
Li       7.75457500       9.72559000       6.55907100
Li       2.72689300       4.69817800       6.55912000
Li       3.65770800       9.31565900       1.47235200
Li       8.68530100       4.28804100       1.47233100
Li       2.72110000       2.53970500       4.76521300
Li       7.74854800       7.56717200       4.76513500
Li      -0.43616800      -0.15905500       2.66847300
Li       4.59146800       4.86851500       2.66852900
Li       5.74171100       1.76388000       4.74593000
Li       0.71410500       6.79142300       4.74589500
Li       0.13204700       4.11372600       4.04707500
Li       5.15955100       9.14132200       4.04705600
Cl       9.40184600       7.51199100       6.73780500
Cl       4.95905700       7.42875800       2.28647400
Cl       9.98661400       2.40119300       2.28648900
S        7.40517200       9.86201100       4.20074200
S        2.37761500       4.83450900       4.20077300
P        4.92300210       2.71102321      11.68022182
P       -0.08885841       7.73595337      11.66188906
P       -0.14312202       2.93695482      16.60009933
P        4.96955410       7.97271900      16.60795803
S        6.00959899       3.93707773      12.90567645
S        0.99639525       8.95892556      12.89330561
S        0.99185400       3.69462600       7.99757100
S        6.01939100       8.72221400       7.99750400
S        3.51938453       1.66300460      12.80658805
S        8.56523747       6.68141206      12.78340618
S        8.85032600       1.16298100       8.18404200
S        3.82273400       6.19059600       8.18406300
S        3.82303210       3.91300183      10.40643577
S        8.85882927       8.94262825      10.39852644
S        8.86159049       4.00373799      15.14527962
S        3.86777846       9.02265436      15.14983689
S        5.96928663       1.37393350      10.56675093
S        0.96249742       6.41096897      10.54245480
S        1.32857765       1.85626062      15.59681131
S        6.39378925       6.84624793      15.53961906
Li       2.71711700       2.28922400       9.03005800
Li       7.74449400       7.31678800       9.03015300
Li       7.75339178       2.47266384      13.68947685
Li       2.75677647       7.50719251      13.67973828
Li       8.12815900       5.29686000       7.13461800
Li       3.10049600       0.26926500       7.13458800
Li       2.70806233       5.41904309      11.91434387
Li       7.74395309       0.39127066      11.91081122
Li       6.84917442      11.01991517      16.47177606
Li       1.85366853       6.16833855      16.43066281
Li       3.01339083       9.77113356      11.48715470
Li       8.04686242       4.71767766      11.50619453
Li       3.20682019       3.08561628      14.69651195
Li       8.23086159       8.11320743      14.64614950
Li       7.71966503       2.75499445       9.55942318
Li       2.71509628       7.80308015       9.55744586
Li       0.28343879       0.89684231      10.27047033
Li       5.31987398       5.90775301      10.28816228
Li       5.16954642       0.95408606      14.35822894
Li       0.15305212       5.99643088      14.34035187
Li       0.77804215       3.29929564      13.61902375
Li       5.79823554       8.32972991      13.61346078
Li       5.34231600       4.22634500       8.23440600
Li       0.31469700       9.25359700       8.23472000
Cl       9.96938177       7.65852790      16.15027697
Cl       4.37430000       2.48446500       6.73783600
Cl       4.35424780       7.60001308      11.77300611
Cl       9.37902311       2.56384755      11.78835461
S        2.25745868      10.07511207       9.31138012
S        7.30188200       5.02751300       9.34307300
S        7.40815610      10.25493937      14.23271386
S        2.37401324       5.22961335      14.24253030
S        0.56714811       4.47245677      17.84784469
S        5.67528798       9.38859772      17.86741477
S        8.85329737       1.57185375      17.61536700
S        3.87410643       6.56905414      17.56491556
Li       8.55548735       5.82985218      16.78602062
Li       3.74862874       0.68228518      16.92851383
Li       4.60749677       5.18773177      15.59183867
Li      -0.43285303      10.20777598      15.58273990
Cl       4.95899405       2.60054658      16.17426983
Ag       7.11371820       5.12113320      22.31801496
Ag       9.56196531       4.72109798      20.07408170
Ag       9.13519236       7.12050399      22.28776935
Ag       9.67554106       4.59241476      23.45434743
