120
Lattice="13.98837871 0.0 0.0 0.0 13.98837871 0.0 0.0 0.0 13.98837871" Properties=species:S:1:pos:R:3:forces:R:3 t_ps=15.0 charge=0 spin=0 energy=-507.99596843970147 free_energy=-507.99596843970147 stress="0.0029799048416837386 -0.0013610704244389911 6.974372584301709e-05 -0.0013610704244389911 0.0008894368651335153 0.00033713752624247017 6.974372584301709e-05 0.00033713752624247017 0.0026358366802460152" pbc="T T T"
P        1.16386069      10.47019520     -14.62925053      -0.00122014       0.00517169      -0.00039664
S       -0.42220140      10.90584483     -15.85923323      -0.00397112       0.00047505       0.00054160
S        1.04381447       8.51323523     -14.01933583       0.00793126       0.00162296      -0.00559195
S        0.96682940      11.71823827     -12.99406010      -0.00700446       0.00442587       0.00194404
S        2.99780050      10.89262944     -15.49617180       0.00513417       0.00002807       0.00929905
P       17.43256478      22.63432252     -10.35501001       0.00670005       0.00370396       0.00032873
S       15.42558002      22.99989634     -10.03721100       0.00045582       0.00840180       0.00149572
S       18.43345873      23.66782715     -11.83468712      -0.00644687      -0.00673211      -0.01218815
S       17.59641923      20.64685245     -10.87970698       0.01222383       0.00414199       0.00007208
S       18.40227154      23.09334365      -8.57563082      -0.00047490      -0.00669456       0.00776767
P       -9.80518555      14.80574650      13.45786336      -0.00629473       0.00434273      -0.00009151
S       -8.98397114      13.99417646      11.74336341      -0.01506123      -0.00333688      -0.00353058
S       -9.38013810      13.62882370      15.11700110       0.00529348       0.00528758       0.00368988
S      -11.81674606      14.93544362      13.11843109      -0.00826556       0.00578241       0.00223592
S       -8.86639231      16.61586352      13.82853548       0.00071324       0.00835165      -0.00857422
P        0.28780671       2.71547556       4.03612539       0.00156871       0.00023797      -0.00244613
S        0.93496420       1.31818616       2.66251857      -0.00092346      -0.00507167       0.00049651
S        0.35433346       4.56644990       3.12058194       0.00585640      -0.00040438      -0.00796694
S        1.42148239       2.62859915       5.74789247       0.00282660       0.00527939      -0.00302807
S       -1.70813897       2.27482091       4.39282504       0.00140892      -0.00330253      -0.00356369
P       20.74356690      25.03023198       9.11820183       0.00181349      -0.00005691       0.00077893
S       19.34986396      26.48769143       8.77446335       0.00244602       0.00777057       0.00494542
S       20.23603246      24.03710811      10.88236336      -0.00931474       0.00565515       0.00703273
S       22.65082965      25.76785370       9.31196656       0.00139629      -0.00823005      -0.00443143
S       20.68385204      23.73975164       7.51879584      -0.00395548       0.00082342      -0.00325998
P        5.34826715      14.90965491      19.52585646       0.00608021      -0.00935207      -0.00312630
S        5.07844508      16.29306474      17.97883819       0.00719937      -0.00760755      -0.00432182
S        7.33887561      14.54829245      19.82891479       0.01041992      -0.00297118       0.00579481
S        4.23615056      13.26231292      19.01775413       0.00028807      -0.01373685      -0.00434046
S        4.56902978      15.70541350      21.26042717      -0.00476706      -0.00534388      -0.00218807
P      -15.49990889       3.90470796      -4.92563494      -0.00155479      -0.00230198      -0.00015047
S      -15.67562395       5.16831727      -6.54345471      -0.00108764      -0.00182220      -0.00071127
S      -16.33299631       2.10054244      -5.48314369      -0.00590073      -0.00573685       0.01168636
S      -16.65469354       4.69580750      -3.38890957      -0.00996117      -0.00770390       0.00110638
S      -13.49287387       3.85397675      -4.46937450       0.00770096      -0.00485139      -0.01117466
P       -4.24325320      -6.54891941     -14.82797102       0.00237142       0.00687340       0.00021492
S       -5.39750143      -5.70753417     -13.33893415      -0.00180032       0.00882361       0.00301204
S       -5.34418148      -8.15864004     -15.49258680       0.00142913       0.00053875       0.00336078
S       -2.40446791      -7.08791013     -14.05056988       0.00116746      -0.00391012       0.00624446
S       -3.87274574      -5.29340046     -16.40555779       0.00136581       0.00423205      -0.00821109
P       11.66364340      29.47602988      13.33977917      -0.00083349      -0.00105240       0.00119962
S       13.13714709      29.02286287      11.98396607      -0.00794578      -0.00548443      -0.00935678
S       11.55250051      27.91559457      14.66664623      -0.00156444       0.00530490       0.01258977
S        9.79076159      29.68067509      12.50221053       0.00151732       0.00268665      -0.00343930
S       12.12377353      31.28345329      14.27378952       0.00603589       0.00075562       0.01286238
P       28.72370204      -1.82791244      22.11444042      -0.00202191       0.00162507       0.00140208
S       29.76366583      -3.57050027      22.51404113       0.00831784       0.00404612       0.00583764
S       26.74317678      -2.03924573      22.68075636      -0.00253873      -0.01382339      -0.00418309
S       28.77929548      -1.56140409      20.07629846       0.00013140       0.00823667       0.00169096
S       29.50117424      -0.17326821      23.05904643      -0.00086491       0.00188057       0.00555910
P       10.44910948      -3.00492445      31.91963671       0.00468567      -0.00102344       0.00112307
S        8.43317103      -2.93579349      31.40224254      -0.00116985      -0.00255972      -0.00307465
S       11.02082832      -1.06171022      32.30787792       0.00711636      -0.00270831       0.01102589
S       11.44375803      -3.81918701      30.30276468      -0.01118020      -0.00585569      -0.00360381
S       10.87240853      -4.02081658      33.66187767       0.00255119      -0.00056549       0.00551637
P       -5.31483336      -8.36718796       4.15808369      -0.00043575       0.00083523      -0.00153793
S       -6.48943239      -9.10671245       2.65721470      -0.00023015      -0.00314344      -0.00648203
S       -5.27922445      -9.74923039       5.69184369      -0.00124341      -0.00190459       0.00707386
S       -6.21274511      -6.64589917       4.91173464      -0.00147697       0.00392100       0.00319409
S       -3.36234449      -7.88029463       3.69827058       0.00355947      -0.00291604      -0.01024080
Cl      22.26619807      -1.98590195      -0.52478080      -0.00791213      -0.00363658       0.00562908
Cl       1.65589399     -21.50798354       6.75068965      -0.00232580      -0.00132757      -0.00176040
Cl       6.88225355      33.91587327      -4.66651376       0.01421713       0.00432536       0.00363583
Cl     -12.68123857      18.56992057      13.11421053       0.00912736       0.01032072       0.00113655
Cl      18.21320524     -24.05415366      24.48925606      -0.00270767       0.00034510      -0.00319780
Cl      21.47723395     -11.68976753       9.63393239      -0.00033884       0.00149261       0.00125742
Cl      18.87459767       6.43299792      13.25416996      -0.00103830       0.00481042      -0.00476263
Cl     -10.54819652      -6.43360999     -32.39711365      -0.00557203       0.00274580      -0.00421422
Cl      41.47874663      -6.28751432      -3.76780771      -0.00099103      -0.00115993      -0.00049418
Cl      -4.26856037       7.67458668      22.05435702      -0.00524854      -0.00174754      -0.00481312
Cl      19.08146424      -8.69887721      -7.52328357      -0.00181225      -0.00230347      -0.00393498
Cl      22.26226095      15.09051981      58.24277685      -0.00536490      -0.00107199       0.00507365
Li     -19.39808385      41.42487991     -38.00356051       0.00818590      -0.00376181      -0.00117804
Li      36.59740326     -31.31497385      39.47000489       0.00128466      -0.00628170       0.00379549
Li     -38.49323009      49.78873360      56.62401797      -0.00308003       0.00184081      -0.00202669
Li     -15.17356505      -5.45651347     -15.52861888      -0.00175966       0.01007671      -0.00454856
Li      -0.51653211     -28.96130639    -126.44576814       0.00759838      -0.00371575       0.00764028
Li      44.65420327      13.18410520      25.28884183      -0.00522830       0.00706480       0.00405069
Li       4.99721628       6.22464994     -31.21511290       0.00148667      -0.00179657      -0.00909988
Li     -49.82154062      67.94909269      54.40793956      -0.00694802       0.00968998      -0.00030018
Li      24.55957306       7.86515220      16.00369914      -0.00281976       0.00262370       0.00153831
Li       1.97687587      38.19549059       6.04064161       0.00246655      -0.00222157      -0.00688579
Li       1.28184148       6.51951279      -4.80202089       0.00555000      -0.00243443      -0.00719364
Li      47.76118041      72.23560605     -58.59397525      -0.00084195       0.00282442       0.00305854
Li      -8.26859470      33.94799369       4.23842256      -0.00140270      -0.00106659      -0.00012948
Li      -2.09474169      -9.87537854      16.80734534       0.00181193       0.00083803       0.00039288
Li       9.11605577     -59.85511710     -48.41461354      -0.00890963      -0.01220056       0.00782382
Li     -28.15284476      23.99079538      51.82422842       0.01130157      -0.00339562       0.01291820
Li      -7.49356567      65.37313424       3.88836465      -0.00311250       0.02608133       0.00702688
Li      -3.83130353      21.67313322      89.57759930       0.00563442      -0.00731119      -0.00726353
Li      96.87933487      46.99915654      12.53492188       0.00438158       0.01138410       0.00360009
Li      47.22304142      25.51835657       6.54945893      -0.00933372       0.00538985       0.00797064
Li       0.10533506      37.69164029       2.02293393       0.00493252      -0.00817202       0.00625502
Li      17.67977771     -23.60054119      96.77657129       0.00172819       0.00055831      -0.00521750
Li      -7.20502080      28.40496968     -19.67711116       0.00014477       0.01114522      -0.00424356
Li      59.67463599      23.85287610      -3.70750931      -0.00335968      -0.00382208      -0.00671673
Li      20.03331279      43.43148704     -26.17416221      -0.00018754       0.00297948      -0.00043287
Li       7.09289119      20.30673116     -13.59139394      -0.00980286       0.00805106       0.00321257
Li     -10.22803280      59.43383703     -22.26298080       0.00205447      -0.00089148       0.00029751
Li     -27.38160653      -9.56824226       7.10511910      -0.00193781       0.00662158      -0.00949301
Li       0.66168851     -24.81613778       0.97023630       0.00967549      -0.01072707      -0.00739106
Li      66.10531042       4.05061479      41.02295683       0.00083772      -0.00258852       0.00743998
Li     -39.57446877       0.36032695       6.67225946      -0.00588806       0.00818016       0.01372937
Li      35.56597505      16.65490449      -9.86501613      -0.00130898       0.00277485      -0.00175257
Li      23.24048023      10.59368534      29.09699040      -0.01119803       0.00123646       0.01071854
Li     -46.83150001     -69.84429324     -13.70621497      -0.00507857      -0.00083336       0.00571086
Li      49.61878426      20.18106891     -20.86230265       0.00716690      -0.00065057      -0.00861795
Li      26.55300533       0.36170719      58.82627186       0.00487137       0.00639302      -0.00132316
Li      -4.12995201     -39.39012153     -31.80155547      -0.00723089       0.00184064       0.00751140
Li      -2.41589612     -21.19865806      37.20142797      -0.00025906      -0.00143447      -0.00472206
Li      25.10641821     -10.58810052     -49.65520435       0.00124116      -0.01269191      -0.00205121
Li     -10.62436086     -16.39735370     -13.06860379       0.00674507      -0.00902283       0.00354747
Li      41.03851168      14.30885562      -4.45274027      -0.00471790      -0.00848378      -0.00221195
Li     -12.92532616      30.64950719      11.68379931       0.00221995       0.00832562       0.00544498
Li      -8.17287548      45.79260613      36.55095838      -0.00594627       0.00482536      -0.00881110
Li     -12.50606860      34.43971046     -51.58814175      -0.00704762      -0.00482199      -0.01142695
Li      36.54152199      21.22323588      24.26110444       0.00838037      -0.01081321      -0.00909543
Li      87.82266801     -48.70593467      21.15550833       0.00949388       0.00441830      -0.00093218
Li     -66.60690958     -41.32104566     -10.88879162      -0.00092118      -0.00656685      -0.00233765
Li      26.31042608      11.96755159     -21.73610863       0.00089841      -0.01330858      -0.00174699
