120
Lattice="13.98837871 0.0 0.0 0.0 13.98837871 0.0 0.0 0.0 13.98837871" Properties=species:S:1:pos:R:3:forces:R:3 t_ps=15.0 charge=0 spin=0 energy=-507.99596843970147 free_energy=-507.99596843970147 stress="0.0029799048416837386 -0.0013610704244389911 6.974372584301709e-05 -0.0013610704244389911 0.0008894368651335153 0.00033713752624247017 6.974372584301709e-05 0.00033713752624247017 0.0026358366802460152" pbc="T T T"
P        1.12469811      10.48278763     -14.65582605      -0.00122014       0.00517169      -0.00039664
S       -0.42750234      10.91404032     -15.92914396      -0.00397112       0.00047505       0.00054160
S        1.00543013       8.52833831     -14.05912279       0.00793126       0.00162296      -0.00559195
S        0.88536885      11.73453536     -13.02930851      -0.00700446       0.00442587       0.00194404
S        2.96676971      10.92889214     -15.50366399       0.00513417       0.00002807       0.00929905
P       17.33846193      22.69713121     -10.38864920       0.00670005       0.00370396       0.00032873
S       15.29902582      22.94300377     -10.06312201       0.00045582       0.00840180       0.00149572
S       18.24064647      23.75401493     -11.87332056      -0.00644687      -0.00673211      -0.01218815
S       17.59238804      20.70530037     -10.87447449       0.01222383       0.00414199       0.00007208
S       18.24189643      23.18021332      -8.56862912      -0.00047490      -0.00669456       0.00776767
P       -9.83121028      14.83984691      13.47731714      -0.00629473       0.00434273      -0.00009151
S       -9.00798109      14.04804494      11.75526845      -0.01506123      -0.00333688      -0.00353058
S       -9.39067468      13.61216845      15.09466590       0.00529348       0.00528758       0.00368988
S      -11.84422464      14.96890845      13.13856021      -0.00826556       0.00578241       0.00223592
S       -8.89682651      16.64634548      13.87113525       0.00071324       0.00835165      -0.00857422
P        0.31830220       2.69865191       4.01897903       0.00156871       0.00023797      -0.00244613
S        0.97188035       1.26666536       2.68564586      -0.00092346      -0.00507167       0.00049651
S        0.38873103       4.52800083       3.07089814       0.00585640      -0.00040438      -0.00796694
S        1.46314285       2.67923563       5.73033953       0.00282660       0.00527939      -0.00302807
S       -1.67013146       2.26185362       4.39903916       0.00140892      -0.00330253      -0.00356369
P       20.75774080      25.12354462       9.11508873       0.00181349      -0.00005691       0.00077893
S       19.46145183      26.68269383       8.91174259       0.00244602       0.00777057       0.00494542
S       20.23249255      24.06058442      10.83373702      -0.00931474       0.00565515       0.00703273
S       22.71231787      25.69344587       9.29461074       0.00139629      -0.00823005      -0.00443143
S       20.52711182      23.91348765       7.44580397      -0.00395548       0.00082342      -0.00325998
P        5.46799841      14.75494428      19.49900730       0.00608021      -0.00935207      -0.00312630
S        5.08936892      16.11111839      17.95426097       0.00719937      -0.00760755      -0.00432182
S        7.47557338      14.59570351      19.83603685       0.01041992      -0.00297118       0.00579481
S        4.57234300      12.97259223      18.97666360       0.00028807      -0.01373685      -0.00434046
S        4.58100509      15.55206792      21.18386888      -0.00476706      -0.00534388      -0.00218807
P      -15.49023324       3.91845427      -4.93119137      -0.00155479      -0.00230198      -0.00015047
S      -15.67261734       5.17776408      -6.54850206      -0.00108764      -0.00182220      -0.00071127
S      -16.32998336       2.11279585      -5.48148154      -0.00590073      -0.00573685       0.01168636
S      -16.63221602       4.71685272      -3.38784390      -0.00996117      -0.00770390       0.00110638
S      -13.47827664       3.85028106      -4.48988591       0.00770096      -0.00485139      -0.01117466
P       -4.24065990      -6.56198506     -14.80401375       0.00237142       0.00687340       0.00021492
S       -5.40479071      -5.72327642     -13.32857838      -0.00180032       0.00882361       0.00301204
S       -5.33674546      -8.18327866     -15.46244305       0.00142913       0.00053875       0.00336078
S       -2.39738234      -7.08192850     -14.02525499       0.00116746      -0.00391012       0.00624446
S       -3.86716642      -5.32410605     -16.39738838       0.00136581       0.00423205      -0.00821109
P       11.65802950      29.46728080      13.32113105      -0.00083349      -0.00105240       0.00119962
S       13.13304981      29.03309858      11.95904986      -0.00794578      -0.00548443      -0.00935678
S       11.54874759      27.89871604      14.63632803      -0.00156444       0.00530490       0.01258977
S        9.78775317      29.67805871      12.47840829       0.00151732       0.00268665      -0.00343930
S       12.12680853      31.25693599      14.27955850       0.00603589       0.00075562       0.01286238
P       28.82670191      -1.76686462      22.08572967      -0.00202191       0.00162507       0.00140208
S       29.97970252      -3.45844446      22.45224305       0.00831784       0.00404612       0.00583764
S       26.86700832      -2.08788501      22.64220281      -0.00253873      -0.01382339      -0.00418309
S       28.88802850      -1.48525316      20.05250689       0.00013140       0.00823667       0.00169096
S       29.51632946      -0.10015166      23.07185414      -0.00086491       0.00188057       0.00555910
P       10.45035536      -2.96287228      31.96298350       0.00468567      -0.00102344       0.00112307
S        8.43192833      -2.88391635      31.48598191      -0.00116985      -0.00255972      -0.00307465
S       11.09436888      -1.03529979      32.33485556       0.00711636      -0.00270831       0.01102589
S       11.39090142      -3.79649114      30.32386102      -0.01118020      -0.00585569      -0.00360381
S       10.88424872      -3.98924474      33.69762889       0.00255119      -0.00056549       0.00551637
P       -5.28944792      -8.38631702       4.20984823      -0.00043575       0.00083523      -0.00153793
S       -6.48699763      -9.11602335       2.70782995      -0.00023015      -0.00314344      -0.00648203
S       -5.24349581      -9.81526449       5.70754041      -0.00124341      -0.00190459       0.00707386
S       -6.15020794      -6.66369728       4.93552011      -0.00147697       0.00392100       0.00319409
S       -3.33269459      -7.91428728       3.72144606       0.00355947      -0.00291604      -0.01024080
Cl      22.24380440      -2.00968371      -0.52708319      -0.00791213      -0.00363658       0.00562908
Cl       1.64555758     -21.49119661       6.74943506      -0.00232580      -0.00132757      -0.00176040
Cl       6.87009157      33.98350263      -4.69109881       0.01421713       0.00432536       0.00363583
Cl     -12.70213154      18.59290118      13.11833966       0.00912736       0.01032072       0.00113655
Cl      18.21280580     -24.01989463      24.50649265      -0.00270767       0.00034510      -0.00319780
Cl      21.46690558     -11.60059594       9.64758886      -0.00033884       0.00149261       0.00125742
Cl      18.86986771       6.46592194      13.26485130      -0.00103830       0.00481042      -0.00476263
Cl     -10.54513887      -6.45023247     -32.39676160      -0.00557203       0.00274580      -0.00421422
Cl      41.53151503      -6.25983190      -3.81191256      -0.00099103      -0.00115993      -0.00049418
Cl      -4.25747534       7.70437064      22.07634820      -0.00524854      -0.00174754      -0.00481312
Cl      19.09365399      -8.73208739      -7.55249752      -0.00181225      -0.00230347      -0.00393498
Cl      22.29138485      15.09280462      58.20115086      -0.00536490      -0.00107199       0.00507365
Li     -19.28621914      41.48524818     -38.01471062       0.00818590      -0.00376181      -0.00117804
Li      36.58743271     -31.36612733      39.47550480       0.00128466      -0.00628170       0.00379549
Li     -38.52362998      49.82622167      56.65146177      -0.00308003       0.00184081      -0.00202669
Li     -15.20097574      -5.44703538     -15.56400634      -0.00175966       0.01007671      -0.00454856
Li      -0.54950169     -28.96768406    -126.50490400       0.00759838      -0.00371575       0.00764028
Li      44.64835435      13.22176009      25.31151314      -0.00522830       0.00706480       0.00405069
Li       5.01734070       6.25004621     -31.18276266       0.00148667      -0.00179657      -0.00909988
Li     -49.83860192      67.98345268      54.38635695      -0.00694802       0.00968998      -0.00030018
Li      24.53400060       7.85871702      16.05182576      -0.00281976       0.00262370       0.00153831
Li       1.88592470      38.11610123       5.97145842       0.00246655      -0.00222157      -0.00688579
Li       1.29942597       6.45988006      -4.79460853       0.00555000      -0.00243443      -0.00719364
Li      47.75310738      72.27614948     -58.55934618      -0.00084195       0.00282442       0.00305854
Li      -8.22500319      34.12937900       4.19372952      -0.00140270      -0.00106659      -0.00012948
Li      -2.07303187      -9.87982375      16.82206673       0.00181193       0.00083803       0.00039288
Li       9.06017185     -59.92317149     -48.43672463      -0.00890963      -0.01220056       0.00782382
Li     -27.96926315      23.98671749      51.79552769       0.01130157      -0.00339562       0.01291820
Li      -7.70308869      66.77384276       4.99212461      -0.00311250       0.02608133       0.00702688
Li      -3.81201562      21.68190345      89.57797191       0.00563442      -0.00731119      -0.00726353
Li      96.84679970      47.01034698      12.59271092       0.00438158       0.01138410       0.00360009
Li      46.42925087      25.46636336       7.11516830      -0.00933372       0.00538985       0.00797064
Li       0.04731444      37.69877296       1.99910106       0.00493252      -0.00817202       0.00625502
Li      17.66220358     -23.55708144      96.80874976       0.00172819       0.00055831      -0.00521750
Li      -7.15416008      28.54808884     -19.72333998       0.00014477       0.01114522      -0.00424356
Li      59.70171764      23.74751658      -3.57032638      -0.00335968      -0.00382208      -0.00671673
Li      20.05518140      43.38774175     -26.19798932      -0.00018754       0.00297948      -0.00043287
Li       7.09212867      20.29904602     -13.54023420      -0.00980286       0.00805106       0.00321257
Li     -10.13113404      59.34907357     -22.31809205       0.00205447      -0.00089148       0.00029751
Li     -27.38069678      -9.54783989       7.08548452      -0.00193781       0.00662158      -0.00949301
Li       0.70014536     -24.88689540       0.94128662       0.00967549      -0.01072707      -0.00739106
Li      66.08734221       4.02813819      41.07493296       0.00083772      -0.00258852       0.00743998
Li     -39.68377215       0.52759540       6.75381371      -0.00588806       0.00818016       0.01372937
Li      35.57207885      16.66649976      -9.89072779      -0.00130898       0.00277485      -0.00175257
Li      23.15528984      10.58559065      29.16646141      -0.01119803       0.00123646       0.01071854
Li     -46.83179809     -69.86850906     -13.74037981      -0.00507857      -0.00083336       0.00571086
Li      49.59630278      20.07763177     -20.92477187       0.00716690      -0.00065057      -0.00861795
Li      26.57000315       0.36128298      58.79484918       0.00487137       0.00639302      -0.00132316
Li      -4.12194446     -39.34170833     -31.80302697      -0.00723089       0.00184064       0.00751140
Li      -2.37692574     -21.16410092      37.18622202      -0.00025906      -0.00143447      -0.00472206
Li      25.11331872     -10.58409033     -49.66342898       0.00124116      -0.01269191      -0.00205121
Li     -10.71929312     -16.35142298     -13.09102836       0.00674507      -0.00902283       0.00354747
Li      41.03019055      14.30134841      -4.46204120      -0.00471790      -0.00848378      -0.00221195
Li     -12.94186486      30.68527984      11.68863119       0.00221995       0.00832562       0.00544498
Li      -8.18224180      45.88583697      36.60340963      -0.00594627       0.00482536      -0.00881110
Li     -12.50792137      34.41837233     -51.61254344      -0.00704762      -0.00482199      -0.01142695
Li      36.63166376      21.11887946      24.26557494       0.00838037      -0.01081321      -0.00909543
Li      87.80725896     -48.71503402      21.10780807       0.00949388       0.00441830      -0.00093218
Li     -66.57148674     -41.48376109     -10.86367283      -0.00092118      -0.00656685      -0.00233765
Li      26.38419895      11.96600092     -21.75734745       0.00089841      -0.01330858      -0.00174699
