120
Lattice="13.99358543 0.0 0.0 0.0 13.99358543 0.0 0.0 0.0 13.99358543" Properties=species:S:1:pos:R:3:forces:R:3 t_ps=18.0 charge=0 spin=0 energy=-508.16942734306105 free_energy=-508.16942734306105 stress="0.003517951641631063 -0.0011931824308054244 0.00033058510066051247 -0.0011931824308054244 0.0007744753679054416 0.0002818316224255165 0.00033058510066051247 0.0002818316224255165 0.0029250161640307516" pbc="T T T"
P        1.16553373      10.49760555     -14.61026085      -0.00202071       0.00388370       0.00108887
S       -0.43857630      10.89653296     -15.82778353      -0.00499238       0.00233815       0.00534986
S        1.05182039       8.55148771     -13.96304141       0.00447076       0.00064347      -0.00384143
S        0.98833230      11.76943658     -12.98977681      -0.00281290       0.00390391       0.00352202
S        2.98935355      10.91263487     -15.50463875       0.00487975      -0.00198764       0.00802300
P       17.44542799      22.62664182     -10.34190739       0.00861381       0.00407777       0.00234666
S       15.44557375      23.00466092      -9.99973778       0.00795961       0.01122642       0.00745417
S       18.44652091      23.70147374     -11.79809099       0.00199449      -0.00542646      -0.01380210
S       17.59542619      20.65294504     -10.91972338       0.01332270       0.00463824      -0.00381496
S       18.42306555      23.04453836      -8.56734850       0.00616370      -0.00806324       0.00749782
P       -9.79952757      14.89917713      13.39132533      -0.00377381       0.00490835      -0.00249113
S       -8.98346803      14.13075571      11.65114280      -0.01271047      -0.00245628      -0.00599999
S       -9.35153645      13.68201829      15.01790869       0.00940493       0.00492213       0.00079518
S      -11.81939782      14.99362501      13.08634613      -0.00441930       0.00494576       0.00123841
S       -8.88769701      16.71143762      13.78817102       0.00292851       0.00958443      -0.01080522
P        0.23314250       2.67708295       4.01920699       0.00043764       0.00058504      -0.00224268
S        0.85230007       1.27326245       2.63733936      -0.00235427      -0.00482392       0.00053257
S        0.31422570       4.53173616       3.10943475       0.00541216       0.00150465      -0.00456969
S        1.38091288       2.57789635       5.71625218       0.00244775       0.00759914      -0.00201113
S       -1.76413210       2.25652245       4.39457778       0.00047727      -0.00503761      -0.00370247
P       20.85185078      25.18244534       9.13399064       0.00228834      -0.00459382      -0.00090854
S       19.51611032      26.66663849       8.72519401       0.00217211       0.00193572      -0.00000717
S       20.17911755      24.13003255      10.79014985      -0.01007963       0.00476378       0.00828904
S       22.76420814      25.80983874       9.50529323      -0.00068590      -0.00647350      -0.00131569
S       20.89030344      24.00798143       7.40588090       0.00092517      -0.00560607      -0.00094372
P        5.24473428      14.87419649      19.40118052       0.00016035      -0.00634536      -0.00382100
S        5.02906991      16.29718784      17.89307836       0.00384018      -0.00279317      -0.00589545
S        7.22823464      14.41062674      19.72910655       0.00578491      -0.00353319       0.00481461
S        4.15854320      13.22312014      18.88087368       0.00072271      -0.00805956      -0.00431677
S        4.52033456      15.67568413      21.14044700      -0.00678976       0.00003021      -0.00147955
P      -15.55223755       3.92494038      -4.92813539      -0.00322297      -0.00079305       0.00133383
S      -15.72226812       5.17387435      -6.55681367      -0.00391179      -0.00001978       0.00057992
S      -16.37360977       2.11059562      -5.46610330      -0.00360348      -0.00508664       0.01373627
S      -16.70584015       4.72507752      -3.38561219      -0.01351297      -0.00596385       0.00184244
S      -13.54484135       3.85068457      -4.47919711       0.00573509      -0.00610661      -0.00989221
P       -4.23519990      -6.63411492     -14.67619485       0.00098571       0.00474789      -0.00527056
S       -5.39567212      -5.75493109     -13.21896341      -0.00334559       0.00971190      -0.00190963
S       -5.34519972      -8.27396688     -15.29122804      -0.00080292       0.00045554      -0.00039502
S       -2.39234176      -7.13805568     -13.89225590      -0.00102137      -0.00769760       0.00241238
S       -3.88314013      -5.43632841     -16.29593217       0.00366569       0.00587886      -0.00929717
P       11.63023468      29.42983200      13.32324366      -0.00184187      -0.00055161       0.00454830
S       13.14555478      29.06056780      11.99802270      -0.00575584      -0.00757640      -0.00531590
S       11.51444297      27.84406178      14.61988956      -0.00109861       0.00395822       0.01416427
S        9.76311983      29.61340455      12.45448295       0.00286364       0.00336733      -0.00344492
S       12.03024596      31.21829469      14.32609542       0.00304133       0.00272436       0.01416624
P       28.72979084      -1.84797582      22.13183500      -0.00467149      -0.00124213       0.00362328
S       29.77587710      -3.58288499      22.53890328       0.00370403       0.00161362       0.00876732
S       26.75072416      -2.06083428      22.70779715      -0.00672692      -0.01012607      -0.00324657
S       28.78242544      -1.59809172      20.09087436      -0.00137342       0.00541531       0.00414610
S       29.50006887      -0.17776937      23.05248800       0.00093098       0.00048592       0.00713621
P       10.44098102      -2.98271896      31.94914795       0.00868627      -0.00020899      -0.00259549
S        8.41898086      -2.93520047      31.44154234       0.00174803       0.00176787      -0.00888176
S       10.98919567      -1.03157927      32.33205528       0.00953300      -0.00370930       0.00675623
S       11.43350868      -3.80879855      30.34012115      -0.00514369      -0.00226116      -0.00834015
S       10.90102696      -3.98975440      33.68404423       0.00278877      -0.00258807       0.00174086
P       -5.36775709      -8.39416121       4.38037227       0.00078980       0.00007336      -0.00245873
S       -6.54697804      -9.03153704       2.83328492       0.00243775       0.00216412      -0.00767956
S       -5.33410897      -9.90607895       5.79328477      -0.00479069       0.00170710       0.00824440
S       -6.21195711      -6.64796444       5.13939986       0.00252369       0.00443269       0.00948078
S       -3.40760797      -7.92626030       3.90427988       0.00256670      -0.00333263      -0.01147279
Cl      22.20721582      -2.06657686      -0.49873451      -0.00902360      -0.00548158       0.00561207
Cl       1.60836017     -21.58836114       6.75101486       0.00131280       0.00148166      -0.00015258
Cl       6.97912213      34.17166429      -4.67533280       0.01256711       0.00115176       0.00073006
Cl     -12.80909322      18.61731662      13.18892419       0.00881513       0.01149987       0.00089662
Cl      17.96590892     -23.90417877      24.61934688      -0.00834571       0.00354710      -0.00996531
Cl      21.48337784     -11.41974682       9.46054738      -0.00232222      -0.00106242      -0.00403610
Cl      18.87784843       6.52819161      13.28402378      -0.00606349       0.00126199       0.00991010
Cl     -10.52393222      -6.41616625     -32.46511852      -0.00223979       0.00279865       0.00009545
Cl      41.60197591      -6.32707912      -3.66634563       0.00142609      -0.00236927       0.00098132
Cl      -4.07052670       7.90805101      22.20652148      -0.00772610      -0.00509474       0.00288821
Cl      19.02615371      -8.73411839      -7.55386651       0.00503331      -0.00446244      -0.00475495
Cl      22.26328566      15.15863549      58.18629225      -0.00451106      -0.00074429       0.00304572
Li     -19.40870608      41.47294453     -38.12808213       0.00920658      -0.00349100      -0.00046317
Li      36.54236749     -31.50170706      39.55222781      -0.00149885      -0.00590076       0.00308232
Li     -38.49952041      49.88061397      56.65838444      -0.00495720       0.00681817       0.00009670
Li     -15.15276535      -5.49856440     -15.42493833      -0.00213674       0.00988411      -0.00041571
Li      -0.49967942     -28.96183523    -126.50838126       0.01297599       0.00051069       0.00924698
Li      44.67645626      13.25108459      25.27234365      -0.00187804       0.00841788       0.00587021
Li       4.98876319       6.22357435     -31.25328779       0.00152835      -0.00709362      -0.01948995
Li     -49.82738407      68.09998167      54.31507492      -0.00859700       0.01119912      -0.00065189
Li      24.56148004       7.84135939      16.17411266      -0.00186671       0.00324523       0.00147287
Li       2.09737035      38.23737247       6.05610063      -0.00148863       0.00063493      -0.00499625
Li       1.35344017       6.39001306      -4.73420906       0.00593621       0.00026544      -0.00405323
Li      47.61514400      72.46611597     -58.82898299      -0.00518778      -0.00142032      -0.00833107
Li      -8.31453159      34.07296054       4.32889621      -0.00705830       0.00196870      -0.00548019
Li      -2.13777270      -9.85639803      16.88246589      -0.00124445       0.00089646       0.00145024
Li       9.33653045     -59.65634234     -48.33007755      -0.00707169      -0.00606731       0.00380579
Li     -28.13607794      23.97342289      51.89229333       0.00644332      -0.00779625       0.01355946
Li      -7.50929724      65.39179648       3.93611419       0.00819615      -0.00585437       0.00128748
Li      -3.80808882      21.70773862      89.72873536       0.00042143      -0.00514841      -0.00416443
Li      96.77547096      46.96468453      12.65635362      -0.00115201       0.00998478       0.00215834
Li      47.77181016      26.03661404       6.40160936      -0.00563169      -0.00046427      -0.00539267
Li       0.14127029      37.76075019       2.07363040       0.00793516      -0.00701143       0.00949981
Li      17.59581527     -23.48876441      96.87993651       0.00334505       0.00168843      -0.00375675
Li      -7.32979322      28.73278477     -19.81398604      -0.00445360       0.00857397      -0.00470558
Li      59.63817015      23.86062533      -3.71680137       0.00220270      -0.00119289      -0.00485618
Li      20.02074241      43.51037083     -26.26295607      -0.00010504       0.00345934      -0.00047792
Li       7.01005751      20.36463675     -13.51487102      -0.01022957       0.00760953      -0.00113981
Li     -10.27953520      59.45128838     -22.31484828       0.00201758      -0.00033166       0.00171915
Li     -27.43815051      -9.63437115       7.08714865      -0.00356235       0.00565573      -0.00459575
Li       0.58084068     -24.86668227       0.95975833       0.00659492      -0.00670209      -0.00100631
Li      65.92604278       3.85807892      41.32177115      -0.00026601      -0.00215717       0.00715331
Li     -39.62622801       0.31959139       6.62688055      -0.00021325       0.00113084       0.01086417
Li      35.52745343      16.68341115      -9.92897178      -0.00335897      -0.00002098      -0.00080528
Li      23.23062618      10.57039516      29.14701891      -0.00506311       0.00085436       0.00391760
Li     -46.89294441     -69.93710187     -13.76465601      -0.00226011      -0.00008971       0.00604897
Li      49.55887851      21.67079214     -20.33991262      -0.00411042      -0.00159048      -0.00350226
Li      26.47122747       0.36114895      58.80631266       0.00530700       0.00803394      -0.00137441
Li      -4.16086347     -39.36338575     -31.81410913      -0.00772008      -0.00079412       0.00433821
Li      -2.23539237     -21.17942149      37.22057649      -0.00642362       0.00227985      -0.00602880
Li      25.08044672     -10.61204907     -49.65626742       0.00140848      -0.01209410      -0.00009127
Li     -10.59937845     -16.37103953     -13.09077731       0.00807689      -0.00642023       0.00371181
Li      41.05116369      14.30838766      -4.44587517      -0.00583049      -0.00699680       0.00228597
Li     -12.85515629      30.75751364      11.68215575       0.00409166       0.01003064       0.00605867
Li      -7.13792035      46.29159613      35.75088719      -0.00168061       0.00614287      -0.00310893
Li     -12.51108977      34.42358573     -51.62454389      -0.00473229       0.00402054      -0.01216491
Li      36.94907042      20.73454834      24.41702249       0.00058433      -0.00776210      -0.00620321
Li      87.76275656     -48.79648996      21.12136078       0.00895697       0.00231560       0.00361781
Li     -66.67933643     -41.33880252     -11.02684983       0.00098634      -0.00671189      -0.00012561
Li      26.33605036      11.99309513     -21.74390191      -0.00030320      -0.01256706      -0.00057675
