120
Lattice="13.98784317 0.0 0.0 0.0 13.98784317 0.0 0.0 0.0 13.98784317" Properties=species:S:1:pos:R:3:forces:R:3 t_ps=24.0 charge=0 spin=0 energy=-508.1053997908573 free_energy=-508.1053997908573 stress="0.0029617509562750288 -0.0008254967721422309 0.0002501465477819887 -0.0008254967721422309 0.0009428947974577883 -0.00028975189876926033 0.0002501465477819887 -0.00028975189876926033 0.0018103079411091556" pbc="T T T"
P        1.21471375      10.54500759     -14.59345896      -0.00050828       0.00512658       0.00201948
S       -0.39339087      10.96865124     -15.79076786      -0.00255278       0.00362422       0.00420305
S        1.08751654       8.60693543     -13.91571164       0.00753233       0.00035765      -0.00500966
S        1.07249129      11.83763639     -12.98728880      -0.00348236       0.00365866       0.00565195
S        3.04580636      10.89724855     -15.50763084       0.00424168       0.00226194       0.00828551
P       17.42270889      22.71074791     -10.26264158       0.00492114       0.00139824       0.00104641
S       15.43171385      23.15550443      -9.98854382       0.00337302       0.00455268       0.00325227
S       18.48630408      23.69930713     -11.72398070      -0.00218565      -0.00248928      -0.00834434
S       17.54331577      20.70911776     -10.72073965       0.01027906      -0.00144855      -0.00679747
S       18.39718441      23.11989820      -8.47007228       0.00073960      -0.00740506       0.00682638
P       -9.71877042      14.81448056      13.30626321      -0.00264034       0.00196818      -0.00259467
S       -8.91045437      13.99358566      11.58660769      -0.01068094      -0.00165289      -0.00727188
S       -9.28227604      13.62207242      14.95243065       0.00557543       0.00444753       0.00265247
S      -11.73266187      14.96349548      12.97393348      -0.00403120       0.00416500      -0.00095686
S       -8.77043633      16.61337543      13.67754227       0.00496950       0.00589461      -0.00757359
P        0.24531646       2.78412536       3.95764771       0.00034231       0.00088933      -0.00140469
S        0.93561066       1.37284784       2.61596486      -0.00242902      -0.00273009       0.00020954
S        0.31760277       4.62729950       3.03184785       0.00540489       0.00208949      -0.00199774
S        1.32660407       2.74211656       5.70882772       0.00328939       0.00315252      -0.00148261
S       -1.74877750       2.33051276       4.28483609       0.00079504      -0.00286244      -0.00078786
P       20.84167714      25.00793630       9.12688448       0.00064497      -0.00076762      -0.00135888
S       19.37156190      26.36102964       8.71121580       0.00465121       0.00857705      -0.00172316
S       20.28532244      23.96171060      10.85630972      -0.00814833       0.00483329       0.00523999
S       22.68672241      25.83458327       9.41181945      -0.00087238      -0.00445459       0.00017781
S       20.91608047      23.77780822       7.46217961      -0.00527746      -0.00198021      -0.00310840
P        5.31463814      14.70535109      19.34403214      -0.00149038      -0.00659305      -0.00667734
S        5.00689432      16.18674568      17.89272590       0.00506746      -0.00058586      -0.00853832
S        7.31691788      14.53460807      19.77226281       0.00605709       0.00315490       0.00351201
S        4.47920979      12.98633433      18.64545472      -0.00431998      -0.00191314       0.00133111
S        4.42683691      15.37799293      21.07609217      -0.00505955       0.00566821      -0.00013854
P      -15.63022525       3.96927742      -5.00834453       0.00060374      -0.00078473       0.00413706
S      -15.83865907       5.19289697      -6.61432547      -0.00360880       0.00473156       0.00580241
S      -16.36885018       2.10696203      -5.52377048      -0.00635115      -0.00500974       0.01576200
S      -16.76061329       4.67886240      -3.41907327      -0.00947667      -0.00836533       0.00556342
S      -13.61297460       3.98739596      -4.49912532       0.00965381      -0.00131762      -0.01287736
P       -4.35010961      -6.53383861     -14.66543636       0.00478438       0.00115857       0.00073684
S       -5.51847934      -5.58758535     -13.24474715      -0.00155975       0.00911300      -0.00149032
S       -5.46000285      -8.19209287     -15.19195758       0.00489833      -0.00273481      -0.00262970
S       -2.50629362      -6.98121247     -13.91805170       0.00092955      -0.01227439       0.00233346
S       -4.11312388      -5.40714598     -16.38019092      -0.00417068       0.00525222      -0.00666818
P       11.66445624      29.53606500      13.30558009      -0.00285437       0.00051366       0.00423557
S       13.16494603      29.26133782      11.92960814      -0.00589938      -0.01099167      -0.00352264
S       11.60893984      27.91455313      14.55763538       0.00110863      -0.00053758       0.01221319
S        9.77879293      29.73762164      12.49707694       0.00099362       0.00730401      -0.00195538
S       12.13761671      31.32907493      14.24920753       0.00121513       0.00416991       0.01579673
P       28.68303940      -1.76668729      22.15105404      -0.00155366      -0.00463519       0.00178153
S       29.70552011      -3.51649309      22.54528296       0.00730808      -0.00059023       0.00904385
S       26.69546249      -1.97821928      22.68131045      -0.00447546      -0.00944410      -0.00384404
S       28.78700869      -1.45564467      20.11610582       0.00075133       0.00062692       0.00260134
S       29.44272114      -0.12306690      23.13050725       0.00341155      -0.00251891       0.00583490
P       10.49663804      -2.92707003      31.88932143       0.00620711      -0.00083142      -0.00197638
S        8.46274906      -2.89496465      31.44114602       0.00018829       0.00374366      -0.01023814
S       11.04786792      -0.97421849      32.26004186       0.00946661      -0.00380937       0.00893962
S       11.45143752      -3.75491426      30.25777901      -0.00607812      -0.00405370      -0.00706226
S       10.97642832      -3.94427379      33.60725400       0.00074930      -0.00187552       0.00095406
P       -5.41797237      -8.37764744       4.37803939       0.00145243       0.00488683      -0.00148468
S       -6.68345842      -9.01126487       2.90393648       0.00421882       0.00528400      -0.00896238
S       -5.31458210      -9.91139242       5.76555008      -0.00121272       0.00488565       0.00881041
S       -6.26200435      -6.66814652       5.22038432      -0.00061270       0.00594893       0.00942330
S       -3.49726746      -7.87549691       3.81281691       0.00221255      -0.00117577      -0.01170162
Cl      22.25218696      -1.93700957      -0.50716831      -0.00486417      -0.00536921       0.00097194
Cl       1.39643354     -21.36896072       6.69478397      -0.00198727       0.00105272      -0.00095781
Cl       7.04549270      34.04327930      -4.68500321       0.01297544       0.00629921       0.00341314
Cl     -12.55781602      18.52328117      13.04029356       0.01052908       0.00884226      -0.00291015
Cl      17.94970977     -24.16290902      24.50236190      -0.00421852       0.00225364      -0.00301390
Cl      21.46294564     -11.58045298       9.38020679       0.00096275      -0.00095703      -0.00143090
Cl      18.92214114       6.50881223      13.57842789       0.00094586       0.00846495      -0.00647424
Cl     -10.60573107      -6.44428170     -32.57127120       0.00085010       0.00252921       0.00147272
Cl      41.39610508      -6.20553751      -3.64666712      -0.00791575      -0.00357116       0.00509353
Cl      -3.91795934       8.03930176      22.08491038      -0.00277516       0.00425305      -0.01377853
Cl      18.85735146      -8.80515752      -7.27988353       0.00257892      -0.00483084      -0.00956646
Cl      22.28613187      15.15573650      58.20992215      -0.00598253       0.00077919      -0.00060219
Li     -19.38173387      41.47509947     -38.02854840       0.00987011      -0.00104005      -0.00417091
Li      36.64786295     -31.26224315      39.54563779      -0.00580964      -0.01022676       0.00248192
Li     -38.45883508      49.80165124      56.77799235       0.00179474       0.00575923       0.00042136
Li     -14.98602298      -5.53176597     -15.33488405       0.00082982       0.00351762      -0.00078125
Li      -0.33388484     -28.77876198    -126.50324688       0.00452166       0.00057062       0.01204899
Li      44.70640895      13.15721614      25.23991542       0.00119937       0.01005949       0.00253267
Li       4.73939244       5.66402375     -32.62705665       0.00926722      -0.00613850       0.00026382
Li     -49.85176813      67.97118552      54.46481806      -0.00960425       0.00948655      -0.00307018
Li      24.44887545       7.94076095      16.10093509       0.00108683       0.00113638       0.00053738
Li       2.00701875      38.33437860       6.07793023      -0.00866019      -0.00822474      -0.00264871
Li       1.07841916       6.60259459      -4.83901818      -0.00539545      -0.00830285      -0.00958853
Li      47.73463624      72.28336122     -58.81264766      -0.00350797       0.00519085      -0.00317764
Li      -8.36547479      34.04308389       4.50685489      -0.00623170       0.00361516      -0.00599873
Li      -2.15317309      -9.78430163      16.73818895      -0.00198114       0.00085005       0.00243969
Li       9.37615202     -59.64306847     -48.37294795      -0.00937329      -0.00444684       0.00066865
Li     -28.21741559      24.04669776      51.87734587       0.00754034      -0.00653124       0.00839924
Li      -7.40260683      65.33793601       3.96845579       0.00557654       0.00181828       0.00467683
Li      -3.73740262      21.72913117      89.65491376       0.00404238      -0.00522396      -0.00075826
Li      97.19779144      45.96872199      11.98583305       0.00189173       0.00257426       0.00428173
Li      47.29562449      25.45804452       6.43571859      -0.01332595       0.00267109      -0.00071607
Li       0.10759622      37.85166252       2.05747884       0.00714514      -0.00419438       0.00902872
Li      17.82538179     -23.40074432      96.81597221       0.00383786      -0.00198107      -0.00974407
Li      -7.41197984      28.46442656     -19.79871219      -0.00158602       0.00839037      -0.00495861
Li      59.68531381      23.83532672      -3.74053749       0.00355446      -0.00511569       0.00353837
Li      20.05664558      43.45810902     -26.27068110      -0.00165059      -0.00043653       0.00050009
Li       7.03178056      20.34771164     -13.29440281      -0.00799515       0.00879801      -0.00457939
Li     -10.24475934      59.25325465     -22.26137741       0.00009562      -0.00113239      -0.00168170
Li     -27.54351264      -9.47176836       7.03606531      -0.00386564      -0.00321465      -0.00340453
Li       0.66837501     -24.77034800       0.87950365       0.00439028      -0.00838317      -0.00192732
Li      66.19682148       4.15124801      40.95159571      -0.00301331      -0.00690288       0.00908345
Li     -39.86606554       0.55017975       6.77620241       0.00686455       0.00270609       0.00890617
Li      35.49369122      16.61775201      -9.87574802      -0.00250036       0.00430417       0.00165139
Li      23.22888232      10.66375450      29.12894452      -0.00506469       0.00179598       0.00347343
Li     -46.79859463     -69.78846947     -13.72618973      -0.00174640      -0.00513992       0.00443641
Li      49.78965016      21.53243377     -20.27035492      -0.01036527      -0.00145881      -0.00907841
Li      26.54360944       0.41775138      58.73082310       0.00306550       0.00780978      -0.00215759
Li      -4.17236810     -39.39940070     -31.83908643      -0.00166164      -0.00216321       0.00700618
Li      -2.80003528     -20.89780912      37.91010406      -0.00179720      -0.00710730       0.00485380
Li      25.09163223     -10.65007270     -49.68796619       0.00149514      -0.00925291       0.00322436
Li     -10.53148631     -16.40820960     -13.06381736       0.00477442      -0.00319007       0.00637590
Li      40.98438708      14.36404264      -4.40129347      -0.00327059      -0.00571881       0.00428921
Li     -12.07901415      30.82480569      11.39229773       0.00241679       0.00599198       0.00517886
Li      -6.92880525      46.14684917      35.70203390       0.00044701       0.00131781      -0.01185309
Li     -12.64136837      34.53311831     -51.62758916      -0.00443374       0.00376582      -0.01419892
Li      35.63090848      21.51890178      25.06160340      -0.00302438       0.00177876      -0.00337375
Li      87.53490124     -48.66052952      20.99342178       0.00240202       0.00146827      -0.00123548
Li     -66.59226884     -41.42926997     -11.03775819      -0.00216489      -0.00456888       0.00010889
Li      26.32606892      12.06763729     -21.76874083       0.00231601      -0.01263307      -0.00172021
