120
Lattice="14.00411431 0.0 0.0 0.0 14.00411431 0.0 0.0 0.0 14.00411431" Properties=species:S:1:pos:R:3:forces:R:3 t_ps=40.0 charge=0 spin=0 energy=-508.07486204108795 free_energy=-508.07486204108795 stress="0.002679645080946712 -0.0014663023080730205 0.0005403693952229188 -0.0014663023080730205 0.001430936944160753 0.0005395607613766025 0.0005403693952229188 0.0005395607613766025 0.0029194576773084817" pbc="T T T"
P        1.13702701      10.50426973     -14.63358332      -0.00014359       0.00344581       0.00284310
S       -0.48387484      10.93935486     -15.82794246      -0.00311677       0.00281457       0.00409221
S        1.01534621       8.54817179     -14.02602235       0.00685648      -0.00031984      -0.00421351
S        0.95351038      11.75150999     -12.99984397      -0.00446959       0.00182958       0.00325766
S        2.95531523      10.92331482     -15.52805241       0.00560409      -0.00031919       0.00978001
P       17.50299027      22.71212238     -10.42588898       0.00492241       0.00433698       0.00210065
S       15.51662058      23.13220431     -10.06246100       0.00463804       0.00900853       0.00624774
S       18.50095642      23.72858578     -11.91905129       0.00002570      -0.00530448      -0.01378048
S       17.60802822      20.72451846     -10.97047862       0.01566461       0.00375360      -0.00162735
S       18.50700670      23.15755898      -8.66535505       0.00087388      -0.00781305       0.00877081
P       -9.86699486      14.82720082      13.51622622      -0.00532106       0.00103833       0.00118560
S       -9.05542059      14.01395851      11.79618163      -0.01520522      -0.00744063      -0.00122064
S       -9.43003933      13.64162118      15.16635854       0.00763924       0.00346620       0.00698989
S      -11.88077538      14.93711453      13.19173405      -0.00662283       0.00044987       0.00344468
S       -8.92649485      16.63598030      13.88898214       0.00053192       0.00638132      -0.01018170
P        0.31485725       2.78268941       4.07947073      -0.00135990       0.00196021      -0.00155665
S        0.98355226       1.39201118       2.70890574      -0.00300530      -0.00481130       0.00211921
S        0.36583926       4.63213568       3.16078472       0.00632019       0.00303428      -0.00276675
S        1.43793252       2.71315385       5.80390896       0.00157233       0.00949710      -0.00117294
S       -1.67593982       2.30409891       4.41780742      -0.00128186      -0.00423037      -0.00637128
P       20.74341846      25.03800409       9.17028520       0.00028248       0.00409672       0.00114861
S       19.20724481      26.36479211       8.88695977       0.00532327       0.01464638       0.00735828
S       20.36951770      24.02765092      10.94331719      -0.01412029       0.00579822       0.00291925
S       22.56760144      25.99937852       9.32984946       0.00308559       0.00067504      -0.00335699
S       20.80586661      23.81168190       7.53293476      -0.00245995       0.00320875      -0.00051049
P        5.29480385      14.81380766      19.66601685       0.00056785       0.00000277      -0.00137631
S        5.19467477      16.20109927      18.09467404       0.00816344      -0.00104913      -0.00594100
S        7.18403781      14.10094258      20.02849802       0.00512315       0.00260789       0.00308855
S        4.03231155      13.27932256      19.14855577      -0.01500772       0.00110909       0.00246377
S        4.56055571      15.72465304      21.35124819      -0.00874915       0.00651550      -0.00153873
P      -15.55584884       3.83710098      -4.97043572      -0.00253961      -0.00091974      -0.00058857
S      -15.62147199       5.08818923      -6.60841836      -0.00032568       0.00324384       0.00132100
S      -16.47842233       2.07094469      -5.48420997      -0.00798419      -0.00565502       0.01171674
S      -16.62890526       4.76428928      -3.46207251      -0.02000884      -0.00933303      -0.00264002
S      -13.57166147       3.68114960      -4.43803367       0.00705021      -0.00621624      -0.01082163
P       -4.29111419      -6.45608436     -14.83383329       0.00378108       0.00333108       0.00251224
S       -5.50429624      -5.61069359     -13.38781668      -0.00215790       0.01208839       0.00094808
S       -5.32572547      -8.07989643     -15.55743461      -0.00108091      -0.00065773       0.00003986
S       -2.50898206      -7.06481966     -14.01683555      -0.00022288      -0.00699321       0.00495779
S       -3.83463026      -5.18391251     -16.38173387       0.00064183       0.00337646      -0.00624706
P       11.68587462      29.58705989      13.46211053       0.00405065       0.00078148      -0.00071121
S       13.06873662      29.03119589      12.03132059      -0.00443772      -0.00666951      -0.00663280
S       11.52972487      27.98056145      14.74207929       0.00075549       0.00255758       0.01528456
S        9.81501653      29.97013520      12.69497299       0.00181723       0.00114202      -0.00158246
S       12.31297956      31.31461458      14.38914118       0.00648463       0.00105497       0.01005979
P       28.64588899      -1.86435947      22.13668338      -0.00402789      -0.00426661       0.00020845
S       29.73865110      -3.59982632      22.54657964       0.00630111      -0.00074123       0.00965606
S       26.67735924      -2.08859318      22.71877479      -0.00427937      -0.01182245      -0.00452132
S       28.71450594      -1.58144288      20.11277965      -0.00220358      -0.00095784       0.00125284
S       29.44620623      -0.24141426      23.10484655       0.00085162      -0.00304890       0.00431128
P       10.44265489      -2.99191395      31.93926651       0.00775078      -0.00059558      -0.00050516
S        8.42518300      -2.91993447      31.42443335       0.00041339       0.00048104      -0.00622937
S       11.01642468      -1.05182352      32.33614864       0.00693394      -0.00286527       0.00903694
S       11.42922170      -3.81753377      30.32479177      -0.00652895      -0.00300842      -0.00658919
S       10.85289950      -4.01863439      33.67622436       0.00228517      -0.00224838       0.00316705
P       -5.32734379      -8.37651232       4.15218078       0.00187453       0.00151024       0.00240814
S       -6.51914795      -9.04334474       2.62337973       0.00468018       0.00010710      -0.00601006
S       -5.30128721      -9.83573350       5.62453468      -0.00211939      -0.00039592       0.00790043
S       -6.22516025      -6.68608017       4.97298453       0.00010699       0.00642630       0.00480493
S       -3.38552230      -7.87596007       3.70709201       0.00502516      -0.00205859      -0.00741939
Cl      22.30199790      -1.87395123      -0.52983451      -0.00819515      -0.00327490       0.00822336
Cl       1.69468036     -21.37238281       6.71429498      -0.00152730      -0.00548752       0.00709771
Cl       7.02982623      33.86852112      -4.77354063       0.01893985       0.00270272       0.00131658
Cl     -12.61322083      18.63488717      13.01651888       0.01112728       0.00873941      -0.00274709
Cl      18.34333341     -24.04108814      24.50266546      -0.00620913       0.00091591      -0.00025390
Cl      21.52344208     -11.85084372       9.73389458       0.00078059      -0.00361143       0.00099149
Cl      18.89443803       6.51563649      13.17122102      -0.00063320       0.00034869       0.00239585
Cl     -10.30312505      -6.19695707     -32.61119677      -0.00225163       0.00156470      -0.00270960
Cl      41.65983985      -6.35059268      -3.73945957      -0.00357961       0.00140898      -0.01046438
Cl      -4.05366680       7.86458447      22.15322403      -0.00954108       0.00470073      -0.00717310
Cl      19.07463100      -8.70819474      -7.62988120      -0.00063771      -0.00618744      -0.01344675
Cl      22.26650648      15.10428660      58.38142185      -0.00664754      -0.00097512       0.00968977
Li     -19.43788253      41.46837484     -37.98591345       0.00821914      -0.00410592       0.00322498
Li      36.68765183     -31.23769292      39.52672863       0.00322215      -0.00193994       0.00362262
Li     -38.53506477      49.91052495      56.61082508      -0.00179735       0.00331172       0.00020378
Li     -15.31537373      -5.39928466     -15.41850945      -0.00299830       0.01713267       0.00452441
Li      -0.58242269     -28.96956205    -126.53938379       0.00892554      -0.00594261       0.00900357
Li      44.63354884      13.21261603      25.38501306      -0.00433654       0.00556281       0.00047208
Li       5.10482071       6.29072792     -31.37303707      -0.00154923      -0.00953489      -0.02041836
Li     -49.85353731      68.05606047      54.46997727      -0.00716348       0.00919250      -0.00217252
Li      24.47712568       7.90579978      16.02493672       0.00047081      -0.00111382      -0.00060554
Li       2.14708988      38.37639789       5.99154382      -0.00062442      -0.00481968      -0.00190779
Li       1.45488754       7.80212212      -5.26372256       0.00894853       0.00673440      -0.01776594
Li      47.82217727      72.29824201     -58.58637919      -0.00138664       0.00232569       0.00296007
Li      -8.30489466      34.04442650       4.15577561      -0.00683725       0.00116330      -0.00810892
Li      -2.07812557      -9.88622728      16.80770965       0.00274510       0.00072254      -0.00419019
Li       9.20087699     -59.83209904     -48.40941925      -0.01112088      -0.00974262       0.00081398
Li     -28.25384342      24.07764060      51.98523214       0.00461547      -0.00436833       0.01502719
Li      -7.44221741      65.42673611       3.84255298       0.00453486      -0.00091160       0.00418362
Li      -3.86743635      21.70087745      89.74957453       0.00366043      -0.00711896      -0.00781813
Li      97.82771544      47.38632755      11.32715418       0.00119503       0.00668397      -0.00071995
Li      47.66347065      25.85019509       6.50699741      -0.00759760       0.00125981      -0.00205073
Li       0.09275670      37.75934133       2.04028010       0.01002671      -0.01010263       0.00935811
Li      17.74673677     -23.58018783      96.82124692      -0.00098710       0.00404317      -0.00361901
Li      -7.00689654      28.08969476     -19.43402570       0.01495250      -0.00344641       0.00091851
Li      59.89416566      24.17003220      -3.86996488       0.00464028      -0.00118978      -0.00065220
Li      20.03831710      43.42758265     -26.18656865      -0.00019192       0.00157438      -0.00007274
Li       7.06574926      20.42263791     -13.74220879      -0.00936125       0.00666037       0.00111515
Li     -10.19578023      59.42119031     -22.29245782      -0.00256706       0.00909617      -0.00413257
Li     -27.26951484      -9.45829657       7.24907081       0.00121830       0.00451551      -0.00244000
Li       0.72164998     -24.76010369       0.98640290       0.00703483      -0.01187645      -0.00668473
Li      66.60206831       4.43772694      41.08440291       0.00015765      -0.00221348       0.00625355
Li     -39.71405345       0.40715830       6.72323443       0.00026037       0.00166802       0.01133856
Li      35.59903293      16.81979020     -10.09343979       0.00062311       0.00453380      -0.00481664
Li      23.25132613      10.67788948      29.11315238      -0.00572366       0.00202295       0.00596201
Li     -46.87653618     -69.80628112     -13.70700104      -0.00713609      -0.00165166       0.00429331
Li      49.38427001      19.91096489     -21.06767488      -0.00439064       0.00195529      -0.00830027
Li      26.60843621       0.42689123      58.89270843      -0.00079694       0.00547791      -0.00003661
Li      -4.14599359     -39.42634359     -31.70959496      -0.00847503      -0.00088857       0.00519958
Li      -2.27042710     -21.25404699      37.10887035      -0.00176508      -0.00285914      -0.00677380
Li      25.11864529     -10.63604350     -49.73296083       0.00143255      -0.01193454      -0.00178092
Li     -10.65567798     -16.41236914     -13.09530612       0.00809712      -0.00641706       0.00427626
Li      40.99973137      14.32168247      -4.42097838      -0.00406083      -0.00889731      -0.00490874
Li     -13.06182644      30.62077099      11.82133749       0.00432792       0.00390544       0.00796398
Li      -8.09011063      45.67850504      36.69562181      -0.00915561      -0.00390963      -0.01187653
Li     -12.50211613      34.56981499     -51.69392132      -0.00518859      -0.00116065      -0.01200770
Li      36.74261941      21.22004984      24.21905210       0.00568388      -0.00436863      -0.00748281
Li      88.03258944     -48.69614913      21.04105884       0.00849254       0.00691743       0.00105483
Li     -66.68493475     -41.36402068     -10.84491145       0.00036823       0.00165949       0.00281442
Li      26.26686369      11.96061111     -21.77415051       0.00051465      -0.01448525       0.00255566
