Cl Li P  S 
 1.0000000000000000
    10.0550956357331884    0.0000000000000000    0.0000000000000000
     0.0000000000000000   10.0550956357331884    0.0000000000000000
     0.0000000000000000    0.0000000000000000   50.7578787571995633
 Cl  Li  P   S  
  12  76  12  62
Direct
  0.9292654345849850  0.7499965847100866  0.7476242940987122
  0.9292654345849850  0.7499965847100866  0.3514258759641892
  0.4292654676163373  0.2499978579086588  0.5495252643139625
  0.4292654477259248  0.7499985065482783  0.6485746576908852
  0.9292654137000520  0.2499964576236182  0.6485745217513981
  0.9292654137000520  0.2499964576236182  0.2523761036168751
  0.4292654477259248  0.7499985065482783  0.2523762395563621
  0.9292654137000520  0.2499964576236182  0.4504753126841366
  0.9292654345849850  0.7499965847100866  0.5495250850314507
  0.4292654676163373  0.2499978579086588  0.3514260552467010
  0.4292654477259248  0.7499985065482783  0.4504754486236236
  0.4292654676163373  0.2499978579086588  0.7476244733812241
  0.2789780218530419  0.2241522976659042  0.3951139902884204
  0.7789779246021923  0.7241508538341278  0.5932129432378078
  0.7789751747526631  0.2241516402877708  0.6922629987779417
  0.2789774032612130  0.7241527265164655  0.6922629363245832
  0.7789779246021923  0.7241508538341278  0.3951137341705463
  0.2789780218530419  0.2241522976659042  0.5932131993556818
  0.5210888170351990  0.5923768749481094  0.4192109569061696
  0.2787588881839230  0.0292604268182624  0.5546288134839179
  0.7789751747526631  0.2241516402877708  0.4941637897106802
  0.2787607837402350  0.5292616900716283  0.6536784615996183
  0.7787630892512163  0.0292625769718545  0.6536782570993465
  0.7787677475858256  0.9707283520055214  0.7425201965265408
  0.2787577405071213  0.4707381542129769  0.7425212005086073
  0.7787599266756275  0.5292600779536945  0.5546285002320566
  0.2789774032612130  0.7241527265164655  0.4941637272573217
  0.7787677475858256  0.9707283520055214  0.5444209874592794
  0.2787588881839230  0.0292604268182624  0.3565296044166564
  0.0210891370586688  0.9076094008794320  0.3826920131404772
  0.5210859408815504  0.4076179947443274  0.3826909908361322
  0.5210859538103185  0.9076219189105437  0.4817397711062670
  0.0210892265655251  0.4076107307656796  0.4817412615152803
  0.0210855707077062  0.5923789395729278  0.5182595005627915
  0.5210887106214922  0.0923728339986369  0.5182613820440972
  0.0210855299323605  0.0923804152293642  0.4192095275714185
  0.2789848532152178  0.7758461727613740  0.4067886083873091
  0.7789759295938178  0.2758415265731838  0.4067867800997157
  0.7789734154456768  0.7758408371582188  0.5058359691733801
  0.2789844086644982  0.2758457890885842  0.5058380870711850
  0.7787648207116251  0.4707307360836320  0.4453715129126921
  0.2787559076056088  0.9707393981461077  0.4453724211460763
  0.2787577405071213  0.4707381542129769  0.5444219914413457
  0.2787559076056088  0.9707393981461077  0.6434716302133379
  0.7787630892512163  0.0292625769718545  0.4555790480320850
  0.2787607837402350  0.5292616900716283  0.4555792525323568
  0.7787599266756275  0.5292600779536945  0.3565292911647950
  0.7787648207116251  0.4707307360836320  0.6434707219799537
  0.2789848532152178  0.7758461727613740  0.6048878174545705
  0.7789734154456768  0.7758408371582188  0.7039351782406417
  0.7787677475858256  0.9707283520055214  0.3463217783920179
  0.7787630892512163  0.0292625769718545  0.2574798389648235
  0.2787607837402350  0.5292616900716283  0.2574800434650953
  0.2789774032612130  0.7241527265164655  0.2960645181900602
  0.7789751747526631  0.2241516402877708  0.2960645806434187
  0.7789779246021923  0.7241508538341278  0.1970145251032848
  0.2789780218530419  0.2241522976659042  0.1970147812211589
  0.5210859408815504  0.4076179947443274  0.5807901999033938
  0.0210891370586688  0.9076094008794320  0.5807912222077388
  0.2789780218530419  0.2241522976659042  0.7913124084229435
  0.7789779246021923  0.7241508538341278  0.7913121523050693
  0.7787599266756275  0.5292600779536945  0.7527277092993181
  0.2787588881839230  0.0292604268182624  0.7527280225511794
  0.7789759295938178  0.2758415265731838  0.8029851982342388
  0.2789848532152178  0.7758461727613740  0.8029870265218321
  0.5210859408815504  0.4076179947443274  0.7788894089706553
  0.0210891370586688  0.9076094008794320  0.7788904312750002
  0.2787577405071213  0.4707381542129769  0.3463227823740843
  0.2789844086644982  0.2758457890885842  0.7039372961384466
  0.2787559076056088  0.9707393981461077  0.2472732120788149
  0.2789844086644982  0.2758457890885842  0.3077388780039235
  0.0210855707077062  0.5923789395729278  0.7163587096300530
  0.0210892265655251  0.4076107307656796  0.6798404705825418
  0.5210859538103185  0.9076219189105437  0.6798389801735284
  0.5210859538103185  0.9076219189105437  0.2836405620390055
  0.0210892265655251  0.4076107307656796  0.2836420524480188
  0.7787648207116251  0.4707307360836320  0.2472723038454306
  0.0210855707077062  0.5923789395729278  0.3201602914955299
  0.5210887106214922  0.0923728339986369  0.3201621729768357
  0.0210855299323605  0.0923804152293642  0.6173087366386800
  0.7789759295938178  0.2758415265731838  0.6048859891669772
  0.5210888170351990  0.5923768749481094  0.2211117478389081
  0.0210855299323605  0.0923804152293642  0.2211103185041570
  0.2789848532152178  0.7758461727613740  0.2086893993200476
  0.7789759295938178  0.2758415265731838  0.2086875710324542
  0.7789734154456768  0.7758408371582188  0.3077367601061187
  0.5210887106214922  0.0923728339986369  0.7163605911113587
  0.5210888170351990  0.5923768749481094  0.6173101659734311
  0.0074500200674967  0.7499971724717762  0.6485746588729676
  0.0074500349853062  0.2499969827305084  0.7476242614784919
  0.5074500218443664  0.7499979740554004  0.7476243416630878
  0.5074500307950521  0.2499981960456715  0.6485747561977598
  0.5074500307950521  0.2499981960456715  0.2523763380632367
  0.0074500200674967  0.7499971724717762  0.2523762407384446
  0.0074500349853062  0.2499969827305084  0.3514258433439689
  0.5074500218443664  0.7499979740554004  0.3514259235285648
  0.5074500218443664  0.7499979740554004  0.5495251325958264
  0.0074500349853062  0.2499969827305084  0.5495250524112304
  0.0074500200674967  0.7499971724717762  0.4504754498057061
  0.5074500307950521  0.2499981960456715  0.4504755471304983
  0.7180614189626776  0.9999965350901412  0.5000001332942462
  0.6096840728410423  0.1264386681198678  0.2278861229392707
  0.1096866912016774  0.6264411814856599  0.2278858057471344
  0.1096864455550829  0.1264409803803219  0.3269353604783176
  0.6096832563396090  0.6264381869840567  0.3269356254618104
  0.2180615231751717  0.4999983135051910  0.3019013194365658
  0.7180614179681569  0.4999965333132715  0.2028513121648004
  0.7180614189626776  0.9999965350901412  0.3019009242269847
  0.3850994401524307  0.8704198997998897  0.3275661959423677
  0.2180613033861135  0.9999982715231531  0.2028517184071514
  0.8850992951645910  0.3704186369708669  0.3275660838415445
  0.7180614179681569  0.4999965333132715  0.5990497302993234
  0.6096858759069361  0.3735574494837823  0.4749654927396552
  0.7180614189626776  0.9999965350901412  0.6980993423615076
  0.2180615231751717  0.4999983135051910  0.6980997375710888
  0.1096835335986917  0.3735554216562271  0.7721147939075459
  0.6096866774905603  0.8735568863729367  0.7721142200064941
  0.8851001474687670  0.1295736159256329  0.7714837860564653
  0.3850999851497334  0.6295774112285111  0.7714844040885966
  0.8850988983508615  0.8704184458107352  0.2285164979821888
  0.3850993218044763  0.3704199397928863  0.2285166106740534
  0.8851005273756458  0.6295734331460096  0.2762357868749786
  0.3851001263716622  0.1295774706875770  0.2762364051041238
  0.1096832491657929  0.8735556939427069  0.2768668110782005
  0.6096858759069361  0.3735574494837823  0.2768662836723937
  0.2180613033861135  0.9999982715231531  0.5990501365416744
  0.7180614179681569  0.4999965333132715  0.4009505212320619
  0.1096832491657929  0.8735556939427069  0.4749660201454620
  0.6096866774905603  0.8735568863729367  0.3759158018719713
  0.2180615231751717  0.4999983135051910  0.5000005285038273
  0.2180613033861135  0.9999982715231531  0.4009509274744129
  0.2180613033861135  0.9999982715231531  0.7971493456089359
  0.6096832563396090  0.6264381869840567  0.5250348345290720
  0.1096864455550829  0.1264409803803219  0.5250345695455791
  0.6096858759069361  0.3735574494837823  0.6730647018069168
  0.1096832491657929  0.8735556939427069  0.6730652292127235
  0.1096835335986917  0.3735554216562271  0.5740155848402844
  0.6096866774905603  0.8735568863729367  0.5740150109392327
  0.3851001263716622  0.1295774706875770  0.6724348232386469
  0.8851005273756458  0.6295734331460096  0.6724342050095016
  0.8851001474687670  0.1295736159256329  0.5733845769892036
  0.3850999851497334  0.6295774112285111  0.5733851950213351
  0.3850993218044763  0.3704199397928863  0.6247150288085764
  0.8850988983508615  0.8704184458107352  0.6247149161167118
  0.8850992951645910  0.3704186369708669  0.7237645019760675
  0.3850994401524307  0.8704198997998897  0.7237646140768909
  0.3851001263716622  0.1295774706875770  0.4743356141713854
  0.8851005273756458  0.6295734331460096  0.4743349959422400
  0.8851001474687670  0.1295736159256329  0.3752853679219421
  0.3850999851497334  0.6295774112285111  0.3752859859540736
  0.3850993218044763  0.3704199397928863  0.4266158197413150
  0.8850988983508615  0.8704184458107352  0.4266157070494503
  0.1096835335986917  0.3735554216562271  0.3759163757730229
  0.8850992951645910  0.3704186369708669  0.5256652929088059
  0.6096840728410423  0.1264386681198678  0.4259853320065323
  0.1096866912016774  0.6264411814856599  0.4259850148143959
  0.6096832563396090  0.6264381869840567  0.7231340435963335
  0.1096864455550829  0.1264409803803219  0.7231337786128407
  0.1096866912016774  0.6264411814856599  0.6240842238816574
  0.6096840728410423  0.1264386681198678  0.6240845410737939
  0.3850994401524307  0.8704198997998897  0.5256654050096293
  0.7180614179681569  0.4999965333132715  0.7971489393665849
