162

P       5.102458590000000      2.513755770000001     12.810087568599780
P       0.074910664266811      7.541293295733189     12.810082628599782
P       0.074910814266812      2.513743570000000     17.837630348599781
P       5.102458499999999      7.541301355733189     17.837634418599780
S       6.130449790000000      3.756155880000001     14.053145258599780
S       1.102875560000000      8.783686045733189     14.053172028599780
S       3.872218600000001      1.302913860000000     14.021173958599780
S       8.899770450000000      6.330421080000001     14.021142578599781
S       3.872210510000000      3.724607920000001     11.599018418599780
S       8.899754070000000      8.752140715733189     11.599012698599779
S       8.899758060000000      3.724594820000000     16.626559568599781
S       3.872211700000000      8.752155335733189     16.626565258599779
S       6.130431660000000      1.271352900000000     11.567016198599779
S       1.102910170000000      6.298925990000001     11.567000098599781
S       1.102907700000000      1.271376150000000     16.594545388599780
S       6.130423450000001      6.298895880000000     16.594558838599781
Li      2.805150690000000      2.253872790000000     10.000052378599779
Li      7.832697530000000      7.281406090000001     10.000039378599780
Li      7.832669880000000      2.253866180000000     15.027610088599777
Li      2.805144470000000      7.281424920000001     15.027606918599780
Li      2.802966340000000      5.321776910000001     13.069140828599780
Li      7.830537340000000      0.294238010000000     13.069130448599781
Li      7.830584180000000      9.760766415733189     17.578558838599779
Li      2.802935740000000      4.733317160000000     17.578609798599778
Li      2.802917310000001      9.760877485733189     12.551063718599780
Li      7.830554750000001      4.733242570000000     12.551017618599779
Li      2.805214910000000      2.773655790000001     15.620172658599778
Li      7.832652190000000      7.801153815733190     15.620065158599781
Li      7.832677470000001      2.773612930000001     10.592538428599781
Li      2.805219380000000      7.801207465733190     10.592631228599780
Li      0.212017020000000      0.928893910000000     11.223090738599780
Li      5.239597890000000      5.956406130000000     11.223163288599780
Li      5.239596820000001      0.928817680000000     16.250752758599781
Li      0.212017430000000      5.956426890000000     16.250657258599780
Li      0.212054190000000      4.098564880000001     14.397068908599779
Li      5.239569100000000      9.126225195733189     14.396993258599782
Cl      9.343852815733188      7.541287385733188     17.837632004332967
Cl      4.316305130000000      7.541306710000002     12.810082568599778
Cl      9.343852605733188      2.513738290000000     12.810075668599779
S       2.192627260000000     10.055078255733189     10.296322928599780
S       7.220176230000000      5.027512960000000     10.296302308599781
S       7.220176240000000     10.055060795733189     15.323850508599779
S       2.192629470000000      5.027530860000001     15.323870568599782
P       5.102458590000000      2.513755770000001     22.865183204332968
P       0.074910664266811      7.541293295733189     22.865178264332968
P       0.074910814266812      2.513743570000000     27.892725984332969
P       5.102458499999999      7.541301355733189     27.892730054332969
S       6.130449790000000      3.756155880000001     24.108240894332969
S       1.102875560000000      8.783686045733189     24.108267664332967
S       1.102878420000000      3.756135490000001     19.080717824332968
S       6.130457850000001      8.783698035733188     19.080688694332970
S       3.872218600000001      1.302913860000000     24.076269594332970
S       8.899770450000000      6.330421080000001     24.076238214332967
S       8.899766630000000      1.302875100000000     19.048689204332966
S       3.872217180000000      6.330461080000001     19.048720574332968
S       3.872210510000000      3.724607920000001     21.654114054332968
S       8.899754070000000      8.752140715733189     21.654108334332967
S       8.899758060000000      3.724594820000000     26.681655204332966
S       3.872211700000000      8.752155335733189     26.681660894332968
S       6.130431660000000      1.271352900000000     21.622111834332969
S       1.102910170000000      6.298925990000001     21.622095734332966
S       1.102907700000000      1.271376150000000     26.649641024332968
S       6.130423450000001      6.298895880000000     26.649654474332969
Li      2.805150690000000      2.253872790000000     20.055148014332968
Li      7.832697530000000      7.281406090000001     20.055135014332969
Li      7.832669880000000      2.253866180000000     25.082705724332968
Li      2.805144470000000      7.281424920000001     25.082702554332968
Li      7.830505540000001      5.321760700000000     18.096670534332969
Li      2.802947280000000      0.294216390000000     18.096686434332966
Li      2.802966340000000      5.321776910000001     23.124236464332967
Li      7.830537340000000      0.294238010000000     23.124226084332967
Li      7.830584180000000      9.760766415733189     27.633654474332964
Li      2.802935740000000      4.733317160000000     27.633705434332963
Li      2.802917310000001      9.760877485733189     22.606159354332966
Li      7.830554750000001      4.733242570000000     22.606113254332968
Li      2.805214910000000      2.773655790000001     25.675268294332966
Li      7.832652190000000      7.801153815733190     25.675160794332964
Li      7.832677470000001      2.773612930000001     20.647634064332969
Li      2.805219380000000      7.801207465733190     20.647726864332967
Li      0.212017020000000      0.928893910000000     21.278186374332968
Li      5.239597890000000      5.956406130000000     21.278258924332967
Li      5.239596820000001      0.928817680000000     26.305848394332969
Li      0.212017430000000      5.956426890000000     26.305752894332969
Li      0.212054190000000      4.098564880000001     24.452164544332966
Li      5.239569100000000      9.126225195733189     24.452088894332970
Li      5.239568970000000      4.098637920000000     19.424582914332966
Li      0.212053290000000      9.126099325733190     19.424634804332968
Cl      9.343852815733188      7.541287385733188     27.892727640066155
Cl      4.316305330000000      2.513752370000001     17.837641104332967
Cl      4.316305130000000      7.541306710000002     22.865178204332967
Cl      9.343852605733188      2.513738290000000     22.865171304332968
S       2.192627260000000     10.055078255733189     20.351418564332967
S       7.220176230000000      5.027512960000000     20.351397944332966
S       7.220176240000000     10.055060795733189     25.378946144332968
S       2.192629470000000      5.027530860000001     25.378966204332968
P       5.102458590000000      2.513755770000001     32.920278840066160
P       0.074910664266811      7.541293295733189     32.920273900066157
P       0.074910814266812      2.513743570000000     37.947821620066158
P       5.102458499999999      7.541301355733189     37.947825690066153
S       6.130449790000000      3.756155880000001     34.163336530066161
S       1.102875560000000      8.783686045733189     34.163363300066152
S       1.102878420000000      3.756135490000001     29.135813460066153
S       6.130457850000001      8.783698035733188     29.135784330066155
S       3.872218600000001      1.302913860000000     34.131365230066159
S       8.899770450000000      6.330421080000001     34.131333850066156
S       8.899766630000000      1.302875100000000     29.103784840066158
S       3.872217180000000      6.330461080000001     29.103816210066153
S       3.872210510000000      3.724607920000001     31.709209690066157
S       8.899754070000000      8.752140715733189     31.709203970066152
S       8.899758060000000      3.724594820000000     36.736750840066158
S       3.872211700000000      8.752155335733189     36.736756530066160
S       6.130431660000000      1.271352900000000     31.677207470066158
S       1.102910170000000      6.298925990000001     31.677191370066154
S       1.102907700000000      1.271376150000000     36.704736660066160
S       6.130423450000001      6.298895880000000     36.704750110066158
Li      2.805150690000000      2.253872790000000     30.110243650066153
Li      7.832697530000000      7.281406090000001     30.110230650066157
Li      7.832669880000000      2.253866180000000     35.137801360066156
Li      2.805144470000000      7.281424920000001     35.137798190066157
Li      7.830505540000001      5.321760700000000     28.151766170066157
Li      2.802947280000000      0.294216390000000     28.151782070066155
Li      2.802966340000000      5.321776910000001     33.179332100066155
Li      7.830537340000000      0.294238010000000     33.179321720066156
Li      7.830584180000000      9.760766415733189     37.688750110066152
Li      2.802935740000000      4.733317160000000     37.688801070066155
Li      2.802917310000001      9.760877485733189     32.661254990066155
Li      7.830554750000001      4.733242570000000     32.661208890066156
Li      2.805214910000000      2.773655790000001     35.730363930066154
Li      7.832652190000000      7.801153815733190     35.730256430066156
Li      7.832677470000001      2.773612930000001     30.702729700066158
Li      2.805219380000000      7.801207465733190     30.702822500066155
Li      0.212017020000000      0.928893910000000     31.333282010066156
Li      5.239597890000000      5.956406130000000     31.333354560066155
Li      5.239596820000001      0.928817680000000     36.360944030066157
Li      0.212017430000000      5.956426890000000     36.360848530066157
Li      0.212054190000000      4.098564880000001     34.507260180066154
Li      5.239569100000000      9.126225195733189     34.507184530066155
Li      5.239568970000000      4.098637920000000     29.479678550066158
Li      0.212053290000000      9.126099325733190     29.479730440066156
Cl      9.343852815733188      7.541287385733188     37.947823275799344
Cl      4.316305330000000      2.513752370000001     27.892736740066155
Cl      4.316305130000000      7.541306710000002     32.920273840066159
Cl      9.343852605733188      2.513738290000000     32.920266940066156
S       2.192627260000000     10.055078255733189     30.406514200066152
S       7.220176230000000      5.027512960000000     30.406493580066154
S       7.220176240000000     10.055060795733189     35.434041780066153
S       2.192629470000000      5.027530860000001     35.434061840066157
S       1.102878420000000      3.756135490000001     39.190909095799341
S       6.130457850000001      8.783698035733188     39.190879965799340
S       8.899766630000000      1.302875100000000     39.158880475799350
S       3.872217180000000      6.330461080000001     39.158911845799345
Li      2.805150690000000      2.253872790000000     40.165339285799348
Li      7.832697530000000      7.281406090000001     40.165326285799345
Li      7.830505540000001      5.321760700000000     38.206861805799349
Li      2.802947280000000      0.294216390000000     38.206877705799343
Li      7.832677470000001      2.773612930000001     40.757825335799346
Li      2.805219380000000      7.801207465733190     40.757918135799343
Li      5.239568970000000      4.098637920000000     39.534774185799350
Li      0.212053290000000      9.126099325733190     39.534826075799344
Cl      4.316305330000000      2.513752370000001     37.947832375799344
S       2.192627260000000     10.055078255733189     40.461609835799344
S       7.220176230000000      5.027512960000000     40.461589215799343
