150

P       5.102458590000000      2.513755770000001     11.587014498599782
P       0.074910664266811      7.541293295733189     11.587009558599782
P       0.074910814266812      2.513743570000000     16.614557278599783
P       5.102458499999999      7.541301355733189     16.614561348599782
S       6.130449790000000      3.756155880000001     12.830072188599781
S       1.102875560000000      8.783686045733189     12.830098958599782
S       3.872218600000001      1.302913860000000     12.798100888599782
S       8.899770450000000      6.330421080000001     12.798069508599783
S       3.872210510000000      3.724607920000001     10.375945348599782
S       8.899754070000000      8.752140715733189     10.375939628599781
S       8.899758060000000      3.724594820000000     15.403486498599779
S       3.872211700000000      8.752155335733189     15.403492188599781
S       6.130431660000000      1.271352900000000     10.343943128599783
S       1.102910170000000      6.298925990000001     10.343927028599781
S       1.102907700000000      1.271376150000000     15.371472318599782
S       6.130423450000001      6.298895880000000     15.371485768599781
Li      7.832669880000000      2.253866180000000     13.804537018599781
Li      2.805144470000000      7.281424920000001     13.804533848599782
Li      2.802966340000000      5.321776910000001     11.846067758599782
Li      7.830537340000000      0.294238010000000     11.846057378599781
Li      7.830584180000000      9.760766415733189     16.355485768599781
Li      2.802935740000000      4.733317160000000     16.355536728599780
Li      2.802917310000001      9.760877485733189     11.327990648599782
Li      7.830554750000001      4.733242570000000     11.327944548599781
Li      2.805214910000000      2.773655790000001     14.397099588599783
Li      7.832652190000000      7.801153815733190     14.396992088599784
Li      0.212017020000000      0.928893910000000     10.000017668599781
Li      5.239597890000000      5.956406130000000     10.000090218599782
Li      5.239596820000001      0.928817680000000     15.027679688599779
Li      0.212017430000000      5.956426890000000     15.027584188599782
Li      0.212054190000000      4.098564880000001     13.173995838599781
Li      5.239569100000000      9.126225195733189     13.173920188599784
Cl      9.343852815733188      7.541287385733188     16.614558934332969
Cl      4.316305130000000      7.541306710000002     11.587009498599780
Cl      9.343852605733188      2.513738290000000     11.587002598599781
S       7.220176240000000     10.055060795733189     14.100777438599783
S       2.192629470000000      5.027530860000001     14.100797498599782
P       5.102458590000000      2.513755770000001     21.642110134332970
P       0.074910664266811      7.541293295733189     21.642105194332970
P       0.074910814266812      2.513743570000000     26.669652914332971
P       5.102458499999999      7.541301355733189     26.669656984332974
S       6.130449790000000      3.756155880000001     22.885167824332971
S       1.102875560000000      8.783686045733189     22.885194594332969
S       1.102878420000000      3.756135490000001     17.857644754332970
S       6.130457850000001      8.783698035733188     17.857615624332972
S       3.872218600000001      1.302913860000000     22.853196524332972
S       8.899770450000000      6.330421080000001     22.853165144332969
S       8.899766630000000      1.302875100000000     17.825616134332968
S       3.872217180000000      6.330461080000001     17.825647504332970
S       3.872210510000000      3.724607920000001     20.431040984332970
S       8.899754070000000      8.752140715733189     20.431035264332969
S       8.899758060000000      3.724594820000000     25.458582134332971
S       3.872211700000000      8.752155335733189     25.458587824332970
S       6.130431660000000      1.271352900000000     20.399038764332971
S       1.102910170000000      6.298925990000001     20.399022664332968
S       1.102907700000000      1.271376150000000     25.426567954332970
S       6.130423450000001      6.298895880000000     25.426581404332975
Li      2.805150690000000      2.253872790000000     18.832074944332970
Li      7.832697530000000      7.281406090000001     18.832061944332970
Li      7.832669880000000      2.253866180000000     23.859632654332970
Li      2.805144470000000      7.281424920000001     23.859629484332970
Li      7.830505540000001      5.321760700000000     16.873597464332970
Li      2.802947280000000      0.294216390000000     16.873613364332968
Li      2.802966340000000      5.321776910000001     21.901163394332968
Li      7.830537340000000      0.294238010000000     21.901153014332969
Li      7.830584180000000      9.760766415733189     26.410581404332973
Li      2.802935740000000      4.733317160000000     26.410632364332969
Li      2.802917310000001      9.760877485733189     21.383086284332968
Li      7.830554750000001      4.733242570000000     21.383040184332970
Li      2.805214910000000      2.773655790000001     24.452195224332968
Li      7.832652190000000      7.801153815733190     24.452087724332969
Li      7.832677470000001      2.773612930000001     19.424560994332971
Li      2.805219380000000      7.801207465733190     19.424653794332968
Li      0.212017020000000      0.928893910000000     20.055113304332970
Li      5.239597890000000      5.956406130000000     20.055185854332969
Li      5.239596820000001      0.928817680000000     25.082775324332971
Li      0.212017430000000      5.956426890000000     25.082679824332974
Li      0.212054190000000      4.098564880000001     23.229091474332968
Li      5.239569100000000      9.126225195733189     23.229015824332972
Li      5.239568970000000      4.098637920000000     18.201509844332968
Li      0.212053290000000      9.126099325733190     18.201561734332969
Cl      9.343852815733188      7.541287385733188     26.669654570066157
Cl      4.316305330000000      2.513752370000001     16.614568034332969
Cl      4.316305130000000      7.541306710000002     21.642105134332969
Cl      9.343852605733188      2.513738290000000     21.642098234332970
S       2.192627260000000     10.055078255733189     19.128345494332969
S       7.220176230000000      5.027512960000000     19.128324874332968
S       7.220176240000000     10.055060795733189     24.155873074332973
S       2.192629470000000      5.027530860000001     24.155893134332970
P       5.102458590000000      2.513755770000001     31.697205770066159
P       0.074910664266811      7.541293295733189     31.697200830066162
P       0.074910814266812      2.513743570000000     36.724748550066160
P       5.102458499999999      7.541301355733189     36.724752620066155
S       6.130449790000000      3.756155880000001     32.940263460066163
S       1.102875560000000      8.783686045733189     32.940290230066154
S       1.102878420000000      3.756135490000001     27.912740390066155
S       6.130457850000001      8.783698035733188     27.912711260066153
S       3.872218600000001      1.302913860000000     32.908292160066161
S       8.899770450000000      6.330421080000001     32.908260780066158
S       8.899766630000000      1.302875100000000     27.880711770066164
S       3.872217180000000      6.330461080000001     27.880743140066159
S       3.872210510000000      3.724607920000001     30.486136620066159
S       8.899754070000000      8.752140715733189     30.486130900066161
S       8.899758060000000      3.724594820000000     35.513677770066160
S       3.872211700000000      8.752155335733189     35.513683460066162
S       6.130431660000000      1.271352900000000     30.454134400066160
S       1.102910170000000      6.298925990000001     30.454118300066160
S       1.102907700000000      1.271376150000000     35.481663590066162
S       6.130423450000001      6.298895880000000     35.481677040066160
Li      2.805150690000000      2.253872790000000     28.887170580066158
Li      7.832697530000000      7.281406090000001     28.887157580066159
Li      7.832669880000000      2.253866180000000     33.914728290066158
Li      2.805144470000000      7.281424920000001     33.914725120066159
Li      7.830505540000001      5.321760700000000     26.928693100066159
Li      2.802947280000000      0.294216390000000     26.928709000066160
Li      2.802966340000000      5.321776910000001     31.956259030066157
Li      7.830537340000000      0.294238010000000     31.956248650066158
Li      7.830584180000000      9.760766415733189     36.465677040066154
Li      2.802935740000000      4.733317160000000     36.465728000066157
Li      2.802917310000001      9.760877485733189     31.438181920066157
Li      7.830554750000001      4.733242570000000     31.438135820066158
Li      2.805214910000000      2.773655790000001     34.507290860066156
Li      7.832652190000000      7.801153815733190     34.507183360066158
Li      7.832677470000001      2.773612930000001     29.479656630066163
Li      2.805219380000000      7.801207465733190     29.479749430066160
Li      0.212017020000000      0.928893910000000     30.110208940066155
Li      5.239597890000000      5.956406130000000     30.110281490066161
Li      5.239596820000001      0.928817680000000     35.137870960066159
Li      0.212017430000000      5.956426890000000     35.137775460066159
Li      0.212054190000000      4.098564880000001     33.284187110066156
Li      5.239569100000000      9.126225195733189     33.284111460066157
Li      5.239568970000000      4.098637920000000     28.256605480066160
Li      0.212053290000000      9.126099325733190     28.256657370066158
Cl      9.343852815733188      7.541287385733188     36.724750205799346
Cl      4.316305330000000      2.513752370000001     26.669663670066157
Cl      4.316305130000000      7.541306710000002     31.697200770066157
Cl      9.343852605733188      2.513738290000000     31.697193870066158
S       2.192627260000000     10.055078255733189     29.183441130066157
S       7.220176230000000      5.027512960000000     29.183420510066160
S       7.220176240000000     10.055060795733189     34.210968710066155
S       2.192629470000000      5.027530860000001     34.210988770066159
S       1.102878420000000      3.756135490000001     37.967836025799343
S       6.130457850000001      8.783698035733188     37.967806895799342
S       8.899766630000000      1.302875100000000     37.935807405799352
S       3.872217180000000      6.330461080000001     37.935838775799347
Li      7.830505540000001      5.321760700000000     36.983788735799351
Li      2.802947280000000      0.294216390000000     36.983804635799345
Li      5.239568970000000      4.098637920000000     38.311701115799352
Li      0.212053290000000      9.126099325733190     38.311753005799346
Cl      4.316305330000000      2.513752370000001     36.724759305799346
