B2O3-doped LPSCl1.6 champion faithful-cubic approximant (real relaxed atoms folded)
1.0
       -0.0001875677       8.0780646410       5.7576468573
        7.0061573039      -4.0172814500       5.7576468573
        6.9875486961       4.0172814500      -5.7576468573
Li P B S O Cl
23 3 1 11 6 6
Direct
      0.7255345000     0.7553025000     0.2967670000
      0.6985905000     0.2997910000     0.4510115000
      0.9850700000     0.4908795000     0.3809995000
      0.0985240000     0.0147860000     0.2565000000
      0.6394785000     0.1206865000     0.0421950000
      0.5562135000     0.4184020000     0.2419355000
      0.8340440000     0.4745320000     0.1302760000
      0.5985240000     0.0147860000     0.7565000000
      0.1985905000     0.7997910000     0.4510115000
      0.4850700000     0.9908795000     0.3809995000
      0.1394785000     0.6206865000     0.0421950000
      0.0562135000     0.9184020000     0.2419355000
      0.3340440000     0.9745320000     0.1302760000
      0.6985905000     0.7997910000     0.9510115000
      0.9850700000     0.9908795000     0.8809995000
      0.2467550000     0.1849860000     0.5816910000
      0.3881500000     0.4268125000     0.6707925000
      0.0985240000     0.5147860000     0.7565000000
      0.6394785000     0.6206865000     0.5421950000
      0.5562135000     0.9184020000     0.7419355000
      0.8340440000     0.9745320000     0.6302760000
      0.2286005000     0.1448175000     0.9446780000
      0.4691930000     0.3697590000     0.9558920000
      0.4383190000     0.1804160000     0.2584250000
      0.9383190000     0.1804160000     0.7584250000
      0.4383190000     0.6804160000     0.7584250000
      0.9694695000     0.7704340000     0.1885335000
      0.3269640000     0.3303810000     0.1687750000
      0.8896780000     0.6955940000     0.0399520000
      0.3184360000     0.0584540000     0.3818100000
      0.7459420000     0.5216100000     0.3533720000
      0.9117645000     0.9376680000     0.2417525000
      0.8269640000     0.3303810000     0.6687750000
      0.8184360000     0.0584540000     0.8818100000
      0.3269640000     0.8303810000     0.6687750000
      0.0509155000     0.0579415000     0.6495870000
      0.3184360000     0.5584540000     0.8818100000
      0.0444675000     0.3040415000     0.8836290000
      0.4973350000     0.0784625000     0.1537275000
      0.5510150000     0.2494040000     0.3421090000
      0.9973350000     0.0784625000     0.6537275000
      0.0510150000     0.7494040000     0.3421090000
      0.4973350000     0.5784625000     0.6537275000
      0.5510150000     0.7494040000     0.8421090000
      0.5459425000     0.8470655000     0.1572680000
      0.6577490000     0.3666810000     0.0090900000
      0.1577490000     0.8666810000     0.0090900000
      0.1840795000     0.4172555000     0.5471350000
      0.6577490000     0.8666810000     0.5090900000
      0.4214400000     0.2026045000     0.7645345000
