128
Lattice="6.996853 0.000000 0.000000 3.493681 6.047673 0.000000 35.029850 20.303915 57.576472" Properties=species:S:1:pos:R:3 pbc="T T T"
Li 15.884324 9.315321 25.447476
Li 7.018192 6.595804 7.007114
Li 19.570199 9.276136 25.116757
Li 27.856059 14.802681 30.647668
Li 21.268201 9.990037 21.907444
Li 39.874373 24.025420 57.006119
Li 6.281791 2.517577 4.748850
Li 18.223623 8.687034 18.338509
Li 16.110034 10.918940 14.672615
Li 3.187214 2.826658 2.669245
Li 9.003690 4.362313 5.155455
Li 16.959564 12.184226 17.825388
Li 25.831825 12.018831 30.182220
Li 5.721761 5.709461 4.737738
Li 9.222053 8.255164 10.657693
Li 17.667469 11.680559 26.609427
Li 11.538902 8.783823 12.351132
Li 12.754197 6.435102 10.696614
Li 11.998585 9.518612 15.654870
Li 19.845099 12.864920 20.406311
Li 7.983338 3.680427 8.231938
Li 15.480139 8.452398 15.739565
Li 22.495848 12.822709 20.835313
Li 23.063695 15.036511 28.030529
Li 22.951887 12.236326 24.089478
Li 4.914084 3.426197 7.032793
Li 9.637627 4.765345 10.847753
P 7.262319 3.942005 1.974067
P 10.468541 6.416124 7.747605
P 13.928015 8.522339 13.595590
B 17.573304 10.161965 20.453293
B 21.099479 12.348490 26.547763
S 7.676341 2.063774 2.723540
S 10.353411 4.507222 8.523103
S 14.352280 6.660205 14.334066
S 16.010758 9.221163 20.418459
S 21.128142 10.506109 26.661188
S 5.375508 4.515150 2.646042
S 8.806422 7.456291 8.407719
O 12.482122 8.988050 13.951182
S 17.640995 11.975691 20.295361
S 19.539556 13.246970 26.602575
S 42.286300 24.278222 57.492986
S 10.463220 6.321150 5.687577
S 13.935711 8.539544 11.492724
S 16.981863 10.018094 16.784578
S 20.936521 12.271059 22.606077
S 8.750849 5.145975 2.741561
S 12.166019 7.355763 8.440020
O 14.996080 9.491742 14.159839
S 19.116853 9.237789 20.777506
S 22.724371 13.197465 26.400712
Cl 3.646804 1.967416 0.412823
S 6.910241 4.353336 6.234380
Cl 10.607919 6.676954 11.833116
Cl 13.490735 8.544981 17.367021
S 17.670638 10.502043 24.299344
Cl 17.701487 10.385245 28.754841
Cl 3.636855 2.298622 5.102888
Cl 7.129405 4.282363 10.712160
Cl 21.385487 12.354906 18.636007
Cl 24.768705 14.367661 23.638654
Li 39.731820 20.450782 56.811050
Li 29.502417 13.767476 36.513098
Li 34.113013 21.675157 50.658601
Li 35.034051 22.532208 53.187302
Li 37.098757 20.632473 51.135449
Li 22.129957 11.909294 32.278118
Li 24.157796 12.707593 34.573520
Li 35.846882 22.106280 46.087317
Li 25.966957 15.079355 42.264124
Li 22.218736 10.662801 28.863546
Li 24.623708 16.868573 36.646733
Li 31.892448 20.177553 46.305589
Li 36.647099 22.351973 56.729234
Li 26.674231 14.622949 34.637602
Li 29.276158 14.601640 40.243996
Li 10.723382 6.053542 1.500443
Li 29.257484 16.974451 47.461898
Li 26.025332 16.631440 39.979144
Li 34.931479 18.896836 45.281016
Li 35.665109 18.392922 51.179898
Li 25.611124 13.889723 37.810239
Li 29.112850 16.134677 43.582165
Li 32.453807 18.142714 49.039551
Li 36.175521 19.678140 54.329734
Li 33.023495 19.356934 52.951469
Li 23.489620 16.083906 34.275907
Li 29.281758 18.314962 40.720729
P 24.575094 14.579228 31.540449
P 28.134380 16.651206 37.358436
P 31.500208 18.392657 43.069964
P 34.884921 20.260226 48.101342
P 38.606109 22.339582 53.880811
S 24.517437 12.624966 32.223536
S 27.968052 14.732794 38.111767
S 31.573218 16.423467 43.687587
S 34.930116 18.339406 48.856918
S 38.540228 20.422750 54.642259
S 22.873429 15.624840 31.982118
S 26.478189 17.752636 37.927522
S 29.532367 18.994850 43.325259
S 32.955348 20.891467 48.556484
S 36.917101 23.364320 54.464348
S 24.963843 14.420914 29.524984
S 28.230436 16.519351 35.299789
S 31.786740 18.476345 41.019494
O 35.109294 20.296211 46.558005
S 38.752295 22.202119 51.826309
S 26.217863 15.541513 32.373465
S 29.781345 17.568713 38.176770
S 32.846315 19.626089 44.018364
S 36.270174 21.488753 48.973338
S 40.247133 23.332027 54.636329
Cl 21.193889 12.465690 30.193735
S 24.590201 14.642115 35.817805
Cl 27.957845 16.250344 41.454138
Cl 31.246689 18.028754 46.978313
S 35.093907 20.332576 52.362865
Cl 35.260622 20.247754 56.744434
Cl 21.288415 12.481511 34.637775
Cl 24.784962 14.542482 40.161028
Cl 34.805624 16.458711 45.606381
Cl 31.288889 18.258611 51.193141
Li 18.797273 11.161532 22.300001
Li 15.093116 10.022673 18.305288
Li 17.305174 8.648069 22.612238
Li 19.243749 12.488202 24.387321
