B2O3-doped LPSCl1.6 bulk-region box faithful-cubic approximant (real relaxed atoms folded)
1.0
       -0.0001875677       8.0780646410       5.7576468573
        7.0061573039      -4.0172814500       5.7576468573
        6.9875486961       4.0172814500      -5.7576468573
Li P S Cl
23 3 16 7
Direct
      0.7985905000     0.8497910000     0.1010115000
      0.2075070000     0.0613875000     0.3744845000
      0.8467550000     0.2349860000     0.2316910000
      0.9881500000     0.4768125000     0.3207925000
      0.6985240000     0.5647860000     0.4065000000
      0.3286005000     0.1948175000     0.0946780000
      0.5691930000     0.4197590000     0.1058920000
      0.7075070000     0.0613875000     0.8744845000
      0.8286005000     0.1948175000     0.5946780000
      0.3467550000     0.7349860000     0.2316910000
      0.4881500000     0.9768125000     0.3207925000
      0.0691930000     0.9197590000     0.1058920000
      0.4989785000     0.4345505000     0.7175190000
      0.0315355000     0.4194820000     0.6272275000
      0.2075070000     0.5613875000     0.8744845000
      0.2947880000     0.2470505000     0.7199785000
      0.8467550000     0.7349860000     0.7316910000
      0.9881500000     0.9768125000     0.8207925000
      0.3286005000     0.6948175000     0.5946780000
      0.2384080000     0.4165250000     0.4344630000
      0.5691930000     0.9197590000     0.6058920000
      0.7384080000     0.4165250000     0.9344630000
      0.2384080000     0.9165250000     0.9344630000
      0.5268390000     0.2314230000     0.4136420000
      0.0268390000     0.7314230000     0.4136420000
      0.5268390000     0.7314230000     0.9136420000
      0.9184360000     0.1084540000     0.0318100000
      0.4184360000     0.6084540000     0.0318100000
      0.1444675000     0.3540415000     0.0336290000
      0.4137530000     0.3469175000     0.2813605000
      0.9269640000     0.8803810000     0.3187750000
      0.6509155000     0.1079415000     0.2995870000
      0.4001525000     0.1156430000     0.5289655000
      0.9184360000     0.6084540000     0.5318100000
      0.6444675000     0.3540415000     0.5336290000
      0.9137530000     0.3469175000     0.7813605000
      0.1509155000     0.6079415000     0.2995870000
      0.1444675000     0.8540415000     0.5336290000
      0.4137530000     0.8469175000     0.7813605000
      0.0753855000     0.1504560000     0.7672715000
      0.6509155000     0.6079415000     0.7995870000
      0.2690035000     0.4746520000     0.6618555000
      0.7840795000     0.4672555000     0.1971350000
      0.2840795000     0.9672555000     0.1971350000
      0.7840795000     0.9672555000     0.6971350000
      0.0338560000     0.2600185000     0.4085945000
      0.5214400000     0.7526045000     0.4145345000
      0.5338560000     0.2600185000     0.9085945000
      0.0338560000     0.7600185000     0.9085945000
