62
Lattice="6.11520608 0.0 3.53061587 2.03840202 5.76547158 3.53061587 0.0 0.0 35.30616076" Properties=species:S:1:pos:R:3 charge=0 spin=0 pbc="T T T"
Li       1.62419154       4.33736743       4.80255861
Li       4.42505947       3.07624890      10.29315690
Li       1.48815299       4.03427121      30.26629935
Li       1.59705550       4.42255315      37.21821818
Li       2.62458411       0.78977749      29.30056184
Li       2.24637388       0.73086251      36.44048206
Li       6.49214593       1.03460479      14.90119305
Li       3.27739238       4.16046033      17.27944841
Li       3.69113934       0.46879781      24.85591622
Li       0.37320206       0.90584179       4.57215915
Li       1.65320341       4.17133403      11.71765430
Li       4.42957580       5.67790163      24.38108911
Li       0.98027448       2.66316480      33.27733910
Li       7.21806262       3.12461485      12.19659771
Li       6.52197893       2.36988886      22.74476986
Li       4.51446827       1.86574730       4.52750146
Li       1.54055716       4.10159169      23.23901305
Li       0.17962688       0.34654355      16.42432824
Li       0.29891486       0.70488645      23.39280926
Li       6.27904934       0.74033689      34.21761870
Li       3.60118280       0.90223421      11.90365663
Li       1.02846938       2.54783082      26.46742096
Li       3.74261165       0.32178902      16.96353910
Li       4.24630764       2.87930386      31.43532151
Li       3.39536738       0.48006468      32.58846659
Li       2.56719366       0.83259857       8.59761567
Li       6.97663493       2.72520928      18.56898098
P        4.34833941       3.73133871       7.02991514
P        4.23856199       3.60646159      14.07547036
P        4.13515640       3.42022570      20.85480659
P        4.19185145       3.51981101      27.81391927
P        4.10219711       3.42439671      34.93075355
S        4.32384556       1.66734142       7.05731833
S        4.16672779       1.56993478      14.18384949
S        4.42112479       1.41079384      21.13285794
S        4.13271778       1.48902217      27.48935970
S        4.01028369       1.36172154      34.83813254
S        2.39671980       4.43385194       7.06759914
S        2.33018639       4.40286159      14.11794414
S        2.12270998       3.85345260      20.84642407
S        2.24437523       4.20018571      27.87195734
S        2.15576814       4.12320157      34.88778447
S        5.18963447       4.24932891       5.22285641
S        5.13870486       4.27464499      12.34173754
S        4.95745849       4.12083772      19.09546589
S        5.25517483       4.53594602      26.38321159
S        5.13869378       4.15802420      33.30227615
S        5.32793223       4.55345765       8.61741740
S        5.25939574       4.29020432      15.72463642
S        5.16500167       4.41874390      22.34195051
S        5.16182518       4.04981568      29.56159022
S        4.98952287       3.96129597      36.68288339
Br       2.17684887       2.27022116       3.35784848
S        2.23959673       2.21626591      10.50128432
Cl       1.90420051       2.02267957      17.18830253
Cl       1.96188716       2.06813504      24.36250951
S        2.08938869       1.96487778      31.30353883
Cl       6.24466941       0.51727045      38.75587155
Br       6.20033099       0.94121013      10.72362114
Cl       6.19463173       0.61340449      17.50692220
Cl       6.22672513       0.49049329      24.39255452
Br       6.05215199       0.67272899      31.53762931
