62
Lattice="6.015653 -0.006579 3.475864 1.995164 5.661361 3.482535 -0.235541 -0.125721 35.166455" Properties=species:S:1:pos:R:3 pbc="T T T" provenance="LPSOCl (O-doped LPSCl1.6) V0-relaxed 62 atoms; E=-1280.52027853 Ry; V=1204.52 A3; n_Li=2.2416e+22 cm-3 (27 Li); PS3O (P#30-O 1.559 A) + free-S x2; REGENERATED 2026-07-17 from lpsocl_v0.vasp (Cartesian) after double-transform bug (previous file applied frac->cart to already-Cartesian coords -> min-dist 0.278 A -> MD exploded)"
Li 4.54065627 2.01770423 38.18486957
Li 6.03973152 0.50732653 13.03276056
Li 1.00760983 2.00292446 29.25526498
Li 1.41683004 3.49426771 32.48914795
Li 3.75007599 3.51057100 30.99880805
Li 7.05385242 4.98868005 8.55806212
Li 2.35476469 0.25017079 8.11647119
Li 4.03541635 0.59408977 25.36966159
Li 5.56905665 5.06873183 21.94918690
Li 1.32155026 0.91118261 4.73149912
Li 1.41407854 3.38341722 11.50229486
Li 2.10581196 3.62960080 25.49932660
Li 2.11749181 0.16382542 36.08697733
Li 4.41005057 1.92002273 10.15014176
Li 4.49822199 1.85378272 16.95476083
Li 1.36258053 3.55717184 37.16443708
Li 2.20453769 0.65727013 22.02392346
Li 1.37719654 3.42468775 16.01999744
Li 1.14027630 4.64659339 22.40231006
Li 3.61255745 0.30765373 29.90957237
Li 2.29719482 0.26268260 11.97656275
Li 6.63330026 2.08121483 22.60176353
Li 0.46008465 0.38104673 25.34018999
Li 3.77580793 0.51631200 32.64618933
Li 0.51895907 0.36638655 32.12637880
Li 1.45136890 3.50799057 8.82272277
Li 3.14475165 5.16084447 19.27254475
P 4.25230224 2.99225457 6.55869101
P 4.01553268 2.96635831 13.67294925
P 4.29461129 2.62979361 20.64955400
P 4.27850178 3.11705152 27.73410103
P 4.16004063 3.04619468 34.80696488
S 3.57882965 1.06407407 6.19259699
S 3.80269043 0.94083727 13.79137582
S 4.29035669 0.56880494 20.64099941
S 4.35447259 1.05099128 27.74245671
S 4.21394230 0.98946972 34.94054805
S 2.65381929 4.27649868 6.90555652
S 2.14110184 3.81704020 13.74456652
S 2.30668554 3.21955363 20.80399737
S 2.31399362 3.70605471 27.98578360
S 2.22000677 3.71804013 34.80059802
S 5.24864655 3.68229184 4.88413026
S 5.00831727 3.55603320 11.94943660
S 4.99171642 3.41503751 18.89001213
S 4.83631744 3.78721116 25.87813755
S 5.13537531 3.61795731 33.07329327
S 5.54653651 2.98377518 8.17894598
S 5.02649635 3.60730854 15.35385217
S 5.45118282 3.83577105 29.26130329
S 5.09594377 3.80001935 36.47626109
S 2.05810999 1.60526827 10.06118820
S 2.27137839 1.66887147 31.25470982
O 5.17508643 3.15875380 21.82273122
Cl 2.47958709 1.71172058 2.78972944
Cl 2.11216574 1.24873480 17.29392615
Cl 2.19805812 1.56362965 24.28548311
Cl -0.01515373 0.02046556 34.79931232
Cl 0.03164398 -0.02073944 6.96822731
Cl 7.74117941 5.42800767 20.81476025
Cl 0.11414722 0.15804094 20.70278433
Cl -0.02952568 0.08156238 27.81223263
