558
Lattice="18.046959 -0.019737 10.427592 5.985492 16.984083 10.447605 -0.235541 -0.125721 35.166455" Properties=species:S:1:pos:R:3 pbc="T T T" provenance="3x3x1 supercell of lpsocl_relaxV0.xyz via tools/ionic/make_md_supercell.py (2026-08-16). min perpendicular width 5.672 -> 17.015 A; uncorrelated MSD limit 8.04 -> 72.38 A2. REASON: lpsocl 600 K beta-bar 0.77 traced to finite size (MSD/limit 3.21x). Positions are tiled, NOT re-relaxed."
Li      4.5406562700     2.0177042300    38.1848695700
Li      6.0397315200     0.5073265300    13.0327605600
Li      1.0076098300     2.0029244600    29.2552649800
Li      1.4168300400     3.4942677100    32.4891479500
Li      3.7500759900     3.5105710000    30.9988080500
Li      7.0538524200     4.9886800500     8.5580621200
Li      2.3547646900     0.2501707900     8.1164711900
Li      4.0354163500     0.5940897700    25.3696615900
Li      5.5690566500     5.0687318300    21.9491869000
Li      1.3215502600     0.9111826100     4.7314991200
Li      1.4140785400     3.3834172200    11.5022948600
Li      2.1058119600     3.6296008000    25.4993266000
Li      2.1174918100     0.1638254200    36.0869773300
Li      4.4100505700     1.9200227300    10.1501417600
Li      4.4982219900     1.8537827200    16.9547608300
Li      1.3625805300     3.5571718400    37.1644370800
Li      2.2045376900     0.6572701300    22.0239234600
Li      1.3771965400     3.4246877500    16.0199974400
Li      1.1402763000     4.6465933900    22.4023100600
Li      3.6125574500     0.3076537300    29.9095723700
Li      2.2971948200     0.2626826000    11.9765627500
Li      6.6333002600     2.0812148300    22.6017635300
Li      0.4600846500     0.3810467300    25.3401899900
Li      3.7758079300     0.5163120000    32.6461893300
Li      0.5189590700     0.3663865500    32.1263788000
Li      1.4513689000     3.5079905700     8.8227227700
Li      3.1447516500     5.1608444700    19.2725447500
P       4.2523022400     2.9922545700     6.5586910100
P       4.0155326800     2.9663583100    13.6729492500
P       4.2946112900     2.6297936100    20.6495540000
P       4.2785017800     3.1170515200    27.7341010300
P       4.1600406300     3.0461946800    34.8069648800
S       3.5788296500     1.0640740700     6.1925969900
S       3.8026904300     0.9408372700    13.7913758200
S       4.2903566900     0.5688049400    20.6409994100
S       4.3544725900     1.0509912800    27.7424567100
S       4.2139423000     0.9894697200    34.9405480500
S       2.6538192900     4.2764986800     6.9055565200
S       2.1411018400     3.8170402000    13.7445665200
S       2.3066855400     3.2195536300    20.8039973700
S       2.3139936200     3.7060547100    27.9857836000
S       2.2200067700     3.7180401300    34.8005980200
S       5.2486465500     3.6822918400     4.8841302600
S       5.0083172700     3.5560332000    11.9494366000
S       4.9917164200     3.4150375100    18.8900121300
S       4.8363174400     3.7872111600    25.8781375500
S       5.1353753100     3.6179573100    33.0732932700
S       5.5465365100     2.9837751800     8.1789459800
S       5.0264963500     3.6073085400    15.3538521700
S       5.4511828200     3.8357710500    29.2613032900
S       5.0959437700     3.8000193500    36.4762610900
S       2.0581099900     1.6052682700    10.0611882000
S       2.2713783900     1.6688714700    31.2547098200
O       5.1750864300     3.1587538000    21.8227312200
Cl      2.4795870900     1.7117205800     2.7897294400
Cl      2.1121657400     1.2487348000    17.2939261500
Cl      2.1980581200     1.5636296500    24.2854831100
Cl     -0.0151537300     0.0204655600    34.7993123200
Cl      0.0316439800    -0.0207394400     6.9682273100
Cl      7.7411794100     5.4280076700    20.8147602500
Cl      0.1141472200     0.1580409400    20.7027843300
Cl     -0.0295256800     0.0815623800    27.8122326300
Li      6.5358202700     7.6790652300    41.6674045700
Li      8.0348955200     6.1686875300    16.5152955600
Li      3.0027738300     7.6642854600    32.7377999800
Li      3.4119940400     9.1556287100    35.9716829500
Li      5.7452399900     9.1719320000    34.4813430500
Li      9.0490164200    10.6500410500    12.0405971200
Li      4.3499286900     5.9115317900    11.5990061900
Li      6.0305803500     6.2554507700    28.8521965900
Li      7.5642206500    10.7300928300    25.4317219000
Li      3.3167142600     6.5725436100     8.2140341200
Li      3.4092425400     9.0447782200    14.9848298600
Li      4.1009759600     9.2909618000    28.9818616000
Li      4.1126558100     5.8251864200    39.5695123300
Li      6.4052145700     7.5813837300    13.6326767600
Li      6.4933859900     7.5151437200    20.4372958300
Li      3.3577445300     9.2185328400    40.6469720800
Li      4.1997016900     6.3186311300    25.5064584600
Li      3.3723605400     9.0860487500    19.5025324400
Li      3.1354403000    10.3079543900    25.8848450600
Li      5.6077214500     5.9690147300    33.3921073700
Li      4.2923588200     5.9240436000    15.4590977500
Li      8.6284642600     7.7425758300    26.0842985300
Li      2.4552486500     6.0424077300    28.8227249900
Li      5.7709719300     6.1776730000    36.1287243300
Li      2.5141230700     6.0277475500    35.6089138000
Li      3.4465329000     9.1693515700    12.3052577700
Li      5.1399156500    10.8222054700    22.7550797500
P       6.2474662400     8.6536155700    10.0412260100
P       6.0106966800     8.6277193100    17.1554842500
P       6.2897752900     8.2911546100    24.1320890000
P       6.2736657800     8.7784125200    31.2166360300
P       6.1552046300     8.7075556800    38.2894998800
S       5.5739936500     6.7254350700     9.6751319900
S       5.7978544300     6.6021982700    17.2739108200
S       6.2855206900     6.2301659400    24.1235344100
S       6.3496365900     6.7123522800    31.2249917100
S       6.2091063000     6.6508307200    38.4230830500
S       4.6489832900     9.9378596800    10.3880915200
S       4.1362658400     9.4784012000    17.2271015200
S       4.3018495400     8.8809146300    24.2865323700
S       4.3091576200     9.3674157100    31.4683186000
S       4.2151707700     9.3794011300    38.2831330200
S       7.2438105500     9.3436528400     8.3666652600
S       7.0034812700     9.2173942000    15.4319716000
S       6.9868804200     9.0763985100    22.3725471300
S       6.8314814400     9.4485721600    29.3606725500
S       7.1305393100     9.2793183100    36.5558282700
S       7.5417005100     8.6451361800    11.6614809800
S       7.0216603500     9.2686695400    18.8363871700
S       7.4463468200     9.4971320500    32.7438382900
S       7.0911077700     9.4613803500    39.9587960900
S       4.0532739900     7.2666292700    13.5437232000
S       4.2665423900     7.3302324700    34.7372448200
O       7.1702504300     8.8201148000    25.3052662200
Cl      4.4747510900     7.3730815800     6.2722644400
Cl      4.1073297400     6.9100958000    20.7764611500
Cl      4.1932221200     7.2249906500    27.7680181100
Cl      1.9800102700     5.6818265600    38.2818473200
Cl      2.0268079800     5.6406215600    10.4507623100
Cl      9.7363434100    11.0893686700    24.2972952500
Cl      2.1093112200     5.8194019400    24.1853193300
Cl      1.9656383200     5.7429233800    31.2947676300
Li      8.5309842700    13.3404262300    45.1499395700
Li     10.0300595200    11.8300485300    19.9978305600
Li      4.9979378300    13.3256464600    36.2203349800
Li      5.4071580400    14.8169897100    39.4542179500
Li      7.7404039900    14.8332930000    37.9638780500
Li     11.0441804200    16.3114020500    15.5231321200
Li      6.3450926900    11.5728927900    15.0815411900
Li      8.0257443500    11.9168117700    32.3347315900
Li      9.5593846500    16.3914538300    28.9142569000
Li      5.3118782600    12.2339046100    11.6965691200
Li      5.4044065400    14.7061392200    18.4673648600
Li      6.0961399600    14.9523228000    32.4643966000
Li      6.1078198100    11.4865474200    43.0520473300
Li      8.4003785700    13.2427447300    17.1152117600
Li      8.4885499900    13.1765047200    23.9198308300
Li      5.3529085300    14.8798938400    44.1295070800
Li      6.1948656900    11.9799921300    28.9889934600
Li      5.3675245400    14.7474097500    22.9850674400
Li      5.1306043000    15.9693153900    29.3673800600
Li      7.6028854500    11.6303757300    36.8746423700
Li      6.2875228200    11.5854046000    18.9416327500
Li     10.6236282600    13.4039368300    29.5668335300
Li      4.4504126500    11.7037687300    32.3052599900
Li      7.7661359300    11.8390340000    39.6112593300
Li      4.5092870700    11.6891085500    39.0914488000
Li      5.4416969000    14.8307125700    15.7877927700
Li      7.1350796500    16.4835664700    26.2376147500
P       8.2426302400    14.3149765700    13.5237610100
P       8.0058606800    14.2890803100    20.6380192500
P       8.2849392900    13.9525156100    27.6146240000
P       8.2688297800    14.4397735200    34.6991710300
P       8.1503686300    14.3689166800    41.7720348800
S       7.5691576500    12.3867960700    13.1576669900
S       7.7930184300    12.2635592700    20.7564458200
S       8.2806846900    11.8915269400    27.6060694100
S       8.3448005900    12.3737132800    34.7075267100
S       8.2042703000    12.3121917200    41.9056180500
S       6.6441472900    15.5992206800    13.8706265200
S       6.1314298400    15.1397622000    20.7096365200
S       6.2970135400    14.5422756300    27.7690673700
S       6.3043216200    15.0287767100    34.9508536000
S       6.2103347700    15.0407621300    41.7656680200
S       9.2389745500    15.0050138400    11.8492002600
S       8.9986452700    14.8787552000    18.9145066000
S       8.9820444200    14.7377595100    25.8550821300
S       8.8266454400    15.1099331600    32.8432075500
S       9.1257033100    14.9406793100    40.0383632700
S       9.5368645100    14.3064971800    15.1440159800
S       9.0168243500    14.9300305400    22.3189221700
S       9.4415108200    15.1584930500    36.2263732900
S       9.0862717700    15.1227413500    43.4413310900
S       6.0484379900    12.9279902700    17.0262582000
S       6.2617063900    12.9915934700    38.2197798200
O       9.1654144300    14.4814758000    28.7878012200
Cl      6.4699150900    13.0344425800     9.7547994400
Cl      6.1024937400    12.5714568000    24.2589961500
Cl      6.1883861200    12.8863516500    31.2505531100
Cl      3.9751742700    11.3431875600    41.7643823200
Cl      4.0219719800    11.3019825600    13.9332973100
Cl     11.7315074100    16.7507296700    27.7798302500
Cl      4.1044752200    11.4807629400    27.6678543300
Cl      3.9608023200    11.4042843800    34.7773026300
Li     10.5563092700     2.0111252300    41.6607335700
Li     12.0553845200     0.5007475300    16.5086245600
Li      7.0232628300     1.9963454600    32.7311289800
Li      7.4324830400     3.4876887100    35.9650119500
Li      9.7657289900     3.5039920000    34.4746720500
Li     13.0695054200     4.9821010500    12.0339261200
Li      8.3704176900     0.2435917900    11.5923351900
Li     10.0510693500     0.5875107700    28.8455255900
Li     11.5847096500     5.0621528300    25.4250509000
Li      7.3372032600     0.9046036100     8.2073631200
Li      7.4297315400     3.3768382200    14.9781588600
Li      8.1214649600     3.6230218000    28.9751906000
Li      8.1331448100     0.1572464200    39.5628413300
Li     10.4257035700     1.9134437300    13.6260057600
Li     10.5138749900     1.8472037200    20.4306248300
Li      7.3782335300     3.5505928400    40.6403010800
Li      8.2201906900     0.6506911300    25.4997874600
Li      7.3928495400     3.4181087500    19.4958614400
Li      7.1559293000     4.6400143900    25.8781740600
Li      9.6282104500     0.3010747300    33.3854363700
Li      8.3128478200     0.2561036000    15.4524267500
Li     12.6489532600     2.0746358300    26.0776275300
Li      6.4757376500     0.3744677300    28.8160539900
Li      9.7914609300     0.5097330000    36.1220533300
Li      6.5346120700     0.3598075500    35.6022428000
Li      7.4670219000     3.5014115700    12.2985867700
Li      9.1604046500     5.1542654700    22.7484087500
P      10.2679552400     2.9856755700    10.0345550100
P      10.0311856800     2.9597793100    17.1488132500
P      10.3102642900     2.6232146100    24.1254180000
P      10.2941547800     3.1104725200    31.2099650300
P      10.1756936300     3.0396156800    38.2828288800
S       9.5944826500     1.0574950700     9.6684609900
S       9.8183434300     0.9342582700    17.2672398200
S      10.3060096900     0.5622259400    24.1168634100
S      10.3701255900     1.0444122800    31.2183207100
S      10.2295953000     0.9828907200    38.4164120500
S       8.6694722900     4.2699196800    10.3814205200
S       8.1567548400     3.8104612000    17.2204305200
S       8.3223385400     3.2129746300    24.2798613700
S       8.3296466200     3.6994757100    31.4616476000
S       8.2356597700     3.7114611300    38.2764620200
S      11.2642995500     3.6757128400     8.3599942600
S      11.0239702700     3.5494542000    15.4253006000
S      11.0073694200     3.4084585100    22.3658761300
S      10.8519704400     3.7806321600    29.3540015500
S      11.1510283100     3.6113783100    36.5491572700
S      11.5621895100     2.9771961800    11.6548099800
S      11.0421493500     3.6007295400    18.8297161700
S      11.4668358200     3.8291920500    32.7371672900
S      11.1115967700     3.7934403500    39.9521250900
S       8.0737629900     1.5986892700    13.5370522000
S       8.2870313900     1.6622924700    34.7305738200
O      11.1907394300     3.1521748000    25.2985952200
Cl      8.4952400900     1.7051415800     6.2655934400
Cl      8.1278187400     1.2421558000    20.7697901500
Cl      8.2137111200     1.5570506500    27.7613471100
Cl      6.0004992700     0.0138865600    38.2751763200
Cl      6.0472969800    -0.0273184400    10.4440913100
Cl     13.7568324100     5.4214286700    24.2906242500
Cl      6.1298002200     0.1514619400    24.1786483300
Cl      5.9861273200     0.0749833800    31.2880966300
Li     12.5514732700     7.6724862300    45.1432685700
Li     14.0505485200     6.1621085300    19.9911595600
Li      9.0184268300     7.6577064600    36.2136639800
Li      9.4276470400     9.1490497100    39.4475469500
Li     11.7608929900     9.1653530000    37.9572070500
Li     15.0646694200    10.6434620500    15.5164611200
Li     10.3655816900     5.9049527900    15.0748701900
Li     12.0462333500     6.2488717700    32.3280605900
Li     13.5798736500    10.7235138300    28.9075859000
Li      9.3323672600     6.5659646100    11.6898981200
Li      9.4248955400     9.0381992200    18.4606938600
Li     10.1166289600     9.2843828000    32.4577256000
Li     10.1283088100     5.8186074200    43.0453763300
Li     12.4208675700     7.5748047300    17.1085407600
Li     12.5090389900     7.5085647200    23.9131598300
Li      9.3733975300     9.2119538400    44.1228360800
Li     10.2153546900     6.3120521300    28.9823224600
Li      9.3880135400     9.0794697500    22.9783964400
Li      9.1510933000    10.3013753900    29.3607090600
Li     11.6233744500     5.9624357300    36.8679713700
Li     10.3080118200     5.9174646000    18.9349617500
Li     14.6441172600     7.7359968300    29.5601625300
Li      8.4709016500     6.0358287300    32.2985889900
Li     11.7866249300     6.1710940000    39.6045883300
Li      8.5297760700     6.0211685500    39.0847778000
Li      9.4621859000     9.1627725700    15.7811217700
Li     11.1555686500    10.8156264700    26.2309437500
P      12.2631192400     8.6470365700    13.5170900100
P      12.0263496800     8.6211403100    20.6313482500
P      12.3054282900     8.2845756100    27.6079530000
P      12.2893187800     8.7718335200    34.6925000300
P      12.1708576300     8.7009766800    41.7653638800
S      11.5896466500     6.7188560700    13.1509959900
S      11.8135074300     6.5956192700    20.7497748200
S      12.3011736900     6.2235869400    27.5993984100
S      12.3652895900     6.7057732800    34.7008557100
S      12.2247593000     6.6442517200    41.8989470500
S      10.6646362900     9.9312806800    13.8639555200
S      10.1519188400     9.4718222000    20.7029655200
S      10.3175025400     8.8743356300    27.7623963700
S      10.3248106200     9.3608367100    34.9441826000
S      10.2308237700     9.3728221300    41.7589970200
S      13.2594635500     9.3370738400    11.8425292600
S      13.0191342700     9.2108152000    18.9078356000
S      13.0025334200     9.0698195100    25.8484111300
S      12.8471344400     9.4419931600    32.8365365500
S      13.1461923100     9.2727393100    40.0316922700
S      13.5573535100     8.6385571800    15.1373449800
S      13.0373133500     9.2620905400    22.3122511700
S      13.4619998200     9.4905530500    36.2197022900
S      13.1067607700     9.4548013500    43.4346600900
S      10.0689269900     7.2600502700    17.0195872000
S      10.2821953900     7.3236534700    38.2131088200
O      13.1859034300     8.8135358000    28.7811302200
Cl     10.4904040900     7.3665025800     9.7481284400
Cl     10.1229827400     6.9035168000    24.2523251500
Cl     10.2088751200     7.2184116500    31.2438821100
Cl      7.9956632700     5.6752475600    41.7577113200
Cl      8.0424609800     5.6340425600    13.9266263100
Cl     15.7519964100    11.0827896700    27.7731592500
Cl      8.1249642200     5.8128229400    27.6611833300
Cl      7.9812913200     5.7363443800    34.7706316300
Li     14.5466372700    13.3338472300    48.6258035700
Li     16.0457125200    11.8234695300    23.4736945600
Li     11.0135908300    13.3190674600    39.6961989800
Li     11.4228110400    14.8104107100    42.9300819500
Li     13.7560569900    14.8267140000    41.4397420500
Li     17.0598334200    16.3048230500    18.9989961200
Li     12.3607456900    11.5663137900    18.5574051900
Li     14.0413973500    11.9102327700    35.8105955900
Li     15.5750376500    16.3848748300    32.3901209000
Li     11.3275312600    12.2273256100    15.1724331200
Li     11.4200595400    14.6995602200    21.9432288600
Li     12.1117929600    14.9457438000    35.9402606000
Li     12.1234728100    11.4799684200    46.5279113300
Li     14.4160315700    13.2361657300    20.5910757600
Li     14.5042029900    13.1699257200    27.3956948300
Li     11.3685615300    14.8733148400    47.6053710800
Li     12.2105186900    11.9734131300    32.4648574600
Li     11.3831775400    14.7408307500    26.4609314400
Li     11.1462573000    15.9627363900    32.8432440600
Li     13.6185384500    11.6237967300    40.3505063700
Li     12.3031758200    11.5788256000    22.4174967500
Li     16.6392812600    13.3973578300    33.0426975300
Li     10.4660656500    11.6971897300    35.7811239900
Li     13.7817889300    11.8324550000    43.0871233300
Li     10.5249400700    11.6825295500    42.5673128000
Li     11.4573499000    14.8241335700    19.2636567700
Li     13.1507326500    16.4769874700    29.7134787500
P      14.2582832400    14.3083975700    16.9996250100
P      14.0215136800    14.2825013100    24.1138832500
P      14.3005922900    13.9459366100    31.0904880000
P      14.2844827800    14.4331945200    38.1750350300
P      14.1660216300    14.3623376800    45.2478988800
S      13.5848106500    12.3802170700    16.6335309900
S      13.8086714300    12.2569802700    24.2323098200
S      14.2963376900    11.8849479400    31.0819334100
S      14.3604535900    12.3671342800    38.1833907100
S      14.2199233000    12.3056127200    45.3814820500
S      12.6598002900    15.5926416800    17.3464905200
S      12.1470828400    15.1331832000    24.1855005200
S      12.3126665400    14.5356966300    31.2449313700
S      12.3199746200    15.0221977100    38.4267176000
S      12.2259877700    15.0341831300    45.2415320200
S      15.2546275500    14.9984348400    15.3250642600
S      15.0142982700    14.8721762000    22.3903706000
S      14.9976974200    14.7311805100    29.3309461300
S      14.8422984400    15.1033541600    36.3190715500
S      15.1413563100    14.9341003100    43.5142272700
S      15.5525175100    14.2999181800    18.6198799800
S      15.0324773500    14.9234515400    25.7947861700
S      15.4571638200    15.1519140500    39.7022372900
S      15.1019247700    15.1161623500    46.9171950900
S      12.0640909900    12.9214112700    20.5021222000
S      12.2773593900    12.9850144700    41.6956438200
O      15.1810674300    14.4748968000    32.2636652200
Cl     12.4855680900    13.0278635800    13.2306634400
Cl     12.1181467400    12.5648778000    27.7348601500
Cl     12.2040391200    12.8797726500    34.7264171100
Cl      9.9908272700    11.3366085600    45.2402463200
Cl     10.0376249800    11.2954035600    17.4091613100
Cl     17.7471604100    16.7441506700    31.2556942500
Cl     10.1201282200    11.4741839400    31.1437183300
Cl      9.9764553200    11.3977053800    38.2531666300
Li     16.5719622700     2.0045462300    45.1365975700
Li     18.0710375200     0.4941685300    19.9844885600
Li     13.0389158300     1.9897664600    36.2069929800
Li     13.4481360400     3.4811097100    39.4408759500
Li     15.7813819900     3.4974130000    37.9505360500
Li     19.0851584200     4.9755220500    15.5097901200
Li     14.3860706900     0.2370127900    15.0681991900
Li     16.0667223500     0.5809317700    32.3213895900
Li     17.6003626500     5.0555738300    28.9009149000
Li     13.3528562600     0.8980246100    11.6832271200
Li     13.4453845400     3.3702592200    18.4540228600
Li     14.1371179600     3.6164428000    32.4510546000
Li     14.1487978100     0.1506674200    43.0387053300
Li     16.4413565700     1.9068647300    17.1018697600
Li     16.5295279900     1.8406247200    23.9064888300
Li     13.3938865300     3.5440138400    44.1161650800
Li     14.2358436900     0.6441121300    28.9756514600
Li     13.4085025400     3.4115297500    22.9717254400
Li     13.1715823000     4.6334353900    29.3540380600
Li     15.6438634500     0.2944957300    36.8613003700
Li     14.3285008200     0.2495246000    18.9282907500
Li     18.6646062600     2.0680568300    29.5534915300
Li     12.4913906500     0.3678887300    32.2919179900
Li     15.8071139300     0.5031540000    39.5979173300
Li     12.5502650700     0.3532285500    39.0781068000
Li     13.4826749000     3.4948325700    15.7744507700
Li     15.1760576500     5.1476864700    26.2242727500
P      16.2836082400     2.9790965700    13.5104190100
P      16.0468386800     2.9532003100    20.6246772500
P      16.3259172900     2.6166356100    27.6012820000
P      16.3098077800     3.1038935200    34.6858290300
P      16.1913466300     3.0330366800    41.7586928800
S      15.6101356500     1.0509160700    13.1443249900
S      15.8339964300     0.9276792700    20.7431038200
S      16.3216626900     0.5556469400    27.5927274100
S      16.3857785900     1.0378332800    34.6941847100
S      16.2452483000     0.9763117200    41.8922760500
S      14.6851252900     4.2633406800    13.8572845200
S      14.1724078400     3.8038822000    20.6962945200
S      14.3379915400     3.2063956300    27.7557253700
S      14.3452996200     3.6928967100    34.9375116000
S      14.2513127700     3.7048821300    41.7523260200
S      17.2799525500     3.6691338400    11.8358582600
S      17.0396232700     3.5428752000    18.9011646000
S      17.0230224200     3.4018795100    25.8417401300
S      16.8676234400     3.7740531600    32.8298655500
S      17.1666813100     3.6047993100    40.0250212700
S      17.5778425100     2.9706171800    15.1306739800
S      17.0578023500     3.5941505400    22.3055801700
S      17.4824888200     3.8226130500    36.2130312900
S      17.1272497700     3.7868613500    43.4279890900
S      14.0894159900     1.5921102700    17.0129162000
S      14.3026843900     1.6557134700    38.2064378200
O      17.2063924300     3.1455958000    28.7744592200
Cl     14.5108930900     1.6985625800     9.7414574400
Cl     14.1434717400     1.2355768000    24.2456541500
Cl     14.2293641200     1.5504716500    31.2372111100
Cl     12.0161522700     0.0073075600    41.7510403200
Cl     12.0629499800    -0.0338974400    13.9199553100
Cl     19.7724854100     5.4148496700    27.7664882500
Cl     12.1454532200     0.1448829400    27.6545123300
Cl     12.0017803200     0.0684043800    34.7639606300
Li     18.5671262700     7.6659072300    48.6191325700
Li     20.0662015200     6.1555295300    23.4670235600
Li     15.0340798300     7.6511274600    39.6895279800
Li     15.4433000400     9.1424707100    42.9234109500
Li     17.7765459900     9.1587740000    41.4330710500
Li     21.0803224200    10.6368830500    18.9923251200
Li     16.3812346900     5.8983737900    18.5507341900
Li     18.0618863500     6.2422927700    35.8039245900
Li     19.5955266500    10.7169348300    32.3834499000
Li     15.3480202600     6.5593856100    15.1657621200
Li     15.4405485400     9.0316202200    21.9365578600
Li     16.1322819600     9.2778038000    35.9335896000
Li     16.1439618100     5.8120284200    46.5212403300
Li     18.4365205700     7.5682257300    20.5844047600
Li     18.5246919900     7.5019857200    27.3890238300
Li     15.3890505300     9.2053748400    47.5987000800
Li     16.2310076900     6.3054731300    32.4581864600
Li     15.4036665400     9.0728907500    26.4542604400
Li     15.1667463000    10.2947963900    32.8365730600
Li     17.6390274500     5.9558567300    40.3438353700
Li     16.3236648200     5.9108856000    22.4108257500
Li     20.6597702600     7.7294178300    33.0360265300
Li     14.4865546500     6.0292497300    35.7744529900
Li     17.8022779300     6.1645150000    43.0804523300
Li     14.5454290700     6.0145895500    42.5606418000
Li     15.4778389000     9.1561935700    19.2569857700
Li     17.1712216500    10.8090474700    29.7068077500
P      18.2787722400     8.6404575700    16.9929540100
P      18.0420026800     8.6145613100    24.1072122500
P      18.3210812900     8.2779966100    31.0838170000
P      18.3049717800     8.7652545200    38.1683640300
P      18.1865106300     8.6943976800    45.2412278800
S      17.6052996500     6.7122770700    16.6268599900
S      17.8291604300     6.5890402700    24.2256388200
S      18.3168266900     6.2170079400    31.0752624100
S      18.3809425900     6.6991942800    38.1767197100
S      18.2404123000     6.6376727200    45.3748110500
S      16.6802892900     9.9247016800    17.3398195200
S      16.1675718400     9.4652432000    24.1788295200
S      16.3331555400     8.8677566300    31.2382603700
S      16.3404636200     9.3542577100    38.4200466000
S      16.2464767700     9.3662431300    45.2348610200
S      19.2751165500     9.3304948400    15.3183932600
S      19.0347872700     9.2042362000    22.3836996000
S      19.0181864200     9.0632405100    29.3242751300
S      18.8627874400     9.4354141600    36.3124005500
S      19.1618453100     9.2661603100    43.5075562700
S      19.5730065100     8.6319781800    18.6132089800
S      19.0529663500     9.2555115400    25.7881151700
S      19.4776528200     9.4839740500    39.6955662900
S      19.1224137700     9.4482223500    46.9105240900
S      16.0845799900     7.2534712700    20.4954512000
S      16.2978483900     7.3170744700    41.6889728200
O      19.2015564300     8.8069568000    32.2569942200
Cl     16.5060570900     7.3599235800    13.2239924400
Cl     16.1386357400     6.8969378000    27.7281891500
Cl     16.2245281200     7.2118326500    34.7197461100
Cl     14.0113162700     5.6686685600    45.2335753200
Cl     14.0581139800     5.6274635600    17.4024903100
Cl     21.7676494100    11.0762106700    31.2490232500
Cl     14.1406172200     5.8062439400    31.1370473300
Cl     13.9969443200     5.7297653800    38.2464956300
Li     20.5622902700    13.3272682300    52.1016675700
Li     22.0613655200    11.8168905300    26.9495585600
Li     17.0292438300    13.3124884600    43.1720629800
Li     17.4384640400    14.8038317100    46.4059459500
Li     19.7717099900    14.8201350000    44.9156060500
Li     23.0754864200    16.2982440500    22.4748601200
Li     18.3763986900    11.5597347900    22.0332691900
Li     20.0570503500    11.9036537700    39.2864595900
Li     21.5906906500    16.3782958300    35.8659849000
Li     17.3431842600    12.2207466100    18.6482971200
Li     17.4357125400    14.6929812200    25.4190928600
Li     18.1274459600    14.9391648000    39.4161246000
Li     18.1391258100    11.4733894200    50.0037753300
Li     20.4316845700    13.2295867300    24.0669397600
Li     20.5198559900    13.1633467200    30.8715588300
Li     17.3842145300    14.8667358400    51.0812350800
Li     18.2261716900    11.9668341300    35.9407214600
Li     17.3988305400    14.7342517500    29.9367954400
Li     17.1619103000    15.9561573900    36.3191080600
Li     19.6341914500    11.6172177300    43.8263703700
Li     18.3188288200    11.5722466000    25.8933607500
Li     22.6549342600    13.3907788300    36.5185615300
Li     16.4817186500    11.6906107300    39.2569879900
Li     19.7974419300    11.8258760000    46.5629873300
Li     16.5405930700    11.6759505500    46.0431768000
Li     17.4730029000    14.8175545700    22.7395207700
Li     19.1663856500    16.4704084700    33.1893427500
P      20.2739362400    14.3018185700    20.4754890100
P      20.0371666800    14.2759223100    27.5897472500
P      20.3162452900    13.9393576100    34.5663520000
P      20.3001357800    14.4266155200    41.6508990300
P      20.1816746300    14.3557586800    48.7237628800
S      19.6004636500    12.3736380700    20.1093949900
S      19.8243244300    12.2504012700    27.7081738200
S      20.3119906900    11.8783689400    34.5577974100
S      20.3761065900    12.3605552800    41.6592547100
S      20.2355763000    12.2990337200    48.8573460500
S      18.6754532900    15.5860626800    20.8223545200
S      18.1627358400    15.1266042000    27.6613645200
S      18.3283195400    14.5291176300    34.7207953700
S      18.3356276200    15.0156187100    41.9025816000
S      18.2416407700    15.0276041300    48.7173960200
S      21.2702805500    14.9918558400    18.8009282600
S      21.0299512700    14.8655972000    25.8662346000
S      21.0133504200    14.7246015100    32.8068101300
S      20.8579514400    15.0967751600    39.7949355500
S      21.1570093100    14.9275213100    46.9900912700
S      21.5681705100    14.2933391800    22.0957439800
S      21.0481303500    14.9168725400    29.2706501700
S      21.4728168200    15.1453350500    43.1781012900
S      21.1175777700    15.1095833500    50.3930590900
S      18.0797439900    12.9148322700    23.9779862000
S      18.2930123900    12.9784354700    45.1715078200
O      21.1967204300    14.4683178000    35.7395292200
Cl     18.5012210900    13.0212845800    16.7065274400
Cl     18.1337997400    12.5582988000    31.2107241500
Cl     18.2196921200    12.8731936500    38.2022811100
Cl     16.0064802700    11.3300295600    48.7161103200
Cl     16.0532779800    11.2888245600    20.8850253100
Cl     23.7628134100    16.7375716700    34.7315582500
Cl     16.1357812200    11.4676049400    34.6195823300
Cl     15.9921083200    11.3911263800    41.7290306300
