14
Coordinates from ORCA-job ptfe_dimer E -952.346331900971
  C           0.45954254072348      0.01042755844330     -0.00930270225451
  C          -0.39098612438165      0.10216185466529      1.27979310003228
  C           0.35986725278544     -0.18302754278735      2.61417322691917
  C          -0.33696747236972      0.31254680589132      3.90344146343292
  F           1.31648084532261      1.05586790651545     -0.09137088544488
  F           1.17531517602627     -1.14438587453434      0.00153286870007
  H          -0.21136576859717      0.01737819829120     -0.88114236446917
  F          -1.40077609440147     -0.79633081028952      1.14708929147172
  F          -0.92917185913101      1.34695033151573      1.32889045642517
  F           1.58876399456632      0.39068477237792      2.56516948877741
  F           0.51939804436097     -1.52533343044147      2.74605307894104
  F          -1.63816877080639     -0.07820601526797      3.89334093771165
  F          -0.28579676489838      1.66345135428307      3.98515405296522
  H           0.17063492080071     -0.12630646866262      4.77517798679190
