35
Coordinates from ORCA-job sdcp_v7c_neutral E -1676.256250230963
  C          -2.01126027906995     -0.24316219419225      1.95311692177163
  C          -1.79361515851095     -0.21063568993974      0.44225157676424
  S          -2.98911154035571     -1.38370382969334     -0.31425813762272
  O          -4.25315387123480     -0.69510417831219     -0.55771047643112
  O          -2.92876110930515     -2.66336827051283      0.39891840763771
  O          -2.33090957249179     -1.64577111480969     -1.81541387528511
  C          -1.95558168186691      1.19832662438963     -0.12668558535402
  C          -1.57643309125659      1.36969566637446     -1.59331013119970
  O          -0.24856590738921      0.91839376862445     -1.87040372699507
  C           0.78549987246157      1.80812892871634     -1.47540113180249
  C           1.85388072787999      1.06539068329642     -0.69831466399971
  C           2.29446170098243     -0.21526233598368     -1.39045355644364
  O           3.34152638052446     -0.86552526810250     -0.65205205707852
  C           3.01862022441790     -0.98740366421307      0.66893667499679
  C           3.61109930210965     -1.86222842308911      1.53372933210732
  S           2.94752232581226     -1.69390804223132      3.12520386640084
  C           1.86445632055934     -0.43850908570595      2.62074931810722
  C           2.02365881513334     -0.17171900529104      1.29069519569358
  O           1.30313842687651      0.76743739206398      0.60358136974238
  H          -1.27527301127643      0.42133540368331      2.41587437303766
  H          -1.87720531243992     -1.24865387155580      2.35688932750139
  H          -3.01151055878187      0.11675853372303      2.21631265217431
  H          -0.80728065624797     -0.61413346894472      0.18651855148425
  H          -1.86279931850807     -2.49552956653236     -1.77622045175916
  H          -1.31860792285052      1.84564276659645      0.49032153956237
  H          -2.99042305259663      1.53432942208837      0.01459280985855
  H          -2.22898703086849      0.78043442172018     -2.24250849918842
  H          -1.68901280095405      2.42757008478426     -1.87846982672693
  H           0.40491916887712      2.62474920893002     -0.84527838391714
  H           1.24602545834363      2.25898979042678     -2.36948752499751
  H           2.72813038428933      1.72477164534564     -0.56588437128571
  H           1.43604690249868     -0.89064069258555     -1.50137562931495
  H           2.70931714656986      0.00878103818869     -2.37701722074150
  H           4.38453084133703     -2.58511566790414      1.31832088204858
  H           1.19565987733189      0.03963999064726      3.32139145125458
