96
LiNiO2(104) 96-atom clean slab - Phase-B DFT+U geometry (single-point ref)
Li     1.43900000     7.23823684     0.06852354
Ni    -1.43900000    -1.43284596     0.06852354
O      0.00000000     3.00022600     0.13704707
O      2.87800000    11.47624768     0.00000000
Li     0.00000000     5.80539088     2.10791449
Ni    -2.87800000    -2.86569193     2.10791449
O     -1.43900000     1.56738004     2.17643802
O      1.43900000    10.04340171     2.03939095
Li    -1.43900000     4.37254491     4.14730543
Ni    -4.31700000    -4.29853789     4.14730543
O     -2.87800000     0.13453408     4.21582897
O      0.00000000     8.61055575     4.07878190
Li    -2.87800000     2.93969895     6.18669638
Ni    -5.75600000    -5.73138386     6.18669638
O     -4.31700000    -1.29831189     6.25521992
O     -1.43900000     7.17770978     6.11817285
Li    -4.31700000     1.50685298     8.22608733
Ni    -7.19500000    -7.16422982     8.22608733
O     -5.75600000    -2.73115785     8.29461087
O     -2.87800000     5.74486382     8.15756380
Li    -5.75600000     0.07400702    10.26547828
Ni    -8.63400000    -8.59707578    10.26547828
O     -7.19500000    -4.16400382    10.33400182
O     -4.31700000     4.31201786    10.19695475
Li     4.31700000     7.23823684     0.06852354
Ni     1.43900000    -1.43284596     0.06852354
O      2.87800000     3.00022600     0.13704707
O      5.75600000    11.47624768     0.00000000
Li     2.87800000     5.80539088     2.10791449
Ni     0.00000000    -2.86569193     2.10791449
O      1.43900000     1.56738004     2.17643802
O      4.31700000    10.04340171     2.03939095
Li     1.43900000     4.37254491     4.14730543
Ni    -1.43900000    -4.29853789     4.14730543
O      0.00000000     0.13453408     4.21582897
O      2.87800000     8.61055575     4.07878190
Li     0.00000000     2.93969895     6.18669638
Ni    -2.87800000    -5.73138386     6.18669638
O     -1.43900000    -1.29831189     6.25521992
O      1.43900000     7.17770978     6.11817285
Li    -1.43900000     1.50685298     8.22608733
Ni    -4.31700000    -7.16422982     8.22608733
O     -2.87800000    -2.73115785     8.29461087
O      0.00000000     5.74486382     8.15756380
Li    -2.87800000     0.07400702    10.26547828
Ni    -5.75600000    -8.59707578    10.26547828
O     -4.31700000    -4.16400382    10.33400182
O     -1.43900000     4.31201786    10.19695475
Li     7.19500000     7.23823684     0.06852354
Ni     4.31700000    -1.43284596     0.06852354
O      5.75600000     3.00022600     0.13704707
O      8.63400000    11.47624768     0.00000000
Li     5.75600000     5.80539088     2.10791449
Ni     2.87800000    -2.86569193     2.10791449
O      4.31700000     1.56738004     2.17643802
O      7.19500000    10.04340171     2.03939095
Li     4.31700000     4.37254491     4.14730543
Ni     1.43900000    -4.29853789     4.14730543
O      2.87800000     0.13453408     4.21582897
O      5.75600000     8.61055575     4.07878190
Li     2.87800000     2.93969895     6.18669638
Ni     0.00000000    -5.73138386     6.18669638
O      1.43900000    -1.29831189     6.25521992
O      4.31700000     7.17770978     6.11817285
Li     1.43900000     1.50685298     8.22608733
Ni    -1.43900000    -7.16422982     8.22608733
O      0.00000000    -2.73115785     8.29461087
O      2.87800000     5.74486382     8.15756380
Li     0.00000000     0.07400702    10.26547828
Ni    -2.87800000    -8.59707578    10.26547828
O     -1.43900000    -4.16400382    10.33400182
O      1.43900000     4.31201786    10.19695475
Li    10.07300000     7.23823684     0.06852354
Ni     7.19500000    -1.43284596     0.06852354
O      8.63400000     3.00022600     0.13704707
O     11.51200000    11.47624768     0.00000000
Li     8.63400000     5.80539088     2.10791449
Ni     5.75600000    -2.86569193     2.10791449
O      7.19500000     1.56738004     2.17643802
O     10.07300000    10.04340171     2.03939095
Li     7.19500000     4.37254491     4.14730543
Ni     4.31700000    -4.29853789     4.14730543
O      5.75600000     0.13453408     4.21582897
O      8.63400000     8.61055575     4.07878190
Li     5.75600000     2.93969895     6.18669638
Ni     2.87800000    -5.73138386     6.18669638
O      4.31700000    -1.29831189     6.25521992
O      7.19500000     7.17770978     6.11817285
Li     4.31700000     1.50685298     8.22608733
Ni     1.43900000    -7.16422982     8.22608733
O      2.87800000    -2.73115785     8.29461087
O      5.75600000     5.74486382     8.15756380
Li     2.87800000     0.07400702    10.26547828
Ni     0.00000000    -8.59707578    10.26547828
O      1.43900000    -4.16400382    10.33400182
O      4.31700000     4.31201786    10.19695475
