SDCP doped radical on LiNiO2(104) - Phase-B E_bind -1.524 eV geometry
1.0
     11.512000000000     0.000000000000     0.000000000000
      5.756000000000    17.342165608712     0.000000000000
      0.000000000000     0.000000000000    25.334001817390
Li Ni O C H S
24 24 54 11 15 2
Cartesian
      1.4390000000     7.2382368400     0.0685235400
      0.0000000000     5.8053908800     2.1079144900
     -1.4390000000     4.3725449100     4.1473054300
     -2.8780000000     2.9396989500     6.1866963800
     -4.3170000000     1.5068529800     8.2260873300
     -5.7560000000     0.0740070200    10.2654782800
      4.3170000000     7.2382368400     0.0685235400
      2.8780000000     5.8053908800     2.1079144900
      1.4390000000     4.3725449100     4.1473054300
      0.0000000000     2.9396989500     6.1866963800
     -1.4390000000     1.5068529800     8.2260873300
     -2.8780000000     0.0740070200    10.2654782800
      7.1950000000     7.2382368400     0.0685235400
      5.7560000000     5.8053908800     2.1079144900
      4.3170000000     4.3725449100     4.1473054300
      2.8780000000     2.9396989500     6.1866963800
      1.4390000000     1.5068529800     8.2260873300
      0.0000000000     0.0740070200    10.2654782800
     10.0730000000     7.2382368400     0.0685235400
      8.6340000000     5.8053908800     2.1079144900
      7.1950000000     4.3725449100     4.1473054300
      5.7560000000     2.9396989500     6.1866963800
      4.3170000000     1.5068529800     8.2260873300
      2.8780000000     0.0740070200    10.2654782800
     -1.4390000000    -1.4328459600     0.0685235400
     -2.8780000000    -2.8656919300     2.1079144900
     -4.3170000000    -4.2985378900     4.1473054300
     -5.7560000000    -5.7313838600     6.1866963800
     -7.1950000000    -7.1642298200     8.2260873300
     -8.6340000000    -8.5970757800    10.2654782800
      1.4390000000    -1.4328459600     0.0685235400
      0.0000000000    -2.8656919300     2.1079144900
     -1.4390000000    -4.2985378900     4.1473054300
     -2.8780000000    -5.7313838600     6.1866963800
     -4.3170000000    -7.1642298200     8.2260873300
     -5.7560000000    -8.5970757800    10.2654782800
      4.3170000000    -1.4328459600     0.0685235400
      2.8780000000    -2.8656919300     2.1079144900
      1.4390000000    -4.2985378900     4.1473054300
      0.0000000000    -5.7313838600     6.1866963800
     -1.4390000000    -7.1642298200     8.2260873300
     -2.8780000000    -8.5970757800    10.2654782800
      7.1950000000    -1.4328459600     0.0685235400
      5.7560000000    -2.8656919300     2.1079144900
      4.3170000000    -4.2985378900     4.1473054300
      2.8780000000    -5.7313838600     6.1866963800
      1.4390000000    -7.1642298200     8.2260873300
      0.0000000000    -8.5970757800    10.2654782800
      0.0000000000     3.0002260000     0.1370470700
      2.8780000000    11.4762476800     0.0000000000
     -1.4390000000     1.5673800400     2.1764380200
      1.4390000000    10.0434017100     2.0393909500
     -2.8780000000     0.1345340800     4.2158289700
      0.0000000000     8.6105557500     4.0787819000
     -4.3170000000    -1.2983118900     6.2552199200
     -1.4390000000     7.1777097800     6.1181728500
     -5.7560000000    -2.7311578500     8.2946108700
     -2.8780000000     5.7448638200     8.1575638000
     -7.1950000000    -4.1640038200    10.3340018200
     -4.3170000000     4.3120178600    10.1969547500
      2.8780000000     3.0002260000     0.1370470700
      5.7560000000    11.4762476800     0.0000000000
      1.4390000000     1.5673800400     2.1764380200
      4.3170000000    10.0434017100     2.0393909500
      0.0000000000     0.1345340800     4.2158289700
      2.8780000000     8.6105557500     4.0787819000
     -1.4390000000    -1.2983118900     6.2552199200
      1.4390000000     7.1777097800     6.1181728500
     -2.8780000000    -2.7311578500     8.2946108700
      0.0000000000     5.7448638200     8.1575638000
     -4.3170000000    -4.1640038200    10.3340018200
     -1.4390000000     4.3120178600    10.1969547500
      5.7560000000     3.0002260000     0.1370470700
      8.6340000000    11.4762476800     0.0000000000
      4.3170000000     1.5673800400     2.1764380200
      7.1950000000    10.0434017100     2.0393909500
      2.8780000000     0.1345340800     4.2158289700
      5.7560000000     8.6105557500     4.0787819000
      1.4390000000    -1.2983118900     6.2552199200
      4.3170000000     7.1777097800     6.1181728500
      0.0000000000    -2.7311578500     8.2946108700
      2.8780000000     5.7448638200     8.1575638000
     -1.4390000000    -4.1640038200    10.3340018200
      1.4390000000     4.3120178600    10.1969547500
      8.6340000000     3.0002260000     0.1370470700
     11.5120000000    11.4762476800     0.0000000000
      7.1950000000     1.5673800400     2.1764380200
     10.0730000000    10.0434017100     2.0393909500
      5.7560000000     0.1345340800     4.2158289700
      8.6340000000     8.6105557500     4.0787819000
      4.3170000000    -1.2983118900     6.2552199200
      7.1950000000     7.1777097800     6.1181728500
      2.8780000000    -2.7311578500     8.2946108700
      5.7560000000     5.7448638200     8.1575638000
      1.4390000000    -4.1640038200    10.3340018200
      4.3170000000     4.3120178600    10.1969547500
      6.8030800500     6.7973080400    14.8035895500
      7.0892646200     8.8654328200    16.0724406200
      8.2875277800     6.8103009200    16.7799588100
      9.6994500100     9.7867947700    17.3585643800
      7.2045216900     9.5859563400    20.8635156800
     10.0832446600     9.3368061500    20.9683029800
      8.6826296000     8.9415010700    13.4487283400
      9.1507275300     7.9932877000    14.5634015600
     10.4258337400     8.4040765600    15.3359679500
     10.4879610100     9.7126310000    16.1532019300
     10.2334439600     9.1381809700    18.5155883500
      9.3864042800     9.6634556100    19.6980564100
      7.9850279800     9.0793548900    19.7189957400
      7.8940785200     9.8536465400    21.9945187600
      7.3214974700    10.2127651000    23.1863037400
      9.8772643900     9.9699880000    23.3085517600
      9.3691839800     9.7121821200    22.0677376200
      8.4442128500     9.9552979300    13.8051663400
      9.4844721400     9.0374320000    12.6776638400
      7.7716644800     8.5324783700    12.9720096100
      9.3612878700     7.0036769100    14.1203912800
     10.7287320300     7.5527140000    15.9680021800
     11.2238904000     8.5074258500    14.5707379300
     10.1352132600    10.5672331500    15.5497730700
     11.5546600000     9.8976679700    16.4046111000
     11.2962147100     9.4154170100    18.6809773200
     10.1558600700     8.0350626800    18.4339740300
      9.3436636200    10.7672346500    19.6322095800
      7.4259161200     9.3854200800    18.8206472800
      8.0015907100     7.9756088600    19.7706895600
      6.2802780800    10.4166895800    23.4394674600
     10.9042853500    10.0843670600    23.6643423100
      7.7190003400     7.5890267300    15.6578650700
      8.5320486900    10.2253237900    24.5008778400
