130
SDCP doped radical on LiNiO2(104) - Phase-B E_bind -1.524 eV geometry
Li     1.43900000     7.23823684     0.06852354
Ni    -1.43900000    -1.43284596     0.06852354
O      0.00000000     3.00022600     0.13704707
O      2.87800000    11.47624768     0.00000000
Li     0.00000000     5.80539088     2.10791449
Ni    -2.87800000    -2.86569193     2.10791449
O     -1.43900000     1.56738004     2.17643802
O      1.43900000    10.04340171     2.03939095
Li    -1.43900000     4.37254491     4.14730543
Ni    -4.31700000    -4.29853789     4.14730543
O     -2.87800000     0.13453408     4.21582897
O      0.00000000     8.61055575     4.07878190
Li    -2.87800000     2.93969895     6.18669638
Ni    -5.75600000    -5.73138386     6.18669638
O     -4.31700000    -1.29831189     6.25521992
O     -1.43900000     7.17770978     6.11817285
Li    -4.31700000     1.50685298     8.22608733
Ni    -7.19500000    -7.16422982     8.22608733
O     -5.75600000    -2.73115785     8.29461087
O     -2.87800000     5.74486382     8.15756380
Li    -5.75600000     0.07400702    10.26547828
Ni    -8.63400000    -8.59707578    10.26547828
O     -7.19500000    -4.16400382    10.33400182
O     -4.31700000     4.31201786    10.19695475
Li     4.31700000     7.23823684     0.06852354
Ni     1.43900000    -1.43284596     0.06852354
O      2.87800000     3.00022600     0.13704707
O      5.75600000    11.47624768     0.00000000
Li     2.87800000     5.80539088     2.10791449
Ni     0.00000000    -2.86569193     2.10791449
O      1.43900000     1.56738004     2.17643802
O      4.31700000    10.04340171     2.03939095
Li     1.43900000     4.37254491     4.14730543
Ni    -1.43900000    -4.29853789     4.14730543
O      0.00000000     0.13453408     4.21582897
O      2.87800000     8.61055575     4.07878190
Li     0.00000000     2.93969895     6.18669638
Ni    -2.87800000    -5.73138386     6.18669638
O     -1.43900000    -1.29831189     6.25521992
O      1.43900000     7.17770978     6.11817285
Li    -1.43900000     1.50685298     8.22608733
Ni    -4.31700000    -7.16422982     8.22608733
O     -2.87800000    -2.73115785     8.29461087
O      0.00000000     5.74486382     8.15756380
Li    -2.87800000     0.07400702    10.26547828
Ni    -5.75600000    -8.59707578    10.26547828
O     -4.31700000    -4.16400382    10.33400182
O     -1.43900000     4.31201786    10.19695475
Li     7.19500000     7.23823684     0.06852354
Ni     4.31700000    -1.43284596     0.06852354
O      5.75600000     3.00022600     0.13704707
O      8.63400000    11.47624768     0.00000000
Li     5.75600000     5.80539088     2.10791449
Ni     2.87800000    -2.86569193     2.10791449
O      4.31700000     1.56738004     2.17643802
O      7.19500000    10.04340171     2.03939095
Li     4.31700000     4.37254491     4.14730543
Ni     1.43900000    -4.29853789     4.14730543
O      2.87800000     0.13453408     4.21582897
O      5.75600000     8.61055575     4.07878190
Li     2.87800000     2.93969895     6.18669638
Ni     0.00000000    -5.73138386     6.18669638
O      1.43900000    -1.29831189     6.25521992
O      4.31700000     7.17770978     6.11817285
Li     1.43900000     1.50685298     8.22608733
Ni    -1.43900000    -7.16422982     8.22608733
O      0.00000000    -2.73115785     8.29461087
O      2.87800000     5.74486382     8.15756380
Li     0.00000000     0.07400702    10.26547828
Ni    -2.87800000    -8.59707578    10.26547828
O     -1.43900000    -4.16400382    10.33400182
O      1.43900000     4.31201786    10.19695475
Li    10.07300000     7.23823684     0.06852354
Ni     7.19500000    -1.43284596     0.06852354
O      8.63400000     3.00022600     0.13704707
O     11.51200000    11.47624768     0.00000000
Li     8.63400000     5.80539088     2.10791449
Ni     5.75600000    -2.86569193     2.10791449
O      7.19500000     1.56738004     2.17643802
O     10.07300000    10.04340171     2.03939095
Li     7.19500000     4.37254491     4.14730543
Ni     4.31700000    -4.29853789     4.14730543
O      5.75600000     0.13453408     4.21582897
O      8.63400000     8.61055575     4.07878190
Li     5.75600000     2.93969895     6.18669638
Ni     2.87800000    -5.73138386     6.18669638
O      4.31700000    -1.29831189     6.25521992
O      7.19500000     7.17770978     6.11817285
Li     4.31700000     1.50685298     8.22608733
Ni     1.43900000    -7.16422982     8.22608733
O      2.87800000    -2.73115785     8.29461087
O      5.75600000     5.74486382     8.15756380
Li     2.87800000     0.07400702    10.26547828
Ni     0.00000000    -8.59707578    10.26547828
O      1.43900000    -4.16400382    10.33400182
O      4.31700000     4.31201786    10.19695475
C      8.68262960     8.94150107    13.44872834
C      9.15072753     7.99328770    14.56340156
S      7.71900034     7.58902673    15.65786507
O      6.80308005     6.79730804    14.80358955
O      7.08926462     8.86543282    16.07244062
O      8.28752778     6.81030092    16.77995881
C     10.42583374     8.40407656    15.33596795
C     10.48796101     9.71263100    16.15320193
O      9.69945001     9.78679477    17.35856438
C     10.23344396     9.13818097    18.51558835
C      9.38640428     9.66345561    19.69805641
C      7.98502798     9.07935489    19.71899574
O      7.20452169     9.58595634    20.86351568
C      7.89407852     9.85364654    21.99451876
C      7.32149747    10.21276510    23.18630374
S      8.53204869    10.22532379    24.50087784
C      9.87726439     9.96998800    23.30855176
C      9.36918398     9.71218212    22.06773762
O     10.08324466     9.33680615    20.96830298
H      8.44421285     9.95529793    13.80516634
H      9.48447214     9.03743200    12.67766384
H      7.77166448     8.53247837    12.97200961
H      9.36128787     7.00367691    14.12039128
H     10.72873203     7.55271400    15.96800218
H     11.22389040     8.50742585    14.57073793
H     10.13521326    10.56723315    15.54977307
H     11.55466000     9.89766797    16.40461110
H     11.29621471     9.41541701    18.68097732
H     10.15586007     8.03506268    18.43397403
H      9.34366362    10.76723465    19.63220958
H      7.42591612     9.38542008    18.82064728
H      8.00159071     7.97560886    19.77068956
H      6.28027808    10.41668958    23.43946746
H     10.90428535    10.08436706    23.66434231
