SDCP neutral on LiNiO2(104) - Phase-B E_bind -2.213 eV geometry
1.0
     11.512000000000     0.000000000000     0.000000000000
      5.756000000000    17.342165608712     0.000000000000
      0.000000000000     0.000000000000    25.334001817390
Li Ni O C H S
24 24 54 11 16 2
Cartesian
      1.4390000000     7.2382368400     0.0685235400
      0.0000000000     5.8053908800     2.1079144900
     -1.4390000000     4.3725449100     4.1473054300
     -2.8780000000     2.9396989500     6.1866963800
     -4.3170000000     1.5068529800     8.2260873300
     -5.7560000000     0.0740070200    10.2654782800
      4.3170000000     7.2382368400     0.0685235400
      2.8780000000     5.8053908800     2.1079144900
      1.4390000000     4.3725449100     4.1473054300
      0.0000000000     2.9396989500     6.1866963800
     -1.4390000000     1.5068529800     8.2260873300
     -2.8780000000     0.0740070200    10.2654782800
      7.1950000000     7.2382368400     0.0685235400
      5.7560000000     5.8053908800     2.1079144900
      4.3170000000     4.3725449100     4.1473054300
      2.8780000000     2.9396989500     6.1866963800
      1.4390000000     1.5068529800     8.2260873300
      0.0000000000     0.0740070200    10.2654782800
     10.0730000000     7.2382368400     0.0685235400
      8.6340000000     5.8053908800     2.1079144900
      7.1950000000     4.3725449100     4.1473054300
      5.7560000000     2.9396989500     6.1866963800
      4.3170000000     1.5068529800     8.2260873300
      2.8780000000     0.0740070200    10.2654782800
     -1.4390000000    -1.4328459600     0.0685235400
     -2.8780000000    -2.8656919300     2.1079144900
     -4.3170000000    -4.2985378900     4.1473054300
     -5.7560000000    -5.7313838600     6.1866963800
     -7.1950000000    -7.1642298200     8.2260873300
     -8.6340000000    -8.5970757800    10.2654782800
      1.4390000000    -1.4328459600     0.0685235400
      0.0000000000    -2.8656919300     2.1079144900
     -1.4390000000    -4.2985378900     4.1473054300
     -2.8780000000    -5.7313838600     6.1866963800
     -4.3170000000    -7.1642298200     8.2260873300
     -5.7560000000    -8.5970757800    10.2654782800
      4.3170000000    -1.4328459600     0.0685235400
      2.8780000000    -2.8656919300     2.1079144900
      1.4390000000    -4.2985378900     4.1473054300
      0.0000000000    -5.7313838600     6.1866963800
     -1.4390000000    -7.1642298200     8.2260873300
     -2.8780000000    -8.5970757800    10.2654782800
      7.1950000000    -1.4328459600     0.0685235400
      5.7560000000    -2.8656919300     2.1079144900
      4.3170000000    -4.2985378900     4.1473054300
      2.8780000000    -5.7313838600     6.1866963800
      1.4390000000    -7.1642298200     8.2260873300
      0.0000000000    -8.5970757800    10.2654782800
      0.0000000000     3.0002260000     0.1370470700
      2.8780000000    11.4762476800     0.0000000000
     -1.4390000000     1.5673800400     2.1764380200
      1.4390000000    10.0434017100     2.0393909500
     -2.8780000000     0.1345340800     4.2158289700
      0.0000000000     8.6105557500     4.0787819000
     -4.3170000000    -1.2983118900     6.2552199200
     -1.4390000000     7.1777097800     6.1181728500
     -5.7560000000    -2.7311578500     8.2946108700
     -2.8780000000     5.7448638200     8.1575638000
     -7.1950000000    -4.1640038200    10.3340018200
     -4.3170000000     4.3120178600    10.1969547500
      2.8780000000     3.0002260000     0.1370470700
      5.7560000000    11.4762476800     0.0000000000
      1.4390000000     1.5673800400     2.1764380200
      4.3170000000    10.0434017100     2.0393909500
      0.0000000000     0.1345340800     4.2158289700
      2.8780000000     8.6105557500     4.0787819000
     -1.4390000000    -1.2983118900     6.2552199200
      1.4390000000     7.1777097800     6.1181728500
     -2.8780000000    -2.7311578500     8.2946108700
      0.0000000000     5.7448638200     8.1575638000
     -4.3170000000    -4.1640038200    10.3340018200
     -1.4390000000     4.3120178600    10.1969547500
      5.7560000000     3.0002260000     0.1370470700
      8.6340000000    11.4762476800     0.0000000000
      4.3170000000     1.5673800400     2.1764380200
      7.1950000000    10.0434017100     2.0393909500
      2.8780000000     0.1345340800     4.2158289700
      5.7560000000     8.6105557500     4.0787819000
      1.4390000000    -1.2983118900     6.2552199200
      4.3170000000     7.1777097800     6.1181728500
      0.0000000000    -2.7311578500     8.2946108700
      2.8780000000     5.7448638200     8.1575638000
     -1.4390000000    -4.1640038200    10.3340018200
      1.4390000000     4.3120178600    10.1969547500
      8.6340000000     3.0002260000     0.1370470700
     11.5120000000    11.4762476800     0.0000000000
      7.1950000000     1.5673800400     2.1764380200
     10.0730000000    10.0434017100     2.0393909500
      5.7560000000     0.1345340800     4.2158289700
      8.6340000000     8.6105557500     4.0787819000
      4.3170000000    -1.2983118900     6.2552199200
      7.1950000000     7.1777097800     6.1181728500
      2.8780000000    -2.7311578500     8.2946108700
      5.7560000000     5.7448638200     8.1575638000
      1.4390000000    -4.1640038200    10.3340018200
      4.3170000000     4.3120178600    10.1969547500
      5.9189671200     8.8039897300    12.2023004900
      6.2074669700     6.6420169300    13.5020749000
      8.1430464600     7.6573980800    12.2383022900
      9.9712965700     9.9935678300    14.9158602000
     11.4917841200     8.2826304600    18.5002980200
      9.1815662400     9.9253654900    17.7844074600
      5.9256670400     8.9038416500    15.4968449000
      7.1679250200     8.9482218700    14.5807275900
      7.6274169700    10.3865741900    14.2502847600
      9.1129103600    10.5347989800    13.8873834900
     10.3819101200    10.9124891700    15.9338961400
     10.5314761100    10.1900444900    17.2726341000
     11.3215950100     8.8825525900    17.1836881700
     10.2972515300     8.2141114100    19.1809789500
     10.0469087400     7.3960072500    20.2602260200
      8.1001799400     8.8532534400    19.6929744200
      9.1740631700     9.0525662100    18.8532363200
      6.1992122400     9.4131989700    16.4363366200
      5.6213147700     7.8747015600    15.7385788100
      5.0712622900     9.4394837500    15.0523060000
      7.9903681700     8.3655473200    15.0316997100
      8.2270090200     6.6783683000    12.0902997500
      7.4236328900    10.9720411800    15.1665615100
      7.0007334800    10.8368574500    13.4605961900
      9.3599049200     9.9713665400    12.9715750100
      9.3449690800    11.5967909900    13.6805878600
      9.6531829700    11.7363593300    16.0636517100
     11.3612214100    11.3643636500    15.6667236400
     11.0345963200    10.8751491100    17.9870172300
     10.8141846700     8.1631702900    16.5170454900
     12.3404029700     9.0685606500    16.8087049400
     10.7116159100     6.6566521400    20.7050894900
      7.1294265900     9.3460340300    19.6684880300
      6.7139417900     7.9273097200    13.1024056000
      8.4484977500     7.6367520500    20.8679917700
