100
Coordinates from ORCA-job trimer_doped_end E -5025.772950332016
  C          -1.71922338780723     -0.25716221836356      2.20499065678562
  C          -1.53021229248556     -0.35639734156242      0.69498207492215
  S          -2.66081232242761     -1.64957783029765      0.03927006985299
  O          -4.04647531810417     -1.11321184549956      0.20389367919360
  O          -2.40970294990555     -2.87045764596602      0.86251720104566
  O          -2.29608799172201     -1.85768275182939     -1.39632383650096
  C          -1.76299181846572      0.99489107932404      0.01495871394818
  C          -1.32117342637918      1.08827146561329     -1.44060122520239
  O           0.05151096160459      0.71006656688653     -1.62756643712258
  C           1.01240691598906      1.65951712821328     -1.21711348984736
  C           2.10824249270266      0.96599057943603     -0.42802825496873
  C           2.55356412323415     -0.32753282957201     -1.08720944275487
  O           3.60048268276606     -0.96529651285672     -0.31717014660936
  C           3.27364955906265     -1.05632745932289      0.98794659178626
  C           3.82889560986664     -1.97450889306995      1.87128014725936
  S           3.04276558424929     -1.84388405385010      3.43997579467116
  C           2.00245031991516     -0.57839196970498      2.88357865512286
  C           2.24980154163384     -0.26288939341972      1.57379414050397
  O           1.57327030311394      0.69303612642910      0.89104094173512
  H          -1.03052031226924      0.49543309606369      2.60649660159274
  H          -1.52460360476009     -1.21624529090777      2.69120964454701
  H          -2.74172029890190      0.05322496085607      2.44570667319663
  H          -0.52775558272312     -0.72862118813152      0.45480687697362
  H          -1.22907531429502      1.74946190374764      0.61027703585136
  H          -2.82942038236128      1.25239321031490      0.07128620156582
  H          -1.88910476758465      0.39296092495743     -2.06217611344023
  H          -1.48371087338586      2.11141431033671     -1.81601511298063
  H           0.58175289188126      2.44887966499318     -0.58383263796974
  H           1.46669465967543      2.14592088921036     -2.09767657277637
  H           2.97130812313719      1.64199704296468     -0.31400726944097
  H           1.70356167748922     -1.01200385168342     -1.18638422228766
  H           2.98407066332688     -0.12938749044780     -2.07144619660809
  H           1.27889742961720     -0.12130726883348      3.54352596845792
  C           9.94467575209027     -4.73150137553875      3.55898003516331
  C          10.31800701383631     -3.67581566898373      2.51959238002658
  S          11.32177736717567     -2.40050913142227      3.38561328519892
  O          12.72236058555206     -2.81287304016684      3.37407932969430
  O          10.64333890973595     -2.00136216393089      4.62304705700534
  O          11.21059765936314     -1.10569863269544      2.35276440165581
  C          11.07430283455889     -4.27840494192553      1.33611502949898
  C          11.44933841805453     -3.31648309493576      0.21395082449419
  O          10.32506638584460     -2.59367005127023     -0.29584280619826
  C           9.53435997151423     -3.26871112602159     -1.25981249762343
  C           8.06952578450372     -3.22932359500164     -0.86612425290874
  C           7.64182158479693     -1.86280329852915     -0.35621269771386
  O           6.25279811025543     -1.85408818203493      0.02362627226593
  C           5.92822351474773     -2.91724546331932      0.79548416445679
  C           4.82342728464322     -2.95953290628312      1.63869623263242
  S           4.79341583410354     -4.47462843771080      2.52993865110185
  C           6.27208581429987     -5.03668347341429      1.75956933944177
  C           6.73151099992723     -4.06960969419342      0.87415132217902
  O           7.88484146880083     -4.22254422032341      0.17449548766900
  H           9.32546755851994     -5.49241001529414      3.07420193443047
  H           9.38176455052219     -4.29606897296553      4.38715175141479
  H          10.83854380593816     -5.22240575040862      3.95810593901280
  H           9.42631611033004     -3.13939248637094      2.17397266562979
  H          10.65329069456586     -0.44343355641145      2.79306355856242
  H          10.42677306846356     -5.07188008006617      0.94004500262556
  H          11.99066599242230     -4.75946867610737      1.70078834620649
  H          12.15344520993991     -2.55698565533323      0.56484781205811
  H          11.94234520566971     -3.87645140692772     -0.59521907199724
  H           9.83113112962701     -4.32124729674980     -1.37690080334278
  H           9.64805775755568     -2.77400155670542     -2.23760216333503
  H           7.44613432536225     -3.51976554803649     -1.72627779443602
  H           8.26093187746351     -1.57543457567752      0.50204899204851
  H           7.74439034023012     -1.11274480817017     -1.14450079094395
  C           6.83332703921063    -12.29323740648524      1.32542086139788
  C           5.61972490462272    -12.08541272926587      2.22857703597112
  S           4.15947430220465    -12.78821840039771      1.35964333872304
  O           4.05777326183313    -14.21015937172376      1.67277356210052
  O           4.13261293972349    -12.29531497705391     -0.02087726944480
  O           2.90126248762159    -12.05129312638743      2.15051855359616
  C           5.81304981520452    -12.72744512866305      3.60145629259783
  C           4.76114157732377    -12.37569464695312      4.64712307071141
  O           4.62636492601088    -10.96135717669157      4.82371410692909
  C           5.64035303582283    -10.35657404100093      5.60861495640657
  C           6.12574456926046     -9.08732647782776      4.93766782315784
  C           4.97990824657721     -8.18823207187935      4.50622035100040
  O           5.48225033442074     -6.97950367201734      3.89443966859586
  C           6.43268867634631     -7.24131784969054      2.96532714305494
  C           6.81086963812101     -6.32824929728303      1.99167685986033
  S           8.05767141822239     -7.04847299265813      0.97403728094441
  C           8.04495606923334     -8.52249057939085      1.88788293245612
  C           7.13552286131545     -8.47134355616868      2.90914269578796
  O           6.90993957459138     -9.48732894901758      3.78675475947671
  H           7.70224279569924    -11.83958493642658      1.81264897695159
  H           6.69223056228585    -11.82539639712581      0.34886255744863
  H           7.04144945046900    -13.35857365800738      1.18064370950314
  H           5.39358976187985    -11.01810754911205      2.33266398920103
  H           2.52251253409517    -11.39859402551789      1.53895098972226
  H           6.80037828482054    -12.40088228371086      3.95451550865647
  H           5.85765664836444    -13.81836739202376      3.49475888771632
  H           3.77090465365667    -12.72998904588674      4.35043017174501
  H           5.01640421443214    -12.85775233928906      5.60332074254486
  H           6.50433757962442    -11.02104696295243      5.75205824216648
  H           5.24338340994083    -10.10077570425454      6.60474114846351
  H           6.78353272538112     -8.53777428890548      5.63065785006068
  H           4.33136374456231     -8.71530802809612      3.79684528729633
  H           4.39479116651567     -7.86666295570419      5.37102464721218
  H           8.71675377278487     -9.33202240095667      1.64047052067591
