100
Coordinates from ORCA-job trimer_doped_mid E -5025.775556463325
  C          -1.85923708558365     -0.13106379143198      2.12746977981498
  C          -1.60017363764694      0.00273282822882      0.62885547515738
  S          -2.87973506945091     -0.98714680593886     -0.24568686473475
  O          -4.05563786819627     -0.15410901220729     -0.47742314357971
  O          -2.97930965847551     -2.31230257196496      0.37437637024155
  O          -2.18414668565312     -1.21498823444774     -1.73591655010456
  C          -1.61801542304737      1.46125834746312      0.17397832112800
  C          -1.19178032003130      1.70980864555033     -1.26826897690023
  O           0.10005788861758      1.16617039697779     -1.55592789213593
  C           1.19535116311466      1.93375026649809     -1.08152120492521
  C           2.19047751147228      1.04001406606662     -0.36954701589952
  C           2.52655041306077     -0.20850330205149     -1.16630641870823
  O           3.50206478570877     -1.01461256173764     -0.47562634360179
  C           3.20723354206120     -1.16931344638229      0.83335092288895
  C           3.75126836738358     -2.16058103364302      1.64208961160516
  S           3.03117247540990     -2.08334763888911      3.24486187151439
  C           2.03310089628818     -0.74198851939675      2.80291110754606
  C           2.24810733733624     -0.36504735762311      1.50435393428473
  O           1.59860123482753      0.66760877662780      0.89733099752051
  H          -1.07998949687453      0.42407399116820      2.65898258644398
  H          -1.83020332651217     -1.17409298311335      2.44897775637680
  H          -2.82905427278401      0.29763812395498      2.40092275041106
  H          -0.65000981333666     -0.47003993137532      0.35568777112250
  H          -1.88183190032352     -2.13716192976027     -1.76857013823988
  H          -0.94089504375351      1.99797768293333      0.85173626857672
  H          -2.62072370937992      1.88047028802320      0.32389250828722
  H          -1.87629617878887      1.22985317454169     -1.97239893276879
  H          -1.20619683951157      2.79131905612306     -1.47369783949921
  H           0.87590987112193      2.71897473101286     -0.38158325301132
  H           1.70194865469517      2.42371065176890     -1.92879345801181
  H           3.11343413290844      1.60851592161600     -0.16947255759911
  H           1.61712340261508     -0.79696075772561     -1.33885160532887
  H           2.98017190363713      0.05439376044427     -2.12515278978832
  H           1.37731236363177     -0.27507191078902      3.52403869862612
  C           9.61838117017375     -5.36940238637035      3.38567091247336
  C           9.68831866546901     -4.17236232795593      2.44028600761502
  S           9.76408636692764     -2.62535347752358      3.44044355563382
  O          11.17103636205243     -2.52471792524632      3.93148934557763
  O           8.76140600446161     -2.80729813794357      4.53150523940281
  O           9.39247647371296     -1.50820338208807      2.51508968884033
  C          10.85865533784118     -4.32128413115557      1.46256363548022
  C          11.22396537977045     -3.12666131431711      0.58599567962428
  O          10.13238127403260     -2.54419104099520     -0.12886236916482
  C           9.59085425345028     -3.24660669850268     -1.22297286986502
  C           8.07020794502860     -3.23563204852210     -1.10787408768249
  C           7.56338818612038     -1.95098321480329     -0.47039632609128
  O           6.12386103375552     -1.99944022661193     -0.28381532634093
  C           5.78513951924605     -3.08518264028117      0.43864839473600
  C           4.71427322382289     -3.15152721930095      1.32699152311448
  S           4.71726446133856     -4.68609714024241      2.18575422332071
  C           6.17064185729542     -5.22069648953473      1.34943685945811
  C           6.58412330839103     -4.24046597120497      0.44963858688119
  O           7.70264553364284     -4.38482182319621     -0.28566343324365
  H           9.61559322648884     -6.30164087960243      2.80795314790700
  H           8.71636724116864     -5.32734161842918      4.00072276773001
  H          10.48868922078587     -5.38068197480864      4.05102401136063
  H           8.75055638775981     -4.07060617800128      1.88526341574843
  H          10.63209612685644     -5.19639376409126      0.83503857215256
  H          11.76341905979904     -4.57214763306546      2.03328986184316
  H          11.60387850100210     -2.31108704643866      1.20690359889884
  H          12.02105960014709     -3.42494052626550     -0.11564101221106
  H           9.92744927557140     -4.29289403005476     -1.27569120950831
  H           9.87664482182965     -2.75101606345617     -2.16676501329186
  H           7.60644229807044     -3.38858261882535     -2.09332636589196
  H           8.04854365834338     -1.78242497070634      0.49968635675950
  H           7.75453581234780     -1.10263808979778     -1.13131329981389
  C           6.88202002580398    -12.42893729515790      1.34934476982077
  C           5.85215278249240    -12.22163041531961      2.45729557951158
  S           4.31144103075889    -13.08561340377005      1.94790904741296
  O           4.38037573806796    -14.48047173889120      2.37212141526906
  O           3.97655584051271    -12.71053267561325      0.57023578019668
  O           3.17309851822841    -12.36828908368844      2.92073482511263
  C           6.35638238328224    -12.72831905061187      3.80751583779796
  C           5.49235282204989    -12.37442764792154      5.01245823153179
  O           5.25567826133556    -10.96731867078132      5.11812293663275
  C           6.33573630549863    -10.21370577294551      5.64716461561908
  C           6.61363308039835     -9.00833794915505      4.77251554479430
  C           5.34796169640408     -8.23972172628575      4.43282742229763
  O           5.64814434571183     -7.08163082370403      3.62389882898005
  C           6.52611008732032     -7.35460225576642      2.63322111817970
  C           6.77116957228262     -6.47906767523531      1.58115251860017
  S           7.98723358941488     -7.17514290342267      0.51255481672115
  C           8.13551027933438     -8.58857685199876      1.50207380300996
  C           7.30961303107683     -8.53197215658452      2.59326396619342
  O           7.23903311035286     -9.49157093383681      3.55827458905505
  H           7.78806682478812    -11.87758589184063      1.61953332062301
  H           6.51963270349359    -12.05881408879681      0.38811245080037
  H           7.14458488875135    -13.48702682751835      1.24578867573453
  H           5.56688462019914    -11.16571651244172      2.52581728524399
  H           2.65335020506014    -11.77342399977189      2.35606659079106
  H           7.35748626079413    -12.29640200639898      3.93876047009157
  H           6.48114268118149    -13.81757735416968      3.76742268949552
  H           4.50332268626523    -12.83403332861693      4.94126350505212
  H           5.97056760119682    -12.75135703613326      5.92962555646597
  H           7.25762659737965    -10.80824041199415      5.71803559920106
  H           6.08293756010638     -9.86270136120435      6.66054540836719
  H           7.32447399488281     -8.34017209892881      5.28540320145329
  H           4.64706419144307     -8.88879670771190      3.89477856241944
  H           4.87329294733869     -7.85622739383833      5.33924388188216
  H           8.84658132910510     -9.36421272170491      1.25452197495712
