68
Coordinates from ORCA-job dimer_neutral E -3351.335543932808
  C          -2.19372332202778     -0.27744326274783      1.76419518584676
  C          -1.83093704585667     -0.16396292067357      0.28555018852922
  S          -2.98958314332601     -1.23917688646153     -0.65330648043865
  O          -4.18674875608904     -0.47553490881716     -0.99278047699636
  O          -3.06633968951520     -2.55251862572248     -0.00621728646814
  O          -2.18662703260881     -1.46336551773583     -2.08878273103067
  C          -1.89068845949929      1.28095443780040     -0.20793580957943
  C          -1.35786718479249      1.52085325104809     -1.61645637080206
  O          -0.02039035175939      1.04447274492631     -1.78282565669706
  C           0.98576281700789      1.87667478617604     -1.22484877929375
  C           1.96101139547430      1.05177633087746     -0.41064453205597
  C           2.46049736157625     -0.17333388982536     -1.15918587644244
  O           3.42756975282628     -0.89196964301500     -0.37708054303570
  C           2.99113170912470     -1.09849250115179      0.89597358078041
  C           3.49782076578225     -2.06416261668380      1.73538907679310
  S           2.63595034109819     -2.03461354009423      3.26131933781944
  C           1.60540677093668     -0.74158896219076      2.74062720444746
  C           1.92740392680288     -0.34541160250598      1.47397116667875
  O           1.27847067226991      0.65150577654658      0.79743086348968
  H          -1.48502802540908      0.33050513910918      2.33494671740346
  H          -2.13205225016135     -1.30964969261927      2.11449585800508
  H          -3.20269413168805      0.10346829488260      1.95484325449231
  H          -0.83780419046472     -0.58826231575816      0.09809355241530
  H          -1.76241224568261     -2.33564581693924     -2.04393291048751
  H          -1.30189642047685      1.86801376848784      0.50924691438408
  H          -2.92351187445011      1.64654407574246     -0.15243840345261
  H          -1.95509261329423      0.98830410279760     -2.36109104845047
  H          -1.41391946615223      2.59565963049837     -1.85044728986224
  H           0.56093250559630      2.65327923351122     -0.57286586372262
  H           1.53879140747944      2.38227187578188     -2.03332177664134
  H           2.82275673663435      1.68274241899285     -0.13453458263946
  H           1.61555258117174     -0.82858678884482     -1.40855028522562
  H           2.97256941476477      0.12348707441162     -2.07858578348226
  H           0.84294953726501     -0.33772620658160      3.39057079701547
  C           9.57201464376183     -5.89155520291522      2.87408062790843
  C          10.09036125013809     -4.50883798744979      2.48606961399696
  S          10.99876235853730     -3.83079956048299      3.93348193612532
  O          12.39059717019094     -4.26790451940400      3.87750538355572
  O          10.18240480680761     -3.99675100346562      5.13989921653979
  O          11.03191009195607     -2.20436199201799      3.60304731455527
  C          10.97921313365563     -4.56012412369924      1.24437002350860
  C          11.40282924529918     -3.21138801824553      0.67350942736954
  O          10.28677938736036     -2.36580383614990      0.38580762249981
  C           9.58365876656404     -2.68434590564152     -0.80592152665513
  C           8.09252861877061     -2.72981713342325     -0.54188599537702
  C           7.59837364180612     -1.51606295702788      0.22822839882674
  O           6.17328017700922     -1.56563828420338      0.40104499977230
  C           5.76577252035838     -2.77995451827210      0.86272360698703
  C           4.55686720365941     -3.00103719452488      1.48207595025795
  S           4.43927345593680     -4.68033068516976      1.97023551684527
  C           6.01510803101953     -5.04970359439158      1.34954001403793
  C           6.58218231124412     -3.94587947421389      0.77933805560197
  O           7.82650278783543     -3.93430675161877      0.20968153223045
  H           9.00186924616010     -6.28946119516802      2.02894097679488
  H           8.91757729944785     -5.84478292193038      3.74680451022627
  H          10.39719381839970     -6.58012754239261      3.08470987262867
  H           9.25536189825208     -3.81568710017900      2.33192417801985
  H          10.32781673594161     -1.79276927389814      4.13000389550225
  H          10.40565231273046     -5.11086462100100      0.48725496337578
  H          11.87780783670307     -5.15146679825612      1.46031826308766
  H          12.01844225776185     -2.65565016547744      1.38534846098199
  H          12.00550780344439     -3.37200955061329     -0.23427072670910
  H           9.89277677528312     -3.65581627114894     -1.21730271354898
  H           9.78447514928419     -1.91597495813801     -1.57030102938577
  H           7.55707092172107     -2.79080667351211     -1.50433515767450
  H           8.09578889780338     -1.47048642927014      1.20587205330889
  H           7.80576677930862     -0.59819131669232     -0.32854831550991
  H           6.42431622329065     -6.04696783322724      1.41966103901886
