226
Lattice="18.27244493766502 0.0 0.0 -3.626393305660581 10.92590571040498 0.0 0.0 -0.0 30.260930213804105" Properties=species:S:1:pos:R:3:move_mask:L:1:forces:R:3 charge=0 spin=0 energy=-1150.4887263237085 free_energy=-1150.4887263237085 stress="0.010388094586680115 -0.0007286153254667569 -0.0007062815096392493 -0.0007286153254667569 0.012535440649604958 -0.0003819188081487388 -0.0007062815096392493 -0.0003819188081487388 -0.0038569543259917537" pbc="T T T"
Li      16.67711797       2.50288202      12.07137868  F       0.24516584       0.08136621      -0.01347478
Ni       7.54089550       2.50288202      12.07137868  F      -0.88541955      -0.25739914      -0.46434107
O       12.20542874       2.53488524      12.00000000  F       0.99152601       0.31597066      -0.15398978
O        2.87636225       2.47087880      12.14275737  F      -0.41176808      -0.17776050      -0.24090578
Li       4.79768745       1.59238988      12.07137868  F       0.24656546       0.08164493      -0.01696806
Ni      13.93390992       1.59238988      12.07137868  F      -0.89101619      -0.26235369      -0.46483240
O        0.32599823       1.62439309      12.00000000  F       0.99449956       0.31649521      -0.15491635
O        9.26937667       1.56038666      12.14275737  F      -0.41118962      -0.17787856      -0.23641220
Li      11.19070187       0.68189773      12.07137868  F       0.24628516       0.08137318      -0.01434892
Ni       2.05447940       0.68189773      12.07137868  F      -0.88438308      -0.25769147      -0.46104047
O        6.71901265       0.71390095      12.00000000  F       0.99216157       0.31606644      -0.15317537
O       15.66239110       0.64989452      12.14275737  F      -0.41209495      -0.17656079      -0.24030110
Li       0.21786968       1.58850439      14.11076963  F      -0.06042102      -0.01988090      -0.11566429
Ni       9.35409215       1.58850439      14.11076963  F      -0.07085396      -0.00034717       0.00127498
O       14.01862539       1.62050760      14.03939095  F       0.54191351       0.17884408       0.78181279
O        4.68955891       1.55650117      14.18214832  F      -0.55905503      -0.19421799       0.12360977
Li       6.61088410       0.67801224      14.11076963  F      -0.05803360      -0.01885797      -0.10856401
Ni      15.74710657       0.67801224      14.11076963  F      -0.03834154       0.00323741       0.05753933
O        2.13919488       0.71001546      14.03939095  F       0.56014413       0.18663345       0.78341419
O       11.08257333       0.64600903      14.18214832  F      -0.54168314      -0.18864736       0.12661286
Li      12.09730020       2.49899653      14.11076963  F      -0.05785402      -0.01780464      -0.13631314
Ni       2.96107773       2.49899653      14.11076963  F      -0.06732968      -0.00378335      -0.00419802
O        7.62561097       2.53099975      14.03939095  F       0.55669779       0.18507385       0.78329861
O       16.56898942       2.46699331      14.18214832  F      -0.55939293      -0.19636740       0.09431235
Li       2.02128416       0.67087659      16.19474839  F       0.00240462      -0.00080188       0.13894585
Ni      11.18282016       0.67928162      16.23002335  F       0.12436802       0.05165714       0.16943848
O       15.86168355       0.71586472      16.21795807  F       0.36164892       0.09046684      -0.17856432
O        6.49496981       0.63946706      16.21017910  F      -0.35838929      -0.13159733      -0.20134430
Li       7.50527508       2.49105092      16.19193649  F      -0.00290263       0.00144632       0.13090897
Ni      16.67048750       2.50067898      16.23213489  F       0.11664557       0.13798690       0.25320286
O        3.07512464       2.53691080      16.22310437  F       0.31163529       0.08994994      -0.14898430
O       11.97606144       2.45870159      16.21727009  F      -0.36780623      -0.08707900      -0.17550455
Li      13.89484715       1.57945338      16.19437318  F       0.06808354       0.04698101       0.23874730
Ni       4.79210175       1.59053237      16.22588743  F       0.25245944       0.11117841       0.29397747
O        9.46873688       1.62661074      16.21723621  F       0.28903088       0.09368357      -0.12696408
O        0.10516751       1.55127420      16.20811073  F      -0.36003035      -0.14586288      -0.13956986
Li       2.85796590       2.47795001      18.30524183  T      -0.00404342       0.00060065      -0.00610948
Ni      12.11234781       2.50096888      18.30738190  T      -0.00632084      -0.00020546       0.01457530
O       16.86251265       2.55414483      18.21559114  T      -0.00345838       0.00038309      -0.01465880
O        7.34210490       2.43254387      18.52328631  T       0.00020223       0.00171411      -0.01139954
Li       9.24826511       1.56414851      18.31956007  T      -0.00236777       0.00264668      -0.00497797
Ni       0.24475805       1.59144937      18.34043759  T       0.00093602       0.00256474      -0.00690910
O        4.97763400       1.63942854      18.22920950  T       0.00201594       0.00115258      -0.00039128
O       13.72640321       1.52192328      18.33636293  T      -0.01187482      -0.00533124       0.03663940
Li      15.59743174       0.68548880      18.41752638  T       0.00623325      -0.00513939      -0.00244493
Ni       6.63459878       0.67852156      18.36460981  T       0.00093542       0.00128712      -0.00559464
O       11.35155653       0.72676439      18.20964885  T      -0.00313611       0.00146999       0.01442027
O        1.86522456       0.61366124      18.49215149  T       0.00477483      -0.00218213      -0.00091327
Li      15.77051964       5.23435845      12.07137868  F       0.24583045       0.08116328      -0.01490100
Ni       6.63429717       5.23435845      12.07137868  F      -0.88544309      -0.25739712      -0.46403012
O       11.29883042       5.26636166      12.00000000  F       0.99129784       0.31645164      -0.15326786
O        1.96976393       5.20235523      12.14275737  F      -0.41187936      -0.17803402      -0.24110803
Li       3.89108912       4.32386630      12.07137868  F       0.24648836       0.08166710      -0.01694826
Ni      13.02731159       4.32386630      12.07137868  F      -0.89140427      -0.25580329      -0.46568486
O       -0.58060010       4.35586952      12.00000000  F       0.99528223       0.31733111      -0.15528122
O        8.36277835       4.29186309      12.14275737  F      -0.41137648      -0.17788157      -0.23740382
Li      10.28410354       3.41337416      12.07137868  F       0.24649741       0.08160104      -0.01544007
Ni       1.14788108       3.41337416      12.07137868  F      -0.88471323      -0.25713491      -0.46098724
O        5.81241432       3.44537738      12.00000000  F       0.99208158       0.31587160      -0.15329951
O       14.75579277       3.38137094      12.14275737  F      -0.41139954      -0.17825684      -0.24557999
Li      -0.68872865       4.31998081      14.11076963  F      -0.06148405      -0.01919079      -0.10822220
Ni       8.44749382       4.31998081      14.11076963  F      -0.06622192       0.00057096      -0.00039415
O       13.11202707       4.35198403      14.03939095  F       0.54949707       0.17679794       0.78644073
O        3.78296058       4.28797760      14.18214832  F      -0.55933338      -0.19333281       0.12309987
Li       5.70428578       3.40948867      14.11076963  F      -0.05791488      -0.01876203      -0.10858843
Ni      14.84050824       3.40948867      14.11076963  F      -0.02430515       0.01192258       0.12872446
O        1.23259655       3.44149189      14.03939095  F       0.56183714       0.18467078       0.78280360
O       10.17597500       3.37748545      14.18214832  F      -0.54631358      -0.19853500       0.11635696
Li      11.19070187       5.23047296      14.11076963  F      -0.06038225      -0.01885168      -0.11288453
Ni       2.05447940       5.23047296      14.11076963  F      -0.06892475      -0.00294022      -0.00208431
O        6.71901265       5.26247617      14.03939095  F       0.55738139       0.18437491       0.78440845
O       15.66239109       5.19846974      14.18214832  F      -0.56690913      -0.18996848       0.09831281
Li       1.11468583       3.40235302      16.19474839  F      -0.00087211       0.01024591       0.14211217
Ni      10.27622183       3.41075805      16.23002335  F       0.13683894       0.14131476       0.23039290
O       14.95508522       3.44734114      16.21795807  F       0.39429611       0.14511056      -0.30823076
O        5.58837149       3.37094349      16.21017910  F      -0.35767153      -0.13169244      -0.20115975
Li       6.59867675       5.22252735      16.19193649  F      -0.00274953       0.00251099       0.13168076
Ni      15.76388917       5.23215541      16.23213489  F       0.20789018       0.00405741       0.28110251
O        2.16852631       5.26838723      16.22310437  F       0.30683240       0.09376419      -0.14503731
O       11.06946311       5.19017802      16.21727009  F      -0.35752472      -0.12365767      -0.21046729
Li      12.98824883       4.31092980      16.19437318  F       0.06194238      -0.00320870       0.19567674
Ni       3.88550342       4.32200880      16.22588743  F       0.25202179       0.10927964       0.29595500
O        8.56213855       4.35808717      16.21723621  F       0.29269364       0.08450419      -0.11224414
O       -0.80143081       4.28275062      16.20811073  F      -0.37257072      -0.12103866      -0.15969609
Li       1.95094023       5.20718777      18.30719622  T      -0.00418926       0.00090746      -0.00535152
Ni      11.20840363       5.23152776      18.36118002  T       0.00106979       0.00230234      -0.00261838
O       15.95555747       5.28791839      18.23656708  T       0.00217151       0.00230883      -0.00901077
O        6.43583186       5.16422027      18.52306810  T       0.00047007       0.00106571      -0.01093055
Li       8.34499917       4.29590721      18.31647920  T      -0.00367783       0.00279671      -0.00492785
Ni      -0.66398533       4.32481334      18.35448721  T       0.00079506       0.00147308      -0.00738690
O        4.07138621       4.37113220      18.22941462  T       0.00145072       0.00134465      -0.00161329
O       12.82575158       4.25594746      18.47533774  T      -0.00220448       0.00009466       0.01429801
Li      14.70126991       3.32877915      18.59427283  T      -0.01998287      -0.01415177       0.03434823
Ni       5.72850528       3.41046485      18.36460978  T       0.00054052       0.00111084      -0.00560399
O       10.45122096       3.46313049      18.23214806  T      -0.00257519       0.00703910       0.00276607
O        0.95656333       3.34597802      18.48950449  T       0.00305678       0.00351502       0.00142934
Li      14.86392131       7.96583487      12.07137868  F       0.24677652       0.08140943      -0.01417471
Ni       5.72769884       7.96583487      12.07137868  F      -0.88513666      -0.25736323      -0.46422577
O       10.39223209       7.99783809      12.00000000  F       0.99213535       0.31645975      -0.15305516
O        1.06316560       7.93383166      12.14275737  F      -0.41196010      -0.17792428      -0.24100493
Li       2.98449080       7.05534273      12.07137868  F       0.24658677       0.08172083      -0.01681421
Ni      12.12071327       7.05534273      12.07137868  F      -0.88713121      -0.25849962      -0.46599188
O       -1.48719843       7.08734595      12.00000000  F       0.99454176       0.31744030      -0.15445913
O        7.45618002       7.02333952      12.14275737  F      -0.41188839      -0.17768773      -0.23731977
Li       9.37750522       6.14485059      12.07137868  F       0.24691558       0.08153242      -0.01588270
Ni       0.24128275       6.14485059      12.07137868  F      -0.88482368      -0.25698528      -0.46159172
O        4.90581599       6.17685381      12.00000000  F       0.99191040       0.31618458      -0.15332443
O       13.84919444       6.11284737      12.14275737  F      -0.41357824      -0.17807652      -0.23887862
Li      -1.59532697       7.05145724      14.11076963  F      -0.06056284      -0.01905253      -0.10405596
Ni       7.54089550       7.05145724      14.11076963  F      -0.06396503      -0.00451273      -0.00173332
O       12.20542874       7.08346046      14.03939095  F       0.54971683       0.18082315       0.79202914
O        2.87636225       7.01945403      14.18214832  F      -0.56022918      -0.19345713       0.12467773
Li       4.79768745       6.14096510      14.11076963  F      -0.05780288      -0.01883790      -0.10851133
Ni      13.93390992       6.14096510      14.11076963  F      -0.04830877       0.00058345       0.00955208
O        0.32599823       6.17296832      14.03939095  F       0.56372076       0.18617955       0.78301108
O        9.26937667       6.10896188      14.18214832  F      -0.55741298      -0.19407347       0.11468547
Li      10.28410354       7.96194938      14.11076963  F      -0.05968014      -0.02008335      -0.11448038
Ni       1.14788108       7.96194938      14.11076963  F      -0.06943673      -0.00406887      -0.00305183
O        5.81241432       7.99395260      14.03939095  F       0.55712366       0.18287346       0.78374779
O       14.75579277       7.92994617      14.18214832  F      -0.56561160      -0.19515774       0.11391360
Li       0.20808750       6.13382945      16.19474839  F      -0.00580150       0.00471161       0.13130821
Ni       9.36962350       6.14223448      16.23002335  F       0.22157149       0.09655830       0.26612619
O       14.04848689       6.17881757      16.21795807  F       0.30526057       0.09316686      -0.11084473
O        4.68177316       6.10241992      16.21017910  F      -0.35838974      -0.13187023      -0.20103706
Li       5.69207843       7.95400378      16.19193649  F      -0.00374011       0.00270573       0.13070853
Ni      14.85729085       7.96363183      16.23213489  F       0.28301787       0.10157875       0.21981154
O        1.26192799       7.99986365      16.22310437  F       0.30311537       0.08747998      -0.14038035
O       10.16286479       7.92165445      16.21727009  F      -0.35631892      -0.13756806      -0.21160103
Li      12.08165050       7.04240623      16.19437318  F       0.00704388       0.00265168       0.13539557
Ni       2.97890510       7.05348523      16.22588743  F       0.25026342       0.10868119       0.29798183
O        7.65554023       7.08956360      16.21723621  F       0.29022673       0.08616628      -0.10833164
O       -1.70802914       7.01422705      16.20811073  F      -0.37761638      -0.12482752      -0.16970512
Li       1.04346125       7.94237007      18.30975639  T      -0.00336725       0.00100760      -0.00599468
Ni      10.30146464       7.95990595      18.35771866  T       0.00319421       0.00111518      -0.00668119
O       15.04778842       8.01235940      18.22838927  T       0.00112038       0.00058827      -0.00464384
O        5.52824744       7.89533341      18.52299186  T       0.00208314       0.00036414      -0.01153996
Li       7.43601530       7.03174038      18.31547144  T      -0.00219523      -0.00126982      -0.00458348
Ni      -1.56824796       7.05295811      18.36434931  T       0.00196648       0.00199646      -0.00968647
O        3.16372563       7.10230826      18.22873633  T       0.00204444       0.00215920      -0.00051785
O       11.91788578       6.98670954      18.50527484  T       0.00171691       0.00072033      -0.00821597
Li      13.82887758       6.09826706      18.30226487  T       0.00301941      -0.00083808      -0.00568485
Ni       4.82147447       6.14161892      18.36439811  T       0.00072059       0.00134170      -0.00527651
O        9.55070938       6.19111565      18.23888781  T       0.00031132       0.00267201      -0.00778902
O        0.04740750       6.07691889      18.51514694  T       0.00168818       0.00613238      -0.00991134
Li      13.95732299      10.69731130      12.07137868  F       0.24620023       0.08156332      -0.01269364
Ni       4.82110052      10.69731130      12.07137868  F      -0.88527745      -0.25739211      -0.46473747
O        9.48563376      10.72931452      12.00000000  F       0.99159271       0.31603870      -0.15390505
O        0.15656727      10.66530809      12.14275737  F      -0.41194400      -0.17764828      -0.24078129
Li       2.07789247       9.78681916      12.07137868  F       0.24668983       0.08161422      -0.01678749
Ni      11.21411494       9.78681916      12.07137868  F      -0.88775802      -0.26143977      -0.46700948
O       -2.39379675       9.81882238      12.00000000  F       0.99389589       0.31664127      -0.15413529
O        6.54958169       9.75481594      12.14275737  F      -0.41182703      -0.17719723      -0.23638923
Li       8.47090689       8.87632702      12.07137868  F       0.24662031       0.08142526      -0.01534332
Ni      -0.66531558       8.87632702      12.07137868  F      -0.88461590      -0.25758624      -0.46115559
O        3.99921767       8.90833023      12.00000000  F       0.99208522       0.31618619      -0.15321656
O       12.94259612       8.84432380      12.14275737  F      -0.41212973      -0.17699665      -0.23551667
Li      -2.50192530       9.78293367      14.11076963  F      -0.06040512      -0.01967243      -0.10755548
Ni       6.63429717       9.78293367      14.11076963  F      -0.06841347      -0.00705022       0.00076983
O       11.29883042       9.81493689      14.03939095  F       0.54545188       0.18215385       0.79064751
O        1.96976393       9.75093045      14.18214832  F      -0.56005424      -0.19429769       0.12524220
Li       3.89108912       8.87244153      14.11076963  F      -0.05787148      -0.01897771      -0.10861010
Ni      13.02731159       8.87244153      14.11076963  F      -0.05318560      -0.00220823      -0.00197311
O       -0.58060010       8.90444474      14.03939095  F       0.56315058       0.18574421       0.78267962
O        8.36277835       8.84043831      14.18214832  F      -0.55041987      -0.18646896       0.11319670
Li       9.37750522      10.69342581      14.11076963  F      -0.05697449      -0.01920219      -0.13476002
Ni       0.24128275      10.69342581      14.11076963  F      -0.06819230      -0.00535650      -0.00490103
O        4.90581599      10.72542903      14.03939095  F       0.55706686       0.18326427       0.78168613
O       13.84919444      10.66142260      14.18214832  F      -0.56118715      -0.19653644       0.10704608
Li      -0.69851082       8.86530587      16.19474839  F      -0.00427747      -0.00174683       0.12654340
Ni       8.46302518       8.87371091      16.23002335  F       0.18544321       0.02537308       0.23369494
O       13.14188857       8.91029400      16.21795807  F       0.30237371       0.08152229      -0.11753588
O        3.77517484       8.83389634      16.21017910  F      -0.35878128      -0.13170986      -0.20084888
Li       4.78548010      10.68548021      16.19193649  F      -0.00284917       0.00223588       0.13036498
Ni      13.95069252      10.69510826      16.23213489  F       0.21772043       0.12057585       0.21184266
O        0.35532966      10.73134008      16.22310437  F       0.30900300       0.08415805      -0.14575206
O        9.25626646      10.65313087      16.21727009  F      -0.34969726      -0.17163624      -0.18399823
Li      11.17505217       9.77388266      16.19437318  F       0.03211116       0.02312900       0.16631815
Ni       2.07230677       9.78496165      16.22588743  F       0.25105825       0.10819597       0.29654777
O        6.74894190       9.82104002      16.21723621  F       0.29192382       0.08925592      -0.12459803
O       -2.61462747       9.74570348      16.20811073  F      -0.37457407      -0.15211232      -0.18447602
Li       0.13721781      10.67789445      18.30316836  T      -0.00325161      -0.00062577      -0.00430814
Ni       9.39429311      10.69275682      18.31134360  T      -0.00233358      -0.00167188       0.01340624
O       14.14500867      10.73888839      18.21320882  T      -0.00023257       0.00169552      -0.01163960
O        4.62147043      10.62677849      18.52345103  T      -0.00013609       0.00019692      -0.01253987
Li       6.52841582       9.76291242      18.31837425  T      -0.00102541      -0.00119124      -0.00503758
Ni      -2.47321397       9.78397374      18.35306145  T       0.00180930       0.00099646      -0.00505111
O        2.25707348       9.83358802      18.22868583  T       0.00207090       0.00170060       0.00083378
O       11.01110777       9.71201649      18.46904867  T       0.00404020      -0.00147365       0.00515452
Li      12.91389646       8.85990043      18.28482650  T       0.00233206       0.00293953       0.00691798
Ni       3.91444864       8.87282033      18.36427391  T       0.00122769       0.00117460      -0.00517851
O        8.64077015       8.92005357      18.23388994  T       0.00348199      -0.00113913      -0.00021802
O       -0.85982689       8.80791215      18.51862081  T       0.00313783       0.00018967      -0.01427969
C       17.47130558       0.89634280      21.83132363  T       0.02528612       0.00567666       0.01558794
C       16.23484492       0.25161711      22.45861495  T       0.01247719      -0.00412543      -0.00318878
S       14.91775174       1.53176711      22.63774000  T       0.02950772       0.01288071      -0.02139616
O       14.46666362       1.75862907      21.23010869  T       0.03437964       0.03026887      -0.01510021
O       15.51065635       2.76475984      23.20136302  T       0.00966639      -0.01455246      -0.00068766
O       13.85340187       0.94706832      23.48119045  T      -0.00586987      -0.01989066      -0.03855774
C       16.53728413      -0.62389285      23.69188050  T       0.00186869       0.00273695       0.00445777
C       17.36375104      -0.05879264      24.85939454  T      -0.02736386      -0.00259155       0.01945436
O       16.73376464       0.96341151      25.65463460  T      -0.02577622       0.01577969      -0.00936582
C       15.63805931       0.49494055      26.44091449  T      -0.01220236       0.00113999       0.00354242
C       15.09031504       1.70409077      27.21125579  T       0.01201818       0.00727264       0.01637974
C       14.38427269       2.73611466      26.33829384  T      -0.00642891      -0.01203370       0.00776349
O       13.93535183       3.88006052      27.15218760  T      -0.00174717      -0.00498797       0.00178587
C       13.30482093       3.47058273      28.28710127  T       0.01828733      -0.01394112      -0.01850061
C       12.50546463       4.27895105      29.08479172  T      -0.00939942       0.03633635       0.00311065
S       11.87819627       3.41257224      30.42603694  T       0.00469214       0.00150277       0.00294834
C       12.66665858       1.95935863      29.96320383  T      -0.01096859      -0.01951445       0.01194156
C       13.39874444       2.13161052      28.79805467  T       0.00829089      -0.00388749      -0.00476791
O       14.14664506       1.15334180      28.20488222  T       0.01810175       0.00725013       0.02251132
H       17.93611659       1.63146197      22.50519058  T       0.01726620      -0.00394504       0.01958785
H       18.21761978       0.12267002      21.57898879  T       0.03004612       0.00858966       0.00884867
H       17.20164046       1.43222922      20.90765670  T       0.03412770       0.01008856       0.01230033
H       15.75636144      -0.42171882      21.72449101  T       0.02048937       0.00360911      -0.00598572
H       15.59948650      -1.06711185      24.06578534  T      -0.02409976       0.01194523       0.00249056
H       17.13425444      -1.47479390      23.30163388  T      -0.01833001      -0.01127626       0.02621308
H       18.29126621       0.41312850      24.49382696  T      -0.00597420       0.00559667       0.01969050
H       17.66040362      -0.91041780      25.51200243  T      -0.02775281       0.02329277       0.03369496
H       15.97234152      -0.26846261      27.17801552  T       0.00304181      -0.00785492      -0.01033015
H       14.84022116       0.05771309      25.81079489  T      -0.02685565       0.01778065       0.02374421
H       15.91381906       2.18949541      27.77255724  T       0.01285144       0.01052696      -0.00469004
H       15.06097769       3.15092758      25.57919702  T       0.01005689      -0.00716980       0.00113040
H       13.50433156       2.29918866      25.83263314  T       0.01392796      -0.01208528       0.00026269
H       12.23820018       5.32086902      28.91012397  T       0.00506132      -0.02244553      -0.00228415
H       12.60062672       1.06026685      30.57493458  T      -0.00799167       0.00508654      -0.01099895
