101
Coordinates from ORCA-job trimer_neutral E -5026.422091006707
  C          -1.82949998008402     -0.26494672548497      2.18546767125109
  C          -1.62639611212755     -0.30349723423019      0.67271908938476
  S          -2.81924455698259     -1.52174242856981     -0.01365575060503
  O          -4.08893107902837     -0.85296991208506     -0.28186892222374
  O          -2.74664681779858     -2.76251067974523      0.76404944932295
  O          -2.17032718179359     -1.85591994656626     -1.50403013760912
  C          -1.80795420058123      1.07495291869885      0.03899272552299
  C          -1.46205957604431      1.17703159204250     -1.44236511528555
  O          -0.13985680480201      0.71558374367440     -1.72921707461667
  C           0.90277381401582      1.62133887733167     -1.39849415574383
  C           1.98697901733373      0.91348497159509     -0.61045887370801
  C           2.40267391471651     -0.40430557988492     -1.24449130928953
  O           3.46096323081431     -1.02336027082355     -0.49624201142719
  C           3.17403144879992     -1.06769325911630      0.83378845816387
  C           3.76651874491767     -1.93816575928779      1.72175479801315
  S           3.08220739992419     -1.70963408930761      3.32105581373918
  C           2.00699041053122     -0.46818735838911      2.76524761040486
  C           2.18603091732341     -0.23260847522355      1.43178396819113
  O           1.46650225056045      0.68555731647427      0.71769867709569
  H          -1.10400912434198      0.43698770382527      2.60774282808897
  H          -1.67178525650675     -1.24633127578318      2.63713691241485
  H          -2.83444019424841      0.08776356859627      2.44052075160194
  H          -0.63854436307301     -0.70899993076258      0.42597488429361
  H          -1.69773973668106     -2.70056417077586     -1.42588580986397
  H          -1.16159626719749      1.75451325369162      0.60993681432658
  H          -2.84143272483030      1.41283551859368      0.18544053122772
  H          -2.12768130125532      0.55639839143967     -2.04769986555337
  H          -1.58458424970051      2.22002335517833     -1.77435501584989
  H           0.53680435529720      2.46775702833722     -0.79991113239248
  H           1.34462198117107      2.02787884865801     -2.32274315298517
  H           2.86752306861232      1.57308110272549     -0.53276198326051
  H           1.53751579655332     -1.07767549889561     -1.30162827940934
  H           2.79833692908658     -0.23600437562238     -2.24979133130486
  H           1.32709236661932      0.02672896448872      3.44309216047998
  C           9.91869232454020     -5.46525814675459      3.40449805397859
  C          10.20858847504961     -4.18973118328642      2.61362734811616
  S          11.01348479900259     -3.01712601620420      3.77997258129216
  O          12.45263222059877     -3.26576725783731      3.78771500775134
  O          10.23373357950987     -2.95465475450987      5.02054453711419
  O          10.81931160644102     -1.55213629154585      3.02609277144936
  C          11.08536915132874     -4.46332539210300      1.39190194332708
  C          11.46250015176697     -3.25755784853417      0.53536049614493
  O          10.32805173029154     -2.50920143976447      0.09517208712108
  C           9.67470234572383     -3.00479613774661     -1.06219880166824
  C           8.17339336592505     -2.99445731159854     -0.84538977262770
  C           7.67928941189597     -1.68831062920742     -0.24307263859157
  O           6.25925047152483     -1.72215780247585     -0.02053928088973
  C           5.89951195068489     -2.83176483608998      0.68257534834827
  C           4.77561429705293     -2.92537523650898      1.47307475248043
  S           4.71785827735494     -4.49433369718599      2.25727071984422
  C           6.23026251972562     -5.00339815793572      1.52165782832252
  C           6.70638017890679     -3.99477488648822      0.71110506219391
  O           7.88739201491078     -4.09940715614235      0.03971543239645
  H           9.45167006889751     -6.19226273518296      2.73382866279553
  H           9.23941028464221     -5.27160916980570      4.23722423716361
  H          10.84404642661413     -5.90272359697591      3.79459828582710
  H           9.27596942086648     -3.69503313658065      2.31563408726374
  H          10.07364626804259     -1.10743951762082      3.46089445182293
  H          10.52825056118757     -5.19035290238579      0.78508695083203
  H          12.01171991401882     -4.95434498745285      1.71660213801070
  H          12.08123303281950     -2.55533890686767      1.10105253219883
  H          12.05536937142607     -3.59897577491601     -0.32743987641000
  H           9.97778465029027     -4.03586004362374     -1.29635392634739
  H           9.91897546292469     -2.37130984276344     -1.93094328888164
  H           7.66017670341369     -3.17571139915074     -1.80363259761778
  H           8.20065804936919     -1.49360353631451      0.70254597686661
  H           7.86100909412092     -0.86152214289453     -0.93503356071559
  C           6.53332799236620    -12.14942058484952      1.15283680173634
  C           5.53955215992136    -11.94383335969582      2.29363989466809
  S           3.93206156646826    -12.65751307875129      1.75977493235077
  O           3.90512084110028    -14.07969329432271      2.08831313876351
  O           3.60526497280339    -12.16642087147523      0.41740142658023
  O           2.85972196434123    -11.93792061656104      2.80202851904262
  C           6.02737084143856    -12.57556551932630      3.59645930733816
  C           5.20357874592961    -12.25514737589508      4.83866793258367
  O           5.05591510340726    -10.84877745954447      5.04912967716155
  C           6.18920303663584    -10.19961913649391      5.60645131533339
  C           6.54463991591499     -8.96701749485986      4.80047738562467
  C           5.33564739343280     -8.09197807769002      4.51240812430314
  O           5.72229813040347     -6.90643510235277      3.79523284469519
  C           6.54018366915849     -7.19354499094699      2.74413621763713
  C           6.78824799612626     -6.30629046113897      1.71839223414533
  S           7.89810975635321     -7.04468991766031      0.56973428829710
  C           8.01941914410983     -8.50107873223360      1.50813408493991
  C           7.24321088508997     -8.42440659279436      2.62935781029452
  O           7.13719382212305     -9.41865410489613      3.56132944504399
  H           7.48383812169124    -11.69211841692528      1.44400663747646
  H           6.18830145048160    -11.67944060535146      0.22969221904407
  H           6.70780957895049    -13.21443725332428      0.96656077069381
  H           5.33625350832840    -10.87660321808612      2.43825480743958
  H           2.42115788935809    -11.22355726911498      2.31182817937484
  H           7.05458782155917    -12.21480884890308      3.73888752567056
  H           6.08189422377522    -13.66500995577719      3.47836721477536
  H           4.18707396666787    -12.64746618745330      4.75207393076744
  H           5.66961388114590    -12.72679971505987      5.71790082927569
  H           7.06782667758786    -10.85976181745504      5.63588775534076
  H           5.96494012802263     -9.89126159152980      6.64031450762154
  H           7.29651291226924     -8.37855313457361      5.35275396552837
  H           4.59702206559238     -8.65702829200297      3.92991218981155
  H           4.87908229698123     -7.74773815724310      5.44410377663205
  H           8.67313830199561     -9.30556743425330      1.20424462800129
