67
Coordinates from ORCA-job dimer_doped E -3350.681182242003
  C          -2.17359822425640     -0.32490398042483      1.57953819517832
  C          -1.79086397790271     -0.18900355488308      0.10933875580466
  S          -2.85010490737291     -1.31411177554211     -0.88214661966563
  O          -4.24341086613368     -0.78080191627090     -0.78092438183436
  O          -2.71174057417041     -2.66860387367979     -0.26726395794360
  O          -2.33473841867334     -1.28636579163358     -2.28579812844354
  C          -1.90783422841641      1.26026240574013     -0.37151951963683
  C          -1.23225173902582      1.56605273614779     -1.70368062980942
  O           0.15037376596304      1.17965305236495     -1.71973113469842
  C           1.03013842685695      2.03052631890494     -1.01420444650558
  C           1.99882657175658      1.19521181546575     -0.19862762699135
  C           2.56442024317382      0.03190203030939     -0.99454813452305
  O           3.49471535476030     -0.73575338752458     -0.19546849859459
  C           2.98866985733711     -1.03168929484488      1.01889397858607
  C           3.44299512420803     -2.07264943799140      1.82078055035810
  S           2.44751508915878     -2.19307243283876      3.26484370716681
  C           1.45506790983177     -0.86481562523192      2.76742306510848
  C           1.87169559400671     -0.34710273214129      1.56876738217015
  O           1.26931914065228      0.69910011826872      0.95132962500744
  H          -1.52230137343524      0.32016513621073      2.18004502368912
  H          -2.06725315801457     -1.35704276017957      1.92252472011814
  H          -3.20997375320748     -0.00927077677388      1.74028139971143
  H          -0.77227907585986     -0.55734048043811     -0.05985646348341
  H          -1.47179841979718      1.89253455136346      0.41477184136798
  H          -2.96716703702725      1.54165249540502     -0.44214751951699
  H          -1.69272814744171      0.99418292727585     -2.51194189784979
  H          -1.32663485228978      2.63928207622901     -1.93369610846052
  H           0.50000024279603      2.70685042007572     -0.32806204823161
  H           1.60725409286633      2.65220467974719     -1.72022523491919
  H           2.82209898842661      1.83087386727737      0.16618619915703
  H           1.75280975360766     -0.61946962184218     -1.33814569855704
  H           3.13454860220682      0.39403098607387     -1.85315498332918
  H           0.63463144271809     -0.52093903032265      3.38132575310445
  C           9.65308190088594     -5.83936454803738      2.95431218064467
  C          10.14488660261137     -4.47276207557604      2.48251911838478
  S          11.10529310494209     -3.72684040929195      3.86112444145310
  O          12.49045788366974     -4.17923798669485      3.77962669694455
  O          10.32929316300737     -3.82287569704717      5.10147217078066
  O          11.12313382720972     -2.12006955434308      3.44199801165562
  C          10.98332191358910     -4.57626026439183      1.20901295471621
  C          11.34746167147518     -3.25262469170787      0.54672779497377
  O          10.19491828307102     -2.45230687288172      0.26472481182845
  C           9.45633074792654     -2.84671459835571     -0.88022434167310
  C           7.97561039731497     -2.86459682510210     -0.56135775323999
  C           7.51690092802867     -1.59837944588038      0.14105318944420
  O           6.09752977275163     -1.63293343194718      0.39137559394239
  C           5.69824159752808     -2.81366820122896      0.91345184668310
  C           4.49346612331548     -3.00000600227652      1.57993924354125
  S           4.40106100729576     -4.64465322564342      2.19274251092381
  C           5.95943916270459     -5.04189411156104      1.55160015955664
  C           6.51286370129079     -3.97756033681774      0.89148162736476
  O           7.73359182223511     -4.01146337987429      0.28787107816200
  H           9.04280210998332     -6.27594986228401      2.15736724562236
  H           9.04590058722644     -5.75801987098753      3.85825353355346
  H          10.49131951537174     -6.51611522505460      3.15044433972373
  H           9.30106378247278     -3.78957199667749      2.33277210268022
  H          10.51227568726318     -1.66515236280618      4.04434542106191
  H          10.39582701192666     -5.18446756054057      0.50843035559514
  H          11.90437446238566     -5.13365207216192      1.42004897538517
  H          11.97659546042756     -2.64204679511280      1.19901917563270
  H          11.91360311578414     -3.44731418925203     -0.37719073943761
  H           9.74469471068694     -3.84653889789882     -1.23475736177945
  H           9.63207854216957     -2.13502543054717     -1.70351323416448
  H           7.40297088378156     -2.99550613315310     -1.49407528694620
  H           8.05656000973694     -1.48083457222116      1.08868717085969
  H           7.68871275236308     -0.72250010183349     -0.48949255772206
  H           6.36984068026487     -6.03571099510618      1.66125601031439
