Nd O 
 1.0000000000000000
     3.8471621900000001   -0.0000000000000000    0.0000000000000000
    -1.9235811000000000    3.3317405000000000    0.0000000000000000
     0.0000000000000000    0.0000000000000000    6.0204154299999999
 Nd  O  
   2   3
Direct
  0.6666670000000001  0.3333330000000000  0.7521399400000000
  0.3333330000000000  0.6666670000000000  0.2478600600000000
  0.6666670000000001  0.3333330000000000  0.3548371599999999
  0.3333330000000000  0.6666670000000000  0.6451628400000000
  0.0000000000000000  0.0000000000000000  0.0000000000000000
