Li Cl
 1.0000000000000000
     5.0842446800000003    0.0000000000000000    0.0000000000000003
    -0.0000000000000003    5.0842446800000003    0.0000000000000003
     0.0000000000000000    0.0000000000000000    5.0842446800000003
 Li  Cl 
   4   4
Direct
  0.0000000000000000  0.0000000000000000  0.0000000000000000
  0.0000000000000000  0.5000000000000000  0.5000000000000000
  0.5000000000000000  0.0000000000000000  0.5000000000000000
  0.5000000000000000  0.5000000000000000  0.0000000000000000
  0.5000000000000000  0.0000000000000000  0.0000000000000000
  0.5000000000000000  0.5000000000000000  0.5000000000000000
  0.0000000000000000  0.0000000000000000  0.5000000000000000
  0.0000000000000000  0.5000000000000000  0.0000000000000000
