20
Lattice="4.985262761755894 -2.6594745695436836e-17 0.0 2.492631380877947 4.317364196221174 0.0 0.0 0.0 24.050226209668736" Properties=species:S:1:pos:R:3:tags:I:1 pbc="T T F"
Ag       1.66392878       2.87447640       2.85007540        3
Ag       4.15656016       4.31359780       2.85007540        3
Ag       0.84623761       1.44288779       5.20015081        2
Ag       2.49487530       1.45054077       0.50000000        4
Ag       4.15656016       1.43535500       2.85007540        3
Ag       3.33886899       2.88200919       5.20015081        2
Ag       2.49487530       1.45054077       7.55022621        1
Ag       4.98750668       2.88966217       0.50000000        4
Ag       4.98750668       2.88966217       7.55022621        1
Ag       3.33886899       0.00376640       5.20015081        2
Ag       4.98750668       0.01141937       0.50000000        4
Ag       4.98750668       0.01141937       7.55022621        1
C        3.32575243       3.84907643      10.85022621        0
C        4.57206812       4.56863713      10.85022621        0
C        4.57206812       6.00775853      10.85022621        0
C        5.81838381       6.72731923      10.85022621        0
C        5.81838381       3.84907643      10.85022621        0
C        7.06469950       4.56863713      10.85022621        0
C        7.06469950       6.00775853      10.85022621        0
C        8.31101519       6.72731923      10.85022621        0
