176
Lattice="10.055095635733188 0.0 0.0 0.0 20.110191271466377 0.0 0.0 0.0 29.5659225" Properties=species:S:1:pos:R:3:parent:I:1:image:I:1 charge=0 spin=0 pbc="T T F"
P        5.10245859       5.02755577       2.08699683        0        0
P        0.07491066      10.05509330       2.08699189        1        0
P        0.06053746       5.20712201       6.92715881        2        0
P        5.07211819       0.22707338       6.97824385        3        0
S        6.13044979       6.26995588       3.33005452        4        0
S        1.10287556       1.24239041       3.33008129        5        0
S        3.87221860       3.81671386       3.29808322        8        0
S        8.89977045       8.84422108       3.29805184        9        0
S        3.87221051       6.23840792       0.87592768       12        0
S        8.89975407       1.21084508       0.87592196       13        0
S        8.91385248       6.38100692       5.75178180       14        0
S        3.82931779       1.28466102       5.73464164       15        0
S        6.13043166       3.78515290       0.84392546       16        0
S        1.10291017       8.81272599       0.84390936       17        0
S        1.31542248       3.89290450       5.98143280       18        0
S        6.35673652       9.06484762       6.05466706       19        0
Li       7.83266988       4.76766618       4.30451935       22        0
Li       2.80514447       9.79522492       4.30451618       23        0
Li       2.80296634       7.83557691       2.34605009       26        0
Li       7.83053734       2.80803801       2.34603971       27        0
Li       7.94789454       2.20784311       6.79896198       28        0
Li       2.99091311       7.41377846       6.74174165       29        0
Li       2.80291731       2.21958185       1.82797298       30        0
Li       7.83055475       7.24704257       1.82792688       31        0
Li       3.00282546       5.41701871       4.81435905       32        0
Li       7.99847106       0.35546925       4.83183303       33        0
Li       0.21201702       3.44269391       0.50000000       36        0
Li       5.23959789       8.47020613       0.50007255       37        0
Li       5.27088914       3.37634161       5.64644593       38        0
Li       0.21773604       8.50073643       5.50126626       39        0
Li       0.21205419       6.61236488       3.67397817       40        0
Li       5.23956910       1.58492956       3.67390252       41        0
Cl       9.69513143      10.52142016       6.69849442       44        0
Cl       4.31630513       0.00001107       2.08699183       46        0
Cl       9.34385261       5.02753829       2.08698493       47        0
S        7.22017624       2.51376516       4.60075977       50        0
S        2.19169111       7.59559576       4.58354381       51        0
S        1.23742972       6.43834818       8.13410790        6        1
S        5.95975544       1.73002946       8.11178665        7        1
S        8.84534942       4.03909365       8.09927875       10        1
S        3.82589622       9.20200492       8.14172535       11        1
Li       7.96857802       9.59036312       7.95853842       24        1
Li       2.91453229       4.44039508       7.85877513       25        1
Li       5.81130370       7.32291352       7.79541037       42        1
Li       0.72784331       2.20295557       7.76733427       43        1
Cl       4.63884142       5.49755938       6.69214422       45        1
P        5.10245859      15.08265141       2.08699683        0        0
P        0.07491066      20.11018893       2.08699189        1        0
P        0.03156363      15.41315153       6.94169810        2        0
P        5.06100191      10.37214379       6.95457015        3        0
S        6.13044979      16.32505152       3.33005452        4        0
S        1.10287556      11.29748605       3.33008129        5        0
S        3.87221860      13.87180950       3.29808322        8        0
S        8.89977045      18.89931672       3.29805184        9        0
S        3.87221051      16.29350356       0.87592768       12        0
S        8.89975407      11.26594072       0.87592196       13        0
S        8.75279191      16.51809966       5.81528749       14        0
S        3.83210093      11.52138037       5.76651999       15        0
S        6.13043166      13.84024854       0.84392546       16        0
S        1.10291017      18.86782163       0.84390936       17        0
S        1.21707088      14.18059835       5.85145808       18        0
S        6.38977828      19.04635979       6.08913409       19        0
Li       7.83266988      14.82276182       4.30451935       22        0
Li       2.80514447      19.85032056       4.30451618       23        0
Li       2.80296634      17.89067255       2.34605009       26        0
Li       7.83053734      12.86313365       2.34603971       27        0
Li       8.06632385      12.46634671       6.72773710       28        0
Li       2.91428380      17.35558904       6.74653777       29        0
Li       2.80291731      12.27467749       1.82797298       30        0
Li       7.83055475      17.30213821       1.82792688       31        0
Li       2.98094969      15.48318402       4.79863432       32        0
Li       8.05881134      10.44186782       4.82712500       33        0
Li       0.21201702      13.49778955       0.50000000       36        0
Li       5.23959789      18.52530177       0.50007255       37        0
Li       5.28906992      13.65330079       5.29299481       38        0
Li       0.26614958      18.63603496       5.39741974       39        0
Li       0.21205419      16.66746052       3.67397817       40        0
Li       5.23956910      11.64002520       3.67390252       41        0
Cl       9.62641269      20.45467135       6.76119343       44        0
Cl       4.31630513      10.05510671       2.08699183       46        0
Cl       9.34385261      15.08263393       2.08698493       47        0
S        7.22017624      12.56886080       4.60075977       50        0
S        2.19765615      17.63998141       4.56121542       51        0
S        0.97020597      16.90948015       8.07295033        6        1
S        6.14980000      11.76111692       8.08908539        7        1
S        9.06035720      14.06214720       8.18794581       10        1
S        3.88783699      19.03858702       8.13486983       11        1
Li       8.50525418      18.55590438       7.72491555       24        1
Li       4.14793840      13.44160357       7.98226738       25        1
Li       5.76028889      17.25130518       7.71464608       42        1
Li       0.94587241      12.41072313       7.60338866       43        1
Cl       4.60172626      15.39621084       6.72057207       45        1
Ag       5.00339002       6.59283162      16.36353253        0        0
Ag       5.04735677       9.44422208      16.40466294        0        0
Ag       4.98249560      12.37412224      16.36867264        0        0
Ag       5.00161914      15.24196334      16.24942650        0        0
Ag       5.04711236      18.09382208      16.27467640        0        0
Ag       4.99728294      21.01228308      16.37220642        0        0
Ag       4.97486798      23.88488949      16.26463354        0        0
Ag       7.47859641       5.19548256      16.20208885        0        0
Ag       7.50233562       8.04363551      16.24584247        0        0
Ag       7.54033508      10.93029297      16.32957570        0        0
Ag       7.47433660      13.85721123      16.35348969        0        0
Ag       7.49963795      16.71859828      16.18794581        0        0
Ag       7.53944306      19.52910248      16.26422493        0        0
Ag       7.53363659      22.38866552      16.36840739        0        0
Ag       9.98885205       6.66398491      16.34320930        0        0
Ag      10.00645029       9.50774328      16.26736677        0        0
Ag      10.05745210      12.33163382      16.30127121        0        0
Ag      10.04574900      15.23071917      16.37109079        0        0
Ag      10.00231100      18.12600077      16.25119549        0        0
Ag      10.03486535      20.96849683      16.27739545        0        0
Ag      10.07251090      23.81643437      16.32421848        0        0
Ag      12.55665107       5.19457936      16.37069970        0        0
Ag      12.52991099       8.06997223      16.44583707        0        0
Ag      12.53190208      10.93926168      16.19199747        0        0
Ag      12.55869493      13.74902284      16.23302348        0        0
Ag      12.57016366      16.61996837      16.24919677        0        0
Ag      12.50370544      19.59725470      16.24082778        0        0
Ag      12.53647931      22.46153428      16.20597626        0        0
Ag       5.89184525       5.16330824      18.64340421        0        0
Ag       5.86976851       8.05176892      18.70479457        0        0
Ag       5.87208920      10.92431085      18.68829540        0        0
Ag       5.87012219      13.80955726      18.66257970        0        0
Ag       5.87791398      16.67773451      18.59641438        0        0
Ag       5.87758484      19.54792170      18.63832389        0        0
Ag       5.86495468      22.42743562      18.67427134        0        0
Ag       8.37174976       6.60817565      18.62602139        0        0
Ag       8.36836258       9.48445329      18.63825850        0        0
Ag       8.39078643      12.37898292      18.64168115        0        0
Ag       8.38206386      15.26631079      18.65555344        0        0
Ag       8.40293771      18.10168365      18.61359028        0        0
Ag       8.38744860      20.97350417      18.65061603        0        0
Ag       8.38521997      23.86522508      18.63023287        0        0
Ag      10.88336041       5.18361208      18.67169364        0        0
Ag      10.86834984       8.05930164      18.69332571        0        0
Ag      10.91176786      10.91486088      18.62154575        0        0
Ag      10.90561753      13.79868131      18.65305884        0        0
Ag      10.90620889      16.67410944      18.62247078        0        0
Ag      10.91630008      19.53714626      18.59811863        0        0
Ag      10.90158306      22.42416839      18.62869725        0        0
Ag      13.41072223       6.62292873      18.72042737        0        0
Ag      13.41100295       9.51653272      18.69544636        0        0
Ag      13.41001846      12.34969442      18.64394314        0        0
Ag      13.40152566      15.22999174      18.59336547        0        0
Ag      13.41637372      18.10901016      18.56808515        0        0
Ag      13.40649326      20.98705318      18.62123741        0        0
Ag      13.41491136      23.84844317      18.64618253        0        0
Ag       4.22390391       5.17360589      21.01552944        0        0
Ag       4.21205661       8.05937404      21.06592250        0        0
Ag       4.21535285      10.93783531      21.06072993        0        0
Ag       4.20898361      13.80975930      20.97718404        0        0
Ag       4.22279397      16.67628375      20.94586799        0        0
Ag       4.21636952      19.53869567      20.98362752        0        0
Ag       4.20935954      22.41018563      21.01149475        0        0
Ag       6.72673175       6.61195452      21.00385534        0        0
Ag       6.73405656       9.49655053      21.04392215        0        0
Ag       6.73440986      12.37204124      21.01748274        0        0
Ag       6.72758218      15.24869494      20.99227406        0        0
Ag       6.74104051      18.10896413      20.96540296        0        0
Ag       6.73467439      20.97435424      21.01727005        0        0
Ag       6.73289360      23.84826916      21.01723295        0        0
Ag       9.23500075       5.17973182      21.02752234        0        0
Ag       9.22185315       8.05246660      21.01294360        0        0
Ag       9.24683355      10.92945334      20.97837470        0        0
Ag       9.24530586      13.80613958      21.01217847        0        0
Ag       9.25490673      16.67936312      21.01135528        0        0
Ag       9.25718774      19.54468568      20.96873027        0        0
Ag       9.24766039      22.41951449      20.99669861        0        0
Ag      11.74728819       6.61457507      21.04824870        0        0
Ag      11.74520093       9.49384822      21.02758560        0        0
Ag      11.75471297      12.36393851      20.98618137        0        0
Ag      11.76707213      15.24093185      20.99706574        0        0
Ag      11.77016046      18.11061569      20.96025796        0        0
Ag      11.75478258      20.98019642      20.96087325        0        0
Ag      11.76028420      23.85399994      21.00635565        0        0
