630
Lattice="10.055095635733188 0.0 0.0 0.0 30.165286907199565 0.0 0.0 0.0 45.386164" Properties=species:S:1:pos:R:3 source=db/raw/wad_sese_4L_2026_09_25/li_outer_relaxed_final_coords.txt source_sha256=7e0b1daea3467b1f25e72d9689ca41f76646907ed74cbad1ad628507f66fcce5 charge=0 spin=0 pbc="T T F"
P        4.93424100       2.06296700       1.74074200
P       -0.09333100       7.09049800       1.74071000
P       -0.05861700       2.33843100       6.89456800
P        4.96889700       7.36598800       6.89456200
S        6.38173700       3.19542700       2.78569800
S        1.35412000       8.22300600       2.78566700
S        3.83039100       1.04514300       3.23778100
S        8.85793400       6.07265700       3.23775200
S        3.84486600       3.45948300       0.75102400
S        8.87236800       8.48697800       0.75097000
S        8.62861300       3.38523600       5.71638800
S        3.60106300       8.41278800       5.71634600
S        5.60408800       0.60552800       0.50001100
S        0.57656300       5.63307200       0.50000000
S        1.03570200       1.05818900       5.72973400
S        6.06321400       6.08567100       5.72979100
Li       8.23494000       1.96179800       3.79093200
Li       3.20730400       6.98939200       3.79092400
Li       1.83837300       4.03990700       1.90374300
Li       6.86586600      -0.98772200       1.90370600
Li       7.75457500       9.72559000       6.55907100
Li       2.72689300       4.69817800       6.55912000
Li       3.65770800       9.31565900       1.47235200
Li       8.68530100       4.28804100       1.47233100
Li       2.72110000       2.53970500       4.76521300
Li       7.74854800       7.56717200       4.76513500
Li      -0.43616800      -0.15905500       2.66847300
Li       4.59146800       4.86851500       2.66852900
Li       5.74171100       1.76388000       4.74593000
Li       0.71410500       6.79142300       4.74589500
Li       0.13204700       4.11372600       4.04707500
Li       5.15955100       9.14132200       4.04705600
Cl       9.40184600       7.51199100       6.73780500
Cl       4.95905700       7.42875800       2.28647400
Cl       9.98661400       2.40119300       2.28648900
S        7.40517200       9.86201100       4.20074200
S        2.37761500       4.83450900       4.20077300
P        4.94067578       2.70099233      11.69573727
P       -0.08295297       7.73045577      11.69205932
P       -0.07306866       2.94771911      16.62170688
P        4.96123287       7.96753206      16.62246969
S        6.02776136       3.94026144      12.90481010
S        1.00576041       8.97338704      12.89558109
S        0.99185400       3.69462600       7.99757100
S        6.01939100       8.72221400       7.99750400
S        3.54485646       1.66070763      12.83185346
S        8.57968204       6.69062613      12.83234135
S        8.85032600       1.16298100       8.18404200
S        3.82273400       6.19059600       8.18406300
S        3.83250427       3.89497662      10.41338689
S        8.86034753       8.92296047      10.41138762
S        8.88339450       3.98532468      15.15933690
S        3.85880351       9.00972596      15.16584457
S        5.98805847       1.36005241      10.58737518
S        0.96427480       6.39108027      10.58207176
S        1.36104339       1.80583949      15.60103624
S        6.39304301       6.82869995      15.59521651
Li       2.71711700       2.28922400       9.03005800
Li       7.74449400       7.31678800       9.03015300
Li       7.75551143       2.46721226      13.72650157
Li       2.73053924       7.49903564      13.72349431
Li       8.12815900       5.29686000       7.13461800
Li       3.10049600       0.26926500       7.13458800
Li       2.72051706       5.39405140      11.94635687
Li       7.74837137       0.36386996      11.94890109
Li       6.87618541      11.05384129      16.51263900
Li       1.85025023       6.03146909      16.51006803
Li       3.05863675       9.77434311      11.50095332
Li       8.08671175       4.73923104      11.52087513
Li       3.20863896       3.06640694      14.73121763
Li       8.23836369       8.09455007      14.72970609
Li       7.75109603       2.74684385       9.60843808
Li       2.72212485       7.78041870       9.59948736
Li       0.29965952       0.84352115      10.33884462
Li       5.32986479       5.86942841      10.34565713
Li       5.16985214       0.93489717      14.40899390
Li       0.14714111       5.96447948      14.40957018
Li       0.77548571       3.27747941      13.67121207
Li       5.80257091       8.30622868      13.67099198
Li       5.34231600       4.22634500       8.23440600
Li       0.31469700       9.25359700       8.23472000
Cl       9.98613176       7.63557354      16.21989653
Cl       4.37430000       2.48446500       6.73783600
Cl       4.35043112       7.57793093      11.79671062
Cl       9.37696966       2.54443612      11.79987615
S        2.26672647      10.06311147       9.31636922
S        7.30188200       5.02751300       9.34307300
S        7.40993991      10.23955231      14.27356894
S        2.38398613       5.21372239      14.27156430
S        0.62516650       4.39274103      17.84794360
S        5.66487833       9.40584527      17.85377512
S        8.88486363       1.57177390      17.61790976
S        3.86625563       6.58904879      17.61745543
Li       8.69715311       5.72574811      16.91702607
Li       3.67076515       0.69090695      16.91893140
Li       4.60764223       5.17191989      15.66575337
Li      -0.42173405      10.20009572      15.67163285
Cl       4.95392670       2.60240535      16.22403061
P        4.93424100      12.11806264       1.74074200
P       -0.09333100      17.14559364       1.74071000
P       -0.05861700      12.39352664       6.89456800
P        4.96889700      17.42108364       6.89456200
S        6.38173700      13.25052264       2.78569800
S        1.35412000      18.27810164       2.78566700
S        3.83039100      11.10023864       3.23778100
S        8.85793400      16.12775264       3.23775200
S        3.84486600      13.51457864       0.75102400
S        8.87236800      18.54207364       0.75097000
S        8.62861300      13.44033164       5.71638800
S        3.60106300      18.46788364       5.71634600
S        5.60408800      10.66062364       0.50001100
S        0.57656300      15.68816764       0.50000000
S        1.03570200      11.11328464       5.72973400
S        6.06321400      16.14076664       5.72979100
Li       8.23494000      12.01689364       3.79093200
Li       3.20730400      17.04448764       3.79092400
Li       1.83837300      14.09500264       1.90374300
Li       6.86586600       9.06737364       1.90370600
Li       7.75457500      19.78068564       6.55907100
Li       2.72689300      14.75327364       6.55912000
Li       3.65770800      19.37075464       1.47235200
Li       8.68530100      14.34313664       1.47233100
Li       2.72110000      12.59480064       4.76521300
Li       7.74854800      17.62226764       4.76513500
Li      -0.43616800       9.89604064       2.66847300
Li       4.59146800      14.92361064       2.66852900
Li       5.74171100      11.81897564       4.74593000
Li       0.71410500      16.84651864       4.74589500
Li       0.13204700      14.16882164       4.04707500
Li       5.15955100      19.19641764       4.04705600
Cl       9.40184600      17.56708664       6.73780500
Cl       4.95905700      17.48385364       2.28647400
Cl       9.98661400      12.45628864       2.28648900
S        7.40517200      19.91710664       4.20074200
S        2.37761500      14.88960464       4.20077300
P        4.94174334      12.75553556      11.69598262
P       -0.08504397      17.78531508      11.69348889
P       -0.06989175      12.99719506      16.62135835
P        4.95066054      18.02835199      16.62317540
S        6.02859356      13.99471895      12.90520532
S        1.00360404      19.02806589      12.89697393
S        0.99185400      13.74972164       7.99757100
S        6.01939100      18.77730964       7.99750400
S        3.54667155      11.71491868      12.83251704
S        8.57717186      16.74568737      12.83380107
S        8.85032600      11.21807664       8.18404200
S        3.82273400      16.24569164       8.18406300
S        3.83296381      13.94942317      10.41385189
S        8.85917076      18.97770369      10.41190406
S        8.88281493      14.03871346      15.16387593
S        3.85086394      19.06659423      15.16183133
S        5.98900077      11.41493679      10.58702416
S        0.96248516      16.44555035      10.58402736
S        1.36212261      11.85759733      15.59704752
S        6.38598678      16.88869595      15.60183467
Li       2.71711700      12.34431964       9.03005800
Li       7.74449400      17.37188364       9.03015300
Li       7.75719939      12.52253218      13.72671036
Li       2.72783018      17.55221382      13.72157799
Li       8.12815900      15.35195564       7.13461800
Li       3.10049600      10.32436064       7.13458800
Li       2.71958994      15.44717860      11.94682079
Li       7.74938146      10.41901198      11.94854075
Li       6.86927555      21.11145322      16.51279713
Li       1.84656077      16.08402723      16.51015511
Li       3.05754636      19.82869301      11.50145166
Li       8.08660455      14.79454375      11.52099858
Li       3.21019405      13.12070111      14.73207400
Li       8.23395201      18.14777077      14.73337576
Li       7.75140371      12.80215912       9.60823503
Li       2.72083900      17.83463145       9.60018280
Li       0.30027061      10.89886942      10.33916577
Li       5.32958295      15.92455191      10.34542238
Li       5.17258210      10.99187984      14.41014382
Li       0.14468310      16.01835043      14.41005845
Li       0.77521912      13.33220744      13.67214302
Li       5.79807187      18.36086542      13.67362379
Li       5.34231600      14.28144064       8.23440600
Li       0.31469700      19.30869264       8.23472000
Cl       9.98288441      17.68652575      16.22372217
Cl       4.37430000      12.53956064       6.73783600
Cl       4.34886587      17.63205684      11.79647604
Cl       9.37773358      12.60026039      11.80036176
S        2.26634024      20.11779535       9.31660823
S        7.30188200      15.08260864       9.34307300
S        7.40676673      20.29372126      14.27507440
S        2.38242641      15.26757773      14.27233358
S        0.63444574      14.43694599      17.85057095
S        5.64789902      19.47126807      17.85286780
S        8.88977154      11.62068844      17.61873515
S        3.85601054      16.65101783      17.62021467
Li       8.70763702      15.77250552      16.92697607
Li       3.68170776      10.74267328      16.92818292
Li       4.60305636      15.23048535      15.67285646
Li      -0.42650419      20.25461443      15.67509073
Cl       4.95576598      12.65646950      16.22643693
P        4.93424100      22.17315827       1.74074200
P       -0.09333100      27.20068927       1.74071000
P       -0.05861700      22.44862227       6.89456800
P        4.96889700      27.47617927       6.89456200
S        6.38173700      23.30561827       2.78569800
S        1.35412000      28.33319727       2.78566700
S        3.83039100      21.15533427       3.23778100
S        8.85793400      26.18284827       3.23775200
S        3.84486600      23.56967427       0.75102400
S        8.87236800      28.59716927       0.75097000
S        8.62861300      23.49542727       5.71638800
S        3.60106300      28.52297927       5.71634600
S        5.60408800      20.71571927       0.50001100
S        0.57656300      25.74326327       0.50000000
S        1.03570200      21.16838027       5.72973400
S        6.06321400      26.19586227       5.72979100
Li       8.23494000      22.07198927       3.79093200
Li       3.20730400      27.09958327       3.79092400
Li       1.83837300      24.15009827       1.90374300
Li       6.86586600      19.12246927       1.90370600
Li       7.75457500      29.83578127       6.55907100
Li       2.72689300      24.80836927       6.55912000
Li       3.65770800      29.42585027       1.47235200
Li       8.68530100      24.39823227       1.47233100
Li       2.72110000      22.64989627       4.76521300
Li       7.74854800      27.67736327       4.76513500
Li      -0.43616800      19.95113627       2.66847300
Li       4.59146800      24.97870627       2.66852900
Li       5.74171100      21.87407127       4.74593000
Li       0.71410500      26.90161427       4.74589500
Li       0.13204700      24.22391727       4.04707500
Li       5.15955100      29.25151327       4.04705600
Cl       9.40184600      27.62218227       6.73780500
Cl       4.95905700      27.53894927       2.28647400
Cl       9.98661400      22.51138427       2.28648900
S        7.40517200      29.97220227       4.20074200
S        2.37761500      24.94470027       4.20077300
P        4.93979076      22.81084240      11.69598272
P       -0.08562995      27.84057693      11.69263530
P       -0.07881042      23.05232258      16.62501800
P        4.95167547      28.07823276      16.61939642
S        6.02666013      24.05032504      12.90483142
S        1.00316871      29.08291332      12.89648481
S        0.99185400      23.80481727       7.99757100
S        6.01939100      28.83240527       7.99750400
S        3.54381799      21.77049052      12.83183093
S        8.57611166      26.80094371      12.83239391
S        8.85032600      21.27317227       8.18404200
S        3.82273400      26.30078727       8.18406300
S        3.83219585      24.00462253      10.41294210
S        8.85873317      29.03341142      10.41147114
S        8.87795031      24.09085498      15.16247615
S        3.85147789      29.11835827      15.15987348
S        5.98757690      21.46967480      10.58814939
S        0.96166265      26.50113351      10.58265278
S        1.35726248      21.91284057      15.60416860
S        6.38664205      26.94021982      15.59561690
Li       2.71711700      22.39941527       9.03005800
Li       7.74449400      27.42697927       9.03015300
Li       7.75347506      22.57574920      13.72506858
Li       2.72544865      27.60483858      13.72143845
Li       8.12815900      25.40705127       7.13461800
Li       3.10049600      20.37945627       7.13458800
Li       2.71549173      25.49915839      11.94617741
Li       7.74709968      20.47168056      11.94969245
Li       6.87158281      31.16553670      16.51207084
Li       1.84257655      26.13373103      16.51233816
Li       3.05672693      29.88393620      11.50192428
Li       8.08632957      24.84901132      11.52082880
Li       3.20418718      23.17399465      14.73230120
Li       8.23439696      28.20393704      14.73136135
Li       7.75017968      22.85667959       9.60834031
Li       2.72172795      27.88982108       9.60091716
Li       0.29959415      20.95348673      10.33945685
Li       5.32939352      25.97906833      10.34608836
Li       5.16896339      21.04657551      14.40959217
Li       0.14153285      26.07153670      14.40952293
Li       0.77075349      23.38444909      13.67466657
Li       5.79912461      28.41511566      13.66956959
Li       5.34231600      24.33653627       8.23440600
Li       0.31469700      29.36378827       8.23472000
Cl       9.98190881      27.74085423      16.22054804
Cl       4.37430000      22.59465627       6.73783600
Cl       4.34741205      27.68636047      11.79564949
Cl       9.37616216      22.65420140      11.80076570
S        2.26646132      30.17296820       9.31665483
S        7.30188200      25.13770427       9.34307300
S        7.40776473      30.34956864      14.27394537
S        2.37799463      25.32013228      14.27178767
S        0.61713589      24.49478803      17.85523427
S        5.65042747      29.51998324      17.84858835
S        8.88124143      21.67480671      17.62150208
S        3.85793737      26.69880773      17.61469895
Li       8.69606103      25.83084743      16.91829402
Li       3.66867978      20.80384134      16.92272682
Li       4.60351675      25.28086161      15.66544127
Li      -0.42470893      30.31386749      15.67087258
Cl       4.95150727      22.71480025      16.22340930
C        6.17044272       3.25689082      21.13046966
C        7.42765404       3.97267905      21.13338654
C        7.42644899       5.41151954      21.12691964
C        6.16916875       6.12863541      21.13002141
C        6.16897651       7.56647787      21.13728233
C        7.42572280       8.28307268      21.13177532
C        7.42683994       9.72110355      21.13916848
C        6.16944500      10.43726857      21.14362967
C        6.17022506      11.87564586      21.13567153
C        7.42721208      12.59166627      21.13972600
C        7.42739787      14.02995039      21.13462201
C        6.17035663      14.74686284      21.13062106
C        6.16965032      16.18543100      21.13647915
C        7.42713648      16.90176670      21.13202825
C        7.42733846      18.34034317      21.13897202
C        6.17083003      19.05591306      21.14947706
C        6.17200775      20.49407997      21.14106019
C        7.42849038      21.21088860      21.13534458
C        7.42923688      22.64917714      21.12979814
C        6.17199198      23.36538912      21.12405636
C        6.17079347      24.80380606      21.12643507
C        7.42856690      25.51970549      21.12836229
C        7.42746362      26.95902423      21.13548669
C        6.17034748      27.67539341      21.14967678
C        6.17148433      29.11287453      21.16051893
C        7.42751490      29.82931013      21.15112676
C        7.42836807      31.26774482      21.14840830
C        6.17116004      31.98385500      21.13954338
C        8.68507355       3.25659003      21.14930283
C        9.94053472       3.97277856      21.15376821
C        9.94090692       5.41084180      21.14137269
C        8.68405239       6.12801284      21.12816632
C        8.68293128       7.56690502      21.12465526
C        9.94062716       8.28343925      21.12335709
C        9.94006134       9.72138023      21.12875432
C        8.68323329      10.43771678      21.13876435
C        8.68402581      11.87580162      21.14741008
C        9.93986237      12.59247940      21.15061823
C        9.94112480      14.02933378      21.15556353
C        8.68486206      14.74579397      21.14097248
C        8.68439201      16.18470330      21.13077641
C        9.94160906      16.90154671      21.13072729
C        9.94138195      18.33973407      21.12571837
C        8.68464517      19.05674250      21.13031514
C        8.68562116      20.49475993      21.13431531
C        9.94179138      21.21164215      21.13398241
C        9.94270076      22.64920661      21.14098566
C        8.68571715      23.36531070      21.13488509
C        8.68583864      24.80295480      21.13447021
C        9.94257407      25.52010509      21.14337466
C        9.94211089      26.95821811      21.13503424
C        8.68491722      27.67529381      21.13349613
C        8.68463530      29.11364802      21.13944626
C        9.94147531      29.83018896      21.13786227
C        9.94097419      31.26787627      21.14845217
C        8.68436899      31.98412625      21.15145728
C       11.19768198       3.25667409      21.15149035
C       12.45400444       3.97316500      21.14130458
C       12.45505295       5.41140282      21.13978610
C       11.19755320       6.12773894      21.13531157
C       11.19759541       7.56624381      21.12636931
C       12.45463199       8.28225420      21.13145190
C       12.45404175       9.72079178      21.12767766
C       11.19692594      10.43789106      21.12759122
C       11.19649521      11.87634088      21.13777487
C       12.45363102      12.59278322      21.13483396
C       12.45449266      14.03090180      21.14537567
C       11.19759211      14.74656947      21.15445558
C       11.19863374      16.18467444      21.14246706
C       12.45550556      16.90117642      21.14091690
C       12.45615068      18.33931026      21.13177662
C       11.19894425      19.05594071      21.12499129
C       11.19790003      20.49439359      21.12655321
C       12.45565828      21.21067634      21.12376073
C       12.45508055      22.64975864      21.13088920
C       11.19837880      23.36554099      21.14470345
C       11.19973252      24.80370490      21.14954476
C       12.45579761      25.52033317      21.14255266
C       12.45655072      26.95877034      21.14199694
C       11.19945865      27.67484143      21.13547910
C       11.19838088      29.11312410      21.13402362
C       12.45591763      29.82875823      21.13747677
C       12.45460144      31.26791753      21.13651043
C       11.19726699      31.98470260      21.14496872
C       13.71110540       3.25747969      21.13299202
C       14.96845924       3.97396785      21.12913968
C       14.96773170       5.41169287      21.13470782
C       13.71104393       6.12805445      21.14091593
C       13.71186512       7.56625714      21.14329864
C       14.96711870       8.28250866      21.14716848
C       14.96804725       9.72021415      21.14705131
C       13.71175872      10.43708213      21.13395922
C       13.71087973      11.87617222      21.12917452
C       14.96845305      12.59270908      21.12939921
C       14.96819156      14.03075785      21.13098918
C       13.71141444      14.74728765      21.13986412
C       13.71229995      16.18524191      21.14623676
C       14.96850184      16.90224120      21.14614759
C       14.96978008      18.33903941      21.14905628
C       13.71308950      19.05519618      21.13549599
C       13.71291264      20.49355149      21.12616942
C       14.96991509      21.21066997      21.12931662
C       14.96948662      22.64899938      21.12289332
C       13.71258476      23.36611920      21.12560772
C       13.71310355      24.80435646      21.13299248
C       14.96941162      25.52102015      21.13376564
C       14.96958235      26.95891565      21.14716523
C       13.71273783      27.67506951      21.14803235
C       13.71323783      29.11239630      21.14975628
C       14.96937997      29.82912166      21.15857041
C       14.96928113      31.26702733      21.14372572
C       13.71200545      31.98418127      21.13439498
C        7.42856441       3.96706323      24.73224951
C        6.17164567       4.68354971      24.73158088
C        6.17160078       6.12180491      24.73128528
C        7.42851791       6.83823260      24.73098455
C        7.42849291       8.27646792      24.73128752
C        6.17159655       8.99286452      24.73185615
C        6.17164445      10.43106430      24.73197280
C        7.42851576      11.14750472      24.73217969
C        7.42855082      12.58573067      24.73227119
C        6.17165862      13.30215597      24.73180229
C        6.17160260      14.74042536      24.73173354
C        7.42853077      15.45684819      24.73171816
C        7.42846575      16.89511494      24.73148864
C        6.17157864      17.61157276      24.73187062
C        6.17161873      19.04975244      24.73165885
C        7.42846750      19.76618154      24.73116689
C        7.42853258      21.20439316      24.73097484
C        6.17165682      21.92079433      24.73044894
C        6.17163762      23.35904448      24.73033140
C        7.42854980      24.07544891      24.73088707
C        7.42850640      25.51372026      24.73141951
C        6.17159881      26.23020543      24.73219915
C        6.17159502      27.66843933      24.73352160
C        7.42847513      28.38486018      24.73360818
C        7.42849971      29.82307730      24.73432790
C        6.17161945      30.53944580      24.73430968
C        6.17165765      31.97767586      24.73359152
C        7.42856072      32.69409869      24.73347928
C        9.94232372       3.96707533      24.73317075
C        8.68546627       4.68347393      24.73208753
C        8.68541929       6.12174370      24.73100768
C        9.94233206       6.83818037      24.73088151
C        9.94227733       8.27643161      24.73052911
C        8.68539017       8.99291713      24.73102465
C        8.68539319      10.43113476      24.73180874
C        9.94225235      11.14757249      24.73191315
C        9.94228373      12.58577495      24.73270815
C        8.68542369      13.30213662      24.73257787
C        8.68543508      14.74037399      24.73220979
C        9.94231865      15.45680724      24.73228455
C        9.94229168      16.89504268      24.73141839
C        8.68540215      17.61154700      24.73106904
C        8.68536270      19.04978119      24.73080931
C        9.94227475      19.76622461      24.73036158
C        9.94227286      21.20444862      24.73068846
C        8.68539588      21.92082344      24.73109274
C        8.68544667      23.35903034      24.73129982
C        9.94230030      24.07547477      24.73175047
C        9.94231021      25.51367806      24.73206455
C        8.68543699      26.23013735      24.73193772
C        8.68536664      27.66840397      24.73270947
C        9.94230065      28.38484411      24.73292432
C        9.94225589      29.82310345      24.73350645
C        8.68537830      30.53953732      24.73414357
C        8.68542820      31.97773739      24.73417184
C        9.94226568      32.69418486      24.73384820
C       12.45605058       3.96714230      24.73286267
C       11.19915907       4.68350325      24.73274814
C       11.19921243       6.12172282      24.73176139
C       12.45609751       6.83815993      24.73167341
C       12.45611523       8.27638513      24.73107468
C       11.19920478       8.99286175      24.73064588
C       11.19914663      10.43110955      24.73110428
C       12.45607039      11.14753089      24.73132371
C       12.45601973      12.58581106      24.73206228
C       11.19912154      13.30221631      24.73281642
C       11.19917526      14.74041247      24.73294325
C       12.45602404      15.45685077      24.73269953
C       12.45608970      16.89505665      24.73218843
C       11.19920204      17.61148139      24.73128502
C       11.19917548      19.04973669      24.73038438
C       12.45609255      19.76614542      24.73033315
C       12.45603637      21.20442213      24.73001096
C       11.19914036      21.92089272      24.73060469
C       11.19916366      23.35908808      24.73141770
C       12.45601650      24.07552432      24.73141948
C       12.45606365      25.51372700      24.73242645
C       11.19918572      26.23011819      24.73255393
C       11.19919372      27.66835503      24.73291163
C       12.45609765      28.38476724      24.73345298
C       12.45608719      29.82302717      24.73339019
C       11.19916287      30.53952568      24.73340865
C       11.19914334      31.97777503      24.73357080
C       12.45604334      32.69419794      24.73312055
C       14.96981831       3.96713149      24.73199247
C       13.71293280       4.68358727      24.73218953
C       13.71296869       6.12179780      24.73200923
C       14.96981285       6.83824064      24.73174387
C       14.96985530       8.27641312      24.73183602
C       13.71299955       8.99281030      24.73136634
C       13.71297543      10.43105384      24.73118979
C       14.96987438      11.14748232      24.73152702
C       14.96982572      12.58574547      24.73158205
C       13.71293365      13.30222562      24.73192251
C       13.71291267      14.74047079      24.73237713
C       14.96980566      15.45691117      24.73207327
C       14.96981307      16.89511655      24.73221615
C       13.71295634      17.61148403      24.73204614
C       13.71299343      19.04969679      24.73119135
C       14.96986784      19.76612648      24.73112222
C       14.96984840      21.20436158      24.73030549
C       13.71297456      21.92083779      24.72997609
C       13.71291254      23.35908650      24.73044936
C       14.96984015      24.07553747      24.73059337
C       14.96980897      25.51377544      24.73186555
C       13.71292973      26.23017661      24.73285674
C       13.71298235      27.66838197      24.73377468
C       14.96982195      28.38482917      24.73416342
C       14.96986428      29.82301876      24.73430395
C       13.71300037      30.53944409      24.73358073
C       13.71294365      31.97771835      24.73301660
C       14.96986758      32.69415656      24.73274064
C        6.17156295       3.25662552      28.35596977
C        7.42846303       3.97303941      28.35606426
C        7.42844998       5.41128580      28.35567162
C        6.17157644       6.12770263      28.35578857
C        6.17156143       7.56595105      28.35551886
C        7.42846090       8.28236544      28.35569144
C        7.42844849       9.72061204      28.35555092
C        6.17157315      10.43702887      28.35578749
C        6.17156453      11.87527728      28.35568922
C        7.42845805      12.59168579      28.35592420
C        7.42845329      14.02994976      28.35576330
C        6.17157174      14.74633883      28.35594064
C        6.17156658      16.18461653      28.35568269
C        7.42846050      16.90101433      28.35581310
C        7.42844745      18.33925851      28.35549124
C        6.17157227      19.05568903      28.35562661
C        6.17156136      20.49391635      28.35533816
C        7.42846326      21.21035627      28.35550533
C        7.42844752      22.64858405      28.35535095
C        6.17157344      23.36500959      28.35558821
C        6.17156467      24.80325646      28.35557757
C        7.42846082      25.51966677      28.35588659
C        7.42845204      26.95792243      28.35593468
C        6.17157162      27.67432428      28.35624943
C        6.17156722      29.11259156      28.35621354
C        7.42845599      29.82898740      28.35643324
C        7.42845363      31.26725284      28.35621888
C        6.17157332      31.98365456      28.35634730
C        8.68533953       3.25662258      28.35599308
C        9.94223406       3.97304109      28.35608589
C        9.94222616       5.41128297      28.35569629
C        8.68534718       6.12770276      28.35579063
C        8.68533688       7.56595133      28.35550330
C        9.94223318       8.28236307      28.35568674
C        9.94222548       9.72061660      28.35553195
C        8.68534519      10.43702605      28.35577894
C        8.68533907      11.87528052      28.35569822
C        9.94223428      12.59168471      28.35593038
C        9.94222405      14.02994932      28.35579054
C        8.68534702      14.74634139      28.35595804
C        8.68533493      16.18461223      28.35568504
C        9.94224067      16.90101940      28.35582237
C        9.94221885      18.33925569      28.35547397
C        8.68535235      19.05569256      28.35560416
C        8.68533077      20.49391475      28.35532480
C        9.94223597      21.21035772      28.35549401
C        9.94222100      22.64858822      28.35536005
C        8.68535211      23.36500410      28.35560604
C        8.68533793      24.80326043      28.35559523
C        9.94223446      25.51966310      28.35590714
C        9.94222334      26.95792480      28.35594165
C        8.68534575      27.67431964      28.35623105
C        8.68534022      29.11259548      28.35619022
C        9.94223427      29.82898751      28.35641141
C        9.94222288      31.26725094      28.35620310
C        8.68534735      31.98365831      28.35635527
C       11.19911248       3.25662439      28.35598929
C       12.45600876       3.97303728      28.35607237
C       12.45599880       5.41128358      28.35569928
C       11.19912006       6.12770376      28.35581067
C       11.19911193       7.56595080      28.35551392
C       12.45600777       8.28236314      28.35569906
C       12.45599708       9.72061636      28.35553720
C       11.19912103      10.43702649      28.35576779
C       11.19910941      11.87527758      28.35568421
C       12.45601073      12.59168591      28.35591479
C       12.45599582      14.02995041      28.35577658
C       11.19912408      14.74634301      28.35597160
C       11.19910767      16.18460860      28.35570379
C       12.45600749      16.90101623      28.35583539
C       12.45600090      18.33925875      28.35549133
C       11.19912243      19.05569448      28.35559833
C       11.19911103      20.49391525      28.35530426
C       12.45600368      21.21035514      28.35548010
C       12.45600032      22.64858598      28.35533833
C       11.19911927      23.36500502      28.35560443
C       11.19910832      24.80325778      28.35560966
C       12.45600689      25.51966708      28.35591275
C       12.45599477      26.95792716      28.35595864
C       11.19912619      27.67432171      28.35624206
C       11.19910822      29.11259197      28.35618190
C       12.45601488      29.82898900      28.35640910
C       12.45599532      31.26725194      28.35618527
C       11.19912473      31.98365881      28.35633592
C       13.71288256       3.25662668      28.35596669
C       14.96978497       3.97303737      28.35605628
C       14.96976911       5.41128652      28.35567911
C       13.71289522       6.12770317      28.35580953
C       13.71288724       7.56595045      28.35553147
C       14.96978252       8.28236722      28.35570956
C       14.96977136       9.72061143      28.35555998
C       13.71289675      10.43702903      28.35577626
C       13.71288198      11.87527580      28.35567709
C       14.96978396      12.59168875      28.35591347
C       14.96977348      14.02994859      28.35575468
C       13.71289325      14.74634156      28.35595402
C       13.71288822      16.18461205      28.35570210
C       14.96977757      16.90101420      28.35583178
C       14.96977542      18.33925834      28.35551121
C       13.71289210      19.05569396      28.35561831
C       13.71289048      20.49391344      28.35531828
C       14.96978020      21.21035276      28.35549632
C       14.96977376      22.64858209      28.35533298
C       13.71288969      23.36501299      28.35558755
C       13.71288500      24.80325056      28.35559337
C       14.96977881      25.51966898      28.35589561
C       14.96977254      26.95792474      28.35595691
C       13.71289776      27.67432232      28.35625794
C       13.71288343      29.11259112      28.35620736
C       14.96978388      29.82898781      28.35643614
C       14.96977362      31.26725551      28.35620802
C       13.71289934      31.98365495      28.35632796
