
     Program PWSCF v.7.4.1 starts on  5Oct2026 at  5:28:52 

     This program is part of the open-source Quantum ESPRESSO suite
     for quantum simulation of materials; please cite
         "P. Giannozzi et al., J. Phys.:Condens. Matter 21 395502 (2009);
         "P. Giannozzi et al., J. Phys.:Condens. Matter 29 465901 (2017);
         "P. Giannozzi et al., J. Chem. Phys. 152 154105 (2020);
          URL http://www.quantum-espresso.org", 
     in publications or presentations arising from this work. More details at
     http://www.quantum-espresso.org/quote

     Parallel version (MPI & OpenMP), running on       1 processor cores
     Number of MPI processes:                 1
     Threads/MPI process:                     1

     MPI processes distributed on     1 nodes
     9419 MiB available memory on the printing compute node when the environment starts
 
     Reading input from pw.in

     Current dimensions of program PWSCF are:
     Max number of different atomic species (ntypx) = 10
     Max number of k-points (npk) =  40000
     Max angular momentum in pseudopotentials (lmaxx) =  4
     Presently no symmetry can be used with electric field

     file C.pbe-n-kjpaw_psl.1.0.0.UPF: wavefunction(s)  2S 2P renormalized
 
     Subspace diagonalization in iterative solution of the eigenvalue problem:
     a serial algorithm will be used

 
     G-vector sticks info
     --------------------
     sticks:   dense  smooth     PW     G-vecs:    dense   smooth      PW
     Sum        3193    1273    367              1013735   256635   40105
 
     Using Slab Decomposition
 


     bravais-lattice index     =            0
     lattice parameter (alat)  =       9.4208  a.u.
     unit-cell volume          =    5061.5831 (a.u.)^3
     number of atoms/cell      =           36
     number of atomic types    =            2
     number of electrons       =       324.00
     number of Kohn-Sham states=          194
     kinetic-energy cutoff     =      52.0000  Ry
     charge density cutoff     =     520.0000  Ry
     scf convergence threshold =      1.0E-08
     mixing beta               =       0.3000
     number of iterations used =            8  local-TF  mixing
     Exchange-correlation= SLA  PW   PBX  PBC
                           (   1   4   3   4   0   0   0)

     GPU acceleration is ACTIVE.  1 visible GPUs per MPI rank


     celldm(1)=   9.420781  celldm(2)=   0.000000  celldm(3)=   0.000000
     celldm(4)=   0.000000  celldm(5)=   0.000000  celldm(6)=   0.000000

     crystal axes: (cart. coord. in units of alat)
               a(1) = (   1.000000  -0.000000   0.000000 )  
               a(2) = (   0.500000   0.866025   0.000000 )  
               a(3) = (   0.000000   0.000000   6.990287 )  

     reciprocal axes: (cart. coord. in units 2 pi/alat)
               b(1) = (  1.000000 -0.577350  0.000000 )  
               b(2) = (  0.000000  1.154701 -0.000000 )  
               b(3) = ( -0.000000  0.000000  0.143056 )  


     PseudoPot. # 1 for Ag read from file:
     /home/kgy/work/pseudo/Ag_ONCV_PBE-1.0.oncvpsp.upf
     MD5 check sum: 94f47bd0669c641108e45594df92fabc
     Pseudo is Norm-conserving, Zval = 19.0
     Generated using ONCVPSP code by D. R. Hamann
     Using radial grid of 1398 points,  6 beta functions with: 
                l(1) =   0
                l(2) =   0
                l(3) =   1
                l(4) =   1
                l(5) =   2
                l(6) =   2

     PseudoPot. # 2 for C  read from file:
     /home/kgy/work/pseudo/C.pbe-n-kjpaw_psl.1.0.0.UPF
     MD5 check sum: 5d2aebdfa2cae82b50a7e79e9516da0f
     Pseudo is Projector augmented-wave + core cor, Zval =  4.0
     Generated using "atomic" code by A. Dal Corso  v.5.1
     Shape of augmentation charge: PSQ
     Using radial grid of 1073 points,  4 beta functions with: 
                l(1) =   0
                l(2) =   0
                l(3) =   1
                l(4) =   1
     Q(r) pseudized with 0 coefficients 


     atomic species   valence    mass     pseudopotential
     Ag               19.00   107.86820     Ag( 1.00)
     C                 4.00    12.01100     C ( 1.00)

     No symmetry found



   Cartesian axes

     site n.     atom                  positions (alat units)
         1        Ag     tau(   1) = (   0.3337695   0.5765948   0.5717001  )
         2        Ag     tau(   2) = (   0.8337695   0.8652699   0.5717001  )
         3        Ag     tau(   3) = (   0.1663185   0.2882478   1.0405417  )
         4        Ag     tau(   4) = (   0.5004501   0.2909658   0.1002956  )
         5        Ag     tau(   5) = (   0.8337695   0.2879196   0.5717001  )
         6        Ag     tau(   6) = (   0.6664614   0.5767881   1.0404887  )
         7        Ag     tau(   7) = (   0.5009586   0.2880692   1.5115050  )
         8        Ag     tau(   8) = (   1.0004501   0.5796409   0.1002956  )
         9        Ag     tau(   9) = (   1.0010397   0.5767297   1.5120025  )
        10        Ag     tau(  10) = (   0.6663110  -0.0006627   1.0404277  )
        11        Ag     tau(  11) = (   1.0004501   0.0022906   0.1002956  )
        12        Ag     tau(  12) = (   1.0009702  -0.0005926   1.5115108  )
        13        C      tau(  13) = (   0.6671168   0.7720910   3.5182591  )
        14        C      tau(  14) = (   0.9171168   0.9164286   3.5185266  )
        15        C      tau(  15) = (   0.9171168   1.2051037   3.5179148  )
        16        C      tau(  16) = (   1.1671168   1.3494413   3.5185380  )
        17        C      tau(  17) = (   1.1671168   0.7720910   3.5184361  )
        18        C      tau(  18) = (   1.4171168   0.9164286   3.5180552  )
        19        C      tau(  19) = (   1.4171168   1.2051037   3.5184177  )
        20        C      tau(  20) = (   1.6671168   1.3494413   3.5183431  )
        21        C      tau(  21) = (   0.9171168   0.9164286   4.2027689  )
        22        C      tau(  22) = (   1.1671168   1.0607661   4.2027029  )
        23        C      tau(  23) = (   1.1671168   1.3494413   4.2027678  )
        24        C      tau(  24) = (   1.4171168   1.4937788   4.2027097  )
        25        C      tau(  25) = (   1.4171168   0.9164286   4.2027645  )
        26        C      tau(  26) = (   1.6671168   1.0607661   4.2026988  )
        27        C      tau(  27) = (   1.6671168   1.3494413   4.2027665  )
        28        C      tau(  28) = (   1.9171168   1.4937788   4.2026984  )
        29        C      tau(  29) = (   0.6671168   0.7720910   4.8840781  )
        30        C      tau(  30) = (   0.9171168   0.9164286   4.8839561  )
        31        C      tau(  31) = (   0.9171168   1.2051037   4.8840773  )
        32        C      tau(  32) = (   1.1671168   1.3494413   4.8839560  )
        33        C      tau(  33) = (   1.1671168   0.7720910   4.8840786  )
        34        C      tau(  34) = (   1.4171168   0.9164286   4.8839579  )
        35        C      tau(  35) = (   1.4171168   1.2051037   4.8840786  )
        36        C      tau(  36) = (   1.6671168   1.3494413   4.8839567  )

     --------------------------------------------
     DFT-D3 Dispersion Correction (no 3-body):
     --------------------------------------------
       Reference C6 values for interpolation: 

         atom   Coordination number   C6
         C          0.000            98.23
         C          0.987            86.49
         C          1.998            58.72
         C          2.999            51.56
         C          3.984            36.41
         Ag         0.000           853.49
         Ag         0.968           537.23

       Values used:

         atom   Coordination number  R0_AB[au]  C6      C8
         Ag         9.096            3.147    537.23  47741.54
         Ag         9.095            3.147    537.23  47741.54
         Ag         9.099            3.147    537.23  47741.54
         Ag         6.766            3.147    537.23  47741.54
         Ag         9.096            3.147    537.23  47741.54
         Ag         9.099            3.147    537.23  47741.54
         Ag         6.772            3.147    537.23  47741.54
         Ag         6.766            3.147    537.23  47741.54
         Ag         6.766            3.147    537.23  47741.54
         Ag         9.099            3.147    537.23  47741.54
         Ag         6.766            3.147    537.23  47741.54
         Ag         6.772            3.147    537.23  47741.54
         C          3.274            2.750     49.03   1418.00
         C          3.274            2.750     49.03   1417.91
         C          3.274            2.750     49.03   1418.01
         C          3.274            2.750     49.03   1417.91
         C          3.274            2.750     49.03   1418.00
         C          3.274            2.750     49.03   1417.92
         C          3.274            2.750     49.03   1418.00
         C          3.274            2.750     49.03   1417.92
         C          3.280            2.750     48.93   1415.02
         C          3.280            2.750     48.93   1415.19
         C          3.280            2.750     48.93   1415.02
         C          3.280            2.750     48.93   1415.19
         C          3.280            2.750     48.93   1415.02
         C          3.280            2.750     48.93   1415.19
         C          3.280            2.750     48.93   1415.02
         C          3.280            2.750     48.93   1415.19
         C          3.274            2.750     49.03   1417.96
         C          3.274            2.750     49.02   1417.87
         C          3.274            2.750     49.03   1417.96
         C          3.274            2.750     49.02   1417.87
         C          3.274            2.750     49.03   1417.96
         C          3.274            2.750     49.02   1417.87
         C          3.274            2.750     49.03   1417.96
         C          3.274            2.750     49.02   1417.87

         Molecular C6 ( Ry / a.u.^6 ) =    198712.45


     number of k points=    20  Marzari-Vanderbilt smearing, width (Ry)=  0.0100
                       cart. coord. in units 2pi/alat
        k(    1) = (   0.0000000   0.0000000   0.0000000), wk =   0.0555556
        k(    2) = (   0.0000000   0.1924501   0.0000000), wk =   0.1111111
        k(    3) = (   0.0000000   0.3849002   0.0000000), wk =   0.1111111
        k(    4) = (   0.0000000  -0.5773503   0.0000000), wk =   0.0555556
        k(    5) = (   0.1666667  -0.0962250   0.0000000), wk =   0.1111111
        k(    6) = (   0.1666667   0.0962250   0.0000000), wk =   0.1111111
        k(    7) = (   0.1666667   0.2886751   0.0000000), wk =   0.1111111
        k(    8) = (   0.1666667  -0.6735753   0.0000000), wk =   0.1111111
        k(    9) = (   0.1666667  -0.4811252   0.0000000), wk =   0.1111111
        k(   10) = (   0.1666667  -0.2886751   0.0000000), wk =   0.1111111
        k(   11) = (   0.3333333  -0.1924501   0.0000000), wk =   0.1111111
        k(   12) = (   0.3333333  -0.0000000   0.0000000), wk =   0.1111111
        k(   13) = (   0.3333333   0.1924501   0.0000000), wk =   0.1111111
        k(   14) = (   0.3333333  -0.7698004   0.0000000), wk =   0.1111111
        k(   15) = (   0.3333333  -0.5773503   0.0000000), wk =   0.1111111
        k(   16) = (   0.3333333  -0.3849002   0.0000000), wk =   0.1111111
        k(   17) = (  -0.5000000   0.2886751   0.0000000), wk =   0.0555556
        k(   18) = (  -0.5000000   0.4811252   0.0000000), wk =   0.1111111
        k(   19) = (  -0.5000000   0.6735753   0.0000000), wk =   0.1111111
        k(   20) = (  -0.5000000  -0.2886751   0.0000000), wk =   0.0555556

     Dense  grid:  1013735 G-vectors     FFT dimensions: (  72,  72, 480)

     Smooth grid:   256635 G-vectors     FFT dimensions: (  45,  45, 320)

     Estimated max dynamical RAM per process >       2.73 GB

     Check: negative core charge=   -0.000002

     Initial potential from superposition of free atoms

     starting charge     323.9955, renormalised to     324.0000

     negative rho (up, down):  4.600E-05 0.000E+00
 
     Adding external electric field

     Computed dipole along edir(3) : 
        Dipole               -0.0107 Ry au,         -0.0271 Debye
        Dipole field         -0.0000 Ry au, 
 
        Potential amp.        0.0034 Ry
        Total length         63.9640 bohr
 
     Starting wfcs are  216 randomized atomic wfcs
     Checking if some PAW data can be deallocated... 

     total cpu time spent up to now is       28.5 secs

     Self-consistent Calculation

     iteration #  1     ecut=    52.00 Ry     beta= 0.30
     Davidson diagonalization with overlap
     ethr =  1.00E-02,  avg # of iterations =  7.7
 
     Adding external electric field

     Computed dipole along edir(3) : 
        Dipole               -0.0228 Ry au,         -0.0580 Debye
        Dipole field         -0.0001 Ry au, 
 
        Potential amp.        0.0072 Ry
        Total length         63.9640 bohr
 

     total cpu time spent up to now is      116.4 secs

     total energy              =   -3891.68966548 Ry
     estimated scf accuracy    <       4.14554375 Ry

     iteration #  2     ecut=    52.00 Ry     beta= 0.30
     Davidson diagonalization with overlap
     ethr =  1.28E-03,  avg # of iterations =  2.5
 
     Adding external electric field

     Computed dipole along edir(3) : 
        Dipole               -0.0389 Ry au,         -0.0988 Debye
        Dipole field         -0.0001 Ry au, 
 
        Potential amp.        0.0123 Ry
        Total length         63.9640 bohr
 

     total cpu time spent up to now is      176.7 secs

     total energy              =   -3891.03109659 Ry
     estimated scf accuracy    <       2.20610516 Ry

     iteration #  3     ecut=    52.00 Ry     beta= 0.30
     Davidson diagonalization with overlap
     c_bands:  1 eigenvalues not converged
     ethr =  6.81E-04,  avg # of iterations =  9.6
 
     Adding external electric field

     Computed dipole along edir(3) : 
        Dipole               -0.0521 Ry au,         -0.1324 Debye
        Dipole field         -0.0001 Ry au, 
 
        Potential amp.        0.0165 Ry
        Total length         63.9640 bohr
 

     total cpu time spent up to now is      261.4 secs

     total energy              =   -3891.04014408 Ry
     estimated scf accuracy    <       0.56737132 Ry

     iteration #  4     ecut=    52.00 Ry     beta= 0.30
     Davidson diagonalization with overlap
     ethr =  1.75E-04,  avg # of iterations = 11.4
 
     Adding external electric field

     Computed dipole along edir(3) : 
        Dipole               -0.0693 Ry au,         -0.1761 Debye
        Dipole field         -0.0002 Ry au, 
 
        Potential amp.        0.0220 Ry
        Total length         63.9640 bohr
 

     total cpu time spent up to now is      352.9 secs

     total energy              =   -3891.04887273 Ry
     estimated scf accuracy    <       0.23278795 Ry

     iteration #  5     ecut=    52.00 Ry     beta= 0.30
     Davidson diagonalization with overlap
     ethr =  7.18E-05,  avg # of iterations =  4.3
 
     Adding external electric field

     Computed dipole along edir(3) : 
        Dipole               -0.0760 Ry au,         -0.1933 Debye
        Dipole field         -0.0002 Ry au, 
 
        Potential amp.        0.0242 Ry
        Total length         63.9640 bohr
 

     total cpu time spent up to now is      419.9 secs

     total energy              =   -3891.04455702 Ry
     estimated scf accuracy    <       0.05359083 Ry

     iteration #  6     ecut=    52.00 Ry     beta= 0.30
     Davidson diagonalization with overlap
     c_bands:  1 eigenvalues not converged
     c_bands:  1 eigenvalues not converged
     ethr =  1.65E-05,  avg # of iterations = 11.9
 
     Adding external electric field

     Computed dipole along edir(3) : 
        Dipole               -0.0246 Ry au,         -0.0626 Debye
        Dipole field         -0.0001 Ry au, 
 
        Potential amp.        0.0078 Ry
        Total length         63.9640 bohr
 

     total cpu time spent up to now is      510.8 secs

     total energy              =   -3891.04102048 Ry
     estimated scf accuracy    <       0.07637055 Ry

     iteration #  7     ecut=    52.00 Ry     beta= 0.30
     Davidson diagonalization with overlap
     ethr =  1.65E-05,  avg # of iterations =  5.5
 
     Adding external electric field

     Computed dipole along edir(3) : 
        Dipole               -0.0195 Ry au,         -0.0495 Debye
        Dipole field         -0.0000 Ry au, 
 
        Potential amp.        0.0062 Ry
        Total length         63.9640 bohr
 

     total cpu time spent up to now is      583.0 secs

     total energy              =   -3891.03992138 Ry
     estimated scf accuracy    <       0.16721128 Ry

     iteration #  8     ecut=    52.00 Ry     beta= 0.30
     Davidson diagonalization with overlap
     ethr =  1.65E-05,  avg # of iterations =  5.3
 
     Adding external electric field

     Computed dipole along edir(3) : 
        Dipole                0.0202 Ry au,          0.0515 Debye
        Dipole field          0.0001 Ry au, 
 
        Potential amp.       -0.0064 Ry
        Total length         63.9640 bohr
 

     total cpu time spent up to now is      652.6 secs

     total energy              =   -3891.04022850 Ry
     estimated scf accuracy    <       0.08313166 Ry

     iteration #  9     ecut=    52.00 Ry     beta= 0.30
     Davidson diagonalization with overlap
     c_bands:  2 eigenvalues not converged
     ethr =  1.65E-05,  avg # of iterations =  3.8
 
     Adding external electric field

     Computed dipole along edir(3) : 
        Dipole                0.0307 Ry au,          0.0780 Debye
        Dipole field          0.0001 Ry au, 
 
        Potential amp.       -0.0097 Ry
        Total length         63.9640 bohr
 

     total cpu time spent up to now is      718.8 secs

     total energy              =   -3891.04063516 Ry
     estimated scf accuracy    <       0.08473139 Ry

     iteration # 10     ecut=    52.00 Ry     beta= 0.30
     Davidson diagonalization with overlap
     ethr =  1.65E-05,  avg # of iterations =  1.1

     negative rho (up, down):  9.422E-04 0.000E+00
 
     Adding external electric field

     Computed dipole along edir(3) : 
        Dipole                0.0280 Ry au,          0.0713 Debye
        Dipole field          0.0001 Ry au, 
 
        Potential amp.       -0.0089 Ry
        Total length         63.9640 bohr
 

     total cpu time spent up to now is      775.0 secs

     total energy              =   -3891.03972954 Ry
     estimated scf accuracy    <       0.09972612 Ry

     iteration # 11     ecut=    52.00 Ry     beta= 0.30
     Davidson diagonalization with overlap
     ethr =  1.65E-05,  avg # of iterations =  5.2

     negative rho (up, down):  1.516E-03 0.000E+00
 
     Adding external electric field

     Computed dipole along edir(3) : 
        Dipole                0.0274 Ry au,          0.0697 Debye
        Dipole field          0.0001 Ry au, 
 
        Potential amp.       -0.0087 Ry
        Total length         63.9640 bohr
 

     total cpu time spent up to now is      844.6 secs

     total energy              =   -3891.04019783 Ry
     estimated scf accuracy    <       0.00112898 Ry

     iteration # 12     ecut=    52.00 Ry     beta= 0.30
     Davidson diagonalization with overlap
     c_bands:  1 eigenvalues not converged
     c_bands:  1 eigenvalues not converged
     c_bands:  1 eigenvalues not converged
     ethr =  3.48E-07,  avg # of iterations =  7.5

     negative rho (up, down):  6.046E-05 0.000E+00
 
     Adding external electric field

     Computed dipole along edir(3) : 
        Dipole                0.0196 Ry au,          0.0498 Debye
        Dipole field          0.0000 Ry au, 
 
        Potential amp.       -0.0062 Ry
        Total length         63.9640 bohr
 

     total cpu time spent up to now is      921.5 secs

     total energy              =   -3891.04017346 Ry
     estimated scf accuracy    <       0.00042437 Ry

     iteration # 13     ecut=    52.00 Ry     beta= 0.30
     Davidson diagonalization with overlap
     ethr =  1.31E-07,  avg # of iterations =  4.9

     negative rho (up, down):  2.319E-04 0.000E+00
 
     Adding external electric field

     Computed dipole along edir(3) : 
        Dipole                0.0170 Ry au,          0.0432 Debye
        Dipole field          0.0000 Ry au, 
 
        Potential amp.       -0.0054 Ry
        Total length         63.9640 bohr
 

     total cpu time spent up to now is      988.1 secs

     total energy              =   -3891.04021025 Ry
     estimated scf accuracy    <       0.00067789 Ry

     iteration # 14     ecut=    52.00 Ry     beta= 0.30
     Davidson diagonalization with overlap
     ethr =  1.31E-07,  avg # of iterations =  2.8

     negative rho (up, down):  4.374E-04 0.000E+00
 
     Adding external electric field

     Computed dipole along edir(3) : 
        Dipole                0.0182 Ry au,          0.0462 Debye
        Dipole field          0.0000 Ry au, 
 
        Potential amp.       -0.0058 Ry
        Total length         63.9640 bohr
 

     total cpu time spent up to now is     1051.9 secs

     total energy              =   -3891.04023054 Ry
     estimated scf accuracy    <       0.00047503 Ry

     iteration # 15     ecut=    52.00 Ry     beta= 0.30
     Davidson diagonalization with overlap
     ethr =  1.31E-07,  avg # of iterations =  3.8

     negative rho (up, down):  3.301E-04 0.000E+00
 
     Adding external electric field

     Computed dipole along edir(3) : 
        Dipole                0.0176 Ry au,          0.0447 Debye
        Dipole field          0.0000 Ry au, 
 
        Potential amp.       -0.0056 Ry
        Total length         63.9640 bohr
 

     total cpu time spent up to now is     1117.8 secs

     total energy              =   -3891.04025500 Ry
     estimated scf accuracy    <       0.00006772 Ry

     iteration # 16     ecut=    52.00 Ry     beta= 0.30
     Davidson diagonalization with overlap
     ethr =  2.09E-08,  avg # of iterations =  6.2

     negative rho (up, down):  4.429E-04 0.000E+00
 
     Adding external electric field

     Computed dipole along edir(3) : 
        Dipole                0.0187 Ry au,          0.0475 Debye
        Dipole field          0.0000 Ry au, 
 
        Potential amp.       -0.0059 Ry
        Total length         63.9640 bohr
 

     total cpu time spent up to now is     1188.2 secs

     total energy              =   -3891.04025580 Ry
     estimated scf accuracy    <       0.00006840 Ry

     iteration # 17     ecut=    52.00 Ry     beta= 0.30
     Davidson diagonalization with overlap
     ethr =  2.09E-08,  avg # of iterations =  1.8

     negative rho (up, down):  1.211E-04 0.000E+00
 
     Adding external electric field

     Computed dipole along edir(3) : 
        Dipole                0.0188 Ry au,          0.0477 Debye
        Dipole field          0.0000 Ry au, 
 
        Potential amp.       -0.0060 Ry
        Total length         63.9640 bohr
 

     total cpu time spent up to now is     1246.7 secs

     total energy              =   -3891.04025658 Ry
     estimated scf accuracy    <       0.00000294 Ry

     iteration # 18     ecut=    52.00 Ry     beta= 0.30
     Davidson diagonalization with overlap
     ethr =  9.06E-10,  avg # of iterations =  2.0

     negative rho (up, down):  1.144E-04 0.000E+00
 
     Adding external electric field

     Computed dipole along edir(3) : 
        Dipole                0.0191 Ry au,          0.0486 Debye
        Dipole field          0.0000 Ry au, 
 
        Potential amp.       -0.0061 Ry
        Total length         63.9640 bohr
 

     total cpu time spent up to now is     1306.5 secs

     total energy              =   -3891.04025660 Ry
     estimated scf accuracy    <       0.00000257 Ry

     iteration # 19     ecut=    52.00 Ry     beta= 0.30
     Davidson diagonalization with overlap
     ethr =  7.93E-10,  avg # of iterations =  1.4

     negative rho (up, down):  1.493E-04 0.000E+00
 
     Adding external electric field

     Computed dipole along edir(3) : 
        Dipole                0.0191 Ry au,          0.0486 Debye
        Dipole field          0.0000 Ry au, 
 
        Potential amp.       -0.0061 Ry
        Total length         63.9640 bohr
 

     total cpu time spent up to now is     1364.7 secs

     total energy              =   -3891.04025639 Ry
     estimated scf accuracy    <       0.00000082 Ry

     iteration # 20     ecut=    52.00 Ry     beta= 0.30
     Davidson diagonalization with overlap
     ethr =  2.54E-10,  avg # of iterations =  2.0

     negative rho (up, down):  7.526E-05 0.000E+00
 
     Adding external electric field

     Computed dipole along edir(3) : 
        Dipole                0.0190 Ry au,          0.0483 Debye
        Dipole field          0.0000 Ry au, 
 
        Potential amp.       -0.0060 Ry
        Total length         63.9640 bohr
 

     total cpu time spent up to now is     1425.5 secs

     total energy              =   -3891.04025673 Ry
     estimated scf accuracy    <       0.00000357 Ry

     iteration # 21     ecut=    52.00 Ry     beta= 0.30
     Davidson diagonalization with overlap
     ethr =  2.54E-10,  avg # of iterations =  2.0

     negative rho (up, down):  8.063E-05 0.000E+00
 
     Adding external electric field

     Computed dipole along edir(3) : 
        Dipole                0.0190 Ry au,          0.0484 Debye
        Dipole field          0.0000 Ry au, 
 
        Potential amp.       -0.0061 Ry
        Total length         63.9640 bohr
 

     total cpu time spent up to now is     1487.0 secs

     total energy              =   -3891.04025685 Ry
     estimated scf accuracy    <       0.00000026 Ry

     iteration # 22     ecut=    52.00 Ry     beta= 0.30
     Davidson diagonalization with overlap
     ethr =  8.06E-11,  avg # of iterations =  2.0

     negative rho (up, down):  7.123E-05 0.000E+00
 
     Adding external electric field

     Computed dipole along edir(3) : 
        Dipole                0.0190 Ry au,          0.0484 Debye
        Dipole field          0.0000 Ry au, 
 
        Potential amp.       -0.0060 Ry
        Total length         63.9640 bohr
 

     total cpu time spent up to now is     1547.6 secs

     total energy              =   -3891.04025690 Ry
     estimated scf accuracy    <       0.00000016 Ry

     iteration # 23     ecut=    52.00 Ry     beta= 0.30
     Davidson diagonalization with overlap
     ethr =  4.98E-11,  avg # of iterations =  1.4

     negative rho (up, down):  8.448E-05 0.000E+00
 
     Adding external electric field

     Computed dipole along edir(3) : 
        Dipole                0.0190 Ry au,          0.0484 Debye
        Dipole field          0.0000 Ry au, 
 
        Potential amp.       -0.0060 Ry
        Total length         63.9640 bohr
 

     total cpu time spent up to now is     1605.7 secs

     total energy              =   -3891.04025687 Ry
     estimated scf accuracy    <       0.00000013 Ry

     iteration # 24     ecut=    52.00 Ry     beta= 0.30
     Davidson diagonalization with overlap
     ethr =  3.97E-11,  avg # of iterations =  1.4

     negative rho (up, down):  8.790E-05 0.000E+00
 
     Adding external electric field

     Computed dipole along edir(3) : 
        Dipole                0.0190 Ry au,          0.0484 Debye
        Dipole field          0.0000 Ry au, 
 
        Potential amp.       -0.0060 Ry
        Total length         63.9640 bohr
 

     total cpu time spent up to now is     1662.8 secs

     total energy              =   -3891.04025687 Ry
     estimated scf accuracy    <       0.00000001 Ry

     iteration # 25     ecut=    52.00 Ry     beta= 0.30
     Davidson diagonalization with overlap
     ethr =  4.34E-12,  avg # of iterations =  1.4

     negative rho (up, down):  8.907E-05 0.000E+00
 
     Adding external electric field

     Computed dipole along edir(3) : 
        Dipole                0.0184 Ry au,          0.0467 Debye
        Dipole field          0.0000 Ry au, 
 
        Potential amp.       -0.0058 Ry
        Total length         63.9640 bohr
 

     total cpu time spent up to now is     1718.6 secs

     End of self-consistent calculation

          k = 0.0000 0.0000 0.0000 ( 32011 PWs)   bands (ev):

   -87.1337 -87.1241 -87.1155 -87.1154 -87.1150 -87.1150 -86.9204 -86.9196
   -86.9073 -86.9066 -86.9062 -86.9061 -50.6442 -50.6175 -50.6174 -50.6172
   -50.6172 -50.6151 -50.6149 -50.5897 -50.5895 -50.5639 -50.5639 -50.5634
   -50.5634 -50.5586 -50.5163 -50.5161 -50.5027 -50.5025 -50.4034 -50.4033
   -50.4026 -50.4026 -50.4010 -50.4008 -50.4002 -50.4002 -50.3414 -50.3387
   -50.3291 -50.3283 -50.3278 -50.3277 -50.3132 -50.3130 -50.3125 -50.3121
   -14.4105 -14.3191 -14.2179  -9.2569  -9.2569  -9.2568  -9.2226  -9.2226
    -9.2226  -9.1843  -9.1843  -9.1843  -8.1122  -8.1122  -8.1122  -8.0921
    -8.0921  -8.0921  -8.0567  -8.0567  -8.0567  -3.0759  -2.4805  -2.4660
    -1.7787  -1.5849  -1.4011  -1.4011  -1.4011  -1.3880  -1.3880  -1.3879
    -1.3636  -1.3636  -1.3636  -1.3111  -1.1436  -0.6798  -0.6784  -0.6597
    -0.6592  -0.6564  -0.6561  -0.3082  -0.3081  -0.3063  -0.3061  -0.1154
    -0.1151  -0.1005  -0.1003   0.1313   0.1834   0.1840   0.2297   0.2308
     0.3035   0.3043   0.3062   0.3071   0.3152   0.4551   0.4556   0.5077
     0.5097   0.6291   0.6296   0.6304   0.6304   0.6525   0.6528   0.6532
     0.6532   1.0786   1.0796   1.1955   1.2002   1.2321   1.2325   1.2333
     1.2335   1.3442   1.3567   1.5877   1.6447   1.6450   1.6898   1.6951
     1.8185   1.8189   1.8689   1.8698   1.8705   1.8714   1.8898   1.8898
     1.8924   1.8924   1.9066   1.9066   1.9353   1.9421   2.3808   2.3809
     2.3813   2.6451   2.6451   2.6452   2.8470   2.8472   2.8473   3.9860
     5.2006   6.4464   6.4464   6.4464   6.5961   6.5962   6.5962   6.8984
     6.8987   6.8989   8.4013   8.4035   8.4776   8.5751   8.5945   8.5949
     8.5962   8.5963   9.2248   9.3819   9.3820   9.3830   9.3837   9.4473
     9.7859   9.7867  10.5328  10.7875  11.0496  11.0503  11.0521  11.0532
    11.2826  11.2830

          k = 0.0000 0.1925 0.0000 ( 32019 PWs)   bands (ev):

   -87.1324 -87.1232 -87.1169 -87.1165 -87.1148 -87.1148 -86.9194 -86.9185
   -86.9078 -86.9071 -86.9068 -86.9065 -50.6411 -50.6348 -50.6292 -50.6281
   -50.6232 -50.5990 -50.5923 -50.5817 -50.5767 -50.5671 -50.5610 -50.5604
   -50.5586 -50.5559 -50.5254 -50.5203 -50.5136 -50.5053 -50.4209 -50.4201
   -50.4156 -50.4148 -50.3802 -50.3794 -50.3776 -50.3767 -50.3402 -50.3380
   -50.3295 -50.3288 -50.3283 -50.3281 -50.3243 -50.3235 -50.3160 -50.3153
   -14.2487 -14.1582 -14.0579 -10.4904 -10.4229 -10.3458  -9.6425  -9.6424
    -9.5842  -9.5842  -9.5172  -9.5172  -7.5145  -7.5145  -7.4691  -7.4691
    -7.4130  -7.4130  -6.7003  -6.6532  -6.5960  -2.8814  -2.2752  -2.2298
    -1.8826  -1.8825  -1.8652  -1.8652  -1.8369  -1.8369  -1.5929  -1.3643
    -1.2428  -1.2299  -1.2058  -1.1325  -0.9582  -0.9556  -0.8302  -0.7722
    -0.7644  -0.6887  -0.5540  -0.4533  -0.3793  -0.3545  -0.3260  -0.2612
    -0.1647  -0.1445  -0.1418   0.0130   0.0961   0.1266   0.2036   0.2516
     0.3150   0.3295   0.3419   0.3746   0.3993   0.4248   0.4322   0.4627
     0.5065   0.5715   0.5730   0.6348   0.6542   0.7479   0.8372   0.9029
     0.9674   1.0131   1.0207   1.1235   1.1297   1.1991   1.2396   1.2421
     1.2487   1.2668   1.3029   1.3126   1.3322   1.3875   1.4731   1.5019
     1.5315   1.5602   1.5652   1.5818   1.6221   1.6732   1.6899   1.8286
     1.8336   1.8344   1.8939   1.9339   1.9579   2.0130   2.0788   2.1947
     2.1950   2.2859   2.3066   2.5432   2.5433   2.8645   2.8648   4.3492
     5.7280   5.8563   6.6538   6.6539   6.7338   6.8594   6.8594   7.0003
     7.1709   7.1712   7.3438   7.3669   7.6556   7.9168   8.0180   8.1493
     8.3919   8.6953   8.7892   9.4135   9.6669   9.6889   9.8611  10.2211
    10.2896  10.4606  10.7362  10.9685  11.2553  11.2909  11.3342  11.4869
    11.9934  12.1102

          k = 0.0000 0.3849 0.0000 ( 32055 PWs)   bands (ev):

   -87.1290 -87.1209 -87.1201 -87.1178 -87.1158 -87.1150 -86.9166 -86.9157
   -86.9097 -86.9088 -86.9080 -86.9073 -50.6479 -50.6406 -50.6330 -50.6266
   -50.6192 -50.5932 -50.5835 -50.5723 -50.5707 -50.5597 -50.5575 -50.5550
   -50.5462 -50.5448 -50.5419 -50.5413 -50.5267 -50.5142 -50.4335 -50.4328
   -50.4101 -50.4093 -50.3583 -50.3576 -50.3548 -50.3539 -50.3530 -50.3522
   -50.3371 -50.3356 -50.3311 -50.3301 -50.3297 -50.3289 -50.3248 -50.3241
   -13.7650 -13.6774 -13.5800 -11.8627 -11.7862 -11.7000 -10.0460 -10.0460
    -9.9813  -9.9813  -9.9071  -9.9071  -6.3848  -6.3848  -6.3429  -6.3429
    -6.2909  -6.2909  -4.6352  -4.5970  -4.5486  -3.0095  -3.0095  -2.9855
    -2.9855  -2.9508  -2.9508  -2.3022  -1.7082  -1.5732  -1.2054  -1.1059
    -1.1001  -1.0414  -0.8744  -0.8236  -0.8029  -0.7820  -0.7725  -0.7697
    -0.7463  -0.7211  -0.6351  -0.6106  -0.5710  -0.4662  -0.3910  -0.3833
    -0.3672  -0.3403  -0.2657  -0.2435  -0.2332  -0.1268  -0.0824  -0.0818
    -0.0713   0.0275   0.1437   0.1593   0.2057   0.2387   0.3117   0.3529
     0.3686   0.4486   0.4529   0.5588   0.5690   0.6129   0.6920   0.7049
     0.7159   0.7504   0.7887   0.7890   0.7975   0.8175   0.9042   0.9198
     0.9656   0.9847   1.0314   1.1574   1.1756   1.2313   1.3070   1.3594
     1.3997   1.4031   1.4429   1.6051   1.6223   1.7100   1.7460   1.7810
     1.8683   1.8938   1.9064   1.9302   1.9306   1.9790   1.9922   2.0273
     2.0901   2.1219   2.3635   2.3635   2.8138   2.8141   3.0438   3.6289
     4.3460   5.2023   5.7041   5.8470   6.3364   6.8556   6.9717   7.1670
     7.1672   7.1865   7.3976   7.3976   7.6583   7.6585   7.9829   9.1934
     9.3472   9.4286   9.4442   9.7194   9.7858   9.9798  10.0332  10.3317
    10.3595  10.5883  11.3435  11.5348  11.8179  11.9047  11.9567  12.2467
    12.2686  12.3894

          k = 0.0000-0.5774 0.0000 ( 32112 PWs)   bands (ev):

   -87.1245 -87.1245 -87.1183 -87.1181 -87.1181 -87.1152 -86.9133 -86.9127
   -86.9121 -86.9121 -86.9084 -86.9076 -50.6526 -50.6454 -50.6246 -50.6246
   -50.5983 -50.5982 -50.5852 -50.5789 -50.5788 -50.5630 -50.5528 -50.5506
   -50.5505 -50.5409 -50.5409 -50.5320 -50.5286 -50.5286 -50.4380 -50.4373
   -50.3866 -50.3860 -50.3854 -50.3853 -50.3455 -50.3447 -50.3396 -50.3390
   -50.3386 -50.3386 -50.3341 -50.3335 -50.3328 -50.3327 -50.3301 -50.3292
   -12.9655 -12.9654 -12.8825 -12.8825 -12.7898 -12.7898 -10.1899 -10.1899
   -10.1238 -10.1238 -10.0481 -10.0481  -5.5362  -5.5362  -5.5154  -5.5154
    -5.4861  -5.4861  -3.8622  -3.8621  -3.8495  -3.8495  -3.8248  -3.8248
    -2.4598  -2.4598  -2.4327  -2.4327  -2.3950  -2.3950  -1.3588  -1.3551
    -1.3549  -1.2678  -1.2024  -0.9447  -0.9091  -0.9085  -0.8012  -0.7836
    -0.7836  -0.6934  -0.6932  -0.5169  -0.5128  -0.5118  -0.4741  -0.4735
    -0.3812  -0.3806  -0.2384  -0.2383  -0.1466  -0.1464  -0.0675  -0.0675
    -0.0567  -0.0567  -0.0344  -0.0344   0.0407   0.0408   0.0424   0.0826
     0.1163   0.1169   0.2926   0.2929   0.3041   0.3367   0.3371   0.3902
     0.3913   0.6352   0.6354   0.6953   0.6955   0.8741   0.9376   0.9382
     0.9397   1.1290   1.1293   1.2448   1.2590   1.2591   1.4991   1.5310
     1.5312   1.6243   1.6247   1.7194   1.7264   1.7268   1.8234   1.8238
     1.8875   1.8927   1.8932   1.9932   2.0151   2.0755   2.0762   2.1026
     2.2475   2.2624   2.2828   2.2828   2.5389   2.5394   2.7739   2.7742
     4.1280   4.1286   5.0857   5.9024   6.3788   6.3793   6.4355   6.6386
     7.4789   7.4790   7.6801   7.6802   7.8749   7.8751   8.5699   8.5712
     9.0757   9.6293  10.3537  10.4268  10.4270  10.4849  10.4850  10.9432
    10.9437  11.4365  11.4365  11.5854  11.7764  11.7766  11.9029  11.9038
    12.1662  12.1672

          k = 0.1667-0.0962 0.0000 ( 32019 PWs)   bands (ev):

   -87.1324 -87.1232 -87.1169 -87.1165 -87.1148 -87.1148 -86.9194 -86.9185
   -86.9078 -86.9071 -86.9068 -86.9065 -50.6411 -50.6345 -50.6293 -50.6282
   -50.6235 -50.5986 -50.5924 -50.5819 -50.5767 -50.5672 -50.5611 -50.5605
   -50.5584 -50.5560 -50.5255 -50.5202 -50.5136 -50.5053 -50.4210 -50.4200
   -50.4156 -50.4149 -50.3802 -50.3792 -50.3775 -50.3769 -50.3402 -50.3380
   -50.3295 -50.3288 -50.3283 -50.3281 -50.3243 -50.3237 -50.3161 -50.3151
   -14.2487 -14.1582 -14.0579 -10.4904 -10.4229 -10.3458  -9.6425  -9.6424
    -9.5842  -9.5842  -9.5172  -9.5171  -7.5145  -7.5145  -7.4691  -7.4691
    -7.4130  -7.4130  -6.7003  -6.6532  -6.5960  -2.8814  -2.2752  -2.2298
    -1.8826  -1.8825  -1.8652  -1.8652  -1.8369  -1.8369  -1.5929  -1.3641
    -1.2428  -1.2299  -1.2058  -1.1325  -0.9575  -0.9555  -0.8309  -0.7733
    -0.7641  -0.6891  -0.5532  -0.4535  -0.3801  -0.3549  -0.3243  -0.2615
    -0.1640  -0.1440  -0.1430   0.0128   0.0960   0.1258   0.2038   0.2514
     0.3147   0.3298   0.3430   0.3744   0.3998   0.4235   0.4324   0.4630
     0.5063   0.5720   0.5731   0.6348   0.6539   0.7478   0.8373   0.9031
     0.9690   1.0125   1.0208   1.1235   1.1277   1.2014   1.2401   1.2421
     1.2487   1.2668   1.3030   1.3126   1.3325   1.3875   1.4721   1.5020
     1.5306   1.5602   1.5652   1.5818   1.6221   1.6731   1.6902   1.8286
     1.8332   1.8343   1.8945   1.9319   1.9587   2.0133   2.0775   2.1946
     2.1951   2.2860   2.3080   2.5432   2.5433   2.8644   2.8649   4.3494
     5.7283   5.8562   6.6537   6.6539   6.7334   6.8594   6.8595   6.9988
     7.1708   7.1713   7.3457   7.3668   7.6556   7.9178   8.0180   8.1492
     8.3964   8.6953   8.7892   9.4135   9.6669   9.6831   9.8590  10.2226
    10.2893  10.4618  10.7362  10.9685  11.2559  11.2877  11.3340  11.4871
    11.9932  12.1102

          k = 0.1667 0.0962 0.0000 ( 32019 PWs)   bands (ev):

   -87.1324 -87.1232 -87.1169 -87.1165 -87.1148 -87.1147 -86.9194 -86.9185
   -86.9078 -86.9071 -86.9068 -86.9065 -50.6411 -50.6348 -50.6292 -50.6281
   -50.6233 -50.5988 -50.5922 -50.5822 -50.5766 -50.5669 -50.5609 -50.5605
   -50.5582 -50.5564 -50.5254 -50.5203 -50.5134 -50.5055 -50.4210 -50.4203
   -50.4155 -50.4147 -50.3803 -50.3795 -50.3775 -50.3766 -50.3402 -50.3380
   -50.3295 -50.3288 -50.3283 -50.3282 -50.3242 -50.3233 -50.3161 -50.3155
   -14.2487 -14.1582 -14.0579 -10.4904 -10.4229 -10.3458  -9.6425  -9.6424
    -9.5842  -9.5842  -9.5172  -9.5172  -7.5145  -7.5145  -7.4691  -7.4691
    -7.4130  -7.4130  -6.7003  -6.6532  -6.5960  -2.8814  -2.2752  -2.2298
    -1.8825  -1.8825  -1.8652  -1.8652  -1.8369  -1.8369  -1.5929  -1.3641
    -1.2428  -1.2299  -1.2058  -1.1330  -0.9589  -0.9561  -0.8308  -0.7707
    -0.7635  -0.6887  -0.5532  -0.4529  -0.3819  -0.3561  -0.3250  -0.2612
    -0.1649  -0.1431  -0.1417   0.0142   0.0957   0.1269   0.2018   0.2539
     0.3143   0.3286   0.3431   0.3752   0.4006   0.4281   0.4315   0.4609
     0.5064   0.5657   0.5739   0.6351   0.6562   0.7457   0.8355   0.9085
     0.9673   1.0120   1.0205   1.1264   1.1283   1.1981   1.2415   1.2421
     1.2487   1.2668   1.3027   1.3086   1.3302   1.3875   1.4726   1.5010
     1.5312   1.5602   1.5652   1.5818   1.6167   1.6777   1.6919   1.8286
     1.8333   1.8352   1.8929   1.9372   1.9578   2.0126   2.0803   2.1947
     2.1950   2.2859   2.3066   2.5433   2.5433   2.8645   2.8647   4.3487
     5.7275   5.8566   6.6538   6.6539   6.7335   6.8594   6.8594   6.9991
     7.1709   7.1712   7.3483   7.3669   7.6556   7.9115   8.0180   8.1507
     8.3861   8.6953   8.7892   9.4135   9.6669   9.6928   9.8630  10.2229
    10.2935  10.4558  10.7362  10.9686  11.2569  11.2898  11.3318  11.4866
    11.9931  12.1102

          k = 0.1667 0.2887 0.0000 ( 32043 PWs)   bands (ev):

   -87.1301 -87.1216 -87.1184 -87.1183 -87.1152 -87.1151 -86.9175 -86.9166
   -86.9088 -86.9081 -86.9077 -86.9076 -50.6367 -50.6366 -50.6355 -50.6310
   -50.6309 -50.5886 -50.5882 -50.5712 -50.5711 -50.5677 -50.5558 -50.5556
   -50.5479 -50.5475 -50.5400 -50.5342 -50.5256 -50.5099 -50.4228 -50.4227
   -50.4220 -50.4219 -50.3616 -50.3614 -50.3607 -50.3606 -50.3451 -50.3441
   -50.3380 -50.3362 -50.3304 -50.3296 -50.3291 -50.3290 -50.3212 -50.3206
   -13.9260 -13.8374 -13.7390 -11.0917 -11.0916 -11.0198 -11.0198 -10.9384
   -10.9384  -8.8378  -8.8052  -8.7681  -7.7311  -7.7145  -7.6828  -5.6215
    -5.6215  -5.5796  -5.5796  -5.5277  -5.5276  -3.1938  -3.1683  -3.1321
    -2.4944  -1.8962  -1.7834  -1.5609  -1.5609  -1.5445  -1.5445  -1.5170
    -1.5170  -1.2241  -1.0443  -1.0184  -1.0175  -0.9083  -0.9082  -0.8727
    -0.8725  -0.8497  -0.6735  -0.5638  -0.5619  -0.3698  -0.3684  -0.3564
    -0.3557  -0.1909  -0.1420  -0.1394  -0.0148   0.0250   0.2187   0.2253
     0.2352   0.2383   0.2426   0.3129   0.3801   0.4030   0.4094   0.4581
     0.4873   0.4918   0.5371   0.5583   0.6188   0.6439   0.6451   0.7707
     0.7818   0.7822   0.8557   0.9059   0.9096   0.9251   1.0060   1.0254
     1.0261   1.1163   1.1173   1.1179   1.2383   1.2751   1.2751   1.2902
     1.2915   1.3639   1.3902   1.3914   1.5072   1.5079   1.5748   1.5770
     1.6045   1.6883   1.8073   1.8077   1.8690   1.8695   1.9623   2.0070
     2.0080   2.1352   2.1365   2.8103   2.9645   3.2272   3.4222   4.7141
     4.7146   4.9372   5.4981   5.4987   6.3176   6.3660   6.5302   6.5907
     6.9003   6.9037   8.2881   8.2885   8.5678   8.5679   8.6729   8.6759
     8.8853   8.8856   9.1303   9.2159   9.7601   9.7652   9.7900  10.1095
    10.5372  10.5411  11.1433  11.3427  11.3488  11.3517  12.4606  12.4742
    12.6055  12.7838

          k = 0.1667-0.6736 0.0000 ( 32075 PWs)   bands (ev):

   -87.1262 -87.1219 -87.1194 -87.1191 -87.1166 -87.1155 -86.9143 -86.9134
   -86.9110 -86.9101 -86.9090 -86.9083 -50.6434 -50.6377 -50.6274 -50.6264
   -50.6191 -50.5917 -50.5886 -50.5877 -50.5673 -50.5614 -50.5567 -50.5512
   -50.5489 -50.5474 -50.5355 -50.5324 -50.5323 -50.5190 -50.4291 -50.4282
   -50.4073 -50.4064 -50.3774 -50.3764 -50.3457 -50.3448 -50.3446 -50.3438
   -50.3351 -50.3339 -50.3322 -50.3312 -50.3308 -50.3306 -50.3302 -50.3297
   -13.2843 -13.1995 -13.1049 -12.3329 -12.2536 -12.1646 -11.3989 -11.3251
   -11.2418  -8.7947  -8.7417  -8.6798  -6.9291  -6.8960  -6.8530  -4.5702
    -4.5460  -4.5106  -4.5064  -4.4778  -4.4395  -3.5286  -3.4980  -3.4571
    -2.4342  -2.4164  -2.3874  -1.7305  -1.4785  -1.4609  -1.4333  -1.2458
    -1.1971  -1.1819  -1.1489  -1.1078  -0.9705  -0.9389  -0.9308  -0.9247
    -0.8993  -0.8780  -0.8733  -0.8454  -0.7095  -0.6901  -0.6151  -0.5905
    -0.5123  -0.4993  -0.4500  -0.3906  -0.3435  -0.3165  -0.1684  -0.0697
    -0.0645  -0.0602  -0.0392  -0.0224   0.0252   0.0276   0.1685   0.2470
     0.2810   0.3450   0.3504   0.3981   0.4177   0.4636   0.4816   0.5455
     0.6170   0.7113   0.7852   0.7923   0.8487   0.8990   0.9370   0.9460
     0.9792   1.0527   1.1069   1.1103   1.1246   1.1587   1.2420   1.3206
     1.4145   1.4577   1.4603   1.5437   1.5621   1.5724   1.5955   1.6720
     1.7685   1.8242   1.8340   1.8529   1.8869   1.9182   1.9630   1.9987
     2.0189   2.0425   2.1379   2.7266   3.2787   3.3625   3.6266   3.6346
     3.8309   3.9524   4.5862   4.9674   5.8988   6.0312   6.0456   6.2066
     6.4041   7.2123   7.8831   7.9595   9.0410   9.2464   9.4523   9.4915
     9.5891   9.9973  10.0637  10.1701  10.4771  10.5525  10.6969  10.8824
    10.9367  10.9965  11.2846  11.3248  11.6980  11.9438  11.9694  12.0903
    12.1222  12.3564

          k = 0.1667-0.4811 0.0000 ( 32075 PWs)   bands (ev):

   -87.1262 -87.1219 -87.1194 -87.1191 -87.1166 -87.1155 -86.9143 -86.9134
   -86.9110 -86.9101 -86.9090 -86.9083 -50.6434 -50.6377 -50.6274 -50.6264
   -50.6190 -50.5918 -50.5884 -50.5877 -50.5674 -50.5614 -50.5567 -50.5512
   -50.5489 -50.5475 -50.5354 -50.5325 -50.5323 -50.5189 -50.4291 -50.4282
   -50.4073 -50.4062 -50.3774 -50.3766 -50.3457 -50.3448 -50.3447 -50.3441
   -50.3351 -50.3339 -50.3322 -50.3311 -50.3307 -50.3306 -50.3299 -50.3297
   -13.2843 -13.1995 -13.1049 -12.3329 -12.2536 -12.1646 -11.3989 -11.3251
   -11.2418  -8.7947  -8.7417  -8.6798  -6.9291  -6.8960  -6.8530  -4.5702
    -4.5460  -4.5106  -4.5064  -4.4778  -4.4395  -3.5286  -3.4980  -3.4571
    -2.4342  -2.4164  -2.3874  -1.7305  -1.4785  -1.4609  -1.4333  -1.2457
    -1.1963  -1.1820  -1.1489  -1.1080  -0.9714  -0.9389  -0.9314  -0.9247
    -0.8993  -0.8770  -0.8725  -0.8450  -0.7082  -0.6904  -0.6151  -0.5907
    -0.5119  -0.4993  -0.4503  -0.3936  -0.3423  -0.3171  -0.1695  -0.0697
    -0.0645  -0.0602  -0.0392  -0.0237   0.0213   0.0284   0.1721   0.2472
     0.2826   0.3469   0.3492   0.3915   0.4159   0.4636   0.4841   0.5455
     0.6174   0.7180   0.7923   0.7934   0.8458   0.8945   0.9372   0.9473
     0.9792   1.0513   1.1048   1.1104   1.1252   1.1569   1.2427   1.3216
     1.4158   1.4588   1.4611   1.5437   1.5637   1.5729   1.5917   1.6716
     1.7651   1.8236   1.8339   1.8540   1.8922   1.9194   1.9620   1.9977
     2.0178   2.0418   2.1346   2.7266   3.2787   3.3629   3.6266   3.6341
     3.8310   3.9524   4.5862   4.9691   5.9006   6.0315   6.0456   6.2066
     6.4041   7.2112   7.8834   7.9625   9.0410   9.2464   9.4523   9.4915
     9.5848   9.9973  10.0638  10.1700  10.4771  10.5525  10.6969  10.8824
    10.9367  10.9968  11.2844  11.3246  11.6977  11.9439  11.9684  12.0906
    12.1222  12.3548

          k = 0.1667-0.2887 0.0000 ( 32043 PWs)   bands (ev):

   -87.1301 -87.1216 -87.1184 -87.1183 -87.1152 -87.1151 -86.9175 -86.9166
   -86.9088 -86.9081 -86.9077 -86.9076 -50.6367 -50.6364 -50.6355 -50.6311
   -50.6310 -50.5885 -50.5881 -50.5712 -50.5711 -50.5678 -50.5561 -50.5560
   -50.5476 -50.5475 -50.5399 -50.5346 -50.5255 -50.5097 -50.4228 -50.4227
   -50.4220 -50.4219 -50.3616 -50.3614 -50.3608 -50.3606 -50.3451 -50.3445
   -50.3380 -50.3362 -50.3304 -50.3296 -50.3291 -50.3290 -50.3212 -50.3203
   -13.9260 -13.8374 -13.7390 -11.0916 -11.0916 -11.0198 -11.0198 -10.9384
   -10.9384  -8.8378  -8.8052  -8.7681  -7.7311  -7.7145  -7.6828  -5.6215
    -5.6215  -5.5796  -5.5796  -5.5277  -5.5277  -3.1938  -3.1683  -3.1321
    -2.4944  -1.8962  -1.7831  -1.5609  -1.5609  -1.5445  -1.5445  -1.5170
    -1.5170  -1.2241  -1.0441  -1.0180  -1.0171  -0.9092  -0.9090  -0.8730
    -0.8727  -0.8479  -0.6708  -0.5621  -0.5618  -0.3722  -0.3717  -0.3558
    -0.3556  -0.1950  -0.1413  -0.1410  -0.0163   0.0252   0.2187   0.2253
     0.2388   0.2401   0.2426   0.3094   0.3804   0.4012   0.4025   0.4596
     0.4879   0.4885   0.5416   0.5577   0.6164   0.6528   0.6533   0.7710
     0.7819   0.7821   0.8550   0.9059   0.9096   0.9251   1.0008   1.0258
     1.0268   1.1154   1.1166   1.1194   1.2366   1.2751   1.2751   1.2907
     1.2911   1.3701   1.3938   1.3941   1.5066   1.5074   1.5711   1.5721
     1.6087   1.6858   1.8074   1.8076   1.8704   1.8710   1.9583   2.0070
     2.0076   2.1330   2.1342   2.8107   2.9645   3.2272   3.4222   4.7140
     4.7145   4.9389   5.4982   5.4991   6.3176   6.3660   6.5302   6.5927
     6.9036   6.9046   8.2882   8.2884   8.5678   8.5679   8.6765   8.6792
     8.8854   8.8855   9.1303   9.2159   9.7560   9.7601   9.7899  10.1096
    10.5357  10.5370  11.1433  11.3426  11.3484  11.3519  12.4605  12.4623
    12.6055  12.7838

          k = 0.3333-0.1925 0.0000 ( 32055 PWs)   bands (ev):

   -87.1290 -87.1209 -87.1201 -87.1178 -87.1158 -87.1150 -86.9166 -86.9157
   -86.9097 -86.9088 -86.9080 -86.9073 -50.6477 -50.6407 -50.6330 -50.6267
   -50.6194 -50.5929 -50.5837 -50.5724 -50.5707 -50.5597 -50.5575 -50.5549
   -50.5461 -50.5447 -50.5420 -50.5414 -50.5266 -50.5142 -50.4336 -50.4327
   -50.4101 -50.4094 -50.3584 -50.3574 -50.3547 -50.3541 -50.3529 -50.3524
   -50.3371 -50.3357 -50.3311 -50.3301 -50.3297 -50.3288 -50.3249 -50.3239
   -13.7650 -13.6774 -13.5800 -11.8627 -11.7862 -11.7000 -10.0460 -10.0460
    -9.9813  -9.9813  -9.9071  -9.9071  -6.3848  -6.3848  -6.3429  -6.3429
    -6.2909  -6.2909  -4.6352  -4.5970  -4.5486  -3.0095  -3.0095  -2.9855
    -2.9855  -2.9508  -2.9508  -2.3022  -1.7082  -1.5730  -1.2055  -1.1061
    -1.1000  -1.0414  -0.8736  -0.8243  -0.8042  -0.7820  -0.7725  -0.7697
    -0.7463  -0.7215  -0.6341  -0.6106  -0.5708  -0.4665  -0.3909  -0.3833
    -0.3672  -0.3403  -0.2656  -0.2429  -0.2334  -0.1268  -0.0827  -0.0818
    -0.0708   0.0270   0.1444   0.1611   0.2053   0.2395   0.3114   0.3520
     0.3699   0.4486   0.4507   0.5576   0.5720   0.6135   0.6919   0.7043
     0.7153   0.7503   0.7889   0.7890   0.7975   0.8175   0.9048   0.9201
     0.9654   0.9833   1.0314   1.1571   1.1764   1.2307   1.3072   1.3592
     1.4007   1.4033   1.4429   1.6042   1.6223   1.7102   1.7456   1.7806
     1.8687   1.8941   1.9048   1.9301   1.9307   1.9792   1.9928   2.0268
     2.0883   2.1221   2.3634   2.3635   2.8136   2.8143   3.0450   3.6288
     4.3457   5.2028   5.7011   5.8474   6.3389   6.8573   6.9723   7.1669
     7.1673   7.1929   7.3975   7.3976   7.6582   7.6586   7.9833   9.1861
     9.3471   9.4285   9.4443   9.7194   9.7847   9.9798  10.0332  10.3317
    10.3608  10.5843  11.3435  11.5346  11.8139  11.9047  11.9567  12.2463
    12.2686  12.3885

          k = 0.3333-0.0000 0.0000 ( 32043 PWs)   bands (ev):

   -87.1301 -87.1216 -87.1183 -87.1183 -87.1151 -87.1151 -86.9175 -86.9166
   -86.9088 -86.9081 -86.9077 -86.9076 -50.6367 -50.6363 -50.6355 -50.6311
   -50.6310 -50.5884 -50.5882 -50.5714 -50.5713 -50.5679 -50.5557 -50.5556
   -50.5479 -50.5475 -50.5400 -50.5343 -50.5254 -50.5098 -50.4228 -50.4227
   -50.4221 -50.4218 -50.3615 -50.3614 -50.3609 -50.3605 -50.3450 -50.3443
   -50.3380 -50.3362 -50.3304 -50.3296 -50.3291 -50.3290 -50.3213 -50.3204
   -13.9260 -13.8374 -13.7390 -11.0916 -11.0916 -11.0198 -11.0198 -10.9384
   -10.9384  -8.8378  -8.8052  -8.7681  -7.7311  -7.7145  -7.6828  -5.6215
    -5.6215  -5.5796  -5.5796  -5.5277  -5.5276  -3.1938  -3.1683  -3.1321
    -2.4944  -1.8962  -1.7832  -1.5609  -1.5609  -1.5445  -1.5445  -1.5170
    -1.5170  -1.2241  -1.0435  -1.0185  -1.0171  -0.9085  -0.9084  -0.8731
    -0.8727  -0.8498  -0.6734  -0.5641  -0.5622  -0.3697  -0.3687  -0.3562
    -0.3555  -0.1923  -0.1426  -0.1401  -0.0150   0.0252   0.2187   0.2253
     0.2365   0.2407   0.2426   0.3120   0.3800   0.4009   0.4085   0.4588
     0.4871   0.4921   0.5384   0.5582   0.6189   0.6450   0.6465   0.7709
     0.7819   0.7821   0.8556   0.9059   0.9096   0.9251   1.0041   1.0257
     1.0270   1.1166   1.1175   1.1184   1.2380   1.2751   1.2751   1.2904
     1.2915   1.3649   1.3899   1.3913   1.5066   1.5071   1.5748   1.5765
     1.6039   1.6887   1.8074   1.8076   1.8692   1.8703   1.9607   2.0075
     2.0079   2.1336   2.1361   2.8115   2.9645   3.2272   3.4222   4.7139
     4.7145   4.9376   5.4985   5.4989   6.3176   6.3660   6.5302   6.5914
     6.9005   6.9044   8.2882   8.2884   8.5678   8.5679   8.6732   8.6788
     8.8854   8.8855   9.1303   9.2159   9.7560   9.7651   9.7899  10.1095
    10.5361  10.5410  11.1433  11.3426  11.3482  11.3492  12.4591  12.4744
    12.6055  12.7838

          k = 0.3333 0.1925 0.0000 ( 32055 PWs)   bands (ev):

   -87.1290 -87.1209 -87.1201 -87.1178 -87.1158 -87.1150 -86.9166 -86.9157
   -86.9097 -86.9088 -86.9080 -86.9073 -50.6480 -50.6406 -50.6330 -50.6266
   -50.6192 -50.5929 -50.5842 -50.5724 -50.5704 -50.5595 -50.5575 -50.5547
   -50.5460 -50.5452 -50.5419 -50.5412 -50.5267 -50.5144 -50.4336 -50.4329
   -50.4100 -50.4092 -50.3584 -50.3577 -50.3547 -50.3538 -50.3529 -50.3521
   -50.3371 -50.3356 -50.3311 -50.3300 -50.3297 -50.3289 -50.3249 -50.3243
   -13.7650 -13.6774 -13.5800 -11.8627 -11.7862 -11.7000 -10.0460 -10.0460
    -9.9813  -9.9813  -9.9071  -9.9071  -6.3848  -6.3848  -6.3429  -6.3429
    -6.2909  -6.2909  -4.6352  -4.5970  -4.5486  -3.0095  -3.0095  -2.9855
    -2.9855  -2.9508  -2.9508  -2.3022  -1.7082  -1.5732  -1.2052  -1.1058
    -1.1005  -1.0414  -0.8739  -0.8233  -0.8023  -0.7820  -0.7713  -0.7697
    -0.7463  -0.7232  -0.6347  -0.6092  -0.5723  -0.4647  -0.3926  -0.3833
    -0.3672  -0.3403  -0.2649  -0.2429  -0.2311  -0.1270  -0.0875  -0.0818
    -0.0685   0.0264   0.1393   0.1577   0.2058   0.2388   0.3119   0.3513
     0.3719   0.4486   0.4559   0.5614   0.5663   0.6117   0.6922   0.7076
     0.7161   0.7513   0.7890   0.7962   0.7975   0.8175   0.8989   0.9123
     0.9651   0.9884   1.0314   1.1591   1.1705   1.2324   1.3037   1.3591
     1.3993   1.4016   1.4440   1.6119   1.6266   1.7082   1.7427   1.7804
     1.8667   1.8940   1.9086   1.9303   1.9306   1.9777   1.9940   2.0263
     2.0920   2.1229   2.3635   2.3635   2.8138   2.8141   3.0436   3.6290
     4.3459   5.2010   5.7053   5.8473   6.3461   6.8435   6.9705   7.1670
     7.1672   7.1748   7.3976   7.3976   7.6583   7.6585   7.9818   9.2011
     9.3472   9.4286   9.4442   9.7194   9.7917   9.9799  10.0332  10.3317
    10.3575  10.5859  11.3435  11.5348  11.8397  11.9046  11.9565  12.2461
    12.2686  12.3886

          k = 0.3333-0.7698 0.0000 ( 32075 PWs)   bands (ev):

   -87.1262 -87.1218 -87.1194 -87.1191 -87.1167 -87.1155 -86.9143 -86.9134
   -86.9110 -86.9101 -86.9091 -86.9083 -50.6434 -50.6377 -50.6274 -50.6264
   -50.6191 -50.5917 -50.5883 -50.5882 -50.5672 -50.5611 -50.5567 -50.5511
   -50.5488 -50.5475 -50.5355 -50.5326 -50.5322 -50.5191 -50.4292 -50.4283
   -50.4072 -50.4062 -50.3774 -50.3763 -50.3455 -50.3448 -50.3446 -50.3440
   -50.3351 -50.3339 -50.3322 -50.3311 -50.3308 -50.3307 -50.3303 -50.3298
   -13.2843 -13.1995 -13.1049 -12.3329 -12.2536 -12.1646 -11.3989 -11.3251
   -11.2418  -8.7947  -8.7417  -8.6798  -6.9291  -6.8960  -6.8530  -4.5702
    -4.5460  -4.5106  -4.5064  -4.4778  -4.4395  -3.5286  -3.4980  -3.4571
    -2.4342  -2.4164  -2.3874  -1.7305  -1.4785  -1.4609  -1.4333  -1.2452
    -1.1970  -1.1819  -1.1489  -1.1088  -0.9703  -0.9389  -0.9314  -0.9247
    -0.8993  -0.8781  -0.8727  -0.8440  -0.7099  -0.6884  -0.6151  -0.5926
    -0.5121  -0.4993  -0.4486  -0.3916  -0.3435  -0.3160  -0.1684  -0.0697
    -0.0645  -0.0602  -0.0392  -0.0226   0.0183   0.0328   0.1658   0.2480
     0.2769   0.3423   0.3496   0.3983   0.4245   0.4636   0.4830   0.5455
     0.6160   0.7093   0.7931   0.7956   0.8492   0.8918   0.9338   0.9494
     0.9792   1.0521   1.1081   1.1104   1.1227   1.1526   1.2426   1.3233
     1.4140   1.4583   1.4593   1.5437   1.5664   1.5725   1.5953   1.6728
     1.7671   1.8231   1.8349   1.8543   1.8875   1.9208   1.9617   2.0007
     2.0172   2.0423   2.1369   2.7265   3.2787   3.3623   3.6266   3.6341
     3.8313   3.9524   4.5872   4.9687   5.8982   6.0258   6.0456   6.2066
     6.4041   7.2106   7.8804   7.9591   9.0410   9.2464   9.4523   9.4971
     9.5858   9.9973  10.0638  10.1754  10.4771  10.5525  10.6969  10.8795
    10.9367  10.9965  11.2845  11.3246  11.6975  11.9438  11.9695  12.1097
    12.1222  12.3549

          k = 0.3333-0.5774 0.0000 ( 32121 PWs)   bands (ev):

   -87.1226 -87.1225 -87.1225 -87.1170 -87.1170 -87.1170 -86.9118 -86.9118
   -86.9108 -86.9107 -86.9106 -86.9106 -50.6275 -50.6274 -50.6274 -50.6208
   -50.6208 -50.6206 -50.5872 -50.5869 -50.5869 -50.5545 -50.5545 -50.5544
   -50.5439 -50.5437 -50.5437 -50.5246 -50.5245 -50.5244 -50.4080 -50.4076
   -50.4075 -50.4068 -50.4066 -50.4065 -50.3377 -50.3373 -50.3372 -50.3368
   -50.3366 -50.3365 -50.3331 -50.3330 -50.3321 -50.3317 -50.3316 -50.3314
   -12.4908 -12.4907 -12.4907 -12.4105 -12.4105 -12.4105 -12.3207 -12.3206
   -12.3206  -7.6177  -7.5608  -7.5589  -7.5578  -7.5484  -7.4954  -5.3820
    -5.3799  -5.3713  -2.7956  -2.7956  -2.7956  -2.7820  -2.7820  -2.7819
    -2.7587  -2.7587  -2.7586  -1.3897  -1.3897  -1.3897  -1.3817  -1.3817
    -1.3816  -1.3619  -1.3618  -1.3618  -1.1435  -1.1427  -1.1421  -1.1065
    -1.1056  -1.1053  -0.9274  -0.9271  -0.9261  -0.7954  -0.7951  -0.7949
    -0.7452  -0.7448  -0.7438  -0.5774  -0.5769  -0.5748  -0.3099  -0.3094
    -0.3091  -0.2381  -0.2381  -0.2381   0.1120   0.1157   0.1171   0.3100
     0.3158   0.3171   0.3802   0.3804   0.3807   0.4145   0.4165   0.4173
     0.5357   0.5360   0.5403   0.9215   0.9218   0.9252   0.9579   0.9615
     0.9626   1.2910   1.2917   1.2920   1.3592   1.3607   1.3610   1.5466
     1.5469   1.5491   1.6042   1.6044   1.6053   1.6729   1.6732   1.6736
     1.7710   1.7712   1.7714   1.8063   1.8070   1.8072   2.0108   2.0114
     2.0123   2.0454   2.0464   2.0467   2.8126   2.8137   2.8141   4.5100
     4.6011   4.6029   4.6037   4.9315   4.9332   4.9391   4.9480   5.3982
     6.9172   6.9176   6.9194   9.2898   9.2924   9.2962  10.9679  10.9682
    10.9687  11.0622  11.0629  11.0638  11.0953  11.0955  11.0960  11.1284
    11.1293  11.1308  11.2821  11.2828  11.2833  11.4700  11.4708  11.4715
    11.7969  11.7977

          k = 0.3333-0.3849 0.0000 ( 32075 PWs)   bands (ev):

   -87.1262 -87.1218 -87.1194 -87.1191 -87.1167 -87.1155 -86.9143 -86.9134
   -86.9110 -86.9101 -86.9091 -86.9083 -50.6431 -50.6378 -50.6274 -50.6264
   -50.6192 -50.5919 -50.5883 -50.5879 -50.5674 -50.5613 -50.5567 -50.5513
   -50.5489 -50.5475 -50.5353 -50.5324 -50.5324 -50.5188 -50.4292 -50.4281
   -50.4072 -50.4063 -50.3774 -50.3766 -50.3456 -50.3450 -50.3448 -50.3439
   -50.3351 -50.3339 -50.3322 -50.3312 -50.3308 -50.3307 -50.3298 -50.3297
   -13.2843 -13.1995 -13.1049 -12.3329 -12.2536 -12.1646 -11.3989 -11.3251
   -11.2418  -8.7947  -8.7417  -8.6798  -6.9291  -6.8960  -6.8530  -4.5702
    -4.5460  -4.5106  -4.5064  -4.4778  -4.4395  -3.5286  -3.4980  -3.4571
    -2.4342  -2.4164  -2.3874  -1.7305  -1.4785  -1.4609  -1.4333  -1.2461
    -1.1963  -1.1826  -1.1489  -1.1075  -0.9709  -0.9389  -0.9310  -0.9247
    -0.8993  -0.8769  -0.8736  -0.8450  -0.7085  -0.6905  -0.6151  -0.5908
    -0.5119  -0.4993  -0.4505  -0.3933  -0.3420  -0.3166  -0.1691  -0.0698
    -0.0645  -0.0601  -0.0392  -0.0239   0.0226   0.0276   0.1729   0.2459
     0.2836   0.3478   0.3482   0.3931   0.4146   0.4636   0.4847   0.5455
     0.6176   0.7177   0.7924   0.7933   0.8453   0.8948   0.9376   0.9469
     0.9792   1.0505   1.1045   1.1101   1.1247   1.1575   1.2426   1.3218
     1.4156   1.4588   1.4612   1.5437   1.5629   1.5730   1.5916   1.6716
     1.7649   1.8239   1.8344   1.8543   1.8917   1.9185   1.9623   1.9963
     2.0180   2.0417   2.1352   2.7268   3.2787   3.3621   3.6266   3.6346
     3.8300   3.9524   4.5879   4.9697   5.9008   6.0323   6.0456   6.2066
     6.4041   7.2117   7.8861   7.9627   9.0410   9.2464   9.4523   9.4869
     9.5868   9.9973  10.0637  10.1687  10.4770  10.5525  10.6969  10.8785
    10.9366  10.9969  11.2844  11.3246  11.6975  11.9439  11.9692  12.0868
    12.1221  12.3548

          k =-0.5000 0.2887 0.0000 ( 32112 PWs)   bands (ev):

   -87.1245 -87.1245 -87.1183 -87.1181 -87.1181 -87.1151 -86.9133 -86.9127
   -86.9121 -86.9121 -86.9084 -86.9076 -50.6524 -50.6454 -50.6246 -50.6245
   -50.5985 -50.5985 -50.5855 -50.5788 -50.5787 -50.5628 -50.5529 -50.5506
   -50.5505 -50.5408 -50.5408 -50.5320 -50.5286 -50.5285 -50.4381 -50.4372
   -50.3865 -50.3860 -50.3855 -50.3854 -50.3454 -50.3449 -50.3397 -50.3390
   -50.3385 -50.3384 -50.3341 -50.3335 -50.3328 -50.3327 -50.3302 -50.3291
   -12.9655 -12.9654 -12.8825 -12.8825 -12.7898 -12.7898 -10.1899 -10.1899
   -10.1238 -10.1238 -10.0481 -10.0481  -5.5362  -5.5362  -5.5154  -5.5154
    -5.4861  -5.4861  -3.8622  -3.8621  -3.8495  -3.8495  -3.8248  -3.8248
    -2.4599  -2.4598  -2.4327  -2.4327  -2.3950  -2.3950  -1.3592  -1.3552
    -1.3548  -1.2683  -1.2022  -0.9447  -0.9091  -0.9085  -0.8013  -0.7836
    -0.7836  -0.6948  -0.6944  -0.5171  -0.5116  -0.5108  -0.4730  -0.4726
    -0.3819  -0.3814  -0.2382  -0.2381  -0.1467  -0.1463  -0.0675  -0.0675
    -0.0567  -0.0566  -0.0344  -0.0344   0.0412   0.0416   0.0424   0.0855
     0.1165   0.1171   0.2923   0.2930   0.3025   0.3369   0.3371   0.3897
     0.3910   0.6365   0.6368   0.6936   0.6937   0.8737   0.9389   0.9395
     0.9400   1.1281   1.1284   1.2449   1.2582   1.2582   1.4991   1.5313
     1.5314   1.6246   1.6250   1.7178   1.7264   1.7268   1.8232   1.8239
     1.8878   1.8911   1.8916   1.9936   2.0159   2.0756   2.0762   2.1025
     2.2475   2.2623   2.2828   2.2829   2.5388   2.5392   2.7737   2.7744
     4.1289   4.1294   5.0821   5.9048   6.3794   6.3798   6.4369   6.6461
     7.4788   7.4791   7.6801   7.6802   7.8749   7.8752   8.5708   8.5721
     9.0683   9.6281  10.3495  10.4267  10.4271  10.4849  10.4850  10.9431
    10.9437  11.4363  11.4369  11.5807  11.7763  11.7767  11.9025  11.9043
    12.1658  12.1677

          k =-0.5000 0.4811 0.0000 ( 32075 PWs)   bands (ev):

   -87.1262 -87.1219 -87.1194 -87.1191 -87.1166 -87.1155 -86.9143 -86.9134
   -86.9110 -86.9101 -86.9091 -86.9083 -50.6431 -50.6378 -50.6274 -50.6264
   -50.6192 -50.5919 -50.5885 -50.5878 -50.5673 -50.5613 -50.5568 -50.5513
   -50.5489 -50.5473 -50.5353 -50.5324 -50.5323 -50.5189 -50.4292 -50.4281
   -50.4073 -50.4064 -50.3773 -50.3765 -50.3456 -50.3450 -50.3447 -50.3438
   -50.3351 -50.3340 -50.3322 -50.3312 -50.3309 -50.3307 -50.3299 -50.3297
   -13.2843 -13.1995 -13.1049 -12.3329 -12.2536 -12.1646 -11.3989 -11.3251
   -11.2418  -8.7947  -8.7417  -8.6798  -6.9291  -6.8960  -6.8530  -4.5702
    -4.5460  -4.5106  -4.5064  -4.4778  -4.4395  -3.5286  -3.4980  -3.4571
    -2.4342  -2.4164  -2.3874  -1.7305  -1.4785  -1.4609  -1.4333  -1.2461
    -1.1964  -1.1824  -1.1489  -1.1076  -0.9707  -0.9389  -0.9305  -0.9247
    -0.8993  -0.8769  -0.8740  -0.8454  -0.7109  -0.6903  -0.6151  -0.5908
    -0.5129  -0.4993  -0.4502  -0.3907  -0.3421  -0.3161  -0.1684  -0.0698
    -0.0645  -0.0601  -0.0392  -0.0234   0.0247   0.0260   0.1714   0.2462
     0.2828   0.3488   0.3491   0.3989   0.4147   0.4636   0.4833   0.5455
     0.6160   0.7124   0.7857   0.7922   0.8484   0.8987   0.9370   0.9457
     0.9792   1.0521   1.1068   1.1104   1.1246   1.1592   1.2413   1.3208
     1.4142   1.4576   1.4604   1.5437   1.5612   1.5725   1.5954   1.6725
     1.7677   1.8242   1.8344   1.8535   1.8883   1.9168   1.9627   1.9969
     2.0183   2.0425   2.1374   2.7266   3.2787   3.3625   3.6266   3.6358
     3.8300   3.9524   4.5878   4.9679   5.8994   6.0321   6.0456   6.2066
     6.4041   7.2127   7.8859   7.9608   9.0410   9.2464   9.4523   9.4869
     9.5895   9.9972  10.0637  10.1687  10.4770  10.5524  10.6969  10.8786
    10.9366  10.9967  11.2846  11.3247  11.6981  11.9439  11.9692  12.0866
    12.1220  12.3564

          k =-0.5000 0.6736 0.0000 ( 32075 PWs)   bands (ev):

   -87.1262 -87.1218 -87.1194 -87.1191 -87.1166 -87.1155 -86.9143 -86.9134
   -86.9110 -86.9101 -86.9091 -86.9083 -50.6434 -50.6377 -50.6274 -50.6263
   -50.6190 -50.5919 -50.5883 -50.5882 -50.5672 -50.5612 -50.5567 -50.5511
   -50.5488 -50.5475 -50.5354 -50.5326 -50.5322 -50.5190 -50.4292 -50.4283
   -50.4072 -50.4062 -50.3773 -50.3764 -50.3455 -50.3447 -50.3446 -50.3441
   -50.3351 -50.3339 -50.3322 -50.3311 -50.3309 -50.3307 -50.3301 -50.3298
   -13.2843 -13.1995 -13.1049 -12.3329 -12.2536 -12.1646 -11.3989 -11.3251
   -11.2418  -8.7947  -8.7417  -8.6798  -6.9291  -6.8960  -6.8530  -4.5702
    -4.5460  -4.5106  -4.5064  -4.4778  -4.4395  -3.5286  -3.4980  -3.4571
    -2.4342  -2.4164  -2.3874  -1.7305  -1.4785  -1.4609  -1.4333  -1.2451
    -1.1963  -1.1819  -1.1489  -1.1090  -0.9710  -0.9389  -0.9316  -0.9247
    -0.8993  -0.8771  -0.8723  -0.8440  -0.7109  -0.6885  -0.6151  -0.5927
    -0.5126  -0.4993  -0.4485  -0.3919  -0.3424  -0.3162  -0.1687  -0.0697
    -0.0645  -0.0602  -0.0392  -0.0233   0.0165   0.0318   0.1677   0.2485
     0.2776   0.3450   0.3496   0.3975   0.4228   0.4636   0.4840   0.5455
     0.6147   0.7108   0.7932   0.7960   0.8494   0.8912   0.9335   0.9495
     0.9792   1.0523   1.1082   1.1109   1.1232   1.1525   1.2419   1.3232
     1.4139   1.4583   1.4593   1.5437   1.5663   1.5724   1.5952   1.6733
     1.7666   1.8228   1.8347   1.8546   1.8894   1.9203   1.9611   2.0004
     2.0163   2.0423   2.1357   2.7265   3.2787   3.3629   3.6266   3.6348
     3.8314   3.9524   4.5872   4.9686   5.8986   6.0259   6.0456   6.2066
     6.4041   7.2105   7.8805   7.9601   9.0410   9.2464   9.4523   9.4970
     9.5841   9.9973  10.0638  10.1754  10.4771  10.5525  10.6969  10.8795
    10.9367  10.9966  11.2843  11.3246  11.6976  11.9439  11.9686  12.1098
    12.1221  12.3548

          k =-0.5000-0.2887 0.0000 ( 32112 PWs)   bands (ev):

   -87.1245 -87.1245 -87.1184 -87.1181 -87.1181 -87.1151 -86.9133 -86.9127
   -86.9121 -86.9121 -86.9084 -86.9076 -50.6527 -50.6453 -50.6246 -50.6245
   -50.5984 -50.5983 -50.5859 -50.5786 -50.5786 -50.5625 -50.5527 -50.5505
   -50.5504 -50.5409 -50.5408 -50.5319 -50.5289 -50.5288 -50.4381 -50.4374
   -50.3865 -50.3859 -50.3853 -50.3852 -50.3454 -50.3445 -50.3397 -50.3391
   -50.3387 -50.3387 -50.3341 -50.3335 -50.3328 -50.3327 -50.3302 -50.3293
   -12.9655 -12.9654 -12.8825 -12.8825 -12.7898 -12.7898 -10.1899 -10.1899
   -10.1238 -10.1238 -10.0481 -10.0481  -5.5362  -5.5362  -5.5154  -5.5154
    -5.4861  -5.4861  -3.8622  -3.8621  -3.8495  -3.8495  -3.8248  -3.8248
    -2.4598  -2.4598  -2.4327  -2.4327  -2.3950  -2.3950  -1.3582  -1.3551
    -1.3549  -1.2678  -1.2033  -0.9435  -0.9083  -0.9077  -0.7994  -0.7836
    -0.7836  -0.6942  -0.6938  -0.5148  -0.5129  -0.5121  -0.4738  -0.4733
    -0.3832  -0.3825  -0.2389  -0.2387  -0.1466  -0.1464  -0.0675  -0.0675
    -0.0567  -0.0567  -0.0344  -0.0344   0.0336   0.0445   0.0448   0.0800
     0.1154   0.1160   0.2890   0.2895   0.3049   0.3378   0.3380   0.3933
     0.3945   0.6339   0.6341   0.7006   0.7008   0.8776   0.9279   0.9281
     0.9488   1.1297   1.1301   1.2362   1.2586   1.2588   1.4978   1.5343
     1.5347   1.6272   1.6276   1.7239   1.7244   1.7265   1.8234   1.8237
     1.8869   1.8952   1.8956   1.9902   2.0154   2.0753   2.0759   2.1008
     2.2479   2.2627   2.2828   2.2828   2.5388   2.5393   2.7739   2.7742
     4.1275   4.1282   5.0888   5.9142   6.3772   6.3779   6.4202   6.6254
     7.4789   7.4790   7.6801   7.6802   7.8749   7.8751   8.5682   8.5696
     9.0840   9.6359  10.3508  10.4268  10.4270  10.4849  10.4850  10.9432
    10.9438  11.4364  11.4365  11.6106  11.7764  11.7766  11.9029  11.9038
    12.1663  12.1672

     the Fermi energy is     4.9562 ev

!    total energy              =   -3891.04025686 Ry
     estimated scf accuracy    <          5.5E-09 Ry
     smearing contrib. (-TS)   =      -0.00140547 Ry
     internal energy E=F+TS    =   -3891.03885139 Ry

     The total energy is F=E-TS. E is the sum of the following terms:
     one-electron contribution =  -27255.89933517 Ry
     hartree contribution      =   13676.41520627 Ry
     xc contribution           =    -435.96870418 Ry
     ewald contribution        =   10273.02567506 Ry
     DFT-D3 Dispersion         =      -0.63023855 Ry
     electric field correction =       0.00000084 Ry
     one-center paw contrib.   =    -147.98145566 Ry

     convergence has been achieved in  25 iterations

     negative rho (up, down):  8.907E-05 0.000E+00

     Forces acting on atoms (cartesian axes, Ry/au):

     atom    1 type  1   force =    -0.00007637    0.00036926    0.00122739
     atom    2 type  1   force =    -0.00012148    0.00040599    0.00124254
     atom    3 type  1   force =     0.00027256   -0.00016089   -0.00143998
     atom    4 type  1   force =     0.00000855   -0.00033659   -0.00086184
     atom    5 type  1   force =    -0.00009009    0.00037607    0.00124015
     atom    6 type  1   force =     0.00016555   -0.00000690   -0.00136228
     atom    7 type  1   force =    -0.00008977    0.00000168    0.00110373
     atom    8 type  1   force =     0.00000490   -0.00033592   -0.00086480
     atom    9 type  1   force =    -0.00021709    0.00004879    0.00085832
     atom   10 type  1   force =     0.00028467    0.00008785   -0.00130755
     atom   11 type  1   force =     0.00000843   -0.00033664   -0.00086132
     atom   12 type  1   force =    -0.00012956   -0.00000912    0.00109417
     atom   13 type  2   force =    -0.00000471   -0.00000071    0.00012085
     atom   14 type  2   force =    -0.00000125   -0.00000263   -0.00045738
     atom   15 type  2   force =    -0.00000166   -0.00000272    0.00128828
     atom   16 type  2   force =    -0.00000338   -0.00000636   -0.00050305
     atom   17 type  2   force =     0.00000292   -0.00000184   -0.00051591
     atom   18 type  2   force =    -0.00000025   -0.00000559    0.00122786
     atom   19 type  2   force =     0.00000009   -0.00000699   -0.00045662
     atom   20 type  2   force =     0.00000171   -0.00000677    0.00017004
     atom   21 type  2   force =    -0.00000160   -0.00000322   -0.00026154
     atom   22 type  2   force =     0.00000412   -0.00000850    0.00011369
     atom   23 type  2   force =    -0.00000139   -0.00000283   -0.00025907
     atom   24 type  2   force =     0.00000155   -0.00000668    0.00010191
     atom   25 type  2   force =    -0.00000196   -0.00000278   -0.00025628
     atom   26 type  2   force =    -0.00000409   -0.00000665    0.00012053
     atom   27 type  2   force =    -0.00000215   -0.00000263   -0.00025816
     atom   28 type  2   force =    -0.00000159   -0.00000200    0.00012114
     atom   29 type  2   force =    -0.00000170   -0.00000265   -0.00006453
     atom   30 type  2   force =     0.00000003   -0.00000618   -0.00002560
     atom   31 type  2   force =    -0.00000169   -0.00000258   -0.00006319
     atom   32 type  2   force =     0.00000015   -0.00000600   -0.00002528
     atom   33 type  2   force =    -0.00000161   -0.00000263   -0.00006505
     atom   34 type  2   force =    -0.00000010   -0.00000603   -0.00002926
     atom   35 type  2   force =    -0.00000168   -0.00000262   -0.00006501
     atom   36 type  2   force =    -0.00000008   -0.00000597   -0.00002687

     Total force =     0.004605     Total SCF correction =     0.000385

     Writing all to output data dir ./tmp/AGC_N3_top_hcp_dft_far.save/ :
     XML data file, charge density, pseudopotentials, collected wavefunctions
 
     init_run     :     27.21s CPU     28.29s WALL (       1 calls)
     electrons    :   1657.75s CPU   1690.18s WALL (       1 calls)
     forces       :     13.45s CPU     13.86s WALL (       1 calls)
     force_dftd3  :      0.01s CPU      0.01s WALL (       1 calls)

     Called by init_run:
     wfcinit      :     19.72s CPU     20.64s WALL (       1 calls)
     potinit      :      6.55s CPU      6.60s WALL (       1 calls)
     hinit0       :      0.37s CPU      0.40s WALL (       1 calls)

     Called by electrons:
     c_bands      :   1250.66s CPU   1274.23s WALL (      25 calls)
     sum_band     :    246.50s CPU    254.02s WALL (      25 calls)
     v_of_rho     :      4.35s CPU      4.75s WALL (      26 calls)
     newd         :      3.73s CPU      3.76s WALL (      26 calls)
                                        3.76s GPU  (      26 calls)
     PAW_pot      :    115.23s CPU    115.16s WALL (      26 calls)
     mix_rho      :     40.82s CPU     41.50s WALL (      25 calls)
     energy_dftd3 :      0.00s CPU      0.00s WALL (       1 calls)

     Called by c_bands:
     init_us_2    :     60.37s CPU     60.52s WALL (    1040 calls)
     cegterg      :   1163.54s CPU   1164.04s WALL (     500 calls)

     Called by *egterg:
     cdiaghg      :     74.55s CPU     74.73s WALL (    2670 calls)
                                       72.24s GPU  (    2670 calls)
     h_psi        :    604.89s CPU    608.56s WALL (    2690 calls)
                                      607.03s GPU  (    2690 calls)
     s_psi        :     68.56s CPU     68.58s WALL (    2690 calls)
     g_psi        :      0.01s CPU      2.35s WALL (    2170 calls)
                                        0.75s GPU  (    2170 calls)

     Called by h_psi:
     h_psi:calbec :      0.18s CPU    112.65s WALL (    2690 calls)
                                      111.36s GPU  (    2690 calls)
     vloc_psi     :    349.73s CPU    351.16s WALL (    2690 calls)
                                      349.74s GPU  (    2690 calls)
     add_vuspsi   :     46.31s CPU    134.65s WALL (    2690 calls)
                                      133.25s GPU  (    2690 calls)

     General routines
     calbec       :      0.20s CPU      0.21s WALL (    3270 calls)
     fft          :      1.81s CPU      2.44s WALL (     347 calls)
                                        0.34s GPU  (     321 calls)
     ffts         :      0.65s CPU      2.94s WALL (    2631 calls)
                                        0.90s GPU  (    2605 calls)
     fftw         :      0.68s CPU    209.94s WALL (   36972 calls)
                                      185.79s GPU  (   36972 calls)
     interpolate  :      2.52s CPU      2.79s WALL (      26 calls)
     davcio       :      1.24s CPU     32.49s WALL (    1966 calls)
 
     Parallel routines
 
     PWSCF        :  28m18.82s CPU  28m53.68s WALL

 
   This run was terminated on:   5:57:46   5Oct2026            

=------------------------------------------------------------------------------=
   JOB DONE.
=------------------------------------------------------------------------------=
