332
Lattice="10.055095635733188 0.0 0.0 0.0 20.110191271466377 0.0 0.0 0.0 48.138382209668734" Properties=species:S:1:pos:R:3 source=db/raw/wad_sese_4L_2026_09_25/s_outer_relaxed_final_coords.txt source_sha256=504e0b081aa2d05a71b55ee97c6ae0129250bd1a820e41a00c55446ee89b86c8 charge=0 spin=0 pbc="T T F"
P        4.66149300       2.33600800       3.10503600
P       -0.36611200       7.36358000       3.10492800
P       -0.15381200       2.34483700       8.09159000
P        4.87356200       7.37246200       8.09170400
S        5.88041700       3.48769500       4.28211100
S        0.85293400       8.51532000       4.28186200
S        3.35766900       1.17496600       4.20088900
S        8.38518100       6.20250900       4.20078600
S        3.64705100       3.56575400       1.79941200
S        8.67455300       8.59322900       1.79918200
S        8.66814300       3.52275500       6.90754900
S        3.64071900       8.55019000       6.90710200
S        5.71989200       0.97894500       1.89980100
S        0.69220300       6.00645500       1.89976600
S        0.90032700       1.03766500       6.88919800
S        5.92778700       6.06495200       6.88975000
Li       3.54918400       1.50267500       0.50011500
Li       8.57670000       6.53013300       0.50000000
Li       7.81484800       2.09662400       5.16474100
Li       2.78707600       7.12420300       5.16473300
Li       2.59844900       5.16866400       3.29565500
Li       7.62604500       0.14106900       3.29560200
Li       6.81383100      10.45238400       7.92990400
Li       1.78548500       5.42555800       7.93016200
Li       3.73542500       9.35715500       2.41796100
Li       8.76299500       4.32960100       2.41793200
Li       4.34524200       4.09971200       6.21129900
Li       9.37316700       9.12720500       6.21112500
Li       6.98179500       2.57201100       0.67776200
Li       1.95425600       7.59975900       0.67777200
Li       0.68376400       0.14648500       2.22429200
Li       5.71135500       5.17405700       2.22443400
Li       4.90721000       0.37908300       5.86215700
Li      -0.12053000       5.40705700       5.86245800
Li       1.44704700       2.61547900       5.05529600
Li       6.47450400       7.64287900       5.05552100
Cl       9.66153100       7.21527500       8.00165400
Cl       4.39140200       7.11114500       3.26705900
Cl       9.41896800       2.08364600       3.26701900
S        2.29217500       9.74547800       0.61720500
S        7.31969600       4.71803100       0.61721900
S        7.17402200       9.89571000       5.60511100
S        2.14628900       4.86827200       5.60514400
P        4.85917611       2.68804758      12.94370103
P       -0.15785421       7.70904333      12.95503451
P       -0.42278065       2.72127534      17.80991287
P        4.66449463       7.74689372      17.86914312
S        5.91543367       3.98314111      14.14617176
S        0.89629036       9.00438829      14.15876511
S        0.96032200       3.55168300       9.29272200
S        5.98770400       8.57960400       9.29261600
S        3.64194186       1.50298882      14.12531941
S        8.68166454       6.51968423      14.13477184
S        8.70860000       1.14654400       9.32327800
S        3.68066400       6.17464100       9.32351800
S        3.66877039       3.89616633      11.74312826
S        8.70498726       8.91491852      11.75341675
S        8.29346195       3.90352633      16.80116363
S        3.30148230       8.89289486      16.85649426
S        5.96852366       1.49670062      11.73616874
S        0.95302053       6.51408781      11.75191793
S        0.78978871       1.60846021      16.60383436
S        5.86603493       6.60369785      16.67760265
Li       2.75221100       2.21974300      10.28008800
Li       7.77722300       7.24780100      10.28266300
Li       9.32992082       0.90666600      14.72063779
Li       4.32501173       5.93834075      14.76502540
Li       7.89275500       5.34625200       8.31295200
Li       2.86435600       0.31772500       8.31259600
Li       1.75064178       4.61756023      13.09686408
Li       6.77227424      -0.41509779      13.05790425
Li       7.65544261       9.83970243      17.75006222
Li       2.61139833       4.86276561      17.72321913
Li       2.85659877       9.71465793      12.74553531
Li       7.87572923       4.70148222      12.74660585
Li       2.76436235       2.94385426      15.80863204
Li       7.82410076       7.94912564      15.83017993
Li       7.76909110       2.82024053      10.77013875
Li       2.71493037       7.84169951      10.74351862
Li       0.13747893       1.00225779      11.45633185
Li       5.16254500       6.02661816      11.47327142
Li       6.42895299       2.38093977      15.93093716
Li       1.39104168       7.40835664      15.95857031
Li      -0.13522538       4.59861609      15.13873727
Li       4.88965390       9.62145065      15.14933417
Li       5.16655600       4.06245100       9.56726400
Li       0.13962000       9.08800700       9.56881100
Cl       9.49769229       7.93465483      17.69527691
Cl       4.63278700       2.18843600       8.00286400
Cl       4.65691241       7.89111982      13.09868569
Cl       9.66086372       2.86737808      13.05480736
S        2.09926120      10.06099173      10.53584948
S        7.12510900       5.03665135      10.53544028
S        7.16678008      10.18628569      15.44743433
S        2.13741440       5.19061440      15.42358012
S        0.65996920       4.04981339      19.01260668
S        5.72815651       9.04537420      19.10014950
S        8.67002502       1.44981722      19.10675407
S        3.74717922       6.46251624      19.21507772
Li       1.61390301       2.41475825      20.45492638
Li       5.97143057       7.04661760      20.46173186
Li       8.83907862       5.77516176      18.64605167
Li       3.80432274       0.70830043      18.48398612
Li       8.80781151       3.40036356      20.49383516
Li       3.57504747       8.53588293      20.48115716
Li       5.73910210       4.72538273      18.56074083
Li       0.77346447       9.83377014      18.56807345
Cl       4.41747338       2.91501933      17.65293822
S        2.30210853      10.46024548      20.35645937
S        7.26059821       5.13302124      20.37579894
P        4.66149300      12.39110364       3.10503600
P       -0.36611200      17.41867564       3.10492800
P       -0.15381200      12.39993264       8.09159000
P        4.87356200      17.42755764       8.09170400
S        5.88041700      13.54279064       4.28211100
S        0.85293400      18.57041564       4.28186200
S        3.35766900      11.23006164       4.20088900
S        8.38518100      16.25760464       4.20078600
S        3.64705100      13.62084964       1.79941200
S        8.67455300      18.64832464       1.79918200
S        8.66814300      13.57785064       6.90754900
S        3.64071900      18.60528564       6.90710200
S        5.71989200      11.03404064       1.89980100
S        0.69220300      16.06155064       1.89976600
S        0.90032700      11.09276064       6.88919800
S        5.92778700      16.12004764       6.88975000
Li       3.54918400      11.55777064       0.50011500
Li       8.57670000      16.58522864       0.50000000
Li       7.81484800      12.15171964       5.16474100
Li       2.78707600      17.17929864       5.16473300
Li       2.59844900      15.22375964       3.29565500
Li       7.62604500      10.19616464       3.29560200
Li       6.81383100      20.50747964       7.92990400
Li       1.78548500      15.48065364       7.93016200
Li       3.73542500      19.41225064       2.41796100
Li       8.76299500      14.38469664       2.41793200
Li       4.34524200      14.15480764       6.21129900
Li       9.37316700      19.18230064       6.21112500
Li       6.98179500      12.62710664       0.67776200
Li       1.95425600      17.65485464       0.67777200
Li       0.68376400      10.20158064       2.22429200
Li       5.71135500      15.22915264       2.22443400
Li       4.90721000      10.43417864       5.86215700
Li      -0.12053000      15.46215264       5.86245800
Li       1.44704700      12.67057464       5.05529600
Li       6.47450400      17.69797464       5.05552100
Cl       9.66153100      17.27037064       8.00165400
Cl       4.39140200      17.16624064       3.26705900
Cl       9.41896800      12.13874164       3.26701900
S        2.29217500      19.80057364       0.61720500
S        7.31969600      14.77312664       0.61721900
S        7.17402200      19.95080564       5.60511100
S        2.14628900      14.92336764       5.60514400
P        4.87532227      12.72663118      12.95128376
P       -0.15776523      17.76106460      12.93472766
P       -0.34377177      12.78457126      17.81907853
P        4.64719201      17.82055583      17.78356679
S        5.92121143      14.02779621      14.15360008
S        0.88483208      19.06089099      14.14131233
S        0.96032200      13.60677864       9.29272200
S        5.98770400      18.63469964       9.29261600
S        3.65389754      11.53940585      14.12755314
S        8.67691208      16.57217185      14.10884705
S        8.70860000      11.20163964       9.32327800
S        3.68066400      16.22973664       9.32351800
S        3.68566934      13.93248446      11.74410840
S        8.70760707      18.96987437      11.73140215
S        8.35184011      13.89488264      16.77062158
S        3.28867020      18.93195723      16.73543018
S        5.99410830      11.53042145      11.75876773
S        0.96286450      16.57239936      11.73737078
S        0.86441462      11.62294267      16.64827881
S        5.86402237      16.68943023      16.59531413
Li       2.75221100      12.27483864      10.28008800
Li       7.77722300      17.30289664      10.28266300
Li       9.34790052      10.96474511      14.77414300
Li       4.30708984      15.99985060      14.74108725
Li       7.89275500      15.40134764       8.31295200
Li       2.86435600      10.37282064       8.31259600
Li       1.75936820      14.66792344      13.08359189
Li       6.77821434       9.62339295      13.11403482
Li       7.57758718      19.94156894      17.67501754
Li       2.60655701      14.89509265      17.71884002
Li       2.82905953      19.79661463      12.74488494
Li       7.87347132      14.74293664      12.74204284
Li       2.79535202      12.98953679      15.80597614
Li       7.82066290      18.03023504      15.78151698
Li       7.75862882      12.86862402      10.75851128
Li       2.76914393      17.90822829      10.78777499
Li       0.13658398      11.05307130      11.47146410
Li       5.16525503      16.07211631      11.46248138
Li       6.43533259      12.42188676      15.94991484
Li       1.37641729      17.45588867      15.94348835
Li      -0.12904254      14.64664204      15.09608775
Li       4.88807755      19.67073394      15.08232919
Li       5.16655600      14.11754664       9.56726400
Li       0.13962000      19.14310264       9.56881100
Cl       9.48598730      18.00569567      17.59361855
Cl       4.63278700      12.24353164       8.00286400
Cl       4.62446068      17.94844911      13.03190913
Cl       9.67486557      12.91548211      13.07107347
S        2.09970704      20.11852145      10.53108554
S        7.12819738      15.08610454      10.53208687
S        7.14963569      20.26635902      15.37607176
S        2.13517208      15.22711952      15.41293203
S        0.69933859      14.09241110      19.03892079
S        5.67583132      19.15792251      18.99916936
S        8.77778749      11.49025743      19.15465432
S        3.74099346      16.53726021      19.13254709
Li       0.77712529      12.17457995      20.46711282
Li       5.98413524      17.26266184      20.41919065
Li       8.96919826      15.84161031      18.54192772
Li       3.91153450      10.86796041      18.63724921
Li       8.26399426      13.43555507      20.45291652
Li       3.51224515      18.55589208      20.42864299
Li       5.72211422      14.91117048      18.47369724
Li       0.52419933      19.95182186      18.53381178
Cl       4.49630969      12.97745767      17.62899620
S        2.16806096      20.35571534      20.13219267
S        7.30532129      15.45677585      20.13806535
Ag       9.86247439       7.84017175      22.69452678
Ag       9.80728523      10.71923948      22.71654872
Ag       9.87336705      13.57528193      22.75184248
Ag       9.86581971      16.45464811      22.68112421
Ag       9.85607415      19.33783689      22.66593771
Ag       9.87237854      22.22272783      22.74687637
Ag       9.91835812      25.06779908      22.70281789
Ag      12.34256258       9.28057627      22.71312181
Ag      12.40220429      12.15046823      22.67385025
Ag      12.36175777      15.00870332      22.65945133
Ag      12.35324498      17.86533773      22.76489541
Ag      12.39918830      20.75765485      22.63270790
Ag      12.39194594      23.68218353      22.76457762
Ag      12.39433645      26.53919427      22.66411115
Ag      14.89100362       7.84830579      22.82343170
Ag      14.91334059      10.70057745      22.68028277
Ag      14.89009200      13.58423629      22.67510780
Ag      14.83317055      16.47723092      22.74362616
Ag      14.94003010      19.31313341      22.71880419
Ag      14.88565078      22.20788671      22.68559553
Ag      14.86870320      25.09959384      22.67264805
Ag      17.38398141       9.26204877      22.66685263
Ag      17.39591058      12.12708303      22.72825097
Ag      17.38580820      15.03484905      22.63790616
Ag      17.41721711      17.92357101      22.73609266
Ag      17.41639931      20.79034473      22.65162882
Ag      17.37841831      23.64145339      22.70217317
Ag      17.44051131      26.51734868      22.68828175
Ag      10.70262117       9.28382567      25.07138097
Ag      10.72594492      12.13959429      25.06992406
Ag      10.70224530      15.03543676      25.07263857
Ag      10.68960078      17.90439363      25.06464880
Ag      10.73418118      20.76460045      25.04923949
Ag      10.71346959      23.64613863      25.10362253
Ag      10.70866452      26.51804059      25.05614630
Ag      13.19809427       7.86102974      25.08735070
Ag      13.22321709      10.71188042      25.06784667
Ag      13.21967540      13.58548534      25.03154912
Ag      13.21310644      16.45168867      25.10500641
Ag      13.22536914      19.34323855      25.05863095
Ag      13.21851333      22.18834674      25.04783472
Ag      13.24250710      25.10412064      25.08888349
Ag      15.73746565       9.29608302      25.10213099
Ag      15.72346971      12.15327420      25.05758835
Ag      15.74612589      15.02326171      25.04714376
Ag      15.74366130      17.88947103      25.09286341
Ag      15.73760366      20.77887160      25.05565668
Ag      15.73092486      23.65384728      25.05376034
Ag      15.76077067      26.50298671      25.08742567
Ag      18.24074846       7.83588214      25.04252106
Ag      18.24862487      10.71158367      25.09378299
Ag      18.23506814      13.60485216      25.05393721
Ag      18.24147710      16.44649163      25.05409298
Ag      18.26192836      19.35322484      25.05671824
Ag      18.24073552      22.22129399      25.05703071
Ag      18.25761322      25.07907368      25.06927014
Ag      11.54811338       7.84430937      27.42654568
Ag      11.55875942      10.71406535      27.42782067
Ag      11.56192332      13.59357723      27.40012605
Ag      11.54821703      16.46970871      27.42142110
Ag      11.55939699      19.33484776      27.41491160
Ag      11.56400618      22.20465867      27.41805491
Ag      11.56138299      25.09073118      27.41633764
Ag      14.06775285       9.28482303      27.43512838
Ag      14.06720024      12.15597794      27.40763131
Ag      14.07726099      15.01790671      27.40214288
Ag      14.07000399      17.90490795      27.41858386
Ag      14.07482667      20.77331174      27.41358565
Ag      14.07269440      23.64005743      27.40339115
Ag      14.07811191      26.52960869      27.42217972
Ag      16.58895258       7.84705579      27.42197520
Ag      16.58413362      10.72854067      27.42621122
Ag      16.58328289      13.58962993      27.41042313
Ag      16.58575848      16.45605506      27.42285103
Ag      16.58934017      19.34211781      27.40237030
Ag      16.58313726      22.21264729      27.40677145
Ag      16.58837685      25.07632350      27.43068960
Ag      19.09685869       9.27364608      27.41318361
Ag      19.10376711      12.16338145      27.40271657
Ag      19.09577861      15.02763460      27.41825836
Ag      19.09019976      17.89883916      27.40405152
Ag      19.10790694      20.78017250      27.39221942
Ag      19.09616144      23.64659662      27.42483535
Ag      19.09769657      26.52065200      27.41179672
Ag       9.89009867       7.84653632      29.79451233
Ag       9.89027191      10.72076301      29.77689039
Ag       9.89672762      13.59276076      29.77819388
Ag       9.88979390      16.46750789      29.78471018
Ag       9.89146829      19.33855528      29.76930942
Ag       9.89543113      22.20841031      29.78256788
Ag       9.89350429      25.08409968      29.78185117
Ag      12.40513210       9.28263578      29.79732200
Ag      12.40704339      12.15795318      29.78033876
Ag      12.40807819      15.02884377      29.76748783
Ag      12.40727271      17.90234625      29.78799612
Ag      12.40961901      20.77242963      29.78402664
Ag      12.40869106      23.64703687      29.77584869
Ag      12.40798528      26.52108152      29.78674669
Ag      14.92265050       7.84693170      29.79801747
Ag      14.91934681      10.72360706      29.78904182
Ag      14.92137177      13.59225488      29.78137340
Ag      14.91859323      16.46349332      29.77915365
Ag      14.92380608      19.33785111      29.77988541
Ag      14.92214116      22.21094494      29.78236039
Ag      14.91890399      25.08202546      29.78178021
Ag      17.43406748       9.28500454      29.78338395
Ag      17.43878526      12.15979291      29.78146410
Ag      17.43458368      15.02731147      29.78742844
Ag      17.43316936      17.90238827      29.77723163
Ag      17.43814214      20.77471845      29.76317075
Ag      17.43560924      23.64410119      29.79291143
Ag      17.43530177      26.51938077      29.78794395
