114
Lattice="10.055095635733188 0.0 0.0 0.0 10.055095635733188 0.0 0.0 0.0 39.447831118881126" Properties=species:S:1:pos:R:3 source=db/raw/wad_sese_4L_2026_09_25/s_outer_relaxed_final_coords.txt source_sha256=504e0b081aa2d05a71b55ee97c6ae0129250bd1a820e41a00c55446ee89b86c8 charge=0 spin=0 pbc="T T F"
P        4.66149300       2.33600800       3.10503600
P       -0.36611200       7.36358000       3.10492800
P       -0.15381200       2.34483700       8.09159000
P        4.87356200       7.37246200       8.09170400
S        5.88041700       3.48769500       4.28211100
S        0.85293400       8.51532000       4.28186200
S        3.35766900       1.17496600       4.20088900
S        8.38518100       6.20250900       4.20078600
S        3.64705100       3.56575400       1.79941200
S        8.67455300       8.59322900       1.79918200
S        8.66814300       3.52275500       6.90754900
S        3.64071900       8.55019000       6.90710200
S        5.71989200       0.97894500       1.89980100
S        0.69220300       6.00645500       1.89976600
S        0.90032700       1.03766500       6.88919800
S        5.92778700       6.06495200       6.88975000
Li       3.54918400       1.50267500       0.50011500
Li       8.57670000       6.53013300       0.50000000
Li       7.81484800       2.09662400       5.16474100
Li       2.78707600       7.12420300       5.16473300
Li       2.59844900       5.16866400       3.29565500
Li       7.62604500       0.14106900       3.29560200
Li       6.81383100      10.45238400       7.92990400
Li       1.78548500       5.42555800       7.93016200
Li       3.73542500       9.35715500       2.41796100
Li       8.76299500       4.32960100       2.41793200
Li       4.34524200       4.09971200       6.21129900
Li       9.37316700       9.12720500       6.21112500
Li       6.98179500       2.57201100       0.67776200
Li       1.95425600       7.59975900       0.67777200
Li       0.68376400       0.14648500       2.22429200
Li       5.71135500       5.17405700       2.22443400
Li       4.90721000       0.37908300       5.86215700
Li      -0.12053000       5.40705700       5.86245800
Li       1.44704700       2.61547900       5.05529600
Li       6.47450400       7.64287900       5.05552100
Cl       9.66153100       7.21527500       8.00165400
Cl       4.39140200       7.11114500       3.26705900
Cl       9.41896800       2.08364600       3.26701900
S        2.29217500       9.74547800       0.61720500
S        7.31969600       4.71803100       0.61721900
S        7.17402200       9.89571000       5.60511100
S        2.14628900       4.86827200       5.60514400
P        4.86166473       2.68168429      12.82803441
P       -0.19622876       7.70904520      12.85311310
P       -0.38091752       2.63607723      17.61864933
P        4.56319233       7.72099177      17.59173902
S        5.91532989       3.96158671      14.04698643
S        0.84613390       9.00121749      14.07079691
S        0.96032200       3.55168300       9.29272200
S        5.98770400       8.57960400       9.29261600
S        3.66790346       1.46481270      14.00090305
S        8.66359198       6.51087035      14.04663473
S        8.70860000       1.14654400       9.32327800
S        3.68066400       6.17464100       9.32351800
S        3.67167786       3.92147661      11.66652000
S        8.68062182       8.94295613      11.67655682
S        8.33921783       3.69996169      16.49976573
S        3.20984888       8.91387336      16.58277527
S        5.95858346       1.52151219      11.58641895
S        0.91002509       6.53824402      11.62926705
S        0.81255357       1.43747193      16.46894166
S        5.74476224       6.63007278      16.34739019
Li       2.75221100       2.21974300      10.28008800
Li       7.77722300       7.24780100      10.28266300
Li       9.28249798       0.90368594      14.57241160
Li       4.26420225       5.82330392      14.49133677
Li       7.89275500       5.34625200       8.31295200
Li       2.86435600       0.31772500       8.31259600
Li       1.66762601       4.56477173      12.87314541
Li       6.71641061      -0.37885061      12.89898226
Li       7.58569180       9.97109417      17.46337722
Li       2.58437137       4.77607768      17.46005567
Li       2.77321548       9.73255487      12.68749634
Li       7.82019184       4.72261513      12.68337178
Li       2.71522276       2.85197226      15.62960861
Li       7.71915861       7.97570605      15.64231612
Li       7.80690954       2.85199939      10.72649420
Li       2.76963234       7.86541246      10.74871148
Li       0.13522412       1.04124325      11.35422132
Li       5.16678875       6.08277101      11.34512772
Li       6.29380462       2.32112557      15.78273258
Li       1.57949164       7.31213437      15.58521756
Li      -0.15407039       4.54049587      14.88800271
Li       4.86351409       9.54399576      14.91843087
Li       5.16655600       4.06245100       9.56726400
Li       0.13962000       9.08800700       9.56881100
Cl       9.22219442       7.97362051      17.65213317
Cl       4.63278700       2.18843600       8.00286400
Cl       4.55627722       7.88501244      12.92990988
Cl       9.64342446       2.86912101      12.92905596
S        2.08957413      10.06931422      10.50486706
S        7.12168810       5.04907009      10.50344000
S        7.10656147      10.20053142      15.20301248
S        2.10364551       5.07954096      15.18543458
S        0.69645741       3.94425688      18.80416360
S        5.66225642       9.06110729      18.76722106
S        8.69962768       1.43184506      19.00942829
S        3.56317723       6.46428882      18.86010676
Li       0.89247193       1.85964970      20.01921897
Li       7.48860950       7.59153095      19.38140328
Li       8.80507857       5.51648797      18.18453397
Li       3.86124581       0.77819231      18.35036428
Li       8.18079051       3.50905540      20.10214947
Li       3.71323572       8.41660289      20.20363995
Li       5.61852272       4.95293154      18.37902595
Li       1.06017537       9.52858938      18.11764916
Cl       4.42865135       2.91867113      17.43489743
S        2.33097036      10.20633118      20.09380142
S        7.24598994       5.46155224      19.89573953
Ag       2.68050938      10.58954699      22.49097552
Ag       4.39604878      10.14862526      25.37416677
Ag       3.11797201      12.64798175      25.09406429
Ag       1.58697133      10.32999500      25.59944966
