hbn h-BN@VGCF periodic slab (4x4, a=2.46)
1.0
      9.84000000     0.00000000     0.00000000
      4.92000000     8.52169000     0.00000000
      0.00000000     0.00000000    18.00000000
  B  N
  16  16
Cartesian
      0.00000000     0.00000000     9.00000000
      1.23000000     2.13042249     9.00000000
      2.46000000     4.26084499     9.00000000
      3.69000000     6.39126748     9.00000000
      2.46000000     0.00000000     9.00000000
      3.69000000     2.13042249     9.00000000
      4.92000000     4.26084499     9.00000000
      6.15000000     6.39126748     9.00000000
      4.92000000     0.00000000     9.00000000
      6.15000000     2.13042249     9.00000000
      7.38000000     4.26084499     9.00000000
      8.61000000     6.39126748     9.00000000
      7.38000000     0.00000000     9.00000000
      8.61000000     2.13042249     9.00000000
      9.84000000     4.26084499     9.00000000
     11.07000000     6.39126748     9.00000000
      1.23000000     0.71014083     9.00000000
      2.46000000     2.84056332     9.00000000
      3.69000000     4.97098582     9.00000000
      4.92000000     7.10140831     9.00000000
      3.69000000     0.71014083     9.00000000
      4.92000000     2.84056332     9.00000000
      6.15000000     4.97098582     9.00000000
      7.38000000     7.10140831     9.00000000
      6.15000000     0.71014083     9.00000000
      7.38000000     2.84056332     9.00000000
      8.61000000     4.97098582     9.00000000
      9.84000000     7.10140831     9.00000000
      8.61000000     0.71014083     9.00000000
      9.84000000     2.84056332     9.00000000
     11.07000000     4.97098582     9.00000000
     12.30000000     7.10140831     9.00000000
