32
hbn
B      0.00000000     0.00000000     0.00000000
N      1.25000000     0.72168784     0.00000000
B      1.25000000     2.16506351     0.00000000
N      2.50000000     2.88675135     0.00000000
B      2.50000000     4.33012702     0.00000000
N      3.75000000     5.05181486     0.00000000
B      3.75000000     6.49519053     0.00000000
N      5.00000000     7.21687836     0.00000000
B      2.50000000     0.00000000     0.00000000
N      3.75000000     0.72168784     0.00000000
B      3.75000000     2.16506351     0.00000000
N      5.00000000     2.88675135     0.00000000
B      5.00000000     4.33012702     0.00000000
N      6.25000000     5.05181486     0.00000000
B      6.25000000     6.49519053     0.00000000
N      7.50000000     7.21687836     0.00000000
B      5.00000000     0.00000000     0.00000000
N      6.25000000     0.72168784     0.00000000
B      6.25000000     2.16506351     0.00000000
N      7.50000000     2.88675135     0.00000000
B      7.50000000     4.33012702     0.00000000
N      8.75000000     5.05181486     0.00000000
B      8.75000000     6.49519053     0.00000000
N     10.00000000     7.21687836     0.00000000
B      7.50000000     0.00000000     0.00000000
N      8.75000000     0.72168784     0.00000000
B      8.75000000     2.16506351     0.00000000
N     10.00000000     2.88675135     0.00000000
B     10.00000000     4.33012702     0.00000000
N     11.25000000     5.05181486     0.00000000
B     11.25000000     6.49519053     0.00000000
N     12.50000000     7.21687836     0.00000000
