
     Program PWSCF v.7.4.1 starts on  4Oct2026 at 19: 1:59 

     This program is part of the open-source Quantum ESPRESSO suite
     for quantum simulation of materials; please cite
         "P. Giannozzi et al., J. Phys.:Condens. Matter 21 395502 (2009);
         "P. Giannozzi et al., J. Phys.:Condens. Matter 29 465901 (2017);
         "P. Giannozzi et al., J. Chem. Phys. 152 154105 (2020);
          URL http://www.quantum-espresso.org", 
     in publications or presentations arising from this work. More details at
     http://www.quantum-espresso.org/quote

     Parallel version (MPI & OpenMP), running on       1 processor cores
     Number of MPI processes:                 1
     Threads/MPI process:                     1

     MPI processes distributed on     1 nodes
     7532 MiB available memory on the printing compute node when the environment starts
 
     Reading input from pw.in

     Current dimensions of program PWSCF are:
     Max number of different atomic species (ntypx) = 10
     Max number of k-points (npk) =  40000
     Max angular momentum in pseudopotentials (lmaxx) =  4
     Presently no symmetry can be used with electric field

     file C.pbe-n-kjpaw_psl.1.0.0.UPF: wavefunction(s)  2S 2P renormalized
 
     Subspace diagonalization in iterative solution of the eigenvalue problem:
     a serial algorithm will be used

 
     G-vector sticks info
     --------------------
     sticks:   dense  smooth     PW     G-vecs:    dense   smooth      PW
     Sum        3193    1273    367              1013709   256635   40105
 
     Using Slab Decomposition
 


     bravais-lattice index     =            0
     lattice parameter (alat)  =       9.4208  a.u.
     unit-cell volume          =    5061.5040 (a.u.)^3
     number of atoms/cell      =           36
     number of atomic types    =            2
     number of electrons       =       324.00
     number of Kohn-Sham states=          194
     kinetic-energy cutoff     =      52.0000  Ry
     charge density cutoff     =     520.0000  Ry
     scf convergence threshold =      1.0E-08
     mixing beta               =       0.3000
     number of iterations used =            8  local-TF  mixing
     Exchange-correlation= SLA  PW   PBX  PBC
                           (   1   4   3   4   0   0   0)

     GPU acceleration is ACTIVE.  1 visible GPUs per MPI rank


     celldm(1)=   9.420781  celldm(2)=   0.000000  celldm(3)=   0.000000
     celldm(4)=   0.000000  celldm(5)=   0.000000  celldm(6)=   0.000000

     crystal axes: (cart. coord. in units of alat)
               a(1) = (   1.000000  -0.000000   0.000000 )  
               a(2) = (   0.500000   0.866025   0.000000 )  
               a(3) = (   0.000000   0.000000   6.990177 )  

     reciprocal axes: (cart. coord. in units 2 pi/alat)
               b(1) = (  1.000000 -0.577350  0.000000 )  
               b(2) = (  0.000000  1.154701 -0.000000 )  
               b(3) = ( -0.000000  0.000000  0.143058 )  


     PseudoPot. # 1 for Ag read from file:
     /home/kgy/work/pseudo/Ag_ONCV_PBE-1.0.oncvpsp.upf
     MD5 check sum: 94f47bd0669c641108e45594df92fabc
     Pseudo is Norm-conserving, Zval = 19.0
     Generated using ONCVPSP code by D. R. Hamann
     Using radial grid of 1398 points,  6 beta functions with: 
                l(1) =   0
                l(2) =   0
                l(3) =   1
                l(4) =   1
                l(5) =   2
                l(6) =   2

     PseudoPot. # 2 for C  read from file:
     /home/kgy/work/pseudo/C.pbe-n-kjpaw_psl.1.0.0.UPF
     MD5 check sum: 5d2aebdfa2cae82b50a7e79e9516da0f
     Pseudo is Projector augmented-wave + core cor, Zval =  4.0
     Generated using "atomic" code by A. Dal Corso  v.5.1
     Shape of augmentation charge: PSQ
     Using radial grid of 1073 points,  4 beta functions with: 
                l(1) =   0
                l(2) =   0
                l(3) =   1
                l(4) =   1
     Q(r) pseudized with 0 coefficients 


     atomic species   valence    mass     pseudopotential
     Ag               19.00   107.86820     Ag( 1.00)
     C                 4.00    12.01100     C ( 1.00)

     No symmetry found



   Cartesian axes

     site n.     atom                  positions (alat units)
         1        Ag     tau(   1) = (   0.3337695   0.5765948   0.5717001  )
         2        Ag     tau(   2) = (   0.8337695   0.8652699   0.5717001  )
         3        Ag     tau(   3) = (   0.1658131   0.2881628   1.0404978  )
         4        Ag     tau(   4) = (   0.5004501   0.2909658   0.1002956  )
         5        Ag     tau(   5) = (   0.8337695   0.2879196   0.5717001  )
         6        Ag     tau(   6) = (   0.6657286   0.5768865   1.0406295  )
         7        Ag     tau(   7) = (   0.5013979   0.2880440   1.5121792  )
         8        Ag     tau(   8) = (   1.0004501   0.5796409   0.1002956  )
         9        Ag     tau(   9) = (   1.0014376   0.5767316   1.5111335  )
        10        Ag     tau(  10) = (   0.6658079  -0.0004107   1.0405249  )
        11        Ag     tau(  11) = (   1.0004501   0.0022906   0.1002956  )
        12        Ag     tau(  12) = (   1.0014053  -0.0005819   1.5121715  )
        13        C      tau(  13) = (   0.5004501   0.2909658   3.0615218  )
        14        C      tau(  14) = (   0.7504501   0.4353033   3.0622886  )
        15        C      tau(  15) = (   0.7504501   0.7239785   3.0621818  )
        16        C      tau(  16) = (   1.0004501   0.8683160   3.0622874  )
        17        C      tau(  17) = (   1.0004501   0.2909658   3.0621808  )
        18        C      tau(  18) = (   1.2504501   0.4353033   3.0622873  )
        19        C      tau(  19) = (   1.2504501   0.7239785   3.0621820  )
        20        C      tau(  20) = (   1.5004501   0.8683160   3.0616702  )
        21        C      tau(  21) = (   0.7504501   0.4353033   3.7463563  )
        22        C      tau(  22) = (   1.0004501   0.5796409   3.7462980  )
        23        C      tau(  23) = (   1.0004501   0.8683160   3.7463563  )
        24        C      tau(  24) = (   1.2504501   1.0126536   3.7462858  )
        25        C      tau(  25) = (   1.2504501   0.4353033   3.7463563  )
        26        C      tau(  26) = (   1.5004501   0.5796409   3.7462859  )
        27        C      tau(  27) = (   1.5004501   0.8683160   3.7463509  )
        28        C      tau(  28) = (   1.7504501   1.0126536   3.7462858  )
        29        C      tau(  29) = (   0.5004501   0.2909658   4.4273980  )
        30        C      tau(  30) = (   0.7504501   0.4353033   4.4272709  )
        31        C      tau(  31) = (   0.7504501   0.7239785   4.4273996  )
        32        C      tau(  32) = (   1.0004501   0.8683160   4.4272709  )
        33        C      tau(  33) = (   1.0004501   0.2909658   4.4273995  )
        34        C      tau(  34) = (   1.2504501   0.4353033   4.4272709  )
        35        C      tau(  35) = (   1.2504501   0.7239785   4.4273996  )
        36        C      tau(  36) = (   1.5004501   0.8683160   4.4272729  )

     --------------------------------------------
     DFT-D3 Dispersion Correction (no 3-body):
     --------------------------------------------
       Reference C6 values for interpolation: 

         atom   Coordination number   C6
         C          0.000            98.23
         C          0.987            86.49
         C          1.998            58.72
         C          2.999            51.56
         C          3.984            36.41
         Ag         0.000           853.49
         Ag         0.968           537.23

       Values used:

         atom   Coordination number  R0_AB[au]  C6      C8
         Ag         9.095            3.147    537.23  47741.54
         Ag         9.095            3.147    537.23  47741.54
         Ag         9.097            3.147    537.23  47741.54
         Ag         6.766            3.147    537.23  47741.54
         Ag         9.095            3.147    537.23  47741.54
         Ag         9.097            3.147    537.23  47741.54
         Ag         6.764            3.147    537.23  47741.54
         Ag         6.766            3.147    537.23  47741.54
         Ag         6.779            3.147    537.23  47741.54
         Ag         9.097            3.147    537.23  47741.54
         Ag         6.766            3.147    537.23  47741.54
         Ag         6.765            3.147    537.23  47741.54
         C          3.275            2.750     49.02   1417.84
         C          3.275            2.750     49.02   1417.73
         C          3.275            2.750     49.02   1417.82
         C          3.275            2.750     49.02   1417.73
         C          3.275            2.750     49.02   1417.82
         C          3.275            2.750     49.02   1417.73
         C          3.275            2.750     49.02   1417.82
         C          3.275            2.750     49.02   1417.76
         C          3.280            2.750     48.92   1414.96
         C          3.280            2.750     48.93   1415.13
         C          3.280            2.750     48.92   1414.96
         C          3.280            2.750     48.93   1415.14
         C          3.280            2.750     48.92   1414.96
         C          3.280            2.750     48.93   1415.14
         C          3.280            2.750     48.92   1414.96
         C          3.280            2.750     48.93   1415.14
         C          3.274            2.750     49.03   1418.00
         C          3.274            2.750     49.03   1417.91
         C          3.274            2.750     49.03   1418.00
         C          3.274            2.750     49.03   1417.91
         C          3.274            2.750     49.03   1418.00
         C          3.274            2.750     49.03   1417.91
         C          3.274            2.750     49.03   1418.00
         C          3.274            2.750     49.03   1417.91

         Molecular C6 ( Ry / a.u.^6 ) =    198709.99


     number of k points=    20  Marzari-Vanderbilt smearing, width (Ry)=  0.0100
                       cart. coord. in units 2pi/alat
        k(    1) = (   0.0000000   0.0000000   0.0000000), wk =   0.0555556
        k(    2) = (   0.0000000   0.1924501   0.0000000), wk =   0.1111111
        k(    3) = (   0.0000000   0.3849002   0.0000000), wk =   0.1111111
        k(    4) = (   0.0000000  -0.5773503   0.0000000), wk =   0.0555556
        k(    5) = (   0.1666667  -0.0962250   0.0000000), wk =   0.1111111
        k(    6) = (   0.1666667   0.0962250   0.0000000), wk =   0.1111111
        k(    7) = (   0.1666667   0.2886751   0.0000000), wk =   0.1111111
        k(    8) = (   0.1666667  -0.6735753   0.0000000), wk =   0.1111111
        k(    9) = (   0.1666667  -0.4811252   0.0000000), wk =   0.1111111
        k(   10) = (   0.1666667  -0.2886751   0.0000000), wk =   0.1111111
        k(   11) = (   0.3333333  -0.1924501   0.0000000), wk =   0.1111111
        k(   12) = (   0.3333333  -0.0000000   0.0000000), wk =   0.1111111
        k(   13) = (   0.3333333   0.1924501   0.0000000), wk =   0.1111111
        k(   14) = (   0.3333333  -0.7698004   0.0000000), wk =   0.1111111
        k(   15) = (   0.3333333  -0.5773503   0.0000000), wk =   0.1111111
        k(   16) = (   0.3333333  -0.3849002   0.0000000), wk =   0.1111111
        k(   17) = (  -0.5000000   0.2886751   0.0000000), wk =   0.0555556
        k(   18) = (  -0.5000000   0.4811252   0.0000000), wk =   0.1111111
        k(   19) = (  -0.5000000   0.6735753   0.0000000), wk =   0.1111111
        k(   20) = (  -0.5000000  -0.2886751   0.0000000), wk =   0.0555556

     Dense  grid:  1013709 G-vectors     FFT dimensions: (  72,  72, 480)

     Smooth grid:   256635 G-vectors     FFT dimensions: (  45,  45, 320)

     Estimated max dynamical RAM per process >       2.73 GB

     Check: negative core charge=   -0.000002

     Initial potential from superposition of free atoms

     starting charge     323.9955, renormalised to     324.0000

     negative rho (up, down):  1.192E-04 0.000E+00
 
     Adding external electric field

     Computed dipole along edir(3) : 
        Dipole               -0.0093 Ry au,         -0.0236 Debye
        Dipole field         -0.0000 Ry au, 
 
        Potential amp.        0.0029 Ry
        Total length         63.9630 bohr
 
     Starting wfcs are  216 randomized atomic wfcs
     Checking if some PAW data can be deallocated... 

     total cpu time spent up to now is       28.9 secs

     Self-consistent Calculation

     iteration #  1     ecut=    52.00 Ry     beta= 0.30
     Davidson diagonalization with overlap
     ethr =  1.00E-02,  avg # of iterations =  7.9

     negative rho (up, down):  2.639E-08 0.000E+00
 
     Adding external electric field

     Computed dipole along edir(3) : 
        Dipole               -0.0837 Ry au,         -0.2129 Debye
        Dipole field         -0.0002 Ry au, 
 
        Potential amp.        0.0266 Ry
        Total length         63.9630 bohr
 

     total cpu time spent up to now is      118.4 secs

     total energy              =   -3891.67627253 Ry
     estimated scf accuracy    <       3.93795744 Ry

     iteration #  2     ecut=    52.00 Ry     beta= 0.30
     Davidson diagonalization with overlap
     ethr =  1.22E-03,  avg # of iterations =  2.6

     negative rho (up, down):  1.063E-08 0.000E+00
 
     Adding external electric field

     Computed dipole along edir(3) : 
        Dipole               -0.2884 Ry au,         -0.7331 Debye
        Dipole field         -0.0007 Ry au, 
 
        Potential amp.        0.0916 Ry
        Total length         63.9630 bohr
 

     total cpu time spent up to now is      180.9 secs

     total energy              =   -3891.03416886 Ry
     estimated scf accuracy    <       2.07726623 Ry

     iteration #  3     ecut=    52.00 Ry     beta= 0.30
     Davidson diagonalization with overlap
     ethr =  6.41E-04,  avg # of iterations =  9.2
 
     Adding external electric field

     Computed dipole along edir(3) : 
        Dipole               -0.4601 Ry au,         -1.1695 Debye
        Dipole field         -0.0011 Ry au, 
 
        Potential amp.        0.1461 Ry
        Total length         63.9630 bohr
 

     total cpu time spent up to now is      263.2 secs

     total energy              =   -3891.05959679 Ry
     estimated scf accuracy    <       0.38777875 Ry

     iteration #  4     ecut=    52.00 Ry     beta= 0.30
     Davidson diagonalization with overlap
     c_bands:  3 eigenvalues not converged
     c_bands:  3 eigenvalues not converged
     ethr =  1.20E-04,  avg # of iterations = 11.9
 
     Adding external electric field

     Computed dipole along edir(3) : 
        Dipole               -0.4967 Ry au,         -1.2625 Debye
        Dipole field         -0.0012 Ry au, 
 
        Potential amp.        0.1578 Ry
        Total length         63.9630 bohr
 

     total cpu time spent up to now is      355.5 secs

     total energy              =   -3891.08511004 Ry
     estimated scf accuracy    <       0.58893475 Ry

     iteration #  5     ecut=    52.00 Ry     beta= 0.30
     Davidson diagonalization with overlap
     ethr =  1.20E-04,  avg # of iterations =  1.2
 
     Adding external electric field

     Computed dipole along edir(3) : 
        Dipole               -0.5218 Ry au,         -1.3263 Debye
        Dipole field         -0.0013 Ry au, 
 
        Potential amp.        0.1657 Ry
        Total length         63.9630 bohr
 

     total cpu time spent up to now is      410.4 secs

     total energy              =   -3891.08498717 Ry
     estimated scf accuracy    <       0.63126369 Ry

     iteration #  6     ecut=    52.00 Ry     beta= 0.30
     Davidson diagonalization with overlap
     ethr =  1.20E-04,  avg # of iterations =  1.0

     negative rho (up, down):  1.126E-07 0.000E+00
 
     Adding external electric field

     Computed dipole along edir(3) : 
        Dipole               -0.4740 Ry au,         -1.2048 Debye
        Dipole field         -0.0012 Ry au, 
 
        Potential amp.        0.1506 Ry
        Total length         63.9630 bohr
 

     total cpu time spent up to now is      465.3 secs

     total energy              =   -3891.06649709 Ry
     estimated scf accuracy    <       0.64773808 Ry

     iteration #  7     ecut=    52.00 Ry     beta= 0.30
     Davidson diagonalization with overlap
     ethr =  1.20E-04,  avg # of iterations =  2.5
 
     Adding external electric field

     Computed dipole along edir(3) : 
        Dipole               -0.5985 Ry au,         -1.5212 Debye
        Dipole field         -0.0015 Ry au, 
 
        Potential amp.        0.1901 Ry
        Total length         63.9630 bohr
 

     total cpu time spent up to now is      526.5 secs

     total energy              =   -3891.04175947 Ry
     estimated scf accuracy    <       0.31126258 Ry

     iteration #  8     ecut=    52.00 Ry     beta= 0.30
     Davidson diagonalization with overlap
     ethr =  9.61E-05,  avg # of iterations =  5.3

     negative rho (up, down):  1.171E-08 0.000E+00
 
     Adding external electric field

     Computed dipole along edir(3) : 
        Dipole               -0.6034 Ry au,         -1.5337 Debye
        Dipole field         -0.0015 Ry au, 
 
        Potential amp.        0.1916 Ry
        Total length         63.9630 bohr
 

     total cpu time spent up to now is      594.5 secs

     total energy              =   -3891.06130913 Ry
     estimated scf accuracy    <       0.14572475 Ry

     iteration #  9     ecut=    52.00 Ry     beta= 0.30
     Davidson diagonalization with overlap
     ethr =  4.50E-05,  avg # of iterations =  1.1

     negative rho (up, down):  1.194E-06 0.000E+00
 
     Adding external electric field

     Computed dipole along edir(3) : 
        Dipole               -0.6733 Ry au,         -1.7113 Debye
        Dipole field         -0.0017 Ry au, 
 
        Potential amp.        0.2138 Ry
        Total length         63.9630 bohr
 

     total cpu time spent up to now is      650.7 secs

     total energy              =   -3891.06955934 Ry
     estimated scf accuracy    <       0.15216170 Ry

     iteration # 10     ecut=    52.00 Ry     beta= 0.30
     Davidson diagonalization with overlap
     ethr =  4.50E-05,  avg # of iterations =  1.5
 
     Adding external electric field

     Computed dipole along edir(3) : 
        Dipole               -0.4221 Ry au,         -1.0729 Debye
        Dipole field         -0.0010 Ry au, 
 
        Potential amp.        0.1341 Ry
        Total length         63.9630 bohr
 

     total cpu time spent up to now is      707.1 secs

     total energy              =   -3891.05579695 Ry
     estimated scf accuracy    <       0.22219782 Ry

     iteration # 11     ecut=    52.00 Ry     beta= 0.30
     Davidson diagonalization with overlap
     ethr =  4.50E-05,  avg # of iterations =  6.0

     negative rho (up, down):  5.394E-07 0.000E+00
 
     Adding external electric field

     Computed dipole along edir(3) : 
        Dipole               -0.5280 Ry au,         -1.3419 Debye
        Dipole field         -0.0013 Ry au, 
 
        Potential amp.        0.1677 Ry
        Total length         63.9630 bohr
 

     total cpu time spent up to now is      778.5 secs

     total energy              =   -3891.10303596 Ry
     estimated scf accuracy    <       0.11102921 Ry

     iteration # 12     ecut=    52.00 Ry     beta= 0.30
     Davidson diagonalization with overlap
     ethr =  3.43E-05,  avg # of iterations = 10.6

     negative rho (up, down):  2.784E-06 0.000E+00
 
     Adding external electric field

     Computed dipole along edir(3) : 
        Dipole               -0.5047 Ry au,         -1.2827 Debye
        Dipole field         -0.0013 Ry au, 
 
        Potential amp.        0.1603 Ry
        Total length         63.9630 bohr
 

     total cpu time spent up to now is      872.5 secs

     total energy              =   -3891.22269530 Ry
     estimated scf accuracy    <       0.34400655 Ry

     iteration # 13     ecut=    52.00 Ry     beta= 0.30
     Davidson diagonalization with overlap
     ethr =  3.43E-05,  avg # of iterations =  2.5

     negative rho (up, down):  1.405E-06 0.000E+00
 
     Adding external electric field

     Computed dipole along edir(3) : 
        Dipole               -0.4441 Ry au,         -1.1288 Debye
        Dipole field         -0.0011 Ry au, 
 
        Potential amp.        0.1410 Ry
        Total length         63.9630 bohr
 

     total cpu time spent up to now is      941.6 secs

     total energy              =   -3891.19765279 Ry
     estimated scf accuracy    <       0.66407325 Ry

     iteration # 14     ecut=    52.00 Ry     beta= 0.30
     Davidson diagonalization with overlap
     ethr =  3.43E-05,  avg # of iterations =  1.3

     negative rho (up, down):  2.356E-06 0.000E+00
 
     Adding external electric field

     Computed dipole along edir(3) : 
        Dipole               -0.2772 Ry au,         -0.7046 Debye
        Dipole field         -0.0007 Ry au, 
 
        Potential amp.        0.0880 Ry
        Total length         63.9630 bohr
 

     total cpu time spent up to now is      997.6 secs

     total energy              =   -3891.32593370 Ry
     estimated scf accuracy    <       0.51547893 Ry

     iteration # 15     ecut=    52.00 Ry     beta= 0.30
     Davidson diagonalization with overlap
     ethr =  3.43E-05,  avg # of iterations =  8.9

     negative rho (up, down):  2.394E-07 0.000E+00
 
     Adding external electric field

     Computed dipole along edir(3) : 
        Dipole               -0.2203 Ry au,         -0.5601 Debye
        Dipole field         -0.0005 Ry au, 
 
        Potential amp.        0.0700 Ry
        Total length         63.9630 bohr
 

     total cpu time spent up to now is     1082.0 secs

     total energy              =   -3891.14498773 Ry
     estimated scf accuracy    <       0.87975541 Ry

     iteration # 16     ecut=    52.00 Ry     beta= 0.30
     Davidson diagonalization with overlap
     ethr =  3.43E-05,  avg # of iterations =  3.6

     negative rho (up, down):  9.802E-08 0.000E+00
 
     Adding external electric field

     Computed dipole along edir(3) : 
        Dipole               -0.2620 Ry au,         -0.6659 Debye
        Dipole field         -0.0007 Ry au, 
 
        Potential amp.        0.0832 Ry
        Total length         63.9630 bohr
 

     total cpu time spent up to now is     1152.3 secs

     total energy              =   -3891.12196124 Ry
     estimated scf accuracy    <       0.45866040 Ry

     iteration # 17     ecut=    52.00 Ry     beta= 0.30
     Davidson diagonalization with overlap
     ethr =  3.43E-05,  avg # of iterations =  1.5
 
     Adding external electric field

     Computed dipole along edir(3) : 
        Dipole               -0.3029 Ry au,         -0.7700 Debye
        Dipole field         -0.0008 Ry au, 
 
        Potential amp.        0.0962 Ry
        Total length         63.9630 bohr
 

     total cpu time spent up to now is     1209.3 secs

     total energy              =   -3891.00997531 Ry
     estimated scf accuracy    <       0.27543254 Ry

     iteration # 18     ecut=    52.00 Ry     beta= 0.30
     Davidson diagonalization with overlap
     ethr =  3.43E-05,  avg # of iterations =  6.5
 
     Adding external electric field

     Computed dipole along edir(3) : 
        Dipole               -0.2068 Ry au,         -0.5255 Debye
        Dipole field         -0.0005 Ry au, 
 
        Potential amp.        0.0657 Ry
        Total length         63.9630 bohr
 

     total cpu time spent up to now is     1295.3 secs

     total energy              =   -3891.04183145 Ry
     estimated scf accuracy    <       0.05093706 Ry

     iteration # 19     ecut=    52.00 Ry     beta= 0.30
     Davidson diagonalization with overlap
     ethr =  1.57E-05,  avg # of iterations =  6.6
 
     Adding external electric field

     Computed dipole along edir(3) : 
        Dipole               -0.2111 Ry au,         -0.5366 Debye
        Dipole field         -0.0005 Ry au, 
 
        Potential amp.        0.0671 Ry
        Total length         63.9630 bohr
 

     total cpu time spent up to now is     1367.9 secs

     total energy              =   -3891.04305430 Ry
     estimated scf accuracy    <       0.03457386 Ry

     iteration # 20     ecut=    52.00 Ry     beta= 0.30
     Davidson diagonalization with overlap
     ethr =  1.07E-05,  avg # of iterations =  1.1
 
     Adding external electric field

     Computed dipole along edir(3) : 
        Dipole               -0.2055 Ry au,         -0.5223 Debye
        Dipole field         -0.0005 Ry au, 
 
        Potential amp.        0.0653 Ry
        Total length         63.9630 bohr
 

     total cpu time spent up to now is     1424.1 secs

     total energy              =   -3891.04309403 Ry
     estimated scf accuracy    <       0.02643328 Ry

     iteration # 21     ecut=    52.00 Ry     beta= 0.30
     Davidson diagonalization with overlap
     c_bands:  1 eigenvalues not converged
     ethr =  8.16E-06,  avg # of iterations =  2.6
 
     Adding external electric field

     Computed dipole along edir(3) : 
        Dipole               -0.1480 Ry au,         -0.3763 Debye
        Dipole field         -0.0004 Ry au, 
 
        Potential amp.        0.0470 Ry
        Total length         63.9630 bohr
 

     total cpu time spent up to now is     1482.6 secs

     total energy              =   -3891.04301292 Ry
     estimated scf accuracy    <       0.03379658 Ry

     iteration # 22     ecut=    52.00 Ry     beta= 0.30
     Davidson diagonalization with overlap
     ethr =  8.16E-06,  avg # of iterations =  3.0
 
     Adding external electric field

     Computed dipole along edir(3) : 
        Dipole               -0.0855 Ry au,         -0.2174 Debye
        Dipole field         -0.0002 Ry au, 
 
        Potential amp.        0.0272 Ry
        Total length         63.9630 bohr
 

     total cpu time spent up to now is     1547.3 secs

     total energy              =   -3891.04281340 Ry
     estimated scf accuracy    <       0.01414885 Ry

     iteration # 23     ecut=    52.00 Ry     beta= 0.30
     Davidson diagonalization with overlap
     ethr =  4.37E-06,  avg # of iterations =  8.8

     negative rho (up, down):  1.739E-05 0.000E+00
 
     Adding external electric field

     Computed dipole along edir(3) : 
        Dipole               -0.0139 Ry au,         -0.0353 Debye
        Dipole field         -0.0000 Ry au, 
 
        Potential amp.        0.0044 Ry
        Total length         63.9630 bohr
 

     total cpu time spent up to now is     1627.1 secs

     total energy              =   -3891.04140093 Ry
     estimated scf accuracy    <       0.01901243 Ry

     iteration # 24     ecut=    52.00 Ry     beta= 0.30
     Davidson diagonalization with overlap
     ethr =  4.37E-06,  avg # of iterations =  6.8

     negative rho (up, down):  1.483E-03 0.000E+00
 
     Adding external electric field

     Computed dipole along edir(3) : 
        Dipole                0.0316 Ry au,          0.0803 Debye
        Dipole field          0.0001 Ry au, 
 
        Potential amp.       -0.0100 Ry
        Total length         63.9630 bohr
 

     total cpu time spent up to now is     1702.7 secs

     total energy              =   -3891.04209543 Ry
     estimated scf accuracy    <       0.00508131 Ry

     iteration # 25     ecut=    52.00 Ry     beta= 0.30
     Davidson diagonalization with overlap
     ethr =  1.57E-06,  avg # of iterations =  5.8

     negative rho (up, down):  1.206E-03 0.000E+00
 
     Adding external electric field

     Computed dipole along edir(3) : 
        Dipole                0.0277 Ry au,          0.0704 Debye
        Dipole field          0.0001 Ry au, 
 
        Potential amp.       -0.0088 Ry
        Total length         63.9630 bohr
 

     total cpu time spent up to now is     1771.6 secs

     total energy              =   -3891.04203377 Ry
     estimated scf accuracy    <       0.00210374 Ry

     iteration # 26     ecut=    52.00 Ry     beta= 0.30
     Davidson diagonalization with overlap
     ethr =  6.49E-07,  avg # of iterations =  5.2

     negative rho (up, down):  4.438E-05 0.000E+00
 
     Adding external electric field

     Computed dipole along edir(3) : 
        Dipole                0.0148 Ry au,          0.0375 Debye
        Dipole field          0.0000 Ry au, 
 
        Potential amp.       -0.0047 Ry
        Total length         63.9630 bohr
 

     total cpu time spent up to now is     1841.0 secs

     total energy              =   -3891.04194606 Ry
     estimated scf accuracy    <       0.00137166 Ry

     iteration # 27     ecut=    52.00 Ry     beta= 0.30
     Davidson diagonalization with overlap
     ethr =  4.23E-07,  avg # of iterations =  5.2

     negative rho (up, down):  1.179E-04 0.000E+00
 
     Adding external electric field

     Computed dipole along edir(3) : 
        Dipole                0.0214 Ry au,          0.0545 Debye
        Dipole field          0.0001 Ry au, 
 
        Potential amp.       -0.0068 Ry
        Total length         63.9630 bohr
 

     total cpu time spent up to now is     1909.7 secs

     total energy              =   -3891.04202476 Ry
     estimated scf accuracy    <       0.00015317 Ry

     iteration # 28     ecut=    52.00 Ry     beta= 0.30
     Davidson diagonalization with overlap
     ethr =  4.73E-08,  avg # of iterations =  5.0

     negative rho (up, down):  2.443E-06 0.000E+00
 
     Adding external electric field

     Computed dipole along edir(3) : 
        Dipole                0.0176 Ry au,          0.0448 Debye
        Dipole field          0.0000 Ry au, 
 
        Potential amp.       -0.0056 Ry
        Total length         63.9630 bohr
 

     total cpu time spent up to now is     1979.6 secs

     total energy              =   -3891.04202723 Ry
     estimated scf accuracy    <       0.00041520 Ry

     iteration # 29     ecut=    52.00 Ry     beta= 0.30
     Davidson diagonalization with overlap
     ethr =  4.73E-08,  avg # of iterations =  2.7

     negative rho (up, down):  7.921E-06 0.000E+00
 
     Adding external electric field

     Computed dipole along edir(3) : 
        Dipole                0.0184 Ry au,          0.0467 Debye
        Dipole field          0.0000 Ry au, 
 
        Potential amp.       -0.0058 Ry
        Total length         63.9630 bohr
 

     total cpu time spent up to now is     2041.4 secs

     total energy              =   -3891.04203514 Ry
     estimated scf accuracy    <       0.00001600 Ry

     iteration # 30     ecut=    52.00 Ry     beta= 0.30
     Davidson diagonalization with overlap
     ethr =  4.94E-09,  avg # of iterations =  1.9

     negative rho (up, down):  1.134E-04 0.000E+00
 
     Adding external electric field

     Computed dipole along edir(3) : 
        Dipole                0.0204 Ry au,          0.0517 Debye
        Dipole field          0.0001 Ry au, 
 
        Potential amp.       -0.0065 Ry
        Total length         63.9630 bohr
 

     total cpu time spent up to now is     2102.4 secs

     total energy              =   -3891.04203887 Ry
     estimated scf accuracy    <       0.00000682 Ry

     iteration # 31     ecut=    52.00 Ry     beta= 0.30
     Davidson diagonalization with overlap
     c_bands:  1 eigenvalues not converged
     ethr =  2.11E-09,  avg # of iterations =  5.4

     negative rho (up, down):  7.860E-05 0.000E+00
 
     Adding external electric field

     Computed dipole along edir(3) : 
        Dipole                0.0190 Ry au,          0.0482 Debye
        Dipole field          0.0000 Ry au, 
 
        Potential amp.       -0.0060 Ry
        Total length         63.9630 bohr
 

     total cpu time spent up to now is     2172.6 secs

     total energy              =   -3891.04203871 Ry
     estimated scf accuracy    <       0.00001972 Ry

     iteration # 32     ecut=    52.00 Ry     beta= 0.30
     Davidson diagonalization with overlap
     ethr =  2.11E-09,  avg # of iterations =  1.0

     negative rho (up, down):  1.403E-04 0.000E+00
 
     Adding external electric field

     Computed dipole along edir(3) : 
        Dipole                0.0195 Ry au,          0.0496 Debye
        Dipole field          0.0000 Ry au, 
 
        Potential amp.       -0.0062 Ry
        Total length         63.9630 bohr
 

     total cpu time spent up to now is     2227.9 secs

     total energy              =   -3891.04203887 Ry
     estimated scf accuracy    <       0.00000105 Ry

     iteration # 33     ecut=    52.00 Ry     beta= 0.30
     Davidson diagonalization with overlap
     ethr =  3.25E-10,  avg # of iterations =  2.0

     negative rho (up, down):  1.409E-04 0.000E+00
 
     Adding external electric field

     Computed dipole along edir(3) : 
        Dipole                0.0193 Ry au,          0.0490 Debye
        Dipole field          0.0000 Ry au, 
 
        Potential amp.       -0.0061 Ry
        Total length         63.9630 bohr
 

     total cpu time spent up to now is     2289.0 secs

     total energy              =   -3891.04203888 Ry
     estimated scf accuracy    <       0.00000091 Ry

     iteration # 34     ecut=    52.00 Ry     beta= 0.30
     Davidson diagonalization with overlap
     ethr =  2.81E-10,  avg # of iterations =  1.4

     negative rho (up, down):  1.279E-04 0.000E+00
 
     Adding external electric field

     Computed dipole along edir(3) : 
        Dipole                0.0189 Ry au,          0.0480 Debye
        Dipole field          0.0000 Ry au, 
 
        Potential amp.       -0.0060 Ry
        Total length         63.9630 bohr
 

     total cpu time spent up to now is     2347.2 secs

     total energy              =   -3891.04203893 Ry
     estimated scf accuracy    <       0.00000212 Ry

     iteration # 35     ecut=    52.00 Ry     beta= 0.30
     Davidson diagonalization with overlap
     ethr =  2.81E-10,  avg # of iterations =  1.0

     negative rho (up, down):  1.287E-04 0.000E+00
 
     Adding external electric field

     Computed dipole along edir(3) : 
        Dipole                0.0188 Ry au,          0.0479 Debye
        Dipole field          0.0000 Ry au, 
 
        Potential amp.       -0.0060 Ry
        Total length         63.9630 bohr
 

     total cpu time spent up to now is     2402.0 secs

     total energy              =   -3891.04203895 Ry
     estimated scf accuracy    <       0.00000007 Ry

     iteration # 36     ecut=    52.00 Ry     beta= 0.30
     Davidson diagonalization with overlap
     ethr =  2.26E-11,  avg # of iterations =  2.0

     negative rho (up, down):  1.302E-04 0.000E+00
 
     Adding external electric field

     Computed dipole along edir(3) : 
        Dipole                0.0188 Ry au,          0.0477 Debye
        Dipole field          0.0000 Ry au, 
 
        Potential amp.       -0.0060 Ry
        Total length         63.9630 bohr
 

     total cpu time spent up to now is     2463.6 secs

     total energy              =   -3891.04203895 Ry
     estimated scf accuracy    <       0.00000005 Ry

     iteration # 37     ecut=    52.00 Ry     beta= 0.30
     Davidson diagonalization with overlap
     ethr =  1.68E-11,  avg # of iterations =  2.0

     negative rho (up, down):  1.427E-04 0.000E+00
 
     Adding external electric field

     Computed dipole along edir(3) : 
        Dipole                0.0189 Ry au,          0.0481 Debye
        Dipole field          0.0000 Ry au, 
 
        Potential amp.       -0.0060 Ry
        Total length         63.9630 bohr
 

     total cpu time spent up to now is     2524.4 secs

     total energy              =   -3891.04203891 Ry
     estimated scf accuracy    <       0.00000004 Ry

     iteration # 38     ecut=    52.00 Ry     beta= 0.30
     Davidson diagonalization with overlap
     ethr =  1.13E-11,  avg # of iterations =  2.0

     negative rho (up, down):  1.400E-04 0.000E+00
 
     Adding external electric field

     Computed dipole along edir(3) : 
        Dipole                0.0189 Ry au,          0.0480 Debye
        Dipole field          0.0000 Ry au, 
 
        Potential amp.       -0.0060 Ry
        Total length         63.9630 bohr
 

     total cpu time spent up to now is     2586.3 secs

     total energy              =   -3891.04203892 Ry
     estimated scf accuracy    <       0.00000003 Ry

     iteration # 39     ecut=    52.00 Ry     beta= 0.30
     Davidson diagonalization with overlap
     ethr =  9.52E-12,  avg # of iterations =  1.0

     negative rho (up, down):  1.406E-04 0.000E+00
 
     Adding external electric field

     Computed dipole along edir(3) : 
        Dipole                0.0189 Ry au,          0.0481 Debye
        Dipole field          0.0000 Ry au, 
 
        Potential amp.       -0.0060 Ry
        Total length         63.9630 bohr
 

     total cpu time spent up to now is     2641.2 secs

     total energy              =   -3891.04203892 Ry
     estimated scf accuracy    <       0.00000002 Ry

     iteration # 40     ecut=    52.00 Ry     beta= 0.30
     Davidson diagonalization with overlap
     ethr =  7.59E-12,  avg # of iterations =  1.0

     negative rho (up, down):  1.463E-04 0.000E+00
 
     Adding external electric field

     Computed dipole along edir(3) : 
        Dipole                0.0181 Ry au,          0.0460 Debye
        Dipole field          0.0000 Ry au, 
 
        Potential amp.       -0.0058 Ry
        Total length         63.9630 bohr
 

     total cpu time spent up to now is     2693.8 secs

     End of self-consistent calculation

          k = 0.0000 0.0000 0.0000 ( 32011 PWs)   bands (ev):

   -87.1306 -87.1211 -87.1123 -87.1122 -87.1120 -87.1120 -86.9176 -86.9170
   -86.9048 -86.9035 -86.9035 -86.9031 -50.6411 -50.6145 -50.6143 -50.6142
   -50.6140 -50.6119 -50.6119 -50.5866 -50.5865 -50.5610 -50.5609 -50.5604
   -50.5602 -50.5555 -50.5132 -50.5129 -50.4997 -50.4994 -50.4007 -50.4006
   -50.3999 -50.3999 -50.3978 -50.3978 -50.3976 -50.3975 -50.3387 -50.3360
   -50.3266 -50.3252 -50.3251 -50.3247 -50.3103 -50.3100 -50.3099 -50.3095
   -14.4084 -14.3166 -14.2153  -9.2547  -9.2547  -9.2546  -9.2201  -9.2201
    -9.2201  -9.1819  -9.1818  -9.1818  -8.1099  -8.1099  -8.1099  -8.0896
    -8.0896  -8.0896  -8.0542  -8.0542  -8.0542  -3.0745  -2.4770  -2.4633
    -1.7751  -1.5818  -1.3988  -1.3988  -1.3987  -1.3855  -1.3854  -1.3854
    -1.3612  -1.3612  -1.3612  -1.3080  -1.1407  -0.6757  -0.6756  -0.6567
    -0.6559  -0.6528  -0.6523  -0.3054  -0.3051  -0.3028  -0.3024  -0.1126
    -0.1112  -0.0982  -0.0963   0.1339   0.1864   0.1873   0.2327   0.2343
     0.3060   0.3077   0.3088   0.3105   0.3180   0.4578   0.4587   0.5104
     0.5128   0.6318   0.6320   0.6331   0.6332   0.6556   0.6557   0.6558
     0.6561   1.0815   1.0822   1.1983   1.2032   1.2342   1.2351   1.2359
     1.2368   1.3455   1.3613   1.5902   1.6474   1.6478   1.6920   1.6986
     1.8211   1.8215   1.8714   1.8726   1.8731   1.8743   1.8922   1.8922
     1.8950   1.8950   1.9089   1.9089   1.9379   1.9448   2.3826   2.3826
     2.3832   2.6477   2.6477   2.6478   2.8496   2.8500   2.8500   3.9877
     5.2016   6.4487   6.4487   6.4488   6.5987   6.5987   6.5988   6.9011
     6.9018   6.9018   8.4051   8.4060   8.4301   8.5702   8.5977   8.5980
     8.5991   8.5993   9.1066   9.3836   9.3853   9.3859   9.3868   9.7751
     9.7886   9.7892  10.4882  10.7246  11.0505  11.0520  11.0551  11.0567
    11.2848  11.2850

          k = 0.0000 0.1925 0.0000 ( 32019 PWs)   bands (ev):

   -87.1293 -87.1202 -87.1139 -87.1134 -87.1118 -87.1117 -86.9166 -86.9159
   -86.9053 -86.9041 -86.9039 -86.9036 -50.6380 -50.6318 -50.6261 -50.6250
   -50.6201 -50.5960 -50.5892 -50.5784 -50.5737 -50.5641 -50.5580 -50.5574
   -50.5557 -50.5528 -50.5222 -50.5173 -50.5106 -50.5022 -50.4180 -50.4175
   -50.4127 -50.4122 -50.3772 -50.3767 -50.3747 -50.3741 -50.3375 -50.3353
   -50.3270 -50.3257 -50.3255 -50.3252 -50.3215 -50.3209 -50.3130 -50.3127
   -14.2466 -14.1557 -14.0553 -10.4882 -10.4204 -10.3433  -9.6403  -9.6402
    -9.5818  -9.5817  -9.5147  -9.5146  -7.5123  -7.5123  -7.4666  -7.4666
    -7.4106  -7.4105  -6.6981  -6.6507  -6.5935  -2.8799  -2.2725  -2.2264
    -1.8803  -1.8802  -1.8627  -1.8627  -1.8345  -1.8345  -1.5893  -1.3611
    -1.2405  -1.2274  -1.2034  -1.1293  -0.9548  -0.9525  -0.8264  -0.7689
    -0.7614  -0.6853  -0.5511  -0.4502  -0.3751  -0.3508  -0.3235  -0.2580
    -0.1617  -0.1420  -0.1383   0.0159   0.0995   0.1294   0.2069   0.2541
     0.3185   0.3329   0.3443   0.3773   0.4019   0.4274   0.4353   0.4657
     0.5093   0.5754   0.5760   0.6377   0.6566   0.7514   0.8403   0.9042
     0.9697   1.0162   1.0235   1.1255   1.1335   1.2017   1.2417   1.2444
     1.2512   1.2691   1.3056   1.3167   1.3354   1.3891   1.4763   1.5048
     1.5345   1.5625   1.5677   1.5842   1.6263   1.6748   1.6921   1.8312
     1.8361   1.8372   1.8967   1.9361   1.9604   2.0157   2.0816   2.1963
     2.1968   2.2892   2.3087   2.5458   2.5459   2.8674   2.8678   4.3510
     5.7287   5.8593   6.6559   6.6561   6.7367   6.8620   6.8620   7.0042
     7.1737   7.1742   7.3452   7.3688   7.6582   7.9207   8.0210   8.1514
     8.3950   8.6443   8.7855   9.3197   9.6917   9.8635   9.9606  10.2232
    10.2908  10.4639  10.7050  10.9063  11.2571  11.2936  11.3371  11.4899
    11.9955  12.1133

          k = 0.0000 0.3849 0.0000 ( 32055 PWs)   bands (ev):

   -87.1259 -87.1179 -87.1171 -87.1147 -87.1127 -87.1120 -86.9138 -86.9131
   -86.9069 -86.9062 -86.9047 -86.9047 -50.6449 -50.6376 -50.6299 -50.6234
   -50.6160 -50.5903 -50.5802 -50.5691 -50.5677 -50.5567 -50.5544 -50.5520
   -50.5431 -50.5416 -50.5389 -50.5383 -50.5237 -50.5111 -50.4306 -50.4302
   -50.4073 -50.4066 -50.3554 -50.3550 -50.3522 -50.3513 -50.3499 -50.3496
   -50.3345 -50.3330 -50.3283 -50.3275 -50.3264 -50.3261 -50.3218 -50.3215
   -13.7629 -13.6749 -13.5774 -11.8606 -11.7837 -11.6975 -10.0439 -10.0438
    -9.9788  -9.9788  -9.9046  -9.9046  -6.3826  -6.3826  -6.3404  -6.3404
    -6.2885  -6.2884  -4.6329  -4.5945  -4.5461  -3.0073  -3.0072  -2.9830
    -2.9830  -2.9484  -2.9483  -2.3008  -1.7055  -1.5698  -1.2020  -1.1024
    -1.0966  -1.0379  -0.8714  -0.8200  -0.7993  -0.7796  -0.7698  -0.7672
    -0.7439  -0.7173  -0.6321  -0.6080  -0.5676  -0.4635  -0.3874  -0.3810
    -0.3647  -0.3379  -0.2628  -0.2406  -0.2305  -0.1236  -0.0803  -0.0778
    -0.0690   0.0309   0.1478   0.1621   0.2086   0.2414   0.3145   0.3566
     0.3702   0.4513   0.4557   0.5612   0.5720   0.6159   0.6948   0.7075
     0.7189   0.7530   0.7897   0.7913   0.8000   0.8199   0.9082   0.9247
     0.9688   0.9870   1.0349   1.1598   1.1797   1.2340   1.3106   1.3624
     1.4022   1.4064   1.4454   1.6062   1.6240   1.7134   1.7496   1.7840
     1.8712   1.8964   1.9088   1.9317   1.9323   1.9820   1.9943   2.0304
     2.0928   2.1242   2.3661   2.3661   2.8168   2.8175   3.0459   3.6319
     4.3488   5.2042   5.7076   5.8492   6.3362   6.8611   6.9714   7.1689
     7.1692   7.1908   7.4001   7.4002   7.6610   7.6614   7.9847   9.1954
     9.2838   9.4303   9.4460   9.7218   9.7866   9.9560  10.0361  10.3552
    10.5317  10.5916  11.3547  11.4656  11.8018  11.8141  11.9877  12.2652
    12.2969  12.3917

          k = 0.0000-0.5774 0.0000 ( 32112 PWs)   bands (ev):

   -87.1215 -87.1214 -87.1152 -87.1150 -87.1150 -87.1122 -86.9112 -86.9095
   -86.9095 -86.9091 -86.9052 -86.9050 -50.6496 -50.6423 -50.6216 -50.6214
   -50.5951 -50.5950 -50.5820 -50.5759 -50.5758 -50.5602 -50.5496 -50.5476
   -50.5474 -50.5378 -50.5378 -50.5289 -50.5255 -50.5255 -50.4351 -50.4347
   -50.3843 -50.3829 -50.3828 -50.3824 -50.3426 -50.3421 -50.3372 -50.3360
   -50.3359 -50.3355 -50.3321 -50.3302 -50.3302 -50.3297 -50.3269 -50.3265
   -12.9634 -12.9633 -12.8800 -12.8800 -12.7872 -12.7872 -10.1878 -10.1877
   -10.1213 -10.1213 -10.0455 -10.0455  -5.5339  -5.5339  -5.5129  -5.5129
    -5.4837  -5.4837  -3.8599  -3.8598  -3.8470  -3.8470  -3.8224  -3.8224
    -2.4576  -2.4576  -2.4303  -2.4302  -2.3926  -2.3926  -1.3556  -1.3537
    -1.3533  -1.2643  -1.1989  -0.9421  -0.9059  -0.9052  -0.7988  -0.7809
    -0.7809  -0.6897  -0.6890  -0.5144  -0.5093  -0.5090  -0.4711  -0.4705
    -0.3773  -0.3767  -0.2357  -0.2348  -0.1432  -0.1428  -0.0652  -0.0652
    -0.0542  -0.0541  -0.0321  -0.0320   0.0422   0.0428   0.0474   0.0857
     0.1190   0.1202   0.2961   0.2968   0.3076   0.3392   0.3403   0.3917
     0.3941   0.6378   0.6380   0.6968   0.6979   0.8763   0.9402   0.9423
     0.9440   1.1314   1.1327   1.2499   1.2622   1.2626   1.5023   1.5329
     1.5330   1.6265   1.6267   1.7206   1.7298   1.7301   1.8249   1.8255
     1.8903   1.8951   1.8956   1.9965   2.0178   2.0785   2.0791   2.1061
     2.2502   2.2650   2.2854   2.2855   2.5417   2.5422   2.7770   2.7777
     4.1303   4.1306   5.0889   5.9015   6.3803   6.3814   6.4415   6.6434
     7.4807   7.4811   7.6827   7.6827   7.8776   7.8780   8.5669   8.5690
     9.0777   9.6300  10.3406  10.3410  10.3572  10.4996  10.4998  11.0053
    11.0067  11.5208  11.5212  11.5809  11.7752  11.7758  11.9198  11.9204
    12.1680  12.1701

          k = 0.1667-0.0962 0.0000 ( 32019 PWs)   bands (ev):

   -87.1293 -87.1202 -87.1138 -87.1134 -87.1118 -87.1117 -86.9166 -86.9159
   -86.9053 -86.9041 -86.9039 -86.9036 -50.6380 -50.6314 -50.6263 -50.6251
   -50.6204 -50.5954 -50.5893 -50.5789 -50.5737 -50.5641 -50.5581 -50.5575
   -50.5553 -50.5530 -50.5224 -50.5171 -50.5105 -50.5023 -50.4181 -50.4174
   -50.4127 -50.4123 -50.3773 -50.3766 -50.3746 -50.3742 -50.3374 -50.3353
   -50.3270 -50.3257 -50.3255 -50.3252 -50.3213 -50.3210 -50.3132 -50.3125
   -14.2466 -14.1557 -14.0553 -10.4882 -10.4204 -10.3433  -9.6403  -9.6402
    -9.5817  -9.5817  -9.5147  -9.5146  -7.5123  -7.5123  -7.4666  -7.4666
    -7.4106  -7.4105  -6.6981  -6.6507  -6.5935  -2.8799  -2.2725  -2.2263
    -1.8803  -1.8802  -1.8627  -1.8627  -1.8345  -1.8345  -1.5893  -1.3609
    -1.2405  -1.2274  -1.2034  -1.1295  -0.9541  -0.9526  -0.8276  -0.7698
    -0.7605  -0.6857  -0.5497  -0.4504  -0.3771  -0.3519  -0.3207  -0.2584
    -0.1609  -0.1408  -0.1399   0.0161   0.0991   0.1285   0.2067   0.2545
     0.3178   0.3330   0.3462   0.3775   0.4027   0.4269   0.4352   0.4658
     0.5091   0.5743   0.5762   0.6377   0.6569   0.7504   0.8399   0.9065
     0.9720   1.0150   1.0237   1.1266   1.1304   1.2043   1.2430   1.2445
     1.2512   1.2691   1.3057   1.3150   1.3351   1.3891   1.4746   1.5046
     1.5333   1.5625   1.5677   1.5842   1.6242   1.6764   1.6931   1.8312
     1.8358   1.8370   1.8971   1.9348   1.9615   2.0160   2.0802   2.1963
     2.1968   2.2892   2.3106   2.5458   2.5459   2.8674   2.8678   4.3510
     5.7289   5.8593   6.6559   6.6561   6.7361   6.8620   6.8620   7.0016
     7.1737   7.1742   7.3493   7.3688   7.6582   7.9201   8.0210   8.1517
     8.3988   8.6443   8.7855   9.3197   9.6854   9.8613   9.9606  10.2259
    10.2918  10.4637  10.7050  10.9063  11.2585  11.2889  11.3359  11.4901
    11.9955  12.1133

          k = 0.1667 0.0962 0.0000 ( 32019 PWs)   bands (ev):

   -87.1293 -87.1202 -87.1138 -87.1135 -87.1118 -87.1117 -86.9166 -86.9159
   -86.9053 -86.9041 -86.9039 -86.9036 -50.6380 -50.6317 -50.6261 -50.6250
   -50.6203 -50.5956 -50.5891 -50.5793 -50.5735 -50.5639 -50.5579 -50.5575
   -50.5551 -50.5534 -50.5223 -50.5172 -50.5103 -50.5025 -50.4181 -50.4176
   -50.4126 -50.4121 -50.3774 -50.3769 -50.3745 -50.3740 -50.3374 -50.3353
   -50.3270 -50.3257 -50.3255 -50.3252 -50.3212 -50.3207 -50.3132 -50.3128
   -14.2466 -14.1557 -14.0553 -10.4882 -10.4204 -10.3433  -9.6403  -9.6402
    -9.5817  -9.5817  -9.5147  -9.5146  -7.5123  -7.5123  -7.4666  -7.4666
    -7.4106  -7.4105  -6.6981  -6.6507  -6.5935  -2.8799  -2.2725  -2.2264
    -1.8803  -1.8802  -1.8627  -1.8627  -1.8345  -1.8345  -1.5893  -1.3609
    -1.2405  -1.2274  -1.2034  -1.1299  -0.9554  -0.9531  -0.8276  -0.7672
    -0.7599  -0.6854  -0.5495  -0.4497  -0.3791  -0.3532  -0.3212  -0.2582
    -0.1617  -0.1397  -0.1387   0.0175   0.0988   0.1295   0.2046   0.2571
     0.3173   0.3319   0.3464   0.3782   0.4037   0.4308   0.4350   0.4635
     0.5093   0.5677   0.5770   0.6380   0.6594   0.7482   0.8380   0.9123
     0.9704   1.0144   1.0234   1.1296   1.1306   1.2012   1.2444   1.2446
     1.2512   1.2691   1.3054   1.3109   1.3326   1.3891   1.4751   1.5036
     1.5337   1.5625   1.5677   1.5842   1.6186   1.6812   1.6950   1.8312
     1.8361   1.8377   1.8955   1.9400   1.9607   2.0153   2.0829   2.1963
     2.1968   2.2892   2.3093   2.5458   2.5459   2.8674   2.8678   4.3503
     5.7281   5.8597   6.6559   6.6561   6.7361   6.8620   6.8620   7.0017
     7.1737   7.1742   7.3523   7.3688   7.6582   7.9136   8.0210   8.1534
     8.3887   8.6443   8.7855   9.3197   9.6947   9.8652   9.9607  10.2265
    10.2962  10.4576  10.7050  10.9063  11.2596  11.2907  11.3335  11.4897
    11.9955  12.1139

          k = 0.1667 0.2887 0.0000 ( 32043 PWs)   bands (ev):

   -87.1270 -87.1186 -87.1153 -87.1152 -87.1121 -87.1120 -86.9147 -86.9140
   -86.9062 -86.9050 -86.9050 -86.9046 -50.6336 -50.6335 -50.6324 -50.6279
   -50.6278 -50.5857 -50.5851 -50.5682 -50.5679 -50.5647 -50.5529 -50.5526
   -50.5449 -50.5444 -50.5369 -50.5312 -50.5225 -50.5068 -50.4200 -50.4197
   -50.4194 -50.4193 -50.3588 -50.3584 -50.3581 -50.3580 -50.3422 -50.3415
   -50.3353 -50.3336 -50.3278 -50.3265 -50.3265 -50.3260 -50.3182 -50.3180
   -13.9239 -13.8349 -13.7364 -11.0895 -11.0894 -11.0173 -11.0173 -10.9359
   -10.9358  -8.8356  -8.8027  -8.7657  -7.7288  -7.7120  -7.6803  -5.6193
    -5.6193  -5.5771  -5.5771  -5.5252  -5.5252  -3.1915  -3.1658  -3.1296
    -2.4930  -1.8935  -1.7799  -1.5586  -1.5586  -1.5420  -1.5420  -1.5146
    -1.5146  -1.2205  -1.0411  -1.0149  -1.0142  -0.9052  -0.9046  -0.8694
    -0.8692  -0.8464  -0.6702  -0.5610  -0.5583  -0.3674  -0.3653  -0.3535
    -0.3526  -0.1879  -0.1393  -0.1355  -0.0118   0.0280   0.2211   0.2279
     0.2377   0.2416   0.2450   0.3154   0.3829   0.4046   0.4132   0.4615
     0.4894   0.4957   0.5401   0.5615   0.6213   0.6474   0.6489   0.7737
     0.7834   0.7838   0.8585   0.9082   0.9122   0.9274   1.0086   1.0279
     1.0293   1.1183   1.1206   1.1210   1.2409   1.2777   1.2777   1.2926
     1.2946   1.3672   1.3931   1.3948   1.5098   1.5109   1.5765   1.5798
     1.6077   1.6909   1.8107   1.8110   1.8717   1.8722   1.9648   2.0093
     2.0110   2.1379   2.1392   2.8125   2.9663   3.2298   3.4249   4.7172
     4.7176   4.9389   5.5006   5.5017   6.3201   6.3685   6.5329   6.5907
     6.9023   6.9069   8.2899   8.2904   8.5703   8.5704   8.6752   8.6782
     8.8882   8.8885   9.0713   9.2156   9.7440   9.7623   9.7677  10.3389
    10.5382  10.5435  11.1387  11.2785  11.3458  11.3515  12.4438  12.4617
    12.5780  12.7839

          k = 0.1667-0.6736 0.0000 ( 32075 PWs)   bands (ev):

   -87.1231 -87.1188 -87.1163 -87.1160 -87.1136 -87.1125 -86.9117 -86.9108
   -86.9080 -86.9075 -86.9058 -86.9057 -50.6404 -50.6346 -50.6243 -50.6232
   -50.6160 -50.5885 -50.5857 -50.5845 -50.5643 -50.5584 -50.5537 -50.5481
   -50.5458 -50.5443 -50.5324 -50.5293 -50.5293 -50.5159 -50.4262 -50.4255
   -50.4045 -50.4037 -50.3745 -50.3737 -50.3428 -50.3422 -50.3417 -50.3412
   -50.3327 -50.3313 -50.3292 -50.3285 -50.3277 -50.3276 -50.3274 -50.3269
   -13.2822 -13.1970 -13.1023 -12.3308 -12.2511 -12.1621 -11.3968 -11.3227
   -11.2392  -8.7925  -8.7392  -8.6773  -6.9269  -6.8935  -6.8506  -4.5679
    -4.5435  -4.5082  -4.5041  -4.4753  -4.4370  -3.5264  -3.4955  -3.4547
    -2.4319  -2.4139  -2.3850  -1.7290  -1.4762  -1.4584  -1.4309  -1.2425
    -1.1938  -1.1784  -1.1462  -1.1043  -0.9673  -0.9366  -0.9275  -0.9222
    -0.8969  -0.8748  -0.8698  -0.8428  -0.7057  -0.6877  -0.6136  -0.5869
    -0.5091  -0.4958  -0.4472  -0.3877  -0.3407  -0.3137  -0.1655  -0.0674
    -0.0619  -0.0576  -0.0369  -0.0192   0.0294   0.0300   0.1718   0.2498
     0.2849   0.3482   0.3541   0.3999   0.4194   0.4651   0.4846   0.5490
     0.6203   0.7153   0.7862   0.7950   0.8512   0.9033   0.9407   0.9484
     0.9819   1.0557   1.1092   1.1131   1.1283   1.1628   1.2449   1.3229
     1.4177   1.4602   1.4636   1.5471   1.5640   1.5752   1.5979   1.6743
     1.7714   1.8271   1.8367   1.8553   1.8897   1.9207   1.9662   2.0011
     2.0220   2.0454   2.1406   2.7295   3.2804   3.3654   3.6292   3.6368
     3.8340   3.9553   4.5883   4.9695   5.9005   6.0350   6.0476   6.2092
     6.4069   7.2142   7.8853   7.9580   9.0429   9.2489   9.4550   9.4936
     9.5855   9.9184  10.0742  10.1705  10.4786  10.5858  10.6989  10.8825
    10.9391  11.1231  11.1719  11.3649  11.7619  11.9908  12.0345  12.0436
    12.0675  12.3591

          k = 0.1667-0.4811 0.0000 ( 32075 PWs)   bands (ev):

   -87.1231 -87.1188 -87.1163 -87.1160 -87.1136 -87.1125 -86.9117 -86.9108
   -86.9080 -86.9075 -86.9058 -86.9057 -50.6404 -50.6347 -50.6243 -50.6232
   -50.6159 -50.5887 -50.5855 -50.5845 -50.5644 -50.5585 -50.5537 -50.5481
   -50.5459 -50.5445 -50.5323 -50.5294 -50.5293 -50.5158 -50.4262 -50.4256
   -50.4044 -50.4035 -50.3746 -50.3740 -50.3428 -50.3422 -50.3417 -50.3415
   -50.3327 -50.3313 -50.3292 -50.3285 -50.3277 -50.3274 -50.3273 -50.3269
   -13.2822 -13.1970 -13.1023 -12.3308 -12.2511 -12.1621 -11.3968 -11.3227
   -11.2392  -8.7925  -8.7392  -8.6773  -6.9269  -6.8935  -6.8506  -4.5679
    -4.5435  -4.5082  -4.5041  -4.4753  -4.4370  -3.5264  -3.4955  -3.4547
    -2.4319  -2.4139  -2.3850  -1.7290  -1.4762  -1.4584  -1.4309  -1.2424
    -1.1930  -1.1786  -1.1462  -1.1044  -0.9681  -0.9366  -0.9281  -0.9222
    -0.8969  -0.8739  -0.8690  -0.8424  -0.7041  -0.6880  -0.6136  -0.5871
    -0.5086  -0.4958  -0.4476  -0.3908  -0.3395  -0.3144  -0.1665  -0.0674
    -0.0619  -0.0576  -0.0369  -0.0204   0.0256   0.0307   0.1754   0.2499
     0.2865   0.3497   0.3529   0.3930   0.4177   0.4651   0.4870   0.5490
     0.6209   0.7221   0.7935   0.7962   0.8482   0.8988   0.9410   0.9498
     0.9819   1.0542   1.1070   1.1131   1.1288   1.1611   1.2457   1.3240
     1.4191   1.4613   1.4645   1.5471   1.5658   1.5757   1.5939   1.6739
     1.7680   1.8265   1.8365   1.8565   1.8950   1.9220   1.9652   2.0002
     2.0209   2.0445   2.1372   2.7296   3.2804   3.3657   3.6292   3.6361
     3.8341   3.9553   4.5883   4.9713   5.9024   6.0353   6.0476   6.2092
     6.4069   7.2130   7.8857   7.9609   9.0429   9.2489   9.4550   9.4935
     9.5812   9.9185  10.0742  10.1704  10.4786  10.5858  10.6989  10.8825
    10.9391  11.1233  11.1714  11.3649  11.7622  11.9908  12.0319  12.0438
    12.0677  12.3593

          k = 0.1667-0.2887 0.0000 ( 32043 PWs)   bands (ev):

   -87.1270 -87.1186 -87.1153 -87.1152 -87.1121 -87.1121 -86.9147 -86.9140
   -86.9062 -86.9050 -86.9050 -86.9046 -50.6336 -50.6333 -50.6324 -50.6280
   -50.6279 -50.5855 -50.5850 -50.5681 -50.5680 -50.5648 -50.5531 -50.5529
   -50.5445 -50.5445 -50.5368 -50.5316 -50.5224 -50.5066 -50.4200 -50.4197
   -50.4193 -50.4192 -50.3588 -50.3584 -50.3582 -50.3580 -50.3422 -50.3419
   -50.3353 -50.3336 -50.3278 -50.3265 -50.3264 -50.3260 -50.3182 -50.3177
   -13.9239 -13.8349 -13.7364 -11.0895 -11.0894 -11.0173 -11.0173 -10.9359
   -10.9358  -8.8356  -8.8027  -8.7657  -7.7288  -7.7120  -7.6803  -5.6193
    -5.6193  -5.5771  -5.5771  -5.5252  -5.5252  -3.1915  -3.1658  -3.1296
    -2.4930  -1.8935  -1.7796  -1.5586  -1.5586  -1.5420  -1.5420  -1.5146
    -1.5146  -1.2205  -1.0411  -1.0145  -1.0138  -0.9061  -0.9054  -0.8696
    -0.8693  -0.8446  -0.6674  -0.5591  -0.5582  -0.3698  -0.3688  -0.3530
    -0.3526  -0.1920  -0.1383  -0.1372  -0.0132   0.0282   0.2211   0.2279
     0.2415   0.2429   0.2450   0.3118   0.3833   0.4039   0.4053   0.4630
     0.4906   0.4916   0.5446   0.5608   0.6188   0.6568   0.6570   0.7740
     0.7834   0.7838   0.8578   0.9082   0.9122   0.9274   1.0035   1.0282
     1.0300   1.1175   1.1196   1.1226   1.2391   1.2777   1.2777   1.2932
     1.2941   1.3736   1.3972   1.3974   1.5093   1.5106   1.5728   1.5746
     1.6122   1.6881   1.8107   1.8110   1.8731   1.8737   1.9608   2.0093
     2.0105   2.1357   2.1370   2.8127   2.9663   3.2298   3.4249   4.7171
     4.7175   4.9406   5.5007   5.5020   6.3201   6.3685   6.5329   6.5927
     6.9062   6.9073   8.2899   8.2904   8.5703   8.5704   8.6788   8.6814
     8.8882   8.8885   9.0713   9.2156   9.7440   9.7586   9.7622  10.3389
    10.5373  10.5387  11.1387  11.2785  11.3459  11.3517  12.4454  12.4481
    12.5778  12.7839

          k = 0.3333-0.1925 0.0000 ( 32055 PWs)   bands (ev):

   -87.1259 -87.1179 -87.1170 -87.1147 -87.1128 -87.1119 -86.9138 -86.9131
   -86.9069 -86.9062 -86.9047 -86.9047 -50.6446 -50.6376 -50.6299 -50.6236
   -50.6163 -50.5898 -50.5808 -50.5694 -50.5676 -50.5567 -50.5544 -50.5518
   -50.5431 -50.5417 -50.5389 -50.5384 -50.5235 -50.5112 -50.4307 -50.4301
   -50.4072 -50.4067 -50.3555 -50.3548 -50.3520 -50.3515 -50.3498 -50.3496
   -50.3345 -50.3331 -50.3283 -50.3275 -50.3264 -50.3261 -50.3220 -50.3213
   -13.7629 -13.6749 -13.5774 -11.8606 -11.7837 -11.6975 -10.0439 -10.0438
    -9.9788  -9.9788  -9.9046  -9.9046  -6.3826  -6.3826  -6.3404  -6.3404
    -6.2885  -6.2884  -4.6329  -4.5945  -4.5461  -3.0073  -3.0072  -2.9830
    -2.9830  -2.9483  -2.9483  -2.3008  -1.7055  -1.5695  -1.2021  -1.1028
    -1.0966  -1.0379  -0.8701  -0.8210  -0.8009  -0.7796  -0.7694  -0.7672
    -0.7439  -0.7186  -0.6307  -0.6076  -0.5678  -0.4632  -0.3879  -0.3810
    -0.3647  -0.3379  -0.2623  -0.2397  -0.2300  -0.1236  -0.0803  -0.0801
    -0.0673   0.0298   0.1471   0.1638   0.2082   0.2425   0.3141   0.3549
     0.3733   0.4513   0.4538   0.5605   0.5750   0.6162   0.6948   0.7077
     0.7182   0.7532   0.7913   0.7929   0.8000   0.8199   0.9070   0.9224
     0.9682   0.9864   1.0349   1.1600   1.1789   1.2334   1.3097   1.3620
     1.4034   1.4061   1.4458   1.6075   1.6255   1.7130   1.7480   1.7833
     1.8712   1.8970   1.9075   1.9317   1.9323   1.9819   1.9958   2.0293
     2.0911   2.1249   2.3661   2.3661   2.8168   2.8175   3.0475   3.6318
     4.3484   5.2043   5.7040   5.8498   6.3430   6.8589   6.9718   7.1689
     7.1692   7.1950   7.4001   7.4002   7.6610   7.6614   7.9848   9.1886
     9.2838   9.4303   9.4460   9.7218   9.7874   9.9559  10.0361  10.3561
    10.5317  10.5854  11.3548  11.4656  11.8020  11.8169  11.9877  12.2651
    12.2953  12.3918

          k = 0.3333-0.0000 0.0000 ( 32043 PWs)   bands (ev):

   -87.1270 -87.1186 -87.1153 -87.1153 -87.1121 -87.1121 -86.9147 -86.9140
   -86.9062 -86.9050 -86.9050 -86.9046 -50.6335 -50.6333 -50.6324 -50.6280
   -50.6279 -50.5853 -50.5851 -50.5684 -50.5683 -50.5649 -50.5526 -50.5525
   -50.5449 -50.5445 -50.5370 -50.5312 -50.5223 -50.5068 -50.4200 -50.4197
   -50.4194 -50.4192 -50.3587 -50.3584 -50.3582 -50.3579 -50.3420 -50.3417
   -50.3353 -50.3336 -50.3278 -50.3265 -50.3264 -50.3260 -50.3184 -50.3178
   -13.9239 -13.8349 -13.7364 -11.0895 -11.0894 -11.0173 -11.0173 -10.9359
   -10.9358  -8.8356  -8.8027  -8.7657  -7.7288  -7.7120  -7.6803  -5.6193
    -5.6193  -5.5771  -5.5771  -5.5252  -5.5252  -3.1915  -3.1658  -3.1296
    -2.4930  -1.8935  -1.7797  -1.5586  -1.5586  -1.5420  -1.5420  -1.5146
    -1.5146  -1.2205  -1.0398  -1.0150  -1.0138  -0.9052  -0.9047  -0.8698
    -0.8694  -0.8472  -0.6710  -0.5615  -0.5595  -0.3660  -0.3650  -0.3533
    -0.3524  -0.1888  -0.1397  -0.1370  -0.0115   0.0283   0.2211   0.2279
     0.2396   0.2439   0.2450   0.3153   0.3828   0.4041   0.4118   0.4622
     0.4905   0.4957   0.5408   0.5615   0.6224   0.6464   0.6479   0.7739
     0.7834   0.7838   0.8586   0.9082   0.9121   0.9274   1.0073   1.0286
     1.0303   1.1189   1.1211   1.1215   1.2411   1.2777   1.2777   1.2931
     1.2945   1.3666   1.3916   1.3931   1.5093   1.5095   1.5785   1.5803
     1.6053   1.6922   1.8107   1.8110   1.8717   1.8728   1.9635   2.0103
     2.0108   2.1364   2.1389   2.8145   2.9663   3.2298   3.4249   4.7172
     4.7173   4.9390   5.5014   5.5018   6.3201   6.3685   6.5329   6.5912
     6.9025   6.9067   8.2899   8.2904   8.5703   8.5704   8.6754   8.6809
     8.8882   8.8885   9.0713   9.2156   9.7440   9.7587   9.7676  10.3389
    10.5383  10.5435  11.1387  11.2785  11.3453  11.3469  12.4462  12.4615
    12.5778  12.7840

          k = 0.3333 0.1925 0.0000 ( 32055 PWs)   bands (ev):

   -87.1259 -87.1179 -87.1170 -87.1148 -87.1128 -87.1119 -86.9138 -86.9131
   -86.9069 -86.9062 -86.9047 -86.9047 -50.6448 -50.6375 -50.6299 -50.6235
   -50.6162 -50.5898 -50.5813 -50.5693 -50.5673 -50.5565 -50.5544 -50.5516
   -50.5429 -50.5422 -50.5389 -50.5382 -50.5236 -50.5114 -50.4307 -50.4303
   -50.4071 -50.4065 -50.3555 -50.3551 -50.3520 -50.3511 -50.3497 -50.3494
   -50.3345 -50.3330 -50.3283 -50.3274 -50.3264 -50.3262 -50.3220 -50.3217
   -13.7629 -13.6749 -13.5774 -11.8606 -11.7837 -11.6975 -10.0439 -10.0438
    -9.9788  -9.9788  -9.9046  -9.9046  -6.3826  -6.3826  -6.3404  -6.3404
    -6.2885  -6.2884  -4.6329  -4.5945  -4.5461  -3.0073  -3.0072  -2.9830
    -2.9830  -2.9483  -2.9483  -2.3008  -1.7055  -1.5698  -1.2018  -1.1025
    -1.0972  -1.0379  -0.8704  -0.8200  -0.7990  -0.7796  -0.7682  -0.7672
    -0.7439  -0.7204  -0.6311  -0.6061  -0.5694  -0.4615  -0.3896  -0.3810
    -0.3647  -0.3379  -0.2615  -0.2397  -0.2276  -0.1238  -0.0852  -0.0803
    -0.0648   0.0291   0.1418   0.1604   0.2087   0.2419   0.3147   0.3541
     0.3756   0.4513   0.4589   0.5643   0.5696   0.6144   0.6952   0.7111
     0.7190   0.7541   0.7913   0.8000   0.8005   0.8199   0.9010   0.9142
     0.9679   0.9916   1.0349   1.1620   1.1728   1.2351   1.3060   1.3619
     1.4020   1.4043   1.4469   1.6155   1.6300   1.7108   1.7449   1.7830
     1.8692   1.8969   1.9113   1.9317   1.9323   1.9803   1.9972   2.0288
     2.0947   2.1258   2.3661   2.3661   2.8168   2.8175   3.0462   3.6320
     4.3486   5.2025   5.7080   5.8498   6.3509   6.8448   6.9700   7.1689
     7.1692   7.1768   7.4001   7.4002   7.6610   7.6614   7.9833   9.2034
     9.2838   9.4303   9.4460   9.7218   9.7945   9.9560  10.0361  10.3529
    10.5317  10.5864  11.3548  11.4657  11.8016  11.8435  11.9876  12.2651
    12.2961  12.3927

          k = 0.3333-0.7698 0.0000 ( 32075 PWs)   bands (ev):

   -87.1231 -87.1188 -87.1163 -87.1161 -87.1136 -87.1124 -86.9117 -86.9108
   -86.9080 -86.9075 -86.9058 -86.9057 -50.6403 -50.6346 -50.6243 -50.6233
   -50.6161 -50.5886 -50.5853 -50.5852 -50.5642 -50.5580 -50.5536 -50.5481
   -50.5458 -50.5445 -50.5324 -50.5296 -50.5292 -50.5160 -50.4264 -50.4256
   -50.4043 -50.4036 -50.3745 -50.3737 -50.3426 -50.3420 -50.3419 -50.3414
   -50.3326 -50.3313 -50.3291 -50.3285 -50.3278 -50.3276 -50.3274 -50.3270
   -13.2822 -13.1970 -13.1023 -12.3308 -12.2511 -12.1621 -11.3968 -11.3227
   -11.2392  -8.7925  -8.7392  -8.6773  -6.9269  -6.8935  -6.8506  -4.5679
    -4.5435  -4.5082  -4.5041  -4.4753  -4.4371  -3.5264  -3.4955  -3.4547
    -2.4319  -2.4139  -2.3850  -1.7290  -1.4762  -1.4584  -1.4309  -1.2418
    -1.1936  -1.1787  -1.1462  -1.1054  -0.9667  -0.9366  -0.9282  -0.9222
    -0.8969  -0.8749  -0.8694  -0.8407  -0.7064  -0.6853  -0.6136  -0.5899
    -0.5088  -0.4958  -0.4454  -0.3890  -0.3405  -0.3128  -0.1653  -0.0674
    -0.0619  -0.0576  -0.0369  -0.0195   0.0202   0.0367   0.1681   0.2507
     0.2797   0.3448   0.3526   0.4009   0.4283   0.4651   0.4869   0.5490
     0.6190   0.7124   0.7961   0.8010   0.8520   0.8934   0.9364   0.9531
     0.9819   1.0545   1.1107   1.1133   1.1253   1.1545   1.2456   1.3267
     1.4170   1.4609   1.4625   1.5471   1.5699   1.5754   1.5977   1.6755
     1.7693   1.8258   1.8381   1.8575   1.8904   1.9238   1.9644   2.0034
     2.0196   2.0449   2.1394   2.7295   3.2804   3.3648   3.6292   3.6362
     3.8342   3.9553   4.5905   4.9715   5.8998   6.0276   6.0476   6.2092
     6.4069   7.2119   7.8827   7.9574   9.0429   9.2489   9.4550   9.4996
     9.5816   9.9184  10.0742  10.1776  10.4786  10.5858  10.6989  10.8767
    10.9391  11.1232  11.1717  11.3648  11.7608  11.9907  12.0344  12.0437
    12.0917  12.3587

          k = 0.3333-0.5774 0.0000 ( 32121 PWs)   bands (ev):

   -87.1195 -87.1195 -87.1194 -87.1140 -87.1140 -87.1139 -86.9103 -86.9081
   -86.9080 -86.9080 -86.9076 -86.9076 -50.6244 -50.6244 -50.6242 -50.6178
   -50.6177 -50.6175 -50.5842 -50.5839 -50.5838 -50.5515 -50.5514 -50.5513
   -50.5408 -50.5407 -50.5406 -50.5215 -50.5215 -50.5213 -50.4052 -50.4051
   -50.4044 -50.4041 -50.4040 -50.4036 -50.3349 -50.3348 -50.3342 -50.3340
   -50.3338 -50.3336 -50.3316 -50.3292 -50.3292 -50.3291 -50.3285 -50.3285
   -12.4887 -12.4886 -12.4885 -12.4081 -12.4080 -12.4080 -12.3181 -12.3181
   -12.3180  -7.6156  -7.5583  -7.5567  -7.5550  -7.5462  -7.4928  -5.3797
    -5.3772  -5.3690  -2.7933  -2.7933  -2.7933  -2.7795  -2.7795  -2.7794
    -2.7563  -2.7563  -2.7562  -1.3874  -1.3874  -1.3874  -1.3792  -1.3791
    -1.3791  -1.3595  -1.3595  -1.3595  -1.1400  -1.1392  -1.1389  -1.1031
    -1.1022  -1.1021  -0.9240  -0.9237  -0.9226  -0.7940  -0.7935  -0.7934
    -0.7423  -0.7419  -0.7407  -0.5745  -0.5742  -0.5717  -0.3068  -0.3065
    -0.3058  -0.2355  -0.2354  -0.2354   0.1143   0.1191   0.1195   0.3118
     0.3192   0.3201   0.3837   0.3838   0.3843   0.4179   0.4199   0.4210
     0.5377   0.5395   0.5442   0.9236   0.9252   0.9290   0.9602   0.9647
     0.9657   1.2937   1.2942   1.2951   1.3620   1.3638   1.3642   1.5490
     1.5496   1.5521   1.6073   1.6076   1.6080   1.6757   1.6761   1.6764
     1.7737   1.7739   1.7742   1.8089   1.8098   1.8101   2.0132   2.0141
     2.0149   2.0484   2.0492   2.0496   2.8148   2.8167   2.8171   4.5116
     4.6030   4.6050   4.6067   4.9337   4.9357   4.9416   4.9506   5.4015
     6.9185   6.9193   6.9212   9.2867   9.2888   9.2935  10.9405  10.9428
    10.9432  10.9708  10.9710  10.9726  11.1253  11.1262  11.1270  11.1422
    11.1432  11.1439  11.2861  11.2871  11.2875  11.5356  11.5367  11.5372
    11.8655  11.8680

          k = 0.3333-0.3849 0.0000 ( 32075 PWs)   bands (ev):

   -87.1231 -87.1188 -87.1163 -87.1160 -87.1136 -87.1124 -86.9117 -86.9108
   -86.9080 -86.9075 -86.9058 -86.9057 -50.6400 -50.6347 -50.6243 -50.6233
   -50.6161 -50.5888 -50.5852 -50.5849 -50.5644 -50.5582 -50.5537 -50.5482
   -50.5459 -50.5444 -50.5323 -50.5294 -50.5293 -50.5158 -50.4263 -50.4255
   -50.4043 -50.4037 -50.3746 -50.3740 -50.3426 -50.3424 -50.3418 -50.3413
   -50.3326 -50.3314 -50.3291 -50.3285 -50.3278 -50.3274 -50.3272 -50.3269
   -13.2822 -13.1970 -13.1023 -12.3308 -12.2511 -12.1621 -11.3968 -11.3227
   -11.2392  -8.7925  -8.7392  -8.6773  -6.9269  -6.8935  -6.8506  -4.5679
    -4.5435  -4.5082  -4.5041  -4.4753  -4.4371  -3.5264  -3.4955  -3.4546
    -2.4319  -2.4139  -2.3850  -1.7290  -1.4762  -1.4584  -1.4309  -1.2427
    -1.1930  -1.1793  -1.1462  -1.1041  -0.9673  -0.9366  -0.9277  -0.9222
    -0.8969  -0.8738  -0.8703  -0.8418  -0.7047  -0.6874  -0.6136  -0.5880
    -0.5085  -0.4958  -0.4474  -0.3908  -0.3391  -0.3135  -0.1660  -0.0674
    -0.0619  -0.0576  -0.0369  -0.0208   0.0248   0.0315   0.1753   0.2485
     0.2864   0.3502   0.3512   0.3953   0.4185   0.4651   0.4884   0.5490
     0.6209   0.7210   0.7962   0.7974   0.8482   0.8967   0.9403   0.9505
     0.9819   1.0528   1.1071   1.1128   1.1274   1.1595   1.2458   1.3252
     1.4187   1.4616   1.4643   1.5471   1.5663   1.5759   1.5938   1.6741
     1.7671   1.8266   1.8376   1.8574   1.8946   1.9216   1.9651   1.9990
     2.0206   2.0443   2.1378   2.7297   3.2804   3.3646   3.6292   3.6366
     3.8330   3.9553   4.5909   4.9725   5.9025   6.0343   6.0476   6.2092
     6.4069   7.2130   7.8882   7.9610   9.0429   9.2489   9.4550   9.4895
     9.5827   9.9185  10.0742  10.1707  10.4786  10.5858  10.6989  10.8764
    10.9391  11.1233  11.1718  11.3648  11.7609  11.9908  12.0340  12.0438
    12.0697  12.3588

          k =-0.5000 0.2887 0.0000 ( 32112 PWs)   bands (ev):

   -87.1214 -87.1214 -87.1153 -87.1151 -87.1150 -87.1121 -86.9112 -86.9095
   -86.9095 -86.9091 -86.9052 -86.9050 -50.6493 -50.6423 -50.6215 -50.6214
   -50.5955 -50.5954 -50.5825 -50.5757 -50.5756 -50.5597 -50.5498 -50.5476
   -50.5474 -50.5377 -50.5377 -50.5290 -50.5255 -50.5255 -50.4352 -50.4346
   -50.3841 -50.3830 -50.3829 -50.3823 -50.3425 -50.3423 -50.3373 -50.3359
   -50.3358 -50.3356 -50.3321 -50.3302 -50.3302 -50.3297 -50.3270 -50.3265
   -12.9634 -12.9633 -12.8800 -12.8800 -12.7872 -12.7872 -10.1878 -10.1877
   -10.1213 -10.1213 -10.0455 -10.0455  -5.5339  -5.5339  -5.5129  -5.5129
    -5.4837  -5.4837  -3.8599  -3.8598  -3.8470  -3.8470  -3.8224  -3.8224
    -2.4576  -2.4576  -2.4303  -2.4302  -2.3926  -2.3926  -1.3558  -1.3537
    -1.3533  -1.2650  -1.1989  -0.9417  -0.9055  -0.9050  -0.7982  -0.7809
    -0.7809  -0.6918  -0.6910  -0.5138  -0.5080  -0.5076  -0.4696  -0.4691
    -0.3790  -0.3785  -0.2356  -0.2345  -0.1432  -0.1428  -0.0652  -0.0652
    -0.0542  -0.0541  -0.0321  -0.0320   0.0439   0.0446   0.0452   0.0882
     0.1191   0.1201   0.2948   0.2954   0.3060   0.3399   0.3406   0.3924
     0.3947   0.6391   0.6395   0.6963   0.6975   0.8768   0.9405   0.9420
     0.9444   1.1303   1.1319   1.2468   1.2609   1.2614   1.5018   1.5344
     1.5345   1.6279   1.6280   1.7210   1.7288   1.7293   1.8249   1.8255
     1.8903   1.8938   1.8944   1.9961   2.0191   2.0785   2.0790   2.1052
     2.2503   2.2651   2.2854   2.2855   2.5415   2.5419   2.7770   2.7777
     4.1313   4.1317   5.0851   5.9091   6.3803   6.3818   6.4381   6.6482
     7.4807   7.4811   7.6827   7.6827   7.8776   7.8780   8.5676   8.5695
     9.0709   9.6309  10.3407  10.3410  10.3506  10.4996  10.4998  11.0050
    11.0065  11.5209  11.5213  11.5839  11.7752  11.7758  11.9198  11.9204
    12.1680  12.1701

          k =-0.5000 0.4811 0.0000 ( 32075 PWs)   bands (ev):

   -87.1231 -87.1188 -87.1163 -87.1161 -87.1136 -87.1125 -86.9117 -86.9108
   -86.9080 -86.9075 -86.9058 -86.9057 -50.6400 -50.6347 -50.6242 -50.6233
   -50.6161 -50.5889 -50.5855 -50.5848 -50.5643 -50.5583 -50.5538 -50.5482
   -50.5458 -50.5442 -50.5322 -50.5294 -50.5293 -50.5159 -50.4263 -50.4255
   -50.4044 -50.4037 -50.3744 -50.3739 -50.3426 -50.3424 -50.3417 -50.3412
   -50.3326 -50.3314 -50.3291 -50.3286 -50.3280 -50.3274 -50.3273 -50.3269
   -13.2822 -13.1970 -13.1023 -12.3308 -12.2511 -12.1621 -11.3968 -11.3227
   -11.2392  -8.7925  -8.7392  -8.6773  -6.9269  -6.8935  -6.8506  -4.5679
    -4.5435  -4.5082  -4.5041  -4.4753  -4.4371  -3.5264  -3.4955  -3.4546
    -2.4319  -2.4139  -2.3850  -1.7290  -1.4762  -1.4584  -1.4309  -1.2427
    -1.1928  -1.1790  -1.1462  -1.1043  -0.9674  -0.9366  -0.9271  -0.9222
    -0.8969  -0.8734  -0.8706  -0.8424  -0.7086  -0.6872  -0.6136  -0.5880
    -0.5102  -0.4958  -0.4469  -0.3872  -0.3388  -0.3127  -0.1651  -0.0674
    -0.0619  -0.0576  -0.0369  -0.0204   0.0270   0.0288   0.1740   0.2493
     0.2855   0.3522   0.3530   0.4033   0.4179   0.4651   0.4867   0.5490
     0.6180   0.7142   0.7880   0.7949   0.8526   0.9017   0.9394   0.9487
     0.9819   1.0552   1.1105   1.1133   1.1274   1.1619   1.2435   1.3236
     1.4166   1.4600   1.4631   1.5471   1.5639   1.5751   1.5990   1.6758
     1.7710   1.8268   1.8375   1.8563   1.8906   1.9191   1.9654   1.9997
     2.0206   2.0455   2.1402   2.7295   3.2804   3.3654   3.6292   3.6386
     3.8329   3.9553   4.5908   4.9699   5.9006   6.0341   6.0476   6.2092
     6.4069   7.2143   7.8880   7.9588   9.0429   9.2489   9.4550   9.4896
     9.5857   9.9184  10.0742  10.1707  10.4786  10.5856  10.6989  10.8764
    10.9391  11.1232  11.1720  11.3649  11.7619  11.9906  12.0342  12.0438
    12.0695  12.3592

          k =-0.5000 0.6736 0.0000 ( 32075 PWs)   bands (ev):

   -87.1231 -87.1188 -87.1163 -87.1161 -87.1136 -87.1124 -86.9117 -86.9108
   -86.9080 -86.9075 -86.9058 -86.9057 -50.6403 -50.6346 -50.6242 -50.6233
   -50.6160 -50.5889 -50.5852 -50.5852 -50.5642 -50.5581 -50.5537 -50.5480
   -50.5458 -50.5444 -50.5323 -50.5296 -50.5292 -50.5160 -50.4264 -50.4256
   -50.4043 -50.4035 -50.3744 -50.3738 -50.3426 -50.3420 -50.3417 -50.3415
   -50.3326 -50.3313 -50.3291 -50.3285 -50.3280 -50.3275 -50.3274 -50.3270
   -13.2822 -13.1970 -13.1023 -12.3308 -12.2511 -12.1621 -11.3968 -11.3227
   -11.2392  -8.7925  -8.7392  -8.6773  -6.9269  -6.8935  -6.8506  -4.5679
    -4.5435  -4.5082  -4.5041  -4.4753  -4.4370  -3.5264  -3.4955  -3.4547
    -2.4319  -2.4139  -2.3850  -1.7290  -1.4762  -1.4584  -1.4309  -1.2417
    -1.1927  -1.1786  -1.1462  -1.1057  -0.9676  -0.9366  -0.9281  -0.9222
    -0.8969  -0.8736  -0.8690  -0.8409  -0.7087  -0.6853  -0.6136  -0.5901
    -0.5100  -0.4958  -0.4452  -0.3885  -0.3391  -0.3128  -0.1654  -0.0674
    -0.0619  -0.0576  -0.0369  -0.0203   0.0187   0.0348   0.1702   0.2515
     0.2803   0.3488   0.3530   0.4021   0.4261   0.4651   0.4875   0.5490
     0.6167   0.7124   0.7958   0.7990   0.8534   0.8939   0.9358   0.9528
     0.9819   1.0553   1.1116   1.1141   1.1259   1.1550   1.2442   1.3262
     1.4162   1.4604   1.4621   1.5471   1.5691   1.5751   1.5989   1.6766
     1.7698   1.8254   1.8379   1.8576   1.8916   1.9226   1.9637   2.0031
     2.0185   2.0453   2.1386   2.7294   3.2804   3.3658   3.6292   3.6376
     3.8343   3.9553   4.5904   4.9707   5.8998   6.0277   6.0476   6.2092
     6.4069   7.2121   7.8828   7.9581   9.0429   9.2489   9.4550   9.4995
     9.5804   9.9184  10.0742  10.1776  10.4786  10.5857  10.6989  10.8768
    10.9391  11.1232  11.1714  11.3649  11.7621  11.9907  12.0320  12.0437
    12.0917  12.3593

          k =-0.5000-0.2887 0.0000 ( 32112 PWs)   bands (ev):

   -87.1214 -87.1214 -87.1153 -87.1151 -87.1151 -87.1120 -86.9112 -86.9095
   -86.9095 -86.9091 -86.9052 -86.9050 -50.6496 -50.6422 -50.6215 -50.6215
   -50.5954 -50.5953 -50.5830 -50.5755 -50.5754 -50.5594 -50.5497 -50.5475
   -50.5474 -50.5378 -50.5377 -50.5288 -50.5259 -50.5258 -50.4352 -50.4347
   -50.3841 -50.3828 -50.3827 -50.3823 -50.3424 -50.3419 -50.3373 -50.3361
   -50.3361 -50.3356 -50.3321 -50.3302 -50.3302 -50.3297 -50.3270 -50.3266
   -12.9634 -12.9633 -12.8800 -12.8800 -12.7872 -12.7872 -10.1878 -10.1877
   -10.1213 -10.1213 -10.0455 -10.0455  -5.5339  -5.5339  -5.5129  -5.5129
    -5.4837  -5.4837  -3.8599  -3.8598  -3.8470  -3.8470  -3.8224  -3.8224
    -2.4576  -2.4576  -2.4303  -2.4302  -2.3926  -2.3926  -1.3548  -1.3537
    -1.3533  -1.2646  -1.2000  -0.9404  -0.9046  -0.9042  -0.7963  -0.7809
    -0.7809  -0.6914  -0.6905  -0.5115  -0.5092  -0.5088  -0.4703  -0.4698
    -0.3804  -0.3799  -0.2363  -0.2351  -0.1432  -0.1428  -0.0652  -0.0652
    -0.0542  -0.0541  -0.0321  -0.0320   0.0351   0.0482   0.0485   0.0825
     0.1180   0.1189   0.2912   0.2919   0.3083   0.3408   0.3418   0.3960
     0.3981   0.6366   0.6370   0.7033   0.7047   0.8811   0.9289   0.9304
     0.9534   1.1318   1.1335   1.2378   1.2613   1.2618   1.5003   1.5377
     1.5379   1.6307   1.6308   1.7263   1.7267   1.7299   1.8249   1.8255
     1.8895   1.8978   1.8984   1.9925   2.0188   2.0782   2.0787   2.1034
     2.2507   2.2655   2.2854   2.2855   2.5415   2.5419   2.7770   2.7777
     4.1301   4.1305   5.0917   5.9193   6.3781   6.3797   6.4211   6.6272
     7.4807   7.4810   7.6827   7.6827   7.8776   7.8780   8.5651   8.5669
     9.0864   9.6388  10.3406  10.3409  10.3513  10.4996  10.4998  11.0051
    11.0067  11.5208  11.5212  11.6147  11.7752  11.7758  11.9198  11.9204
    12.1680  12.1701

     the Fermi energy is     4.9584 ev

!    total energy              =   -3891.04203890 Ry
     estimated scf accuracy    <          5.1E-09 Ry
     smearing contrib. (-TS)   =      -0.00139423 Ry
     internal energy E=F+TS    =   -3891.04064467 Ry

     The total energy is F=E-TS. E is the sum of the following terms:
     one-electron contribution =  -30137.53368676 Ry
     hartree contribution      =   15117.24960008 Ry
     xc contribution           =    -435.96810614 Ry
     ewald contribution        =   11713.82503309 Ry
     DFT-D3 Dispersion         =      -0.63201982 Ry
     electric field correction =       0.00000081 Ry
     one-center paw contrib.   =    -147.98146593 Ry

     convergence has been achieved in  40 iterations

     negative rho (up, down):  1.463E-04 0.000E+00

     Forces acting on atoms (cartesian axes, Ry/au):

     atom    1 type  1   force =    -0.00014809    0.00039942    0.00131619
     atom    2 type  1   force =    -0.00017642    0.00037605    0.00131412
     atom    3 type  1   force =     0.00046043   -0.00011194   -0.00125580
     atom    4 type  1   force =     0.00000872   -0.00033473   -0.00080938
     atom    5 type  1   force =    -0.00018272    0.00040948    0.00131426
     atom    6 type  1   force =     0.00035104   -0.00004561   -0.00136773
     atom    7 type  1   force =    -0.00024551    0.00004083    0.00093149
     atom    8 type  1   force =     0.00000662   -0.00033546   -0.00081265
     atom    9 type  1   force =    -0.00027690    0.00003320    0.00157462
     atom   10 type  1   force =     0.00046606    0.00001489   -0.00127972
     atom   11 type  1   force =     0.00000831   -0.00033733   -0.00080925
     atom   12 type  1   force =    -0.00025025    0.00000251    0.00093450
     atom   13 type  2   force =    -0.00000174   -0.00000224    0.00174388
     atom   14 type  2   force =    -0.00000423   -0.00000889   -0.00058950
     atom   15 type  2   force =    -0.00000744    0.00000103   -0.00055232
     atom   16 type  2   force =     0.00000003   -0.00000162   -0.00058535
     atom   17 type  2   force =    -0.00000174   -0.00000888   -0.00054959
     atom   18 type  2   force =     0.00000433   -0.00000863   -0.00058587
     atom   19 type  2   force =     0.00000411    0.00000101   -0.00055393
     atom   20 type  2   force =    -0.00000003   -0.00000672    0.00162785
     atom   21 type  2   force =    -0.00000155   -0.00000232   -0.00031488
     atom   22 type  2   force =    -0.00000011   -0.00000625    0.00006309
     atom   23 type  2   force =    -0.00000186   -0.00000317   -0.00031484
     atom   24 type  2   force =     0.00000500   -0.00000969    0.00008152
     atom   25 type  2   force =    -0.00000198   -0.00000236   -0.00031489
     atom   26 type  2   force =     0.00000002   -0.00000036    0.00008149
     atom   27 type  2   force =    -0.00000167   -0.00000295   -0.00030655
     atom   28 type  2   force =    -0.00000511   -0.00000982    0.00008152
     atom   29 type  2   force =    -0.00000187   -0.00000301   -0.00004450
     atom   30 type  2   force =     0.00000015   -0.00000687    0.00003160
     atom   31 type  2   force =    -0.00000195   -0.00000282   -0.00004661
     atom   32 type  2   force =    -0.00000002   -0.00000699    0.00003158
     atom   33 type  2   force =    -0.00000176   -0.00000316   -0.00004652
     atom   34 type  2   force =    -0.00000013   -0.00000685    0.00003157
     atom   35 type  2   force =    -0.00000172   -0.00000287   -0.00004652
     atom   36 type  2   force =    -0.00000001   -0.00000687    0.00002711

     Total force =     0.005118     Total SCF correction =     0.000557
     SCF correction compared to forces is large: reduce conv_thr to get better values

     Writing all to output data dir ./tmp/AGC_N3_top_fcc_Ed_p45.save/ :
     XML data file, charge density, pseudopotentials, collected wavefunctions
 
     init_run     :     27.65s CPU     28.73s WALL (       1 calls)
     electrons    :   2616.34s CPU   2664.98s WALL (       1 calls)
     forces       :     13.50s CPU     13.87s WALL (       1 calls)
     force_dftd3  :      0.01s CPU      0.01s WALL (       1 calls)

     Called by init_run:
     wfcinit      :     19.64s CPU     20.54s WALL (       1 calls)
     potinit      :      7.17s CPU      7.23s WALL (       1 calls)
     hinit0       :      0.35s CPU      0.38s WALL (       1 calls)

     Called by electrons:
     c_bands      :   1984.18s CPU   2019.26s WALL (      40 calls)
     sum_band     :    395.41s CPU    406.71s WALL (      40 calls)
     v_of_rho     :      6.98s CPU      7.62s WALL (      41 calls)
     newd         :      5.75s CPU      5.78s WALL (      41 calls)
                                        5.78s GPU  (      41 calls)
     PAW_pot      :    172.92s CPU    172.97s WALL (      41 calls)
     mix_rho      :     54.18s CPU     55.37s WALL (      40 calls)
     energy_dftd3 :      0.00s CPU      0.00s WALL (       1 calls)

     Called by c_bands:
     init_us_2    :     96.45s CPU     96.76s WALL (    1640 calls)
     cegterg      :   1844.76s CPU   1845.66s WALL (     800 calls)

     Called by *egterg:
     cdiaghg      :    114.41s CPU    114.70s WALL (    3967 calls)
                                      110.92s GPU  (    3967 calls)
     h_psi        :    959.38s CPU    964.75s WALL (    3987 calls)
                                      962.47s GPU  (    3987 calls)
     s_psi        :     99.94s CPU    100.01s WALL (    3987 calls)
     g_psi        :      0.01s CPU      3.67s WALL (    3167 calls)
                                        1.21s GPU  (    3167 calls)

     Called by h_psi:
     h_psi:calbec :      0.25s CPU    181.93s WALL (    3987 calls)
                                      180.06s GPU  (    3987 calls)
     vloc_psi     :    563.19s CPU    565.35s WALL (    3987 calls)
                                      563.22s GPU  (    3987 calls)
     add_vuspsi   :     65.70s CPU    202.78s WALL (    3987 calls)
                                      200.72s GPU  (    3987 calls)

     General routines
     calbec       :      0.28s CPU      0.29s WALL (    4867 calls)
     fft          :      2.22s CPU      3.25s WALL (     542 calls)
                                        0.53s GPU  (     501 calls)
     ffts         :      0.78s CPU      3.95s WALL (    3890 calls)
                                        1.33s GPU  (    3849 calls)
     fftw         :      1.06s CPU    337.11s WALL (   58978 calls)
                                      298.41s GPU  (   58978 calls)
     interpolate  :      3.11s CPU      3.45s WALL (      41 calls)
     davcio       :      2.00s CPU     47.19s WALL (    3166 calls)
 
     Parallel routines
 
     PWSCF        :  44m17.90s CPU  45m 8.98s WALL

 
   This run was terminated on:  19:47: 8   4Oct2026            

=------------------------------------------------------------------------------=
   JOB DONE.
=------------------------------------------------------------------------------=
