
     Program PWSCF v.7.4.1 starts on 26Sep2026 at 18:58:50 

     This program is part of the open-source Quantum ESPRESSO suite
     for quantum simulation of materials; please cite
         "P. Giannozzi et al., J. Phys.:Condens. Matter 21 395502 (2009);
         "P. Giannozzi et al., J. Phys.:Condens. Matter 29 465901 (2017);
         "P. Giannozzi et al., J. Chem. Phys. 152 154105 (2020);
          URL http://www.quantum-espresso.org", 
     in publications or presentations arising from this work. More details at
     http://www.quantum-espresso.org/quote

     Parallel version (MPI & OpenMP), running on      16 processor cores
     Number of MPI processes:                 1
     Threads/MPI process:                    16

     MPI processes distributed on     1 nodes
     84087 MiB available memory on the printing compute node when the environment starts
 
     Reading input from pw.in

     Current dimensions of program PWSCF are:
     Max number of different atomic species (ntypx) = 10
     Max number of k-points (npk) =  40000
     Max angular momentum in pseudopotentials (lmaxx) =  4
     Presently no symmetry can be used with electric field

     file C.pbe-n-kjpaw_psl.1.0.0.UPF: wavefunction(s)  2S 2P renormalized
 
     Subspace diagonalization in iterative solution of the eigenvalue problem:
     a serial algorithm will be used

 
     G-vector sticks info
     --------------------
     sticks:   dense  smooth     PW     G-vecs:    dense   smooth      PW
     Sum        3193    1273    367               699545   177041   27695
 
     Using Slab Decomposition
 


     bravais-lattice index     =            0
     lattice parameter (alat)  =       9.4208  a.u.
     unit-cell volume          =    3493.6289 (a.u.)^3
     number of atoms/cell      =           20
     number of atomic types    =            2
     number of electrons       =       260.00
     number of Kohn-Sham states=          156
     kinetic-energy cutoff     =      52.0000  Ry
     charge density cutoff     =     520.0000  Ry
     scf convergence threshold =      1.0E-08
     mixing beta               =       0.3000
     number of iterations used =            8  local-TF  mixing
     energy convergence thresh.=      1.0E-05
     force convergence thresh. =      1.0E-03
     Exchange-correlation= SLA  PW   PBX  PBC
                           (   1   4   3   4   0   0   0)
     nstep                     =          200


     GPU acceleration is ACTIVE.  1 visible GPUs per MPI rank


     celldm(1)=   9.420781  celldm(2)=   0.000000  celldm(3)=   0.000000
     celldm(4)=   0.000000  celldm(5)=   0.000000  celldm(6)=   0.000000

     crystal axes: (cart. coord. in units of alat)
               a(1) = (   1.000000  -0.000000   0.000000 )  
               a(2) = (   0.500000   0.866025   0.000000 )  
               a(3) = (   0.000000   0.000000   4.824867 )  

     reciprocal axes: (cart. coord. in units 2 pi/alat)
               b(1) = (  1.000000 -0.577350  0.000000 )  
               b(2) = (  0.000000  1.154701 -0.000000 )  
               b(3) = ( -0.000000  0.000000  0.207260 )  


     PseudoPot. # 1 for Ag read from file:
     /home/ubuntu/wad4l/pseudo_kgy/Ag_ONCV_PBE-1.0.oncvpsp.upf
     MD5 check sum: 94f47bd0669c641108e45594df92fabc
     Pseudo is Norm-conserving, Zval = 19.0
     Generated using ONCVPSP code by D. R. Hamann
     Using radial grid of 1398 points,  6 beta functions with: 
                l(1) =   0
                l(2) =   0
                l(3) =   1
                l(4) =   1
                l(5) =   2
                l(6) =   2

     PseudoPot. # 2 for C  read from file:
     /home/ubuntu/wad4l/pseudo_kgy/C.pbe-n-kjpaw_psl.1.0.0.UPF
     MD5 check sum: 5d2aebdfa2cae82b50a7e79e9516da0f
     Pseudo is Projector augmented-wave + core cor, Zval =  4.0
     Generated using "atomic" code by A. Dal Corso  v.5.1
     Shape of augmentation charge: PSQ
     Using radial grid of 1073 points,  4 beta functions with: 
                l(1) =   0
                l(2) =   0
                l(3) =   1
                l(4) =   1
     Q(r) pseudized with 0 coefficients 


     atomic species   valence    mass     pseudopotential
     Ag               19.00   107.86820     Ag( 1.00)
     C                 4.00    12.01100     C ( 1.00)

     No symmetry found



   Cartesian axes

     site n.     atom                  positions (alat units)
         1        Ag     tau(   1) = (   0.3337695   0.5765948   0.5717001  )
         2        Ag     tau(   2) = (   0.8337695   0.8652699   0.5717001  )
         3        Ag     tau(   3) = (   0.1686318   0.2892067   1.0412426  )
         4        Ag     tau(   4) = (   0.5004501   0.2909658   0.1002956  )
         5        Ag     tau(   5) = (   0.8337695   0.2879196   0.5717001  )
         6        Ag     tau(   6) = (   0.6682969   0.5780726   1.0412392  )
         7        Ag     tau(   7) = (   0.5010409   0.2905870   1.5137818  )
         8        Ag     tau(   8) = (   1.0004501   0.5796409   0.1002956  )
         9        Ag     tau(   9) = (   1.0010502   0.5792536   1.5109369  )
        10        Ag     tau(  10) = (   0.6686354   0.0009140   1.0412399  )
        11        Ag     tau(  11) = (   1.0004501   0.0022906   0.1002956  )
        12        Ag     tau(  12) = (   1.0010400   0.0019100   1.5138088  )
        13        C      tau(  13) = (   0.5004501   0.2909658   2.1760963  )
        14        C      tau(  14) = (   0.7504501   0.4353033   2.1773947  )
        15        C      tau(  15) = (   0.7504501   0.7239785   2.1773988  )
        16        C      tau(  16) = (   1.0004501   0.8683160   2.1773944  )
        17        C      tau(  17) = (   1.0004501   0.2909658   2.1773996  )
        18        C      tau(  18) = (   1.2504501   0.4353033   2.1773952  )
        19        C      tau(  19) = (   1.2504501   0.7239785   2.1773994  )
        20        C      tau(  20) = (   1.5004501   0.8683160   2.1761096  )

     --------------------------------------------
     DFT-D3 Dispersion Correction (no 3-body):
     --------------------------------------------
       Reference C6 values for interpolation: 

         atom   Coordination number   C6
         C          0.000            98.23
         C          0.987            86.49
         C          1.998            58.72
         C          2.999            51.56
         C          3.984            36.41
         Ag         0.000           853.49
         Ag         0.968           537.23

       Values used:

         atom   Coordination number  R0_AB[au]  C6      C8
         Ag         9.085            3.147    537.23  47741.54
         Ag         9.085            3.147    537.23  47741.54
         Ag         9.084            3.147    537.23  47741.54
         Ag         6.766            3.147    537.23  47741.54
         Ag         9.085            3.147    537.23  47741.54
         Ag         9.084            3.147    537.23  47741.54
         Ag         6.820            3.147    537.23  47741.54
         Ag         6.766            3.147    537.23  47741.54
         Ag         6.851            3.147    537.23  47741.54
         Ag         9.084            3.147    537.23  47741.54
         Ag         6.766            3.147    537.23  47741.54
         Ag         6.820            3.147    537.23  47741.54
         C          3.300            2.750     48.56   1404.34
         C          3.292            2.750     48.72   1409.02
         C          3.292            2.750     48.72   1409.02
         C          3.292            2.750     48.72   1409.02
         C          3.292            2.750     48.72   1409.02
         C          3.292            2.750     48.72   1409.02
         C          3.292            2.750     48.72   1409.02
         C          3.300            2.750     48.56   1404.34

         Molecular C6 ( Ry / a.u.^6 ) =    111465.39


     number of k points=    20  Marzari-Vanderbilt smearing, width (Ry)=  0.0100
                       cart. coord. in units 2pi/alat
        k(    1) = (   0.0000000   0.0000000   0.0000000), wk =   0.0555556
        k(    2) = (   0.0000000   0.1924501   0.0000000), wk =   0.1111111
        k(    3) = (   0.0000000   0.3849002   0.0000000), wk =   0.1111111
        k(    4) = (   0.0000000  -0.5773503   0.0000000), wk =   0.0555556
        k(    5) = (   0.1666667  -0.0962250   0.0000000), wk =   0.1111111
        k(    6) = (   0.1666667   0.0962250   0.0000000), wk =   0.1111111
        k(    7) = (   0.1666667   0.2886751   0.0000000), wk =   0.1111111
        k(    8) = (   0.1666667  -0.6735753   0.0000000), wk =   0.1111111
        k(    9) = (   0.1666667  -0.4811252   0.0000000), wk =   0.1111111
        k(   10) = (   0.1666667  -0.2886751   0.0000000), wk =   0.1111111
        k(   11) = (   0.3333333  -0.1924501   0.0000000), wk =   0.1111111
        k(   12) = (   0.3333333  -0.0000000   0.0000000), wk =   0.1111111
        k(   13) = (   0.3333333   0.1924501   0.0000000), wk =   0.1111111
        k(   14) = (   0.3333333  -0.7698004   0.0000000), wk =   0.1111111
        k(   15) = (   0.3333333  -0.5773503   0.0000000), wk =   0.1111111
        k(   16) = (   0.3333333  -0.3849002   0.0000000), wk =   0.1111111
        k(   17) = (  -0.5000000   0.2886751   0.0000000), wk =   0.0555556
        k(   18) = (  -0.5000000   0.4811252   0.0000000), wk =   0.1111111
        k(   19) = (  -0.5000000   0.6735753   0.0000000), wk =   0.1111111
        k(   20) = (  -0.5000000  -0.2886751   0.0000000), wk =   0.0555556

     Dense  grid:   699545 G-vectors     FFT dimensions: (  72,  72, 360)

     Smooth grid:   177041 G-vectors     FFT dimensions: (  45,  45, 216)

     Estimated max dynamical RAM per process >       1.34 GB

     Check: negative core charge=   -0.000001

     Initial potential from superposition of free atoms

     starting charge     259.9962, renormalised to     260.0000

     negative rho (up, down):  1.046E-04 0.000E+00
 
     Adding external electric field

     Computed dipole along edir(3) : 
        Dipole               -0.0110 Ry au,         -0.0280 Debye
        Dipole field         -0.0000 Ry au, 
 
        Potential amp.        0.0035 Ry
        Total length         43.5645 bohr
 
     Starting wfcs are  152 randomized atomic wfcs +    4 random wfcs
     Checking if some PAW data can be deallocated... 

     total cpu time spent up to now is        4.0 secs

     Self-consistent Calculation

     iteration #  1     ecut=    52.00 Ry     beta= 0.30
     Davidson diagonalization with overlap
     ethr =  1.00E-02,  avg # of iterations =  4.8

     Threshold (ethr) on eigenvalues was too large:
     Diagonalizing with lowered threshold

     Davidson diagonalization with overlap
     ethr =  5.65E-04,  avg # of iterations =  2.1

     negative rho (up, down):  4.626E-08 0.000E+00
 
     Adding external electric field

     Computed dipole along edir(3) : 
        Dipole               -0.1140 Ry au,         -0.2897 Debye
        Dipole field         -0.0004 Ry au, 
 
        Potential amp.        0.0357 Ry
        Total length         43.5645 bohr
 

     total cpu time spent up to now is       13.9 secs

     total energy              =   -3596.11070221 Ry
     estimated scf accuracy    <       1.48288764 Ry

     iteration #  2     ecut=    52.00 Ry     beta= 0.30
     Davidson diagonalization with overlap
     ethr =  5.70E-04,  avg # of iterations =  2.1
 
     Adding external electric field

     Computed dipole along edir(3) : 
        Dipole               -0.3422 Ry au,         -0.8699 Debye
        Dipole field         -0.0012 Ry au, 
 
        Potential amp.        0.1073 Ry
        Total length         43.5645 bohr
 

     total cpu time spent up to now is       19.0 secs

     total energy              =   -3595.89313546 Ry
     estimated scf accuracy    <       0.82868924 Ry

     iteration #  3     ecut=    52.00 Ry     beta= 0.30
     Davidson diagonalization with overlap
     ethr =  3.19E-04,  avg # of iterations =  6.5
 
     Adding external electric field

     Computed dipole along edir(3) : 
        Dipole               -0.6405 Ry au,         -1.6279 Debye
        Dipole field         -0.0023 Ry au, 
 
        Potential amp.        0.2007 Ry
        Total length         43.5645 bohr
 

     total cpu time spent up to now is       24.5 secs

     total energy              =   -3595.84384635 Ry
     estimated scf accuracy    <       0.30885003 Ry

     iteration #  4     ecut=    52.00 Ry     beta= 0.30
     Davidson diagonalization with overlap
     ethr =  1.19E-04,  avg # of iterations =  7.9
 
     Adding external electric field

     Computed dipole along edir(3) : 
        Dipole               -0.6104 Ry au,         -1.5516 Debye
        Dipole field         -0.0022 Ry au, 
 
        Potential amp.        0.1913 Ry
        Total length         43.5645 bohr
 

     total cpu time spent up to now is       30.6 secs

     total energy              =   -3595.86929132 Ry
     estimated scf accuracy    <       0.56137086 Ry

     iteration #  5     ecut=    52.00 Ry     beta= 0.30
     Davidson diagonalization with overlap
     ethr =  1.19E-04,  avg # of iterations =  1.0

     negative rho (up, down):  1.841E-07 0.000E+00
 
     Adding external electric field

     Computed dipole along edir(3) : 
        Dipole               -0.9409 Ry au,         -2.3916 Debye
        Dipole field         -0.0034 Ry au, 
 
        Potential amp.        0.2949 Ry
        Total length         43.5645 bohr
 

     total cpu time spent up to now is       35.5 secs

     total energy              =   -3595.86143000 Ry
     estimated scf accuracy    <       0.55813797 Ry

     iteration #  6     ecut=    52.00 Ry     beta= 0.30
     Davidson diagonalization with overlap
     ethr =  1.19E-04,  avg # of iterations =  3.5

     negative rho (up, down):  9.506E-07 0.000E+00
 
     Adding external electric field

     Computed dipole along edir(3) : 
        Dipole               -1.0832 Ry au,         -2.7533 Debye
        Dipole field         -0.0039 Ry au, 
 
        Potential amp.        0.3395 Ry
        Total length         43.5645 bohr
 

     total cpu time spent up to now is       40.7 secs

     total energy              =   -3595.85336454 Ry
     estimated scf accuracy    <       0.45126653 Ry

     iteration #  7     ecut=    52.00 Ry     beta= 0.30
     Davidson diagonalization with overlap
     ethr =  1.19E-04,  avg # of iterations =  4.4
 
     Adding external electric field

     Computed dipole along edir(3) : 
        Dipole               -0.8803 Ry au,         -2.2375 Debye
        Dipole field         -0.0032 Ry au, 
 
        Potential amp.        0.2759 Ry
        Total length         43.5645 bohr
 

     total cpu time spent up to now is       46.0 secs

     total energy              =   -3595.85135047 Ry
     estimated scf accuracy    <       0.15106977 Ry

     iteration #  8     ecut=    52.00 Ry     beta= 0.30
     Davidson diagonalization with overlap
     ethr =  5.81E-05,  avg # of iterations =  1.8
 
     Adding external electric field

     Computed dipole along edir(3) : 
        Dipole               -0.6745 Ry au,         -1.7144 Debye
        Dipole field         -0.0024 Ry au, 
 
        Potential amp.        0.2114 Ry
        Total length         43.5645 bohr
 

     total cpu time spent up to now is       51.1 secs

     total energy              =   -3595.84371767 Ry
     estimated scf accuracy    <       0.12825975 Ry

     iteration #  9     ecut=    52.00 Ry     beta= 0.30
     Davidson diagonalization with overlap
     ethr =  4.93E-05,  avg # of iterations =  3.6
 
     Adding external electric field

     Computed dipole along edir(3) : 
        Dipole               -0.3364 Ry au,         -0.8550 Debye
        Dipole field         -0.0012 Ry au, 
 
        Potential amp.        0.1054 Ry
        Total length         43.5645 bohr
 

     total cpu time spent up to now is       56.4 secs

     total energy              =   -3595.82996683 Ry
     estimated scf accuracy    <       0.08505848 Ry

     iteration # 10     ecut=    52.00 Ry     beta= 0.30
     Davidson diagonalization with overlap
     ethr =  3.27E-05,  avg # of iterations =  8.2

     negative rho (up, down):  4.927E-04 0.000E+00
 
     Adding external electric field

     Computed dipole along edir(3) : 
        Dipole               -0.0570 Ry au,         -0.1448 Debye
        Dipole field         -0.0002 Ry au, 
 
        Potential amp.        0.0178 Ry
        Total length         43.5645 bohr
 

     total cpu time spent up to now is       62.3 secs

     total energy              =   -3595.84033859 Ry
     estimated scf accuracy    <       0.01966999 Ry

     iteration # 11     ecut=    52.00 Ry     beta= 0.30
     Davidson diagonalization with overlap
     c_bands:  1 eigenvalues not converged
     c_bands:  2 eigenvalues not converged
     ethr =  7.57E-06,  avg # of iterations = 13.3

     negative rho (up, down):  3.145E-03 0.000E+00
 
     Adding external electric field

     Computed dipole along edir(3) : 
        Dipole                0.0713 Ry au,          0.1813 Debye
        Dipole field          0.0003 Ry au, 
 
        Potential amp.       -0.0224 Ry
        Total length         43.5645 bohr
 

     total cpu time spent up to now is       69.1 secs

     total energy              =   -3595.84068990 Ry
     estimated scf accuracy    <       0.03610453 Ry

     iteration # 12     ecut=    52.00 Ry     beta= 0.30
     Davidson diagonalization with overlap
     ethr =  7.57E-06,  avg # of iterations =  9.8

     negative rho (up, down):  1.427E-04 0.000E+00
 
     Adding external electric field

     Computed dipole along edir(3) : 
        Dipole                0.0625 Ry au,          0.1587 Debye
        Dipole field          0.0002 Ry au, 
 
        Potential amp.       -0.0196 Ry
        Total length         43.5645 bohr
 

     total cpu time spent up to now is       75.2 secs

     total energy              =   -3595.83918094 Ry
     estimated scf accuracy    <       0.04025054 Ry

     iteration # 13     ecut=    52.00 Ry     beta= 0.30
     Davidson diagonalization with overlap
     ethr =  7.57E-06,  avg # of iterations =  5.8

     negative rho (up, down):  4.230E-05 0.000E+00
 
     Adding external electric field

     Computed dipole along edir(3) : 
        Dipole                0.0660 Ry au,          0.1676 Debye
        Dipole field          0.0002 Ry au, 
 
        Potential amp.       -0.0207 Ry
        Total length         43.5645 bohr
 

     total cpu time spent up to now is       80.9 secs

     total energy              =   -3595.83771780 Ry
     estimated scf accuracy    <       0.03185248 Ry

     iteration # 14     ecut=    52.00 Ry     beta= 0.30
     Davidson diagonalization with overlap
     ethr =  7.57E-06,  avg # of iterations =  5.8

     negative rho (up, down):  1.588E-04 0.000E+00
 
     Adding external electric field

     Computed dipole along edir(3) : 
        Dipole                0.0871 Ry au,          0.2215 Debye
        Dipole field          0.0003 Ry au, 
 
        Potential amp.       -0.0273 Ry
        Total length         43.5645 bohr
 

     total cpu time spent up to now is       86.5 secs

     total energy              =   -3595.83873567 Ry
     estimated scf accuracy    <       0.02305511 Ry

     iteration # 15     ecut=    52.00 Ry     beta= 0.30
     Davidson diagonalization with overlap
     ethr =  7.57E-06,  avg # of iterations =  2.1

     negative rho (up, down):  1.675E-03 0.000E+00
 
     Adding external electric field

     Computed dipole along edir(3) : 
        Dipole                0.1484 Ry au,          0.3772 Debye
        Dipole field          0.0005 Ry au, 
 
        Potential amp.       -0.0465 Ry
        Total length         43.5645 bohr
 

     total cpu time spent up to now is       91.5 secs

     total energy              =   -3595.83643853 Ry
     estimated scf accuracy    <       0.02856008 Ry

     iteration # 16     ecut=    52.00 Ry     beta= 0.30
     Davidson diagonalization with overlap
     ethr =  7.57E-06,  avg # of iterations =  4.5

     negative rho (up, down):  1.467E-03 0.000E+00
 
     Adding external electric field

     Computed dipole along edir(3) : 
        Dipole                0.0948 Ry au,          0.2410 Debye
        Dipole field          0.0003 Ry au, 
 
        Potential amp.       -0.0297 Ry
        Total length         43.5645 bohr
 

     total cpu time spent up to now is       96.9 secs

     total energy              =   -3595.83585093 Ry
     estimated scf accuracy    <       0.01066118 Ry

     iteration # 17     ecut=    52.00 Ry     beta= 0.30
     Davidson diagonalization with overlap
     c_bands:  1 eigenvalues not converged
     c_bands:  1 eigenvalues not converged
     ethr =  4.10E-06,  avg # of iterations =  9.2

     negative rho (up, down):  2.538E-03 0.000E+00
 
     Adding external electric field

     Computed dipole along edir(3) : 
        Dipole                0.1082 Ry au,          0.2751 Debye
        Dipole field          0.0004 Ry au, 
 
        Potential amp.       -0.0339 Ry
        Total length         43.5645 bohr
 

     total cpu time spent up to now is      103.0 secs

     total energy              =   -3595.83586475 Ry
     estimated scf accuracy    <       0.00467413 Ry

     iteration # 18     ecut=    52.00 Ry     beta= 0.30
     Davidson diagonalization with overlap
     ethr =  1.80E-06,  avg # of iterations =  5.7

     negative rho (up, down):  7.305E-03 0.000E+00
 
     Adding external electric field

     Computed dipole along edir(3) : 
        Dipole                0.0341 Ry au,          0.0868 Debye
        Dipole field          0.0001 Ry au, 
 
        Potential amp.       -0.0107 Ry
        Total length         43.5645 bohr
 

     total cpu time spent up to now is      108.7 secs

     total energy              =   -3595.83462638 Ry
     estimated scf accuracy    <       0.00492938 Ry

     iteration # 19     ecut=    52.00 Ry     beta= 0.30
     Davidson diagonalization with overlap
     c_bands:  1 eigenvalues not converged
     c_bands:  1 eigenvalues not converged
     c_bands:  1 eigenvalues not converged
     ethr =  1.80E-06,  avg # of iterations = 11.7

     negative rho (up, down):  6.277E-03 0.000E+00
 
     Adding external electric field

     Computed dipole along edir(3) : 
        Dipole                0.0803 Ry au,          0.2041 Debye
        Dipole field          0.0003 Ry au, 
 
        Potential amp.       -0.0252 Ry
        Total length         43.5645 bohr
 

     total cpu time spent up to now is      115.3 secs

     total energy              =   -3595.83524468 Ry
     estimated scf accuracy    <       0.00080766 Ry

     iteration # 20     ecut=    52.00 Ry     beta= 0.30
     Davidson diagonalization with overlap
     ethr =  3.11E-07,  avg # of iterations =  5.3

     negative rho (up, down):  2.975E-03 0.000E+00
 
     Adding external electric field

     Computed dipole along edir(3) : 
        Dipole               -0.0923 Ry au,         -0.2345 Debye
        Dipole field         -0.0003 Ry au, 
 
        Potential amp.        0.0289 Ry
        Total length         43.5645 bohr
 

     total cpu time spent up to now is      121.0 secs

     total energy              =   -3595.83420334 Ry
     estimated scf accuracy    <       0.00191836 Ry

     iteration # 21     ecut=    52.00 Ry     beta= 0.30
     Davidson diagonalization with overlap
     c_bands:  1 eigenvalues not converged
     c_bands:  1 eigenvalues not converged
     c_bands:  1 eigenvalues not converged
     ethr =  3.11E-07,  avg # of iterations = 13.7

     negative rho (up, down):  4.467E-04 0.000E+00
 
     Adding external electric field

     Computed dipole along edir(3) : 
        Dipole                0.0738 Ry au,          0.1876 Debye
        Dipole field          0.0003 Ry au, 
 
        Potential amp.       -0.0231 Ry
        Total length         43.5645 bohr
 

     total cpu time spent up to now is      128.6 secs

     total energy              =   -3595.82780912 Ry
     estimated scf accuracy    <       0.09669543 Ry

     iteration # 22     ecut=    52.00 Ry     beta= 0.30
     Davidson diagonalization with overlap
     c_bands:  2 eigenvalues not converged
     ethr =  3.11E-07,  avg # of iterations = 10.9

     negative rho (up, down):  1.853E-04 0.000E+00
 
     Adding external electric field

     Computed dipole along edir(3) : 
        Dipole                0.0577 Ry au,          0.1465 Debye
        Dipole field          0.0002 Ry au, 
 
        Potential amp.       -0.0181 Ry
        Total length         43.5645 bohr
 

     total cpu time spent up to now is      135.9 secs

     total energy              =   -3595.83512569 Ry
     estimated scf accuracy    <       0.00299486 Ry

     iteration # 23     ecut=    52.00 Ry     beta= 0.30
     Davidson diagonalization with overlap
     ethr =  3.11E-07,  avg # of iterations =  6.8

     negative rho (up, down):  1.640E-04 0.000E+00
 
     Adding external electric field

     Computed dipole along edir(3) : 
        Dipole                0.0315 Ry au,          0.0800 Debye
        Dipole field          0.0001 Ry au, 
 
        Potential amp.       -0.0099 Ry
        Total length         43.5645 bohr
 

     total cpu time spent up to now is      141.7 secs

     total energy              =   -3595.83484924 Ry
     estimated scf accuracy    <       0.00234408 Ry

     iteration # 24     ecut=    52.00 Ry     beta= 0.30
     Davidson diagonalization with overlap
     c_bands:  2 eigenvalues not converged
     c_bands:  2 eigenvalues not converged
     c_bands:  2 eigenvalues not converged
     ethr =  3.11E-07,  avg # of iterations =  7.8

     negative rho (up, down):  4.820E-05 0.000E+00
 
     Adding external electric field

     Computed dipole along edir(3) : 
        Dipole                0.0346 Ry au,          0.0880 Debye
        Dipole field          0.0001 Ry au, 
 
        Potential amp.       -0.0109 Ry
        Total length         43.5645 bohr
 

     total cpu time spent up to now is      147.6 secs

     total energy              =   -3595.83488216 Ry
     estimated scf accuracy    <       0.00184111 Ry

     iteration # 25     ecut=    52.00 Ry     beta= 0.30
     Davidson diagonalization with overlap
     ethr =  3.11E-07,  avg # of iterations =  3.1

     negative rho (up, down):  8.535E-05 0.000E+00
 
     Adding external electric field

     Computed dipole along edir(3) : 
        Dipole                0.0334 Ry au,          0.0848 Debye
        Dipole field          0.0001 Ry au, 
 
        Potential amp.       -0.0105 Ry
        Total length         43.5645 bohr
 

     total cpu time spent up to now is      152.7 secs

     total energy              =   -3595.83485390 Ry
     estimated scf accuracy    <       0.00210949 Ry

     iteration # 26     ecut=    52.00 Ry     beta= 0.30
     Davidson diagonalization with overlap
     ethr =  3.11E-07,  avg # of iterations =  1.1

     negative rho (up, down):  1.187E-04 0.000E+00
 
     Adding external electric field

     Computed dipole along edir(3) : 
        Dipole                0.0345 Ry au,          0.0877 Debye
        Dipole field          0.0001 Ry au, 
 
        Potential amp.       -0.0108 Ry
        Total length         43.5645 bohr
 

     total cpu time spent up to now is      157.6 secs

     total energy              =   -3595.83485241 Ry
     estimated scf accuracy    <       0.00188370 Ry

     iteration # 27     ecut=    52.00 Ry     beta= 0.30
     Davidson diagonalization with overlap
     ethr =  3.11E-07,  avg # of iterations =  1.1

     negative rho (up, down):  1.489E-04 0.000E+00
 
     Adding external electric field

     Computed dipole along edir(3) : 
        Dipole                0.0362 Ry au,          0.0920 Debye
        Dipole field          0.0001 Ry au, 
 
        Potential amp.       -0.0113 Ry
        Total length         43.5645 bohr
 

     total cpu time spent up to now is      162.6 secs

     total energy              =   -3595.83485823 Ry
     estimated scf accuracy    <       0.00184713 Ry

     iteration # 28     ecut=    52.00 Ry     beta= 0.30
     Davidson diagonalization with overlap
     ethr =  3.11E-07,  avg # of iterations =  1.0

     negative rho (up, down):  2.517E-04 0.000E+00
 
     Adding external electric field

     Computed dipole along edir(3) : 
        Dipole                0.0202 Ry au,          0.0514 Debye
        Dipole field          0.0001 Ry au, 
 
        Potential amp.       -0.0063 Ry
        Total length         43.5645 bohr
 

     total cpu time spent up to now is      167.5 secs

     total energy              =   -3595.83466360 Ry
     estimated scf accuracy    <       0.00185387 Ry

     iteration # 29     ecut=    52.00 Ry     beta= 0.30
     Davidson diagonalization with overlap
     ethr =  3.11E-07,  avg # of iterations =  6.8

     negative rho (up, down):  2.112E-04 0.000E+00
 
     Adding external electric field

     Computed dipole along edir(3) : 
        Dipole                0.0172 Ry au,          0.0437 Debye
        Dipole field          0.0001 Ry au, 
 
        Potential amp.       -0.0054 Ry
        Total length         43.5645 bohr
 

     total cpu time spent up to now is      173.2 secs

     total energy              =   -3595.83473246 Ry
     estimated scf accuracy    <       0.00000095 Ry

     iteration # 30     ecut=    52.00 Ry     beta= 0.30
     Davidson diagonalization with overlap
     ethr =  3.64E-10,  avg # of iterations =  3.1

     negative rho (up, down):  1.879E-04 0.000E+00
 
     Adding external electric field

     Computed dipole along edir(3) : 
        Dipole                0.0190 Ry au,          0.0482 Debye
        Dipole field          0.0001 Ry au, 
 
        Potential amp.       -0.0059 Ry
        Total length         43.5645 bohr
 

     total cpu time spent up to now is      179.0 secs

     total energy              =   -3595.83473156 Ry
     estimated scf accuracy    <       0.00011505 Ry

     iteration # 31     ecut=    52.00 Ry     beta= 0.30
     Davidson diagonalization with overlap
     ethr =  3.64E-10,  avg # of iterations =  2.0

     negative rho (up, down):  1.229E-04 0.000E+00
 
     Adding external electric field

     Computed dipole along edir(3) : 
        Dipole                0.0165 Ry au,          0.0419 Debye
        Dipole field          0.0001 Ry au, 
 
        Potential amp.       -0.0052 Ry
        Total length         43.5645 bohr
 

     total cpu time spent up to now is      184.2 secs

     total energy              =   -3595.83473462 Ry
     estimated scf accuracy    <       0.00001864 Ry

     iteration # 32     ecut=    52.00 Ry     beta= 0.30
     Davidson diagonalization with overlap
     ethr =  3.64E-10,  avg # of iterations =  2.0

     negative rho (up, down):  1.190E-04 0.000E+00
 
     Adding external electric field

     Computed dipole along edir(3) : 
        Dipole                0.0165 Ry au,          0.0420 Debye
        Dipole field          0.0001 Ry au, 
 
        Potential amp.       -0.0052 Ry
        Total length         43.5645 bohr
 

     total cpu time spent up to now is      189.2 secs

     total energy              =   -3595.83473546 Ry
     estimated scf accuracy    <       0.00010118 Ry

     iteration # 33     ecut=    52.00 Ry     beta= 0.30
     Davidson diagonalization with overlap
     ethr =  3.64E-10,  avg # of iterations =  1.0

     negative rho (up, down):  1.112E-04 0.000E+00
 
     Adding external electric field

     Computed dipole along edir(3) : 
        Dipole                0.0136 Ry au,          0.0347 Debye
        Dipole field          0.0000 Ry au, 
 
        Potential amp.       -0.0043 Ry
        Total length         43.5645 bohr
 

     total cpu time spent up to now is      194.1 secs

     total energy              =   -3595.83474292 Ry
     estimated scf accuracy    <       0.00009371 Ry

     iteration # 34     ecut=    52.00 Ry     beta= 0.30
     Davidson diagonalization with overlap
     ethr =  3.64E-10,  avg # of iterations =  2.7

     negative rho (up, down):  1.200E-04 0.000E+00
 
     Adding external electric field

     Computed dipole along edir(3) : 
        Dipole                0.0136 Ry au,          0.0346 Debye
        Dipole field          0.0000 Ry au, 
 
        Potential amp.       -0.0043 Ry
        Total length         43.5645 bohr
 

     total cpu time spent up to now is      199.5 secs

     total energy              =   -3595.83474711 Ry
     estimated scf accuracy    <       0.00045531 Ry

     iteration # 35     ecut=    52.00 Ry     beta= 0.30
     Davidson diagonalization with overlap
     ethr =  3.64E-10,  avg # of iterations =  1.0

     negative rho (up, down):  1.161E-04 0.000E+00
 
     Adding external electric field

     Computed dipole along edir(3) : 
        Dipole                0.0145 Ry au,          0.0369 Debye
        Dipole field          0.0001 Ry au, 
 
        Potential amp.       -0.0046 Ry
        Total length         43.5645 bohr
 

     total cpu time spent up to now is      204.3 secs

     total energy              =   -3595.83474137 Ry
     estimated scf accuracy    <       0.00046304 Ry

     iteration # 36     ecut=    52.00 Ry     beta= 0.30
     Davidson diagonalization with overlap
     ethr =  3.64E-10,  avg # of iterations =  2.0

     negative rho (up, down):  1.046E-04 0.000E+00
 
     Adding external electric field

     Computed dipole along edir(3) : 
        Dipole                0.0166 Ry au,          0.0422 Debye
        Dipole field          0.0001 Ry au, 
 
        Potential amp.       -0.0052 Ry
        Total length         43.5645 bohr
 

     total cpu time spent up to now is      209.3 secs

     total energy              =   -3595.83473142 Ry
     estimated scf accuracy    <       0.00029310 Ry

     iteration # 37     ecut=    52.00 Ry     beta= 0.30
     Davidson diagonalization with overlap
     ethr =  3.64E-10,  avg # of iterations =  2.7

     negative rho (up, down):  1.104E-04 0.000E+00
 
     Adding external electric field

     Computed dipole along edir(3) : 
        Dipole                0.0191 Ry au,          0.0485 Debye
        Dipole field          0.0001 Ry au, 
 
        Potential amp.       -0.0060 Ry
        Total length         43.5645 bohr
 

     total cpu time spent up to now is      214.6 secs

     total energy              =   -3595.83473004 Ry
     estimated scf accuracy    <       0.00005372 Ry

     iteration # 38     ecut=    52.00 Ry     beta= 0.30
     Davidson diagonalization with overlap
     ethr =  3.64E-10,  avg # of iterations =  2.4

     negative rho (up, down):  1.093E-04 0.000E+00
 
     Adding external electric field

     Computed dipole along edir(3) : 
        Dipole                0.0189 Ry au,          0.0480 Debye
        Dipole field          0.0001 Ry au, 
 
        Potential amp.       -0.0059 Ry
        Total length         43.5645 bohr
 

     total cpu time spent up to now is      219.9 secs

     total energy              =   -3595.83473235 Ry
     estimated scf accuracy    <       0.00000160 Ry

     iteration # 39     ecut=    52.00 Ry     beta= 0.30
     Davidson diagonalization with overlap
     ethr =  3.64E-10,  avg # of iterations =  1.0

     negative rho (up, down):  1.213E-04 0.000E+00
 
     Adding external electric field

     Computed dipole along edir(3) : 
        Dipole                0.0193 Ry au,          0.0490 Debye
        Dipole field          0.0001 Ry au, 
 
        Potential amp.       -0.0060 Ry
        Total length         43.5645 bohr
 

     total cpu time spent up to now is      224.7 secs

     total energy              =   -3595.83473237 Ry
     estimated scf accuracy    <       0.00000002 Ry

     iteration # 40     ecut=    52.00 Ry     beta= 0.30
     Davidson diagonalization with overlap
     ethr =  6.54E-12,  avg # of iterations =  2.0

     negative rho (up, down):  1.219E-04 0.000E+00
 
     Adding external electric field

     Computed dipole along edir(3) : 
        Dipole                0.0193 Ry au,          0.0492 Debye
        Dipole field          0.0001 Ry au, 
 
        Potential amp.       -0.0061 Ry
        Total length         43.5645 bohr
 

     total cpu time spent up to now is      229.9 secs

     total energy              =   -3595.83473237 Ry
     estimated scf accuracy    <       0.00000001 Ry

     iteration # 41     ecut=    52.00 Ry     beta= 0.30
     Davidson diagonalization with overlap
     ethr =  4.91E-12,  avg # of iterations =  1.0

     negative rho (up, down):  1.220E-04 0.000E+00
 
     Adding external electric field

     Computed dipole along edir(3) : 
        Dipole                0.0199 Ry au,          0.0505 Debye
        Dipole field          0.0001 Ry au, 
 
        Potential amp.       -0.0062 Ry
        Total length         43.5645 bohr
 

     total cpu time spent up to now is      234.7 secs

     End of self-consistent calculation

          k = 0.0000 0.0000 0.0000 ( 22161 PWs)   bands (ev):

   -86.0398 -86.0300 -86.0226 -86.0226 -86.0199 -86.0199 -85.8684 -85.8552
   -85.8510 -85.8219 -85.8085 -85.8084 -49.5496 -49.5236 -49.5233 -49.5227
   -49.5224 -49.5210 -49.5209 -49.4959 -49.4958 -49.4712 -49.4711 -49.4685
   -49.4684 -49.4652 -49.4224 -49.4219 -49.4087 -49.4085 -49.3520 -49.3519
   -49.3461 -49.3460 -49.3044 -49.3044 -49.3021 -49.3021 -49.2912 -49.2798
   -49.2754 -49.2603 -49.2601 -49.2421 -49.2304 -49.2302 -49.2144 -49.2141
   -13.2718  -8.1801  -8.1693  -8.1693  -7.0453  -7.0406  -7.0406  -1.6348
    -1.3337  -0.4744  -0.3356  -0.3356  -0.3297  -0.2185  -0.0572   0.4185
     0.4200   0.4333   0.4347   0.4361   0.4374   0.7757   0.7759   0.7840
     0.7843   0.9704   0.9755   0.9900   0.9902   1.2181   1.2770   1.2782
     1.3242   1.3265   1.3791   1.3796   1.3979   1.3984   1.4137   1.5243
     1.5250   1.5921   1.5939   1.6475   1.6479   1.6908   1.6911   1.7300
     1.7300   1.7506   1.7506   2.1661   2.1697   2.2843   2.2915   2.2954
     2.2955   2.3286   2.3287   2.4260   2.4380   2.6629   2.7087   2.7265
     2.7657   2.7692   2.8735   2.8929   2.9450   2.9451   2.9533   2.9533
     2.9616   2.9616   3.0209   3.0235   3.6987   3.6988   3.7102   5.2054
     6.4564   7.5252   7.5861   7.5861   9.4937   9.4994   9.6873   9.6878
     9.7002   9.7006   9.7801  10.1418  10.4704  10.4729  10.4878  10.4905
    10.8775  10.8897  11.3341  11.9933  12.1443  12.1488  12.1517  12.1561
    12.4183  12.4412  13.0609  13.3085

          k = 0.0000 0.1925 0.0000 ( 22089 PWs)   bands (ev):

   -86.0385 -86.0291 -86.0235 -86.0233 -86.0202 -86.0200 -85.8675 -85.8556
   -85.8516 -85.8208 -85.8091 -85.8088 -49.5464 -49.5403 -49.5351 -49.5338
   -49.5294 -49.5041 -49.4983 -49.4884 -49.4829 -49.4732 -49.4675 -49.4670
   -49.4642 -49.4624 -49.4316 -49.4261 -49.4195 -49.4114 -49.3676 -49.3623
   -49.3272 -49.3245 -49.3221 -49.3168 -49.2905 -49.2813 -49.2799 -49.2787
   -49.2759 -49.2713 -49.2632 -49.2411 -49.2309 -49.2306 -49.2254 -49.2172
   -13.1108  -9.3738  -8.5379  -8.5315  -6.4207  -6.4168  -5.6025  -1.4321
    -1.0932  -0.8136  -0.8094  -0.2565  -0.1755  -0.0397   0.1293   0.1374
     0.2649   0.3204   0.3312   0.4052   0.5402   0.6295   0.7075   0.7291
     0.7685   0.8175   0.9163   0.9398   0.9427   1.1104   1.1891   1.2105
     1.2814   1.3275   1.4075   1.4243   1.4285   1.4506   1.4876   1.4995
     1.5124   1.5476   1.5711   1.6457   1.6475   1.7176   1.7295   1.7945
     1.9100   2.0076   2.0473   2.0773   2.0940   2.1987   2.2133   2.2898
     2.3029   2.3137   2.3872   2.3937   2.4033   2.5156   2.5585   2.5764
     2.6208   2.7093   2.7271   2.7586   2.8079   2.8998   2.9677   3.0134
     3.0179   3.0749   3.1000   3.1713   3.4412   3.5995   3.6221   5.5564
     6.9474   6.9704   7.7925   7.8322   7.8425   8.0986   8.4590   8.6350
     9.0234   9.2945   9.4910   9.9999  10.3477  10.7872  10.9808  11.3187
    11.4319  11.5430  11.5753  12.1668  12.3613  12.4445  12.4537  12.5823
    13.1522  13.3880  13.5704  13.7379

          k = 0.0000 0.3849 0.0000 ( 22137 PWs)   bands (ev):

   -86.0352 -86.0268 -86.0265 -86.0244 -86.0215 -86.0204 -85.8654 -85.8564
   -85.8528 -85.8180 -85.8111 -85.8096 -49.5536 -49.5463 -49.5382 -49.5322
   -49.5255 -49.4986 -49.4906 -49.4788 -49.4765 -49.4663 -49.4632 -49.4608
   -49.4522 -49.4512 -49.4481 -49.4475 -49.4326 -49.4203 -49.3798 -49.3569
   -49.3348 -49.3112 -49.3057 -49.3034 -49.2984 -49.2888 -49.2801 -49.2770
   -49.2720 -49.2595 -49.2559 -49.2542 -49.2385 -49.2326 -49.2314 -49.2260
   -12.6298 -10.7377  -8.9350  -8.9290  -5.2938  -5.2899  -3.5453  -1.9352
    -1.9305  -0.8485  -0.4534  -0.1112  -0.0119  -0.0056   0.2264   0.2703
     0.2847   0.2899   0.3054   0.3758   0.4578   0.4673   0.5133   0.6113
     0.6863   0.6942   0.8189   0.8262   0.8586   0.9630   0.9953   1.0059
     1.1175   1.1850   1.2430   1.2827   1.3144   1.3563   1.3910   1.4338
     1.4659   1.5383   1.6584   1.6681   1.6905   1.7875   1.7916   1.7997
     1.8409   1.8532   1.8678   1.9952   1.9986   2.0507   2.0751   2.2403
     2.2449   2.3221   2.3869   2.4416   2.4650   2.4916   2.5531   2.6506
     2.7031   2.7843   2.8475   2.8567   2.9297   2.9698   2.9990   3.0485
     3.0776   3.1034   3.1768   3.1973   3.4257   3.4808   4.1830   4.7204
     5.4450   6.3875   6.7956   6.9664   7.4381   7.9320   8.1977   8.2598
     8.3902   8.4602   9.1325  10.2883  10.6548  10.7335  10.9340  10.9687
    11.6004  11.7441  12.1670  12.7209  12.9509  13.1793  13.3961  13.4359
    13.5157  13.6555  14.0851  14.4731

          k = 0.0000-0.5774 0.0000 ( 22116 PWs)   bands (ev):

   -86.0307 -86.0307 -86.0248 -86.0239 -86.0239 -86.0206 -85.8641 -85.8570
   -85.8536 -85.8145 -85.8143 -85.8099 -49.5583 -49.5510 -49.5299 -49.5297
   -49.5048 -49.5045 -49.4924 -49.4848 -49.4846 -49.4687 -49.4589 -49.4569
   -49.4566 -49.4470 -49.4467 -49.4381 -49.4349 -49.4347 -49.3841 -49.3392
   -49.3358 -49.3307 -49.2924 -49.2892 -49.2881 -49.2874 -49.2873 -49.2841
   -49.2800 -49.2778 -49.2466 -49.2405 -49.2404 -49.2354 -49.2353 -49.2318
   -11.8358 -11.8332  -9.0775  -9.0715  -4.4655  -4.4620  -2.8003  -2.7950
    -1.3815  -1.3785  -0.2648  -0.1740  -0.1079   0.0618   0.0706   0.1313
     0.1902   0.1925   0.2779   0.4088   0.4110   0.5600   0.5827   0.5843
     0.6209   0.6224   0.7159   0.7171   0.8493   0.8532   0.9974   0.9982
     1.1003   1.1279   1.1290   1.1718   1.1951   1.1978   1.3672   1.3675
     1.3981   1.4296   1.4324   1.4757   1.4810   1.7178   1.7198   1.7854
     1.7882   1.9568   2.0036   2.0223   2.0271   2.2294   2.2345   2.2882
     2.3434   2.3445   2.5741   2.6187   2.6192   2.7078   2.7086   2.7432
     2.8132   2.8137   2.9718   2.9778   2.9782   3.0093   3.1104   3.1609
     3.1621   3.1908   3.3072   3.3378   3.3550   3.4071   3.6482   3.6482
     5.2612   5.2614   6.1820   7.0107   7.5235   7.5397   7.5402   7.7318
     8.6960   8.7115   9.8044   9.8122  10.1683  10.7618  11.4981  11.7256
    11.7276  12.0226  12.0249  12.7180  12.9717  12.9736  13.2529  13.2579
    13.6566  13.6582  13.8374  13.8435

          k = 0.1667-0.0962 0.0000 ( 22089 PWs)   bands (ev):

   -86.0385 -86.0291 -86.0236 -86.0232 -86.0201 -86.0201 -85.8675 -85.8556
   -85.8516 -85.8208 -85.8091 -85.8088 -49.5464 -49.5410 -49.5348 -49.5337
   -49.5288 -49.5052 -49.4981 -49.4875 -49.4831 -49.4733 -49.4674 -49.4669
   -49.4649 -49.4619 -49.4313 -49.4265 -49.4197 -49.4113 -49.3676 -49.3623
   -49.3272 -49.3245 -49.3220 -49.3168 -49.2905 -49.2812 -49.2799 -49.2788
   -49.2759 -49.2713 -49.2632 -49.2411 -49.2309 -49.2306 -49.2256 -49.2171
   -13.1108  -9.3738  -8.5379  -8.5315  -6.4207  -6.4168  -5.6025  -1.4321
    -1.0933  -0.8136  -0.8094  -0.2570  -0.1755  -0.0393   0.1296   0.1365
     0.2672   0.3215   0.3295   0.4060   0.5374   0.6296   0.7119   0.7307
     0.7642   0.8182   0.9151   0.9372   0.9451   1.1099   1.1898   1.2117
     1.2825   1.3262   1.4090   1.4243   1.4250   1.4508   1.4850   1.5013
     1.5098   1.5481   1.5717   1.6457   1.6519   1.7176   1.7281   1.7958
     1.9122   2.0014   2.0434   2.0775   2.0965   2.1953   2.2189   2.2856
     2.3028   2.3109   2.3870   2.3986   2.4050   2.5174   2.5613   2.5763
     2.6208   2.7145   2.7254   2.7552   2.8074   2.9007   2.9684   3.0128
     3.0188   3.0731   3.0994   3.1732   3.4381   3.5995   3.6221   5.5567
     6.9473   6.9703   7.7931   7.8322   7.8429   8.1031   8.4505   8.6350
     9.0264   9.2934   9.4870   9.9999  10.3477  10.7965  10.9839  11.3134
    11.4290  11.5430  11.5773  12.1668  12.3577  12.4495  12.4602  12.5821
    13.1522  13.3823  13.5615  13.7384

          k = 0.1667 0.0962 0.0000 ( 22089 PWs)   bands (ev):

   -86.0385 -86.0291 -86.0235 -86.0232 -86.0202 -86.0201 -85.8675 -85.8556
   -85.8516 -85.8208 -85.8091 -85.8088 -49.5464 -49.5405 -49.5351 -49.5338
   -49.5291 -49.5044 -49.4982 -49.4883 -49.4830 -49.4732 -49.4674 -49.4670
   -49.4643 -49.4624 -49.4316 -49.4261 -49.4195 -49.4115 -49.3675 -49.3624
   -49.3271 -49.3246 -49.3222 -49.3166 -49.2905 -49.2815 -49.2799 -49.2785
   -49.2759 -49.2714 -49.2631 -49.2411 -49.2309 -49.2307 -49.2253 -49.2174
   -13.1108  -9.3738  -8.5379  -8.5315  -6.4207  -6.4168  -5.6025  -1.4321
    -1.0933  -0.8136  -0.8094  -0.2566  -0.1755  -0.0396   0.1292   0.1369
     0.2656   0.3211   0.3308   0.4055   0.5395   0.6298   0.7083   0.7295
     0.7669   0.8175   0.9156   0.9395   0.9439   1.1105   1.1892   1.2112
     1.2810   1.3272   1.4078   1.4237   1.4280   1.4509   1.4877   1.5018
     1.5121   1.5470   1.5705   1.6449   1.6472   1.7176   1.7290   1.7967
     1.9091   2.0068   2.0468   2.0758   2.0946   2.1993   2.2156   2.2888
     2.3029   2.3132   2.3872   2.3928   2.4031   2.5157   2.5594   2.5775
     2.6208   2.7086   2.7268   2.7578   2.8079   2.9012   2.9671   3.0122
     3.0199   3.0753   3.0998   3.1721   3.4403   3.5995   3.6221   5.5562
     6.9474   6.9703   7.7926   7.8319   7.8427   8.1003   8.4574   8.6350
     9.0226   9.2947   9.4879   9.9999  10.3477  10.7919  10.9823  11.3175
    11.4311  11.5431  11.5743  12.1668  12.3627  12.4449  12.4557  12.5822
    13.1522  13.3853  13.5718  13.7966

          k = 0.1667 0.2887 0.0000 ( 22093 PWs)   bands (ev):

   -86.0362 -86.0275 -86.0248 -86.0248 -86.0207 -86.0207 -85.8660 -85.8561
   -85.8525 -85.8189 -85.8100 -85.8099 -49.5425 -49.5422 -49.5407 -49.5370
   -49.5367 -49.4944 -49.4941 -49.4777 -49.4777 -49.4743 -49.4618 -49.4615
   -49.4541 -49.4539 -49.4463 -49.4403 -49.4313 -49.4159 -49.3697 -49.3688
   -49.3240 -49.3239 -49.3094 -49.3082 -49.2924 -49.2888 -49.2801 -49.2767
   -49.2682 -49.2627 -49.2625 -49.2461 -49.2391 -49.2317 -49.2315 -49.2225
   -12.7898  -9.9726  -9.9694  -7.7552  -6.6642  -4.5288  -4.5278  -2.1156
    -1.0404  -0.6588  -0.4924  -0.4890   0.0585   0.0761   0.0779   0.1851
     0.1863   0.2204   0.2207   0.2454   0.4105   0.5180   0.5200   0.6994
     0.7001   0.7290   0.7304   0.8994   0.9400   0.9404   1.0766   1.1158
     1.2791   1.3150   1.3224   1.3964   1.4570   1.4707   1.4726   1.5542
     1.5724   1.5740   1.6254   1.6519   1.7053   1.7090   1.7148   1.8520
     1.9348   1.9641   2.0605   2.0619   2.0870   2.1420   2.1583   2.2000
     2.2425   2.2529   2.3283   2.3781   2.3828   2.4456   2.4986   2.5143
     2.5957   2.6000   2.6932   2.6980   2.7198   2.7662   2.9834   2.9899
     3.0439   3.0924   3.0948   3.2220   3.2250   3.9518   4.2634   5.8058
     5.8083   6.1287   6.5903   6.5953   7.3670   7.8281   8.0050   8.0110
     9.5135   9.5807   9.8129   9.8605  10.4377  10.7605  10.8665  10.8734
    11.6614  11.6653  11.9591  12.5293  12.5331  12.5371  13.5993  13.6102
    13.9533  13.9592  14.2571  14.2913

          k = 0.1667-0.6736 0.0000 ( 22151 PWs)   bands (ev):

   -86.0323 -86.0281 -86.0258 -86.0249 -86.0224 -86.0211 -85.8642 -85.8566
   -85.8539 -85.8157 -85.8124 -85.8106 -49.5490 -49.5434 -49.5326 -49.5318
   -49.5251 -49.4982 -49.4945 -49.4944 -49.4735 -49.4674 -49.4630 -49.4572
   -49.4551 -49.4534 -49.4412 -49.4386 -49.4385 -49.4251 -49.3754 -49.3540
   -49.3302 -49.3245 -49.3084 -49.2929 -49.2918 -49.2883 -49.2800 -49.2783
   -49.2779 -49.2776 -49.2468 -49.2457 -49.2365 -49.2337 -49.2323 -49.2321
   -12.1516 -11.2053 -10.2764  -7.6918  -5.8451  -3.4945  -3.4258  -2.4458
    -1.3636  -0.4079  -0.2971  -0.1517  -0.0883  -0.0817  -0.0141   0.1208
     0.1290   0.1633   0.2187   0.2193   0.2311   0.3869   0.3884   0.4860
     0.5703   0.6252   0.6593   0.7243   0.7541   0.8528   0.9216   0.9940
     1.0683   1.0846   1.1452   1.2506   1.3315   1.3744   1.4349   1.4416
     1.4874   1.5222   1.5779   1.6934   1.7612   1.7957   1.8719   1.9241
     1.9789   1.9906   2.0181   2.0394   2.1533   2.1864   2.2061   2.2131
     2.3025   2.3352   2.4038   2.5007   2.5345   2.5404   2.6492   2.6551
     2.6865   2.7551   2.8627   2.9117   2.9255   2.9431   2.9821   3.0063
     3.0486   3.0843   3.1210   3.1320   3.2209   3.8156   4.4656   4.6357
     4.7736   4.9389   5.6908   6.0944   7.0562   7.1430   7.2362   8.3655
     9.0024   9.1951  10.2699  10.5960  10.8151  11.3000  11.3037  11.5946
    11.7301  12.0568  12.5724  12.7834  12.7988  13.1397  13.2450  13.3068
    13.8213  13.8791  13.9419  14.1903

          k = 0.1667-0.4811 0.0000 ( 22151 PWs)   bands (ev):

   -86.0324 -86.0281 -86.0258 -86.0249 -86.0224 -86.0211 -85.8642 -85.8566
   -85.8539 -85.8157 -85.8124 -85.8106 -49.5490 -49.5434 -49.5327 -49.5318
   -49.5252 -49.4979 -49.4946 -49.4943 -49.4736 -49.4673 -49.4629 -49.4573
   -49.4551 -49.4535 -49.4414 -49.4386 -49.4385 -49.4250 -49.3754 -49.3541
   -49.3302 -49.3244 -49.3082 -49.2929 -49.2918 -49.2883 -49.2800 -49.2786
   -49.2779 -49.2777 -49.2467 -49.2460 -49.2365 -49.2337 -49.2323 -49.2318
   -12.1516 -11.2053 -10.2764  -7.6918  -5.8451  -3.4945  -3.4258  -2.4458
    -1.3636  -0.4079  -0.2974  -0.1517  -0.0885  -0.0822  -0.0138   0.1219
     0.1290   0.1629   0.2176   0.2186   0.2315   0.3881   0.3906   0.4862
     0.5723   0.6248   0.6572   0.7252   0.7525   0.8518   0.9212   0.9940
     1.0691   1.0855   1.1476   1.2488   1.3304   1.3742   1.4335   1.4376
     1.4831   1.5246   1.5777   1.6959   1.7636   1.7984   1.8739   1.9214
     1.9761   1.9942   2.0189   2.0407   2.1515   2.1846   2.2047   2.2130
     2.2999   2.3370   2.4047   2.5026   2.5354   2.5411   2.6518   2.6557
     2.6834   2.7535   2.8605   2.9113   2.9257   2.9440   2.9827   3.0084
     3.0486   3.0841   3.1215   3.1330   3.2198   3.8158   4.4643   4.6357
     4.7713   4.9389   5.6909   6.0963   7.0572   7.1430   7.2363   8.3645
     9.0024   9.1953  10.2699  10.5961  10.8150  11.3000  11.3038  11.5945
    11.7301  12.0567  12.5720  12.7832  12.8007  13.1377  13.2452  13.3073
    13.8214  13.8791  13.9431  14.1903

          k = 0.1667-0.2887 0.0000 ( 22093 PWs)   bands (ev):

   -86.0362 -86.0275 -86.0248 -86.0247 -86.0207 -86.0206 -85.8660 -85.8561
   -85.8525 -85.8189 -85.8100 -85.8099 -49.5428 -49.5422 -49.5407 -49.5368
   -49.5365 -49.4950 -49.4939 -49.4774 -49.4771 -49.4740 -49.4623 -49.4618
   -49.4540 -49.4537 -49.4462 -49.4406 -49.4315 -49.4158 -49.3697 -49.3688
   -49.3239 -49.3238 -49.3094 -49.3082 -49.2922 -49.2888 -49.2801 -49.2767
   -49.2684 -49.2627 -49.2626 -49.2464 -49.2391 -49.2317 -49.2315 -49.2222
   -12.7898  -9.9726  -9.9694  -7.7552  -6.6642  -4.5288  -4.5278  -2.1156
    -1.0405  -0.6588  -0.4924  -0.4890   0.0568   0.0760   0.0779   0.1849
     0.1862   0.2206   0.2210   0.2468   0.4133   0.5191   0.5218   0.6989
     0.7000   0.7269   0.7285   0.8993   0.9398   0.9428   1.0757   1.1152
     1.2791   1.3135   1.3207   1.3950   1.4562   1.4689   1.4725   1.5539
     1.5693   1.5733   1.6275   1.6517   1.7060   1.7113   1.7202   1.8518
     1.9347   1.9641   2.0583   2.0597   2.0873   2.1445   2.1601   2.2001
     2.2406   2.2514   2.3270   2.3778   2.3828   2.4492   2.5015   2.5169
     2.5960   2.5999   2.6906   2.6964   2.7246   2.7642   2.9835   2.9901
     3.0433   3.0916   3.0946   3.2220   3.2252   3.9491   4.2634   5.8059
     5.8085   6.1297   6.5896   6.5951   7.3670   7.8282   8.0056   8.0120
     9.5136   9.5807   9.8123   9.8598  10.4377  10.7604  10.8668  10.8742
    11.6607  11.6649  11.9590  12.5297  12.5332  12.5428  13.5927  13.6079
    13.9532  13.9591  14.2573  14.2893

          k = 0.3333-0.1925 0.0000 ( 22137 PWs)   bands (ev):

   -86.0352 -86.0268 -86.0265 -86.0242 -86.0214 -86.0205 -85.8654 -85.8564
   -85.8528 -85.8180 -85.8111 -85.8096 -49.5541 -49.5463 -49.5383 -49.5320
   -49.5249 -49.4996 -49.4895 -49.4783 -49.4767 -49.4663 -49.4633 -49.4612
   -49.4524 -49.4509 -49.4481 -49.4475 -49.4329 -49.4202 -49.3798 -49.3568
   -49.3347 -49.3113 -49.3057 -49.3034 -49.2984 -49.2888 -49.2801 -49.2770
   -49.2720 -49.2594 -49.2560 -49.2543 -49.2385 -49.2326 -49.2314 -49.2259
   -12.6298 -10.7377  -8.9350  -8.9290  -5.2938  -5.2899  -3.5453  -1.9352
    -1.9305  -0.8485  -0.4537  -0.1111  -0.0113  -0.0056   0.2242   0.2719
     0.2847   0.2924   0.3044   0.3787   0.4551   0.4659   0.5145   0.6102
     0.6863   0.6957   0.8166   0.8255   0.8572   0.9631   1.0010   1.0028
     1.1198   1.1870   1.2412   1.2834   1.3120   1.3572   1.3914   1.4370
     1.4594   1.5403   1.6541   1.6692   1.6895   1.7879   1.7912   1.7984
     1.8402   1.8531   1.8600   2.0010   2.0037   2.0525   2.0748   2.2400
     2.2471   2.3220   2.3894   2.4424   2.4664   2.4901   2.5525   2.6465
     2.6992   2.7854   2.8509   2.8580   2.9287   2.9702   3.0004   3.0492
     3.0747   3.1057   3.1787   3.1954   3.4257   3.4809   4.1804   4.7204
     5.4457   6.3879   6.8012   6.9652   7.4231   7.9388   8.1975   8.2591
     8.3902   8.4598   9.1328  10.2968  10.6548  10.7333  10.9311  10.9686
    11.5995  11.7549  12.1670  12.7211  12.9377  13.1796  13.3954  13.4359
    13.5183  13.6536  14.0851  14.4733

          k = 0.3333-0.0000 0.0000 ( 22093 PWs)   bands (ev):

   -86.0362 -86.0275 -86.0248 -86.0248 -86.0207 -86.0206 -85.8660 -85.8561
   -85.8525 -85.8189 -85.8100 -85.8099 -49.5428 -49.5423 -49.5408 -49.5367
   -49.5364 -49.4949 -49.4941 -49.4772 -49.4770 -49.4739 -49.4623 -49.4619
   -49.4540 -49.4537 -49.4462 -49.4405 -49.4316 -49.4158 -49.3697 -49.3688
   -49.3240 -49.3238 -49.3094 -49.3082 -49.2923 -49.2888 -49.2801 -49.2767
   -49.2682 -49.2628 -49.2625 -49.2462 -49.2392 -49.2317 -49.2315 -49.2224
   -12.7898  -9.9726  -9.9694  -7.7552  -6.6642  -4.5288  -4.5278  -2.1156
    -1.0405  -0.6591  -0.4924  -0.4890   0.0561   0.0759   0.0777   0.1850
     0.1863   0.2208   0.2212   0.2472   0.4130   0.5195   0.5221   0.6984
     0.6988   0.7274   0.7292   0.9003   0.9406   0.9432   1.0757   1.1152
     1.2791   1.3119   1.3192   1.3955   1.4568   1.4703   1.4745   1.5532
     1.5693   1.5731   1.6260   1.6517   1.7060   1.7099   1.7192   1.8519
     1.9346   1.9641   2.0593   2.0613   2.0882   2.1418   2.1575   2.2004
     2.2408   2.2518   2.3271   2.3779   2.3831   2.4487   2.5014   2.5166
     2.5975   2.6013   2.6905   2.6957   2.7252   2.7632   2.9832   2.9897
     3.0450   3.0916   3.0941   3.2231   3.2259   3.9482   4.2634   5.8060
     5.8086   6.1292   6.5895   6.5947   7.3670   7.8278   8.0053   8.0118
     9.5132   9.5806   9.8113   9.8590  10.4377  10.7605  10.8691  10.8753
    11.6606  11.6647  11.9591  12.5304  12.5362  12.5428  13.5928  13.6083
    13.9532  13.9591  14.2572  14.2895

          k = 0.3333 0.1925 0.0000 ( 22137 PWs)   bands (ev):

   -86.0352 -86.0268 -86.0265 -86.0243 -86.0215 -86.0205 -85.8654 -85.8564
   -85.8528 -85.8180 -85.8111 -85.8096 -49.5537 -49.5463 -49.5382 -49.5321
   -49.5253 -49.4988 -49.4904 -49.4786 -49.4765 -49.4664 -49.4631 -49.4609
   -49.4523 -49.4512 -49.4480 -49.4474 -49.4327 -49.4204 -49.3797 -49.3569
   -49.3349 -49.3111 -49.3056 -49.3035 -49.2985 -49.2888 -49.2801 -49.2770
   -49.2718 -49.2596 -49.2557 -49.2540 -49.2384 -49.2326 -49.2315 -49.2262
   -12.6298 -10.7377  -8.9350  -8.9290  -5.2938  -5.2899  -3.5453  -1.9352
    -1.9305  -0.8485  -0.4536  -0.1111  -0.0117  -0.0057   0.2258   0.2709
     0.2847   0.2909   0.3053   0.3765   0.4570   0.4673   0.5130   0.6114
     0.6863   0.6942   0.8198   0.8249   0.8587   0.9631   0.9963   1.0053
     1.1182   1.1844   1.2417   1.2826   1.3144   1.3563   1.3909   1.4342
     1.4644   1.5406   1.6561   1.6669   1.6919   1.7875   1.7915   1.8002
     1.8415   1.8532   1.8668   1.9950   1.9980   2.0504   2.0763   2.2405
     2.2449   2.3225   2.3875   2.4419   2.4653   2.4902   2.5530   2.6504
     2.7018   2.7850   2.8488   2.8571   2.9297   2.9697   3.0003   3.0478
     3.0765   3.1039   3.1786   3.1970   3.4256   3.4809   4.1821   4.7204
     5.4452   6.3871   6.7980   6.9661   7.4358   7.9320   8.1973   8.2539
     8.3902   8.4608   9.1322  10.2939  10.6548  10.7338  10.9332  10.9687
    11.5994  11.7486  12.1671  12.7209  12.9530  13.1791  13.3987  13.4357
    13.5128  13.6565  14.0851  14.4731

          k = 0.3333-0.7698 0.0000 ( 22151 PWs)   bands (ev):

   -86.0323 -86.0281 -86.0258 -86.0249 -86.0224 -86.0211 -85.8642 -85.8566
   -85.8539 -85.8157 -85.8124 -85.8106 -49.5492 -49.5434 -49.5326 -49.5317
   -49.5250 -49.4981 -49.4946 -49.4942 -49.4735 -49.4675 -49.4631 -49.4572
   -49.4551 -49.4534 -49.4412 -49.4387 -49.4384 -49.4251 -49.3754 -49.3541
   -49.3304 -49.3245 -49.3083 -49.2930 -49.2918 -49.2883 -49.2800 -49.2783
   -49.2779 -49.2775 -49.2466 -49.2459 -49.2365 -49.2337 -49.2324 -49.2321
   -12.1516 -11.2053 -10.2764  -7.6918  -5.8451  -3.4945  -3.4258  -2.4458
    -1.3636  -0.4079  -0.2971  -0.1514  -0.0879  -0.0817  -0.0144   0.1204
     0.1290   0.1630   0.2190   0.2198   0.2308   0.3872   0.3886   0.4862
     0.5703   0.6252   0.6590   0.7242   0.7539   0.8526   0.9213   0.9940
     1.0686   1.0856   1.1452   1.2486   1.3320   1.3743   1.4358   1.4405
     1.4870   1.5229   1.5767   1.6934   1.7603   1.7962   1.8722   1.9237
     1.9787   1.9911   2.0181   2.0396   2.1542   2.1859   2.2067   2.2136
     2.3027   2.3353   2.4033   2.5008   2.5346   2.5406   2.6496   2.6550
     2.6863   2.7547   2.8629   2.9116   2.9252   2.9426   2.9825   3.0077
     3.0482   3.0857   3.1214   3.1316   3.2202   3.8154   4.4662   4.6358
     4.7732   4.9397   5.6893   6.0940   7.0560   7.1426   7.2362   8.3650
     9.0005   9.1950  10.2699  10.5997  10.8136  11.2998  11.3036  11.5947
    11.7300  12.0613  12.5722  12.7835  12.7997  13.1387  13.2474  13.3068
    13.8214  13.8794  13.9405  14.1910

          k = 0.3333-0.5774 0.0000 ( 22161 PWs)   bands (ev):

   -86.0288 -86.0288 -86.0288 -86.0228 -86.0227 -86.0227 -85.8636 -85.8556
   -85.8555 -85.8130 -85.8129 -85.8128 -49.5330 -49.5329 -49.5325 -49.5270
   -49.5266 -49.5264 -49.4935 -49.4933 -49.4930 -49.4609 -49.4608 -49.4606
   -49.4499 -49.4498 -49.4495 -49.4306 -49.4306 -49.4305 -49.3556 -49.3556
   -49.3518 -49.3088 -49.3087 -49.3086 -49.2881 -49.2858 -49.2857 -49.2821
   -49.2791 -49.2790 -49.2387 -49.2386 -49.2384 -49.2344 -49.2341 -49.2341
   -11.3637 -11.3636 -11.3597  -6.5087  -6.5087  -4.3311  -1.7318  -1.7278
    -1.7278  -0.3293  -0.3293  -0.3272  -0.0502  -0.0496  -0.0486  -0.0144
    -0.0138  -0.0129   0.1638   0.1652   0.1660   0.3219   0.3229   0.3233
     0.4794   0.4813   0.4821   0.6218   0.6225   0.6375   0.8107   0.8110
     0.8194   1.2081   1.2089   1.2123   1.4099   1.4109   1.4151   1.5097
     1.5108   1.5141   1.6298   1.6338   1.6350   2.0022   2.0053   2.0087
     2.0628   2.0711   2.0715   2.3738   2.3747   2.3797   2.4452   2.4453
     2.4464   2.6361   2.6388   2.6399   2.6929   2.6936   2.6941   2.7515
     2.7524   2.7529   2.8439   2.8441   2.8452   2.8911   2.8917   2.8926
     3.0933   3.0952   3.0957   3.1368   3.1377   3.1401   3.9230   3.9257
     3.9271   5.7281   5.7295   5.7330   5.9676   5.9677   8.0651   8.0777
     8.0786  10.5151  10.5210  10.5219  12.1568  12.1568  12.1642  12.3432
    12.3434  12.3436  12.5651  12.5666  12.5676  12.9703  12.9902  12.9915
    13.6938  13.7319  13.7333  13.9933

          k = 0.3333-0.3849 0.0000 ( 22151 PWs)   bands (ev):

   -86.0324 -86.0282 -86.0257 -86.0249 -86.0223 -86.0212 -85.8642 -85.8566
   -85.8539 -85.8157 -85.8124 -85.8106 -49.5496 -49.5433 -49.5327 -49.5317
   -49.5248 -49.4977 -49.4949 -49.4937 -49.4737 -49.4678 -49.4629 -49.4571
   -49.4551 -49.4536 -49.4415 -49.4386 -49.4385 -49.4250 -49.3755 -49.3540
   -49.3302 -49.3244 -49.3083 -49.2929 -49.2918 -49.2883 -49.2800 -49.2786
   -49.2779 -49.2777 -49.2469 -49.2458 -49.2366 -49.2337 -49.2323 -49.2318
   -12.1516 -11.2053 -10.2764  -7.6918  -5.8451  -3.4945  -3.4258  -2.4458
    -1.3636  -0.4079  -0.2974  -0.1515  -0.0873  -0.0822  -0.0140   0.1204
     0.1290   0.1626   0.2176   0.2205   0.2302   0.3865   0.3918   0.4884
     0.5720   0.6239   0.6582   0.7233   0.7521   0.8514   0.9203   0.9940
     1.0699   1.0890   1.1447   1.2507   1.3325   1.3750   1.4357   1.4385
     1.4794   1.5212   1.5748   1.6962   1.7591   1.8011   1.8734   1.9206
     1.9817   1.9901   2.0215   2.0382   2.1543   2.1850   2.2040   2.2160
     2.3039   2.3371   2.4017   2.5033   2.5351   2.5413   2.6500   2.6551
     2.6833   2.7531   2.8620   2.9109   2.9239   2.9428   2.9829   3.0079
     3.0494   3.0852   3.1219   3.1341   3.2194   3.8156   4.4662   4.6359
     4.7707   4.9404   5.6861   6.0938   7.0572   7.1468   7.2364   8.3653
     8.9991   9.1952  10.2700  10.6008  10.8137  11.2985  11.3034  11.5945
    11.7303  12.0677  12.5722  12.7832  12.7998  13.1385  13.2339  13.3075
    13.8213  13.8779  13.9405  14.1907

          k =-0.5000 0.2887 0.0000 ( 22116 PWs)   bands (ev):

   -86.0308 -86.0307 -86.0247 -86.0239 -86.0239 -86.0207 -85.8641 -85.8570
   -85.8536 -85.8145 -85.8143 -85.8099 -49.5588 -49.5510 -49.5300 -49.5297
   -49.5042 -49.5039 -49.4912 -49.4852 -49.4851 -49.4696 -49.4586 -49.4569
   -49.4566 -49.4472 -49.4470 -49.4381 -49.4347 -49.4345 -49.3841 -49.3392
   -49.3358 -49.3307 -49.2924 -49.2892 -49.2882 -49.2875 -49.2873 -49.2841
   -49.2800 -49.2778 -49.2468 -49.2404 -49.2404 -49.2354 -49.2353 -49.2317
   -11.8358 -11.8332  -9.0775  -9.0715  -4.4655  -4.4620  -2.8003  -2.7950
    -1.3815  -1.3785  -0.2647  -0.1728  -0.1077   0.0618   0.0706   0.1303
     0.1895   0.1919   0.2762   0.4125   0.4146   0.5582   0.5804   0.5821
     0.6185   0.6200   0.7196   0.7208   0.8491   0.8529   0.9974   0.9982
     1.1054   1.1234   1.1247   1.1729   1.1946   1.1973   1.3699   1.3706
     1.4001   1.4297   1.4314   1.4733   1.4791   1.7155   1.7175   1.7844
     1.7872   1.9544   1.9937   2.0291   2.0339   2.2309   2.2359   2.2957
     2.3456   2.3467   2.5755   2.6150   2.6156   2.7045   2.7052   2.7405
     2.8154   2.8160   2.9722   2.9787   2.9792   3.0106   3.1081   3.1610
     3.1623   3.1930   3.3072   3.3377   3.3546   3.4074   3.6488   3.6488
     5.2596   5.2597   6.1872   6.9935   7.5330   7.5401   7.5405   7.7310
     8.6960   8.7115   9.8040   9.8118  10.1766  10.7582  11.5098  11.7256
    11.7276  12.0225  12.0248  12.7032  12.9717  12.9736  13.2529  13.2580
    13.6568  13.6584  13.8376  13.8437

          k =-0.5000 0.4811 0.0000 ( 22151 PWs)   bands (ev):

   -86.0324 -86.0282 -86.0257 -86.0249 -86.0223 -86.0212 -85.8642 -85.8566
   -85.8539 -85.8157 -85.8124 -85.8106 -49.5496 -49.5433 -49.5327 -49.5317
   -49.5249 -49.4975 -49.4949 -49.4937 -49.4737 -49.4678 -49.4629 -49.4571
   -49.4551 -49.4536 -49.4416 -49.4385 -49.4385 -49.4250 -49.3755 -49.3540
   -49.3302 -49.3245 -49.3084 -49.2929 -49.2918 -49.2883 -49.2800 -49.2785
   -49.2779 -49.2776 -49.2469 -49.2457 -49.2366 -49.2338 -49.2323 -49.2319
   -12.1516 -11.2053 -10.2764  -7.6918  -5.8451  -3.4945  -3.4258  -2.4458
    -1.3636  -0.4079  -0.2973  -0.1516  -0.0874  -0.0831  -0.0138   0.1209
     0.1290   0.1626   0.2169   0.2202   0.2303   0.3865   0.3930   0.4884
     0.5725   0.6239   0.6585   0.7227   0.7512   0.8519   0.9205   0.9940
     1.0703   1.0897   1.1460   1.2502   1.3319   1.3746   1.4338   1.4376
     1.4791   1.5226   1.5744   1.6980   1.7597   1.7998   1.8726   1.9200
     1.9826   1.9896   2.0214   2.0382   2.1539   2.1854   2.2029   2.2155
     2.3042   2.3380   2.4020   2.5036   2.5352   2.5414   2.6500   2.6553
     2.6832   2.7522   2.8623   2.9113   2.9240   2.9425   2.9814   3.0081
     3.0504   3.0855   3.1210   3.1353   3.2208   3.8157   4.4656   4.6359
     4.7702   4.9404   5.6862   6.0939   7.0569   7.1467   7.2363   8.3655
     8.9990   9.1945  10.2700  10.6008  10.8149  11.2985  11.3034  11.5946
    11.7303  12.0676  12.5724  12.7834  12.7989  13.1398  13.2339  13.3073
    13.8213  13.8779  13.9419  14.1901

          k =-0.5000 0.6736 0.0000 ( 22151 PWs)   bands (ev):

   -86.0324 -86.0281 -86.0258 -86.0249 -86.0224 -86.0211 -85.8642 -85.8566
   -85.8539 -85.8157 -85.8124 -85.8106 -49.5492 -49.5434 -49.5327 -49.5318
   -49.5251 -49.4977 -49.4945 -49.4944 -49.4735 -49.4674 -49.4629 -49.4572
   -49.4551 -49.4535 -49.4415 -49.4387 -49.4384 -49.4251 -49.3754 -49.3541
   -49.3304 -49.3245 -49.3082 -49.2930 -49.2918 -49.2883 -49.2800 -49.2784
   -49.2779 -49.2776 -49.2466 -49.2460 -49.2365 -49.2337 -49.2324 -49.2320
   -12.1516 -11.2053 -10.2764  -7.6918  -5.8451  -3.4945  -3.4258  -2.4458
    -1.3636  -0.4079  -0.2973  -0.1516  -0.0882  -0.0831  -0.0139   0.1220
     0.1290   0.1627   0.2169   0.2190   0.2313   0.3883   0.3920   0.4865
     0.5729   0.6248   0.6573   0.7246   0.7514   0.8521   0.9211   0.9940
     1.0700   1.0871   1.1490   1.2463   1.3304   1.3738   1.4324   1.4356
     1.4823   1.5267   1.5763   1.6978   1.7634   1.7977   1.8732   1.9204
     1.9768   1.9941   2.0189   2.0409   2.1521   2.1844   2.2044   2.2129
     2.3004   2.3379   2.4044   2.5028   2.5356   2.5414   2.6521   2.6557
     2.6831   2.7522   2.8611   2.9117   2.9254   2.9431   2.9815   3.0101
     3.0491   3.0859   3.1210   3.1337   3.2206   3.8157   4.4644   4.6358
     4.7704   4.9397   5.6894   6.0960   7.0566   7.1425   7.2363   8.3643
     9.0004   9.1945  10.2699  10.5998  10.8147  11.2998  11.3036  11.5946
    11.7300  12.0612  12.5720  12.7835  12.8007  13.1379  13.2475  13.3071
    13.8214  13.8795  13.9431  14.1904

          k =-0.5000-0.2887 0.0000 ( 22116 PWs)   bands (ev):

   -86.0307 -86.0307 -86.0248 -86.0239 -86.0239 -86.0207 -85.8641 -85.8570
   -85.8536 -85.8145 -85.8143 -85.8099 -49.5585 -49.5511 -49.5300 -49.5297
   -49.5047 -49.5043 -49.4922 -49.4849 -49.4847 -49.4689 -49.4588 -49.4569
   -49.4566 -49.4470 -49.4468 -49.4380 -49.4349 -49.4347 -49.3840 -49.3393
   -49.3359 -49.3308 -49.2925 -49.2893 -49.2880 -49.2873 -49.2871 -49.2840
   -49.2800 -49.2777 -49.2465 -49.2407 -49.2406 -49.2354 -49.2353 -49.2318
   -11.8358 -11.8332  -9.0775  -9.0715  -4.4655  -4.4620  -2.8003  -2.7950
    -1.3815  -1.3785  -0.2646  -0.1736  -0.1081   0.0618   0.0706   0.1310
     0.1900   0.1923   0.2781   0.4100   0.4121   0.5600   0.5820   0.5835
     0.6201   0.6217   0.7167   0.7180   0.8491   0.8530   0.9974   0.9982
     1.1037   1.1263   1.1275   1.1673   1.1962   1.1988   1.3674   1.3676
     1.3989   1.4278   1.4315   1.4767   1.4812   1.7171   1.7191   1.7867
     1.7895   1.9566   2.0027   2.0216   2.0266   2.2301   2.2350   2.2882
     2.3441   2.3452   2.5745   2.6178   2.6183   2.7074   2.7081   2.7453
     2.8137   2.8142   2.9717   2.9792   2.9797   3.0085   3.1098   3.1607
     3.1620   3.1911   3.3067   3.3376   3.3554   3.4072   3.6485   3.6485
     5.2605   5.2607   6.1849   7.0082   7.5224   7.5392   7.5397   7.7272
     8.6960   8.7115   9.8038   9.8116  10.1738  10.7615  11.5027  11.7255
    11.7275  12.0227  12.0250  12.7206  12.9718  12.9736  13.2531  13.2581
    13.6565  13.6581  13.8374  13.8435

     the Fermi energy is     6.0834 ev

!    total energy              =   -3595.83473237 Ry
     estimated scf accuracy    <          2.5E-09 Ry
     smearing contrib. (-TS)   =      -0.00085575 Ry
     internal energy E=F+TS    =   -3595.83387662 Ry

     The total energy is F=E-TS. E is the sum of the following terms:
     one-electron contribution =  -24429.81744036 Ry
     hartree contribution      =   12244.98721554 Ry
     xc contribution           =    -362.17269659 Ry
     ewald contribution        =    9001.00055083 Ry
     DFT-D3 Dispersion         =      -0.50438053 Ry
     electric field correction =       0.00000142 Ry
     one-center paw contrib.   =     -49.32712693 Ry

     convergence has been achieved in  41 iterations

     negative rho (up, down):  1.220E-04 0.000E+00

     Forces acting on atoms (cartesian axes, Ry/au):

     atom    1 type  1   force =     0.00015345    0.00053360    0.00218446
     atom    2 type  1   force =     0.00017353    0.00052254    0.00218571
     atom    3 type  1   force =    -0.00018862   -0.00017673   -0.00039924
     atom    4 type  1   force =     0.00000324   -0.00034304   -0.00087601
     atom    5 type  1   force =     0.00017487    0.00054640    0.00218184
     atom    6 type  1   force =    -0.00041051   -0.00004480   -0.00041389
     atom    7 type  1   force =     0.00009612   -0.00012559    0.00069080
     atom    8 type  1   force =     0.00000292   -0.00034263   -0.00089363
     atom    9 type  1   force =     0.00008963   -0.00012295    0.00105422
     atom   10 type  1   force =    -0.00018255    0.00008414   -0.00041209
     atom   11 type  1   force =     0.00000344   -0.00034297   -0.00087586
     atom   12 type  1   force =     0.00009682   -0.00012317    0.00067366
     atom   13 type  2   force =    -0.00000017   -0.00000824    0.00064454
     atom   14 type  2   force =     0.00094531    0.00053322   -0.00105600
     atom   15 type  2   force =     0.00094546   -0.00054994   -0.00106446
     atom   16 type  2   force =    -0.00000422   -0.00110017   -0.00105514
     atom   17 type  2   force =    -0.00000394    0.00108682   -0.00106550
     atom   18 type  2   force =    -0.00094736    0.00054026   -0.00105687
     atom   19 type  2   force =    -0.00094661   -0.00055675   -0.00106540
     atom   20 type  2   force =    -0.00000080   -0.00001000    0.00061888

     Total force =     0.003231     Total SCF correction =     0.000304

     BFGS Geometry Optimization
     Energy error            =      1.1E-05 Ry
     Gradient error          =      1.1E-03 Ry/Bohr

     number of scf cycles    =   1
     number of bfgs steps    =   0

     energy             new  =   -3595.8347323667 Ry

     new trust radius        =       0.0010655046 bohr
     new conv_thr            =       0.0000000100 Ry


ATOMIC_POSITIONS (angstrom)
Ag               1.6639287800        2.8744764000        2.8500754000    0   0   0
Ag               4.1565601600        4.3135978000        2.8500754000    0   0   0
Ag               0.8405738987        1.4416779562        5.1906568418
Ag               2.4948753000        1.4505407700        0.5000000000    0   0   0
Ag               4.1565601600        1.4353550000        2.8500754000    0   0   0
Ag               3.3314183680        2.8818199417        5.1906318172
Ag               2.4978715222        1.4485861199        7.5469657237
Ag               4.9875066800        2.8896621700        0.5000000000    0   0   0
Ag               4.9905457576        2.8876664066        7.5329753381
Ag               3.3332263602        0.0046012170        5.1906366715
Ag               4.9875066800        0.0114193700        0.5000000000    0   0   0
Ag               4.9904984442        0.0094565323        7.5470909970
C                2.4948753000        1.4505407700       10.8487529170    0   0   1
C                3.7411909900        2.1701014700       10.8543257896    0   0   1
C                3.7411909900        3.6092228700       10.8543418015    0   0   1
C                4.9875066800        4.3287835700       10.8543247263    0   0   1
C                4.9875066800        1.4505407700       10.8543453093    0   0   1
C                6.2338223700        2.1701014700       10.8543277583    0   0   1
C                6.2338223700        3.6092228700       10.8543442522    0   0   1
C                7.4801380600        4.3287835700       10.8488057480    0   0   1



     Writing config-only to output data dir ./tmp/V2_top_fcc_relax.save/ :
     XML data file
     NEW-OLD atomic charge density approx. for the potential

     Check: negative core charge=   -0.000001

     negative rho (up, down):  1.221E-04 0.000E+00
 
     Adding external electric field

     Computed dipole along edir(3) : 
        Dipole                0.0199 Ry au,          0.0505 Debye
        Dipole field          0.0001 Ry au, 
 
        Potential amp.       -0.0062 Ry
        Total length         43.5645 bohr
 

     total cpu time spent up to now is      237.4 secs

     Self-consistent Calculation

     iteration #  1     ecut=    52.00 Ry     beta= 0.30
     Davidson diagonalization with overlap
     ethr =  1.00E-06,  avg # of iterations =  2.0

     Threshold (ethr) on eigenvalues was too large:
     Diagonalizing with lowered threshold

     Davidson diagonalization with overlap
     ethr =  1.43E-09,  avg # of iterations =  3.0

     negative rho (up, down):  1.219E-04 0.000E+00
 
     Adding external electric field

     Computed dipole along edir(3) : 
        Dipole                0.0197 Ry au,          0.0501 Debye
        Dipole field          0.0001 Ry au, 
 
        Potential amp.       -0.0062 Ry
        Total length         43.5645 bohr
 

     total cpu time spent up to now is      247.3 secs

     total energy              =   -3595.83474196 Ry
     estimated scf accuracy    <       0.00000387 Ry

     iteration #  2     ecut=    52.00 Ry     beta= 0.30
     Davidson diagonalization with overlap
     ethr =  1.49E-09,  avg # of iterations =  1.0

     negative rho (up, down):  1.213E-04 0.000E+00
 
     Adding external electric field

     Computed dipole along edir(3) : 
        Dipole                0.0194 Ry au,          0.0493 Debye
        Dipole field          0.0001 Ry au, 
 
        Potential amp.       -0.0061 Ry
        Total length         43.5645 bohr
 

     total cpu time spent up to now is      252.2 secs

     total energy              =   -3595.83474172 Ry
     estimated scf accuracy    <       0.00000188 Ry

     iteration #  3     ecut=    52.00 Ry     beta= 0.30
     Davidson diagonalization with overlap
     ethr =  7.24E-10,  avg # of iterations =  2.0

     negative rho (up, down):  1.214E-04 0.000E+00
 
     Adding external electric field

     Computed dipole along edir(3) : 
        Dipole                0.0194 Ry au,          0.0493 Debye
        Dipole field          0.0001 Ry au, 
 
        Potential amp.       -0.0061 Ry
        Total length         43.5645 bohr
 

     total cpu time spent up to now is      257.2 secs

     total energy              =   -3595.83474181 Ry
     estimated scf accuracy    <       0.00000003 Ry

     iteration #  4     ecut=    52.00 Ry     beta= 0.30
     Davidson diagonalization with overlap
     ethr =  1.19E-11,  avg # of iterations =  3.9

     negative rho (up, down):  1.220E-04 0.000E+00
 
     Adding external electric field

     Computed dipole along edir(3) : 
        Dipole                0.0198 Ry au,          0.0504 Debye
        Dipole field          0.0001 Ry au, 
 
        Potential amp.       -0.0062 Ry
        Total length         43.5645 bohr
 

     total cpu time spent up to now is      262.5 secs

     End of self-consistent calculation

          k = 0.0000 0.0000 0.0000 ( 22161 PWs)   bands (ev):

   -86.0396 -86.0299 -86.0222 -86.0222 -86.0198 -86.0198 -85.8680 -85.8548
   -85.8507 -85.8218 -85.8084 -85.8083 -49.5494 -49.5234 -49.5230 -49.5226
   -49.5222 -49.5208 -49.5206 -49.4957 -49.4956 -49.4709 -49.4708 -49.4684
   -49.4683 -49.4650 -49.4222 -49.4217 -49.4085 -49.4083 -49.3516 -49.3515
   -49.3457 -49.3456 -49.3043 -49.3043 -49.3020 -49.3020 -49.2907 -49.2793
   -49.2750 -49.2599 -49.2597 -49.2420 -49.2303 -49.2301 -49.2143 -49.2140
   -13.2720  -8.1803  -8.1696  -8.1696  -7.0456  -7.0409  -7.0409  -1.6352
    -1.3336  -0.4740  -0.3358  -0.3358  -0.3299  -0.2181  -0.0568   0.4185
     0.4202   0.4338   0.4352   0.4364   0.4378   0.7764   0.7767   0.7844
     0.7847   0.9713   0.9761   0.9902   0.9904   1.2182   1.2773   1.2784
     1.3244   1.3267   1.3795   1.3800   1.3982   1.3987   1.4138   1.5248
     1.5255   1.5923   1.5941   1.6479   1.6483   1.6910   1.6913   1.7302
     1.7302   1.7507   1.7507   2.1664   2.1701   2.2845   2.2916   2.2951
     2.2952   2.3286   2.3287   2.4264   2.4384   2.6629   2.7087   2.7267
     2.7659   2.7692   2.8736   2.8930   2.9449   2.9449   2.9532   2.9533
     2.9617   2.9617   3.0209   3.0236   3.6985   3.6985   3.7101   5.2055
     6.4567   7.5250   7.5856   7.5857   9.4937   9.4998   9.6875   9.6880
     9.7005   9.7009   9.7803  10.1411  10.4707  10.4733  10.4882  10.4909
    10.8777  10.8901  11.3340  11.9928  12.1444  12.1490  12.1515  12.1561
    12.4182  12.4410  13.0606  13.3085

          k = 0.0000 0.1925 0.0000 ( 22089 PWs)   bands (ev):

   -86.0383 -86.0290 -86.0232 -86.0230 -86.0201 -86.0200 -85.8671 -85.8552
   -85.8512 -85.8207 -85.8090 -85.8087 -49.5462 -49.5401 -49.5350 -49.5337
   -49.5292 -49.5039 -49.4981 -49.4882 -49.4827 -49.4730 -49.4673 -49.4668
   -49.4640 -49.4622 -49.4314 -49.4259 -49.4193 -49.4113 -49.3672 -49.3619
   -49.3268 -49.3241 -49.3220 -49.3167 -49.2900 -49.2812 -49.2795 -49.2786
   -49.2754 -49.2709 -49.2628 -49.2410 -49.2308 -49.2305 -49.2253 -49.2171
   -13.1111  -9.3740  -8.5382  -8.5318  -6.4210  -6.4171  -5.6028  -1.4325
    -1.0930  -0.8138  -0.8096  -0.2561  -0.1758  -0.0391   0.1297   0.1377
     0.2651   0.3208   0.3315   0.4055   0.5405   0.6302   0.7079   0.7298
     0.7687   0.8182   0.9169   0.9401   0.9432   1.1105   1.1893   1.2108
     1.2817   1.3279   1.4078   1.4245   1.4287   1.4510   1.4878   1.4997
     1.5126   1.5479   1.5714   1.6461   1.6479   1.7179   1.7296   1.7950
     1.9102   2.0078   2.0476   2.0775   2.0942   2.1988   2.2136   2.2899
     2.3028   2.3136   2.3873   2.3941   2.4033   2.5154   2.5587   2.5766
     2.6206   2.7095   2.7270   2.7586   2.8079   2.8999   2.9678   3.0135
     3.0180   3.0750   3.1001   3.1714   3.4413   3.5993   3.6220   5.5566
     6.9476   6.9706   7.7923   7.8318   7.8427   8.0988   8.4593   8.6348
     9.0238   9.2945   9.4913  10.0001  10.3470  10.7872  10.9809  11.3189
    11.4317  11.5429  11.5755  12.1662  12.3615  12.4447  12.4538  12.5826
    13.1519  13.3880  13.5700  13.7382

          k = 0.0000 0.3849 0.0000 ( 22137 PWs)   bands (ev):

   -86.0349 -86.0266 -86.0262 -86.0241 -86.0214 -86.0203 -85.8649 -85.8560
   -85.8525 -85.8179 -85.8110 -85.8095 -49.5534 -49.5462 -49.5380 -49.5320
   -49.5253 -49.4984 -49.4904 -49.4786 -49.4763 -49.4660 -49.4631 -49.4607
   -49.4520 -49.4510 -49.4479 -49.4473 -49.4324 -49.4202 -49.3794 -49.3565
   -49.3347 -49.3111 -49.3052 -49.3030 -49.2981 -49.2883 -49.2797 -49.2766
   -49.2715 -49.2594 -49.2557 -49.2541 -49.2384 -49.2325 -49.2313 -49.2259
   -12.6300 -10.7380  -8.9353  -8.9293  -5.2941  -5.2901  -3.5456  -1.9355
    -1.9308  -0.8490  -0.4532  -0.1109  -0.0116  -0.0053   0.2267   0.2706
     0.2844   0.2902   0.3060   0.3764   0.4581   0.4676   0.5138   0.6119
     0.6861   0.6947   0.8195   0.8266   0.8588   0.9634   0.9956   1.0061
     1.1178   1.1850   1.2431   1.2830   1.3145   1.3563   1.3913   1.4340
     1.4660   1.5385   1.6587   1.6683   1.6908   1.7880   1.7920   1.8000
     1.8410   1.8529   1.8679   1.9957   1.9989   2.0511   2.0753   2.2405
     2.2451   2.3223   2.3871   2.4416   2.4650   2.4917   2.5531   2.6506
     2.7031   2.7845   2.8476   2.8568   2.9297   2.9699   2.9991   3.0486
     3.0777   3.1036   3.1769   3.1974   3.4255   3.4808   4.1830   4.7206
     5.4453   6.3876   6.7959   6.9664   7.4383   7.9323   8.1982   8.2600
     8.3897   8.4600   9.1323  10.2884  10.6551  10.7335  10.9337  10.9679
    11.6003  11.7442  12.1669  12.7203  12.9502  13.1793  13.3961  13.4357
    13.5158  13.6554  14.0849  14.4726

          k = 0.0000-0.5774 0.0000 ( 22116 PWs)   bands (ev):

   -86.0305 -86.0304 -86.0246 -86.0238 -86.0238 -86.0205 -85.8636 -85.8567
   -85.8532 -85.8144 -85.8143 -85.8098 -49.5581 -49.5509 -49.5298 -49.5295
   -49.5046 -49.5043 -49.4921 -49.4846 -49.4845 -49.4686 -49.4587 -49.4567
   -49.4563 -49.4468 -49.4465 -49.4379 -49.4347 -49.4345 -49.3837 -49.3391
   -49.3354 -49.3303 -49.2920 -49.2887 -49.2877 -49.2873 -49.2871 -49.2837
   -49.2796 -49.2773 -49.2465 -49.2404 -49.2403 -49.2354 -49.2352 -49.2317
   -11.8361 -11.8335  -9.0778  -9.0718  -4.4658  -4.4623  -2.8006  -2.7953
    -1.3818  -1.3788  -0.2646  -0.1737  -0.1076   0.0614   0.0701   0.1318
     0.1905   0.1928   0.2782   0.4091   0.4112   0.5606   0.5829   0.5847
     0.6212   0.6228   0.7165   0.7175   0.8499   0.8537   0.9972   0.9979
     1.1006   1.1282   1.1293   1.1719   1.1954   1.1981   1.3675   1.3678
     1.3984   1.4300   1.4327   1.4759   1.4812   1.7179   1.7200   1.7858
     1.7884   1.9575   2.0037   2.0229   2.0276   2.2297   2.2346   2.2883
     2.3436   2.3447   2.5741   2.6186   2.6192   2.7081   2.7088   2.7432
     2.8132   2.8138   2.9720   2.9779   2.9783   3.0094   3.1106   3.1610
     3.1623   3.1911   3.3075   3.3376   3.3551   3.4071   3.6485   3.6486
     5.2611   5.2613   6.1823   7.0109   7.5239   7.5397   7.5402   7.7321
     8.6958   8.7112   9.8045   9.8120  10.1684  10.7617  11.4985  11.7258
    11.7276  12.0219  12.0242  12.7174  12.9715  12.9732  13.2530  13.2575
    13.6562  13.6577  13.8371  13.8431

          k = 0.1667-0.0962 0.0000 ( 22089 PWs)   bands (ev):

   -86.0383 -86.0290 -86.0233 -86.0229 -86.0201 -86.0201 -85.8671 -85.8552
   -85.8512 -85.8207 -85.8090 -85.8087 -49.5463 -49.5408 -49.5346 -49.5336
   -49.5286 -49.5050 -49.4979 -49.4873 -49.4829 -49.4731 -49.4672 -49.4667
   -49.4647 -49.4617 -49.4311 -49.4263 -49.4195 -49.4111 -49.3672 -49.3619
   -49.3268 -49.3241 -49.3219 -49.3167 -49.2900 -49.2811 -49.2795 -49.2787
   -49.2754 -49.2709 -49.2628 -49.2411 -49.2308 -49.2305 -49.2255 -49.2169
   -13.1111  -9.3740  -8.5382  -8.5318  -6.4210  -6.4171  -5.6028  -1.4325
    -1.0931  -0.8138  -0.8096  -0.2566  -0.1758  -0.0388   0.1300   0.1368
     0.2674   0.3219   0.3298   0.4062   0.5377   0.6303   0.7122   0.7314
     0.7645   0.8188   0.9157   0.9376   0.9456   1.1101   1.1899   1.2120
     1.2827   1.3266   1.4093   1.4245   1.4252   1.4512   1.4853   1.5015
     1.5100   1.5483   1.5720   1.6462   1.6521   1.7178   1.7283   1.7962
     1.9123   2.0017   2.0437   2.0778   2.0967   2.1955   2.2191   2.2858
     2.3027   2.3109   2.3870   2.3990   2.4050   2.5172   2.5614   2.5765
     2.6206   2.7145   2.7253   2.7553   2.8073   2.9008   2.9685   3.0129
     3.0189   3.0732   3.0995   3.1733   3.4383   3.5993   3.6220   5.5568
     6.9476   6.9705   7.7930   7.8318   7.8432   8.1033   8.4508   8.6348
     9.0268   9.2934   9.4874  10.0001  10.3470  10.7965  10.9840  11.3137
    11.4289  11.5429  11.5774  12.1663  12.3579  12.4496  12.4602  12.5823
    13.1519  13.3823  13.5612  13.7387

          k = 0.1667 0.0962 0.0000 ( 22089 PWs)   bands (ev):

   -86.0383 -86.0290 -86.0232 -86.0229 -86.0201 -86.0200 -85.8671 -85.8552
   -85.8512 -85.8207 -85.8090 -85.8087 -49.5462 -49.5403 -49.5349 -49.5337
   -49.5290 -49.5042 -49.4980 -49.4881 -49.4828 -49.4730 -49.4672 -49.4668
   -49.4641 -49.4622 -49.4313 -49.4259 -49.4193 -49.4113 -49.3671 -49.3620
   -49.3267 -49.3242 -49.3221 -49.3165 -49.2900 -49.2814 -49.2795 -49.2784
   -49.2754 -49.2710 -49.2627 -49.2410 -49.2308 -49.2306 -49.2252 -49.2173
   -13.1111  -9.3740  -8.5382  -8.5318  -6.4210  -6.4171  -5.6028  -1.4325
    -1.0931  -0.8138  -0.8096  -0.2562  -0.1758  -0.0391   0.1296   0.1371
     0.2658   0.3215   0.3312   0.4057   0.5398   0.6305   0.7086   0.7302
     0.7672   0.8181   0.9162   0.9398   0.9444   1.1106   1.1894   1.2114
     1.2812   1.3276   1.4080   1.4240   1.4282   1.4513   1.4880   1.5020
     1.5123   1.5472   1.5708   1.6452   1.6476   1.7179   1.7292   1.7970
     1.9093   2.0071   2.0470   2.0760   2.0948   2.1994   2.2158   2.2890
     2.3027   2.3131   2.3872   2.3932   2.4030   2.5155   2.5596   2.5776
     2.6206   2.7087   2.7267   2.7579   2.8079   2.9013   2.9672   3.0123
     3.0200   3.0754   3.0999   3.1722   3.4404   3.5992   3.6220   5.5563
     6.9477   6.9704   7.7925   7.8315   7.8429   8.1005   8.4577   8.6347
     9.0229   9.2947   9.4881  10.0001  10.3470  10.7919  10.9825  11.3177
    11.4311  11.5430  11.5744  12.1662  12.3628  12.4450  12.4558  12.5824
    13.1519  13.3853  13.5715  13.7962

          k = 0.1667 0.2887 0.0000 ( 22093 PWs)   bands (ev):

   -86.0360 -86.0274 -86.0245 -86.0245 -86.0206 -86.0206 -85.8655 -85.8557
   -85.8522 -85.8188 -85.8099 -85.8098 -49.5423 -49.5420 -49.5405 -49.5368
   -49.5365 -49.4942 -49.4939 -49.4775 -49.4775 -49.4741 -49.4616 -49.4613
   -49.4539 -49.4537 -49.4461 -49.4402 -49.4311 -49.4157 -49.3693 -49.3684
   -49.3239 -49.3238 -49.3090 -49.3078 -49.2919 -49.2883 -49.2796 -49.2763
   -49.2678 -49.2626 -49.2624 -49.2460 -49.2391 -49.2316 -49.2314 -49.2224
   -12.7901  -9.9728  -9.9697  -7.7555  -6.6645  -4.5291  -4.5281  -2.1159
    -1.0409  -0.6585  -0.4927  -0.4893   0.0588   0.0764   0.0783   0.1854
     0.1866   0.2207   0.2210   0.2459   0.4110   0.5186   0.5206   0.7001
     0.7007   0.7294   0.7307   0.8995   0.9402   0.9406   1.0769   1.1161
     1.2789   1.3153   1.3226   1.3966   1.4573   1.4709   1.4728   1.5544
     1.5725   1.5742   1.6256   1.6521   1.7057   1.7092   1.7152   1.8525
     1.9352   1.9638   2.0606   2.0619   2.0873   2.1422   2.1584   2.2002
     2.2426   2.2529   2.3285   2.3783   2.3830   2.4460   2.4986   2.5144
     2.5959   2.6001   2.6933   2.6980   2.7198   2.7662   2.9836   2.9900
     3.0440   3.0926   3.0949   3.2221   3.2251   3.9519   4.2632   5.8061
     5.8085   6.1288   6.5907   6.5956   7.3669   7.8281   8.0050   8.0109
     9.5135   9.5803   9.8131   9.8604  10.4378  10.7597  10.8666  10.8736
    11.6616  11.6654  11.9590  12.5288  12.5332  12.5372  13.5991  13.6100
    13.9529  13.9590  14.2566  14.2914

          k = 0.1667-0.6736 0.0000 ( 22151 PWs)   bands (ev):

   -86.0321 -86.0279 -86.0255 -86.0248 -86.0223 -86.0210 -85.8637 -85.8562
   -85.8535 -85.8156 -85.8123 -85.8105 -49.5488 -49.5433 -49.5324 -49.5316
   -49.5249 -49.4980 -49.4943 -49.4942 -49.4733 -49.4673 -49.4628 -49.4570
   -49.4549 -49.4532 -49.4410 -49.4384 -49.4383 -49.4249 -49.3750 -49.3536
   -49.3301 -49.3241 -49.3083 -49.2925 -49.2914 -49.2878 -49.2795 -49.2782
   -49.2775 -49.2772 -49.2467 -49.2456 -49.2364 -49.2337 -49.2322 -49.2320
   -12.1519 -11.2056 -10.2767  -7.6920  -5.8454  -3.4948  -3.4261  -2.4460
    -1.3639  -0.4082  -0.2976  -0.1514  -0.0881  -0.0815  -0.0138   0.1211
     0.1288   0.1635   0.2190   0.2196   0.2317   0.3873   0.3887   0.4866
     0.5708   0.6258   0.6594   0.7247   0.7545   0.8527   0.9220   0.9938
     1.0687   1.0848   1.1454   1.2507   1.3317   1.3747   1.4352   1.4418
     1.4877   1.5224   1.5782   1.6937   1.7611   1.7961   1.8721   1.9245
     1.9794   1.9907   2.0186   2.0396   2.1536   2.1866   2.2063   2.2134
     2.3027   2.3354   2.4041   2.5008   2.5346   2.5404   2.6495   2.6552
     2.6866   2.7551   2.8628   2.9118   2.9257   2.9433   2.9822   3.0064
     3.0489   3.0844   3.1213   3.1323   3.2211   3.8158   4.4659   4.6355
     4.7736   4.9392   5.6912   6.0943   7.0564   7.1431   7.2358   8.3654
     9.0024   9.1952  10.2698  10.5962  10.8150  11.3002  11.3039  11.5939
    11.7299  12.0568  12.5725  12.7832  12.7985  13.1398  13.2446  13.3063
    13.8215  13.8789  13.9418  14.1902

          k = 0.1667-0.4811 0.0000 ( 22151 PWs)   bands (ev):

   -86.0321 -86.0279 -86.0256 -86.0248 -86.0223 -86.0210 -85.8637 -85.8562
   -85.8535 -85.8156 -85.8123 -85.8105 -49.5488 -49.5432 -49.5325 -49.5317
   -49.5250 -49.4977 -49.4943 -49.4942 -49.4734 -49.4671 -49.4627 -49.4571
   -49.4549 -49.4533 -49.4412 -49.4385 -49.4383 -49.4248 -49.3750 -49.3537
   -49.3301 -49.3240 -49.3081 -49.2925 -49.2914 -49.2878 -49.2796 -49.2784
   -49.2775 -49.2773 -49.2466 -49.2459 -49.2365 -49.2336 -49.2322 -49.2317
   -12.1519 -11.2056 -10.2767  -7.6920  -5.8454  -3.4948  -3.4261  -2.4460
    -1.3639  -0.4082  -0.2978  -0.1515  -0.0882  -0.0820  -0.0135   0.1221
     0.1288   0.1632   0.2180   0.2189   0.2321   0.3884   0.3910   0.4867
     0.5728   0.6254   0.6573   0.7256   0.7529   0.8518   0.9216   0.9938
     1.0695   1.0856   1.1478   1.2489   1.3306   1.3745   1.4338   1.4378
     1.4833   1.5249   1.5780   1.6963   1.7635   1.7989   1.8741   1.9218
     1.9766   1.9944   2.0194   2.0409   2.1518   2.1849   2.2049   2.2133
     2.3001   2.3372   2.4050   2.5027   2.5355   2.5412   2.6520   2.6558
     2.6835   2.7534   2.8606   2.9114   2.9259   2.9442   2.9828   3.0085
     3.0489   3.0843   3.1218   3.1332   3.2200   3.8160   4.4647   4.6355
     4.7713   4.9392   5.6913   6.0962   7.0574   7.1430   7.2359   8.3645
     9.0024   9.1953  10.2698  10.5962  10.8149  11.3002  11.3039  11.5938
    11.7299  12.0568  12.5722  12.7830  12.8003  13.1377  13.2447  13.3068
    13.8215  13.8789  13.9429  14.1902

          k = 0.1667-0.2887 0.0000 ( 22093 PWs)   bands (ev):

   -86.0360 -86.0274 -86.0246 -86.0245 -86.0206 -86.0205 -85.8655 -85.8557
   -85.8522 -85.8188 -85.8099 -85.8098 -49.5426 -49.5420 -49.5405 -49.5366
   -49.5364 -49.4947 -49.4937 -49.4772 -49.4769 -49.4738 -49.4621 -49.4617
   -49.4538 -49.4535 -49.4459 -49.4404 -49.4313 -49.4156 -49.3693 -49.3684
   -49.3238 -49.3237 -49.3090 -49.3078 -49.2918 -49.2883 -49.2797 -49.2763
   -49.2679 -49.2626 -49.2625 -49.2463 -49.2391 -49.2316 -49.2314 -49.2221
   -12.7901  -9.9728  -9.9697  -7.7555  -6.6645  -4.5291  -4.5281  -2.1159
    -1.0409  -0.6586  -0.4927  -0.4893   0.0571   0.0763   0.0783   0.1852
     0.1864   0.2209   0.2213   0.2473   0.4137   0.5197   0.5224   0.6995
     0.7006   0.7273   0.7289   0.8994   0.9401   0.9430   1.0761   1.1156
     1.2789   1.3138   1.3209   1.3952   1.4565   1.4691   1.4726   1.5541
     1.5695   1.5735   1.6278   1.6519   1.7061   1.7117   1.7207   1.8523
     1.9350   1.9638   2.0583   2.0597   2.0875   2.1446   2.1602   2.2004
     2.2406   2.2514   2.3271   2.3779   2.3830   2.4496   2.5016   2.5170
     2.5962   2.6000   2.6906   2.6964   2.7247   2.7642   2.9836   2.9902
     3.0434   3.0917   3.0947   3.2221   3.2253   3.9491   4.2632   5.8062
     5.8087   6.1298   6.5900   6.5954   7.3669   7.8282   8.0057   8.0120
     9.5137   9.5803   9.8124   9.8597  10.4378  10.7597  10.8669  10.8743
    11.6608  11.6649  11.9589  12.5292  12.5333  12.5429  13.5925  13.6075
    13.9528  13.9589  14.2568  14.2893

          k = 0.3333-0.1925 0.0000 ( 22137 PWs)   bands (ev):

   -86.0350 -86.0266 -86.0263 -86.0240 -86.0213 -86.0205 -85.8649 -85.8560
   -85.8525 -85.8179 -85.8110 -85.8095 -49.5539 -49.5462 -49.5381 -49.5318
   -49.5247 -49.4994 -49.4892 -49.4781 -49.4765 -49.4660 -49.4632 -49.4610
   -49.4522 -49.4507 -49.4479 -49.4473 -49.4327 -49.4201 -49.3794 -49.3564
   -49.3346 -49.3112 -49.3053 -49.3030 -49.2980 -49.2883 -49.2797 -49.2766
   -49.2716 -49.2593 -49.2559 -49.2542 -49.2384 -49.2326 -49.2313 -49.2258
   -12.6300 -10.7380  -8.9353  -8.9293  -5.2941  -5.2901  -3.5456  -1.9355
    -1.9308  -0.8490  -0.4535  -0.1108  -0.0111  -0.0053   0.2245   0.2721
     0.2844   0.2927   0.3050   0.3792   0.4555   0.4663   0.5149   0.6109
     0.6862   0.6961   0.8172   0.8259   0.8573   0.9635   1.0012   1.0031
     1.1201   1.1870   1.2414   1.2838   1.3120   1.3572   1.3917   1.4372
     1.4596   1.5405   1.6544   1.6695   1.6898   1.7884   1.7916   1.7987
     1.8404   1.8528   1.8602   2.0014   2.0041   2.0528   2.0751   2.2402
     2.2473   2.3222   2.3896   2.4425   2.4664   2.4902   2.5525   2.6466
     2.6993   2.7856   2.8509   2.8581   2.9287   2.9703   3.0005   3.0493
     3.0749   3.1059   3.1788   3.1956   3.4255   3.4809   4.1804   4.7207
     5.4461   6.3880   6.8014   6.9651   7.4235   7.9390   8.1979   8.2592
     8.3897   8.4596   9.1326  10.2968  10.6551  10.7333  10.9308  10.9679
    11.5995  11.7549  12.1669  12.7206  12.9372  13.1796  13.3953  13.4357
    13.5184  13.6534  14.0849  14.4728

          k = 0.3333-0.0000 0.0000 ( 22093 PWs)   bands (ev):

   -86.0360 -86.0274 -86.0246 -86.0245 -86.0206 -86.0206 -85.8655 -85.8557
   -85.8522 -85.8188 -85.8099 -85.8098 -49.5426 -49.5421 -49.5406 -49.5366
   -49.5363 -49.4947 -49.4939 -49.4770 -49.4768 -49.4737 -49.4621 -49.4617
   -49.4538 -49.4535 -49.4460 -49.4403 -49.4314 -49.4156 -49.3693 -49.3684
   -49.3239 -49.3237 -49.3090 -49.3078 -49.2919 -49.2883 -49.2796 -49.2763
   -49.2678 -49.2627 -49.2624 -49.2461 -49.2391 -49.2316 -49.2314 -49.2223
   -12.7901  -9.9728  -9.9697  -7.7555  -6.6645  -4.5291  -4.5281  -2.1159
    -1.0409  -0.6588  -0.4927  -0.4893   0.0565   0.0762   0.0781   0.1853
     0.1865   0.2211   0.2214   0.2477   0.4135   0.5201   0.5227   0.6991
     0.6995   0.7278   0.7295   0.9005   0.9408   0.9434   1.0760   1.1156
     1.2789   1.3122   1.3194   1.3957   1.4571   1.4705   1.4747   1.5535
     1.5694   1.5733   1.6262   1.6520   1.7062   1.7102   1.7196   1.8524
     1.9349   1.9638   2.0594   2.0613   2.0885   2.1420   2.1577   2.2006
     2.2409   2.2518   2.3273   2.3781   2.3832   2.4490   2.5014   2.5167
     2.5976   2.6013   2.6906   2.6958   2.7252   2.7632   2.9834   2.9898
     3.0451   3.0917   3.0942   3.2232   3.2260   3.9483   4.2632   5.8063
     5.8088   6.1293   6.5899   6.5950   7.3669   7.8278   8.0053   8.0117
     9.5133   9.5802   9.8114   9.8588  10.4378  10.7597  10.8692  10.8754
    11.6608  11.6647  11.9590  12.5298  12.5363  12.5429  13.5926  13.6081
    13.9528  13.9589  14.2568  14.2895

          k = 0.3333 0.1925 0.0000 ( 22137 PWs)   bands (ev):

   -86.0349 -86.0266 -86.0262 -86.0241 -86.0214 -86.0204 -85.8649 -85.8560
   -85.8525 -85.8179 -85.8110 -85.8095 -49.5535 -49.5462 -49.5381 -49.5320
   -49.5251 -49.4986 -49.4902 -49.4784 -49.4763 -49.4661 -49.4629 -49.4607
   -49.4521 -49.4510 -49.4478 -49.4473 -49.4325 -49.4202 -49.3793 -49.3565
   -49.3348 -49.3110 -49.3052 -49.3031 -49.2982 -49.2883 -49.2797 -49.2765
   -49.2714 -49.2595 -49.2556 -49.2539 -49.2384 -49.2325 -49.2314 -49.2261
   -12.6300 -10.7380  -8.9353  -8.9293  -5.2941  -5.2901  -3.5456  -1.9355
    -1.9308  -0.8489  -0.4534  -0.1108  -0.0114  -0.0054   0.2261   0.2711
     0.2844   0.2912   0.3058   0.3770   0.4574   0.4677   0.5135   0.6120
     0.6861   0.6947   0.8204   0.8254   0.8589   0.9635   0.9965   1.0056
     1.1185   1.1844   1.2419   1.2830   1.3145   1.3562   1.3912   1.4344
     1.4646   1.5409   1.6564   1.6672   1.6922   1.7881   1.7919   1.8004
     1.8416   1.8530   1.8670   1.9954   1.9983   2.0508   2.0765   2.2407
     2.2451   2.3227   2.3877   2.4419   2.4653   2.4903   2.5530   2.6505
     2.7019   2.7852   2.8488   2.8572   2.9298   2.9698   3.0005   3.0479
     3.0767   3.1041   3.1788   3.1971   3.4254   3.4809   4.1821   4.7207
     5.4456   6.3871   6.7982   6.9661   7.4362   7.9322   8.1978   8.2539
     8.3898   8.4606   9.1320  10.2940  10.6551  10.7337  10.9330  10.9679
    11.5994  11.7486  12.1670  12.7203  12.9527  13.1792  13.3986  13.4355
    13.5129  13.6563  14.0849  14.4726

          k = 0.3333-0.7698 0.0000 ( 22151 PWs)   bands (ev):

   -86.0321 -86.0279 -86.0255 -86.0248 -86.0222 -86.0210 -85.8637 -85.8562
   -85.8535 -85.8156 -85.8123 -85.8105 -49.5490 -49.5433 -49.5324 -49.5315
   -49.5248 -49.4979 -49.4944 -49.4940 -49.4733 -49.4673 -49.4629 -49.4570
   -49.4549 -49.4532 -49.4411 -49.4385 -49.4383 -49.4249 -49.3750 -49.3537
   -49.3303 -49.3241 -49.3082 -49.2925 -49.2914 -49.2878 -49.2796 -49.2782
   -49.2774 -49.2771 -49.2465 -49.2458 -49.2364 -49.2336 -49.2323 -49.2320
   -12.1519 -11.2056 -10.2767  -7.6920  -5.8454  -3.4948  -3.4261  -2.4460
    -1.3639  -0.4082  -0.2976  -0.1511  -0.0877  -0.0815  -0.0141   0.1207
     0.1288   0.1633   0.2193   0.2201   0.2314   0.3876   0.3889   0.4868
     0.5708   0.6259   0.6591   0.7246   0.7543   0.8526   0.9217   0.9938
     1.0690   1.0857   1.1455   1.2487   1.3322   1.3745   1.4360   1.4407
     1.4872   1.5233   1.5771   1.6937   1.7603   1.7965   1.8724   1.9241
     1.9791   1.9913   2.0186   2.0398   2.1544   2.1861   2.2069   2.2139
     2.3028   2.3355   2.4037   2.5008   2.5348   2.5406   2.6498   2.6551
     2.6863   2.7547   2.8630   2.9117   2.9254   2.9428   2.9826   3.0078
     3.0484   3.0858   3.1216   3.1319   3.2204   3.8156   4.4666   4.6356
     4.7732   4.9399   5.6898   6.0939   7.0562   7.1426   7.2358   8.3650
     9.0006   9.1950  10.2697  10.5999  10.8135  11.3000  11.3038  11.5940
    11.7299  12.0612  12.5723  12.7833  12.7993  13.1387  13.2472  13.3063
    13.8215  13.8792  13.9404  14.1909

          k = 0.3333-0.5774 0.0000 ( 22161 PWs)   bands (ev):

   -86.0286 -86.0286 -86.0285 -86.0227 -86.0226 -86.0226 -85.8631 -85.8552
   -85.8551 -85.8129 -85.8128 -85.8128 -49.5328 -49.5328 -49.5324 -49.5268
   -49.5264 -49.5263 -49.4933 -49.4931 -49.4928 -49.4607 -49.4606 -49.4604
   -49.4497 -49.4496 -49.4494 -49.4305 -49.4304 -49.4304 -49.3552 -49.3551
   -49.3515 -49.3087 -49.3086 -49.3085 -49.2876 -49.2853 -49.2852 -49.2817
   -49.2787 -49.2786 -49.2386 -49.2385 -49.2383 -49.2343 -49.2340 -49.2340
   -11.3639 -11.3639 -11.3600  -6.5090  -6.5090  -4.3314  -1.7320  -1.7281
    -1.7281  -0.3296  -0.3296  -0.3275  -0.0500  -0.0494  -0.0484  -0.0141
    -0.0135  -0.0126   0.1640   0.1655   0.1663   0.3224   0.3234   0.3238
     0.4796   0.4814   0.4823   0.6216   0.6224   0.6373   0.8111   0.8114
     0.8198   1.2082   1.2091   1.2125   1.4101   1.4111   1.4153   1.5100
     1.5111   1.5144   1.6301   1.6341   1.6352   2.0029   2.0060   2.0092
     2.0631   2.0712   2.0716   2.3741   2.3750   2.3801   2.4454   2.4455
     2.4466   2.6362   2.6387   2.6398   2.6931   2.6939   2.6944   2.7515
     2.7525   2.7529   2.8442   2.8444   2.8454   2.8912   2.8918   2.8927
     3.0934   3.0952   3.0958   3.1369   3.1378   3.1403   3.9234   3.9261
     3.9274   5.7281   5.7294   5.7330   5.9673   5.9674   8.0651   8.0776
     8.0785  10.5152  10.5210  10.5219  12.1570  12.1570  12.1639  12.3431
    12.3433  12.3435  12.5647  12.5662  12.5672  12.9704  12.9902  12.9915
    13.6935  13.7318  13.7332  13.9931

          k = 0.3333-0.3849 0.0000 ( 22151 PWs)   bands (ev):

   -86.0321 -86.0279 -86.0254 -86.0248 -86.0222 -86.0211 -85.8637 -85.8562
   -85.8535 -85.8156 -85.8123 -85.8105 -49.5494 -49.5432 -49.5325 -49.5315
   -49.5246 -49.4975 -49.4947 -49.4934 -49.4735 -49.4676 -49.4627 -49.4569
   -49.4549 -49.4534 -49.4413 -49.4384 -49.4383 -49.4248 -49.3751 -49.3536
   -49.3301 -49.3240 -49.3082 -49.2924 -49.2914 -49.2878 -49.2796 -49.2785
   -49.2775 -49.2773 -49.2468 -49.2457 -49.2365 -49.2336 -49.2322 -49.2317
   -12.1519 -11.2056 -10.2767  -7.6920  -5.8454  -3.4948  -3.4261  -2.4460
    -1.3639  -0.4082  -0.2979  -0.1513  -0.0871  -0.0820  -0.0137   0.1207
     0.1288   0.1628   0.2179   0.2208   0.2308   0.3868   0.3922   0.4889
     0.5725   0.6245   0.6583   0.7236   0.7524   0.8513   0.9207   0.9938
     1.0702   1.0891   1.1449   1.2509   1.3327   1.3753   1.4360   1.4387
     1.4796   1.5215   1.5751   1.6965   1.7590   1.8015   1.8736   1.9210
     1.9821   1.9903   2.0220   2.0385   2.1545   2.1852   2.2041   2.2163
     2.3041   2.3373   2.4021   2.5034   2.5353   2.5414   2.6503   2.6553
     2.6834   2.7531   2.8621   2.9110   2.9241   2.9430   2.9830   3.0080
     3.0496   3.0853   3.1222   3.1344   3.2195   3.8158   4.4665   4.6356
     4.7707   4.9406   5.6866   6.0937   7.0575   7.1468   7.2359   8.3652
     8.9991   9.1952  10.2698  10.6009  10.8136  11.2987  11.3036  11.5938
    11.7301  12.0676  12.5723  12.7831  12.7994  13.1386  13.2336  13.3070
    13.8214  13.8776  13.9404  14.1906

          k =-0.5000 0.2887 0.0000 ( 22116 PWs)   bands (ev):

   -86.0305 -86.0305 -86.0244 -86.0237 -86.0237 -86.0207 -85.8636 -85.8567
   -85.8532 -85.8144 -85.8143 -85.8098 -49.5586 -49.5509 -49.5298 -49.5296
   -49.5040 -49.5037 -49.4910 -49.4851 -49.4849 -49.4695 -49.4584 -49.4567
   -49.4564 -49.4470 -49.4468 -49.4379 -49.4346 -49.4343 -49.3837 -49.3391
   -49.3354 -49.3303 -49.2919 -49.2888 -49.2877 -49.2874 -49.2872 -49.2837
   -49.2796 -49.2773 -49.2467 -49.2403 -49.2402 -49.2353 -49.2352 -49.2316
   -11.8361 -11.8335  -9.0778  -9.0718  -4.4658  -4.4623  -2.8006  -2.7953
    -1.3818  -1.3788  -0.2645  -0.1725  -0.1074   0.0614   0.0701   0.1308
     0.1898   0.1922   0.2765   0.4127   0.4148   0.5589   0.5806   0.5824
     0.6189   0.6204   0.7202   0.7213   0.8497   0.8535   0.9972   0.9979
     1.1055   1.1238   1.1251   1.1730   1.1948   1.1976   1.3701   1.3708
     1.4004   1.4301   1.4317   1.4736   1.4793   1.7157   1.7176   1.7848
     1.7874   1.9551   1.9939   2.0296   2.0343   2.2312   2.2361   2.2957
     2.3457   2.3468   2.5755   2.6150   2.6156   2.7048   2.7055   2.7405
     2.8154   2.8161   2.9723   2.9788   2.9793   3.0106   3.1083   3.1612
     3.1625   3.1932   3.3075   3.3374   3.3547   3.4073   3.6491   3.6491
     5.2595   5.2597   6.1875   6.9939   7.5332   7.5401   7.5405   7.7312
     8.6958   8.7112   9.8041   9.8116  10.1766  10.7582  11.5100  11.7259
    11.7276  12.0219  12.0242  12.7028  12.9715  12.9733  13.2530  13.2575
    13.6565  13.6580  13.8372  13.8433

          k =-0.5000 0.4811 0.0000 ( 22151 PWs)   bands (ev):

   -86.0321 -86.0279 -86.0255 -86.0248 -86.0222 -86.0211 -85.8637 -85.8562
   -85.8535 -85.8156 -85.8123 -85.8105 -49.5494 -49.5432 -49.5326 -49.5315
   -49.5247 -49.4973 -49.4947 -49.4935 -49.4735 -49.4676 -49.4627 -49.4570
   -49.4549 -49.4534 -49.4414 -49.4384 -49.4383 -49.4248 -49.3751 -49.3536
   -49.3301 -49.3240 -49.3083 -49.2925 -49.2914 -49.2878 -49.2795 -49.2783
   -49.2775 -49.2772 -49.2468 -49.2456 -49.2365 -49.2337 -49.2322 -49.2318
   -12.1519 -11.2056 -10.2767  -7.6920  -5.8454  -3.4948  -3.4261  -2.4460
    -1.3639  -0.4082  -0.2977  -0.1513  -0.0871  -0.0829  -0.0135   0.1212
     0.1288   0.1629   0.2172   0.2204   0.2308   0.3868   0.3933   0.4889
     0.5730   0.6245   0.6587   0.7231   0.7515   0.8518   0.9210   0.9938
     1.0707   1.0898   1.1462   1.2503   1.3321   1.3749   1.4341   1.4378
     1.4794   1.5229   1.5748   1.6983   1.7596   1.8002   1.8728   1.9205
     1.9831   1.9898   2.0219   2.0384   2.1542   2.1857   2.2032   2.2157
     2.3044   2.3381   2.4024   2.5036   2.5353   2.5414   2.6502   2.6554
     2.6833   2.7523   2.8625   2.9114   2.9242   2.9426   2.9815   3.0082
     3.0506   3.0856   3.1213   3.1355   3.2210   3.8159   4.4659   4.6356
     4.7702   4.9406   5.6866   6.0938   7.0571   7.1467   7.2359   8.3654
     8.9990   9.1946  10.2698  10.6009  10.8149  11.2987  11.3036  11.5939
    11.7301  12.0676  12.5725  12.7832  12.7985  13.1398  13.2336  13.3068
    13.8214  13.8776  13.9418  14.1901

          k =-0.5000 0.6736 0.0000 ( 22151 PWs)   bands (ev):

   -86.0321 -86.0279 -86.0255 -86.0248 -86.0223 -86.0210 -85.8637 -85.8562
   -85.8535 -85.8156 -85.8123 -85.8105 -49.5490 -49.5432 -49.5325 -49.5316
   -49.5249 -49.4975 -49.4943 -49.4942 -49.4734 -49.4672 -49.4627 -49.4571
   -49.4549 -49.4533 -49.4413 -49.4385 -49.4382 -49.4249 -49.3750 -49.3537
   -49.3303 -49.3241 -49.3081 -49.2925 -49.2914 -49.2878 -49.2796 -49.2783
   -49.2774 -49.2772 -49.2465 -49.2459 -49.2364 -49.2336 -49.2323 -49.2319
   -12.1519 -11.2056 -10.2767  -7.6920  -5.8454  -3.4948  -3.4261  -2.4460
    -1.3639  -0.4082  -0.2977  -0.1513  -0.0879  -0.0828  -0.0137   0.1223
     0.1288   0.1630   0.2173   0.2193   0.2318   0.3886   0.3923   0.4870
     0.5733   0.6254   0.6574   0.7249   0.7518   0.8521   0.9215   0.9938
     1.0703   1.0872   1.1492   1.2464   1.3306   1.3740   1.4327   1.4359
     1.4826   1.5271   1.5766   1.6980   1.7633   1.7980   1.8734   1.9209
     1.9773   1.9943   2.0194   2.0411   2.1524   2.1847   2.2046   2.2132
     2.3006   2.3381   2.4048   2.5029   2.5357   2.5414   2.6523   2.6558
     2.6832   2.7522   2.8612   2.9118   2.9256   2.9433   2.9816   3.0101
     3.0493   3.0860   3.1213   3.1339   3.2207   3.8159   4.4648   4.6355
     4.7704   4.9399   5.6899   6.0959   7.0568   7.1425   7.2358   8.3642
     9.0004   9.1945  10.2698  10.5999  10.8146  11.3000  11.3038  11.5939
    11.7299  12.0612  12.5722  12.7833  12.8003  13.1379  13.2473  13.3066
    13.8215  13.8792  13.9430  14.1903

          k =-0.5000-0.2887 0.0000 ( 22116 PWs)   bands (ev):

   -86.0305 -86.0304 -86.0245 -86.0238 -86.0238 -86.0206 -85.8636 -85.8567
   -85.8532 -85.8144 -85.8143 -85.8098 -49.5583 -49.5509 -49.5298 -49.5295
   -49.5044 -49.5041 -49.4919 -49.4847 -49.4845 -49.4687 -49.4586 -49.4567
   -49.4563 -49.4468 -49.4466 -49.4379 -49.4348 -49.4346 -49.3837 -49.3392
   -49.3355 -49.3304 -49.2921 -49.2888 -49.2875 -49.2872 -49.2870 -49.2836
   -49.2796 -49.2773 -49.2464 -49.2406 -49.2405 -49.2354 -49.2352 -49.2318
   -11.8361 -11.8335  -9.0778  -9.0718  -4.4658  -4.4623  -2.8006  -2.7953
    -1.3818  -1.3788  -0.2644  -0.1733  -0.1078   0.0615   0.0702   0.1316
     0.1902   0.1926   0.2784   0.4102   0.4123   0.5606   0.5821   0.5839
     0.6205   0.6221   0.7174   0.7184   0.8498   0.8535   0.9972   0.9979
     1.1038   1.1266   1.1279   1.1674   1.1965   1.1991   1.3675   1.3678
     1.3992   1.4283   1.4319   1.4769   1.4814   1.7173   1.7192   1.7871
     1.7898   1.9573   2.0029   2.0220   2.0269   2.2304   2.2352   2.2882
     2.3443   2.3453   2.5745   2.6178   2.6183   2.7077   2.7084   2.7453
     2.8137   2.8142   2.9718   2.9794   2.9798   3.0085   3.1100   3.1608
     3.1622   3.1913   3.3070   3.3373   3.3555   3.4072   3.6488   3.6488
     5.2605   5.2607   6.1852   7.0087   7.5225   7.5392   7.5397   7.7274
     8.6958   8.7112   9.8039   9.8114  10.1739  10.7615  11.5030  11.7258
    11.7276  12.0221  12.0243  12.7203  12.9715  12.9733  13.2532  13.2577
    13.6561  13.6576  13.8370  13.8431

     the Fermi energy is     6.0833 ev

!    total energy              =   -3595.83474181 Ry
     estimated scf accuracy    <          9.0E-09 Ry
     smearing contrib. (-TS)   =      -0.00084968 Ry
     internal energy E=F+TS    =   -3595.83389213 Ry

     The total energy is F=E-TS. E is the sum of the following terms:
     one-electron contribution =  -24429.40667309 Ry
     hartree contribution      =   12244.78550901 Ry
     xc contribution           =    -362.17267207 Ry
     ewald contribution        =    9000.79146086 Ry
     DFT-D3 Dispersion         =      -0.50438964 Ry
     electric field correction =       0.00000141 Ry
     one-center paw contrib.   =     -49.32712860 Ry

     convergence has been achieved in   4 iterations

     negative rho (up, down):  1.220E-04 0.000E+00

     Forces acting on atoms (cartesian axes, Ry/au):

     atom    1 type  1   force =     0.00014743    0.00053332    0.00216243
     atom    2 type  1   force =     0.00017233    0.00051997    0.00216366
     atom    3 type  1   force =    -0.00019734   -0.00015394   -0.00030672
     atom    4 type  1   force =     0.00000353   -0.00034264   -0.00087912
     atom    5 type  1   force =     0.00017384    0.00054911    0.00215957
     atom    6 type  1   force =    -0.00037872   -0.00004596   -0.00031937
     atom    7 type  1   force =     0.00009364   -0.00012597    0.00062606
     atom    8 type  1   force =     0.00000324   -0.00034225   -0.00089539
     atom    9 type  1   force =     0.00008719   -0.00012315    0.00095980
     atom   10 type  1   force =    -0.00019269    0.00005970   -0.00031750
     atom   11 type  1   force =     0.00000372   -0.00034258   -0.00087902
     atom   12 type  1   force =     0.00009410   -0.00012399    0.00061015
     atom   13 type  2   force =     0.00000007   -0.00000778    0.00019810
     atom   14 type  2   force =     0.00093771    0.00052901   -0.00090641
     atom   15 type  2   force =     0.00093776   -0.00054497   -0.00091299
     atom   16 type  2   force =    -0.00000393   -0.00109068   -0.00090578
     atom   17 type  2   force =    -0.00000366    0.00107814   -0.00091388
     atom   18 type  2   force =    -0.00093924    0.00053606   -0.00090714
     atom   19 type  2   force =    -0.00093847   -0.00055182   -0.00091367
     atom   20 type  2   force =    -0.00000051   -0.00000958    0.00017722

     Total force =     0.002710     Total SCF correction =     0.000724
     SCF correction compared to forces is large: reduce conv_thr to get better values
     Energy error            =      9.4E-06 Ry
     Gradient error          =      9.6E-04 Ry/Bohr

     bfgs converged in   2 scf cycles and   1 bfgs steps
     (criteria: energy <  1.0E-05 Ry, force <  1.0E-03 Ry/Bohr)

     End of BFGS Geometry Optimization

     Final energy             =   -3595.8347418073 Ry

     File ./tmp/V2_top_fcc_relax.bfgs deleted, as requested
Begin final coordinates

ATOMIC_POSITIONS (angstrom)
Ag               1.6639287800        2.8744764000        2.8500754000    0   0   0
Ag               4.1565601600        4.3135978000        2.8500754000    0   0   0
Ag               0.8405738987        1.4416779562        5.1906568418
Ag               2.4948753000        1.4505407700        0.5000000000    0   0   0
Ag               4.1565601600        1.4353550000        2.8500754000    0   0   0
Ag               3.3314183680        2.8818199417        5.1906318172
Ag               2.4978715222        1.4485861199        7.5469657237
Ag               4.9875066800        2.8896621700        0.5000000000    0   0   0
Ag               4.9905457576        2.8876664066        7.5329753381
Ag               3.3332263602        0.0046012170        5.1906366715
Ag               4.9875066800        0.0114193700        0.5000000000    0   0   0
Ag               4.9904984442        0.0094565323        7.5470909970
C                2.4948753000        1.4505407700       10.8487529170    0   0   1
C                3.7411909900        2.1701014700       10.8543257896    0   0   1
C                3.7411909900        3.6092228700       10.8543418015    0   0   1
C                4.9875066800        4.3287835700       10.8543247263    0   0   1
C                4.9875066800        1.4505407700       10.8543453093    0   0   1
C                6.2338223700        2.1701014700       10.8543277583    0   0   1
C                6.2338223700        3.6092228700       10.8543442522    0   0   1
C                7.4801380600        4.3287835700       10.8488057480    0   0   1
End final coordinates



     Writing all to output data dir ./tmp/V2_top_fcc_relax.save/ :
     XML data file, charge density, pseudopotentials, collected wavefunctions
 
     init_run     :      3.57s CPU      3.74s WALL (       1 calls)
     electrons    :    234.00s CPU    255.93s WALL (       2 calls)
     update_pot   :      1.82s CPU      1.21s WALL (       1 calls)
     forces       :      1.49s CPU      1.69s WALL (       2 calls)
     force_dftd3  :      0.06s CPU      0.04s WALL (       2 calls)

     Called by init_run:
     wfcinit      :      1.04s CPU      1.60s WALL (       1 calls)
     potinit      :      1.60s CPU      1.22s WALL (       1 calls)
     hinit0       :      0.63s CPU      0.52s WALL (       1 calls)

     Called by electrons:
     c_bands      :    128.28s CPU    158.60s WALL (      47 calls)
     sum_band     :     25.84s CPU     38.03s WALL (      47 calls)
     v_of_rho     :     11.80s CPU     10.35s WALL (      47 calls)
     newd         :      0.67s CPU      0.69s WALL (      47 calls)
                                        0.69s GPU  (      47 calls)
     PAW_pot      :     57.23s CPU     36.04s WALL (      48 calls)
     mix_rho      :      8.21s CPU      8.65s WALL (      47 calls)
     energy_dftd3 :      0.01s CPU      0.01s WALL (       2 calls)

     Called by c_bands:
     init_us_2    :      1.82s CPU      2.29s WALL (    1960 calls)
     cegterg      :    113.29s CPU    113.86s WALL (     940 calls)

     Called by *egterg:
     cdiaghg      :     20.56s CPU     21.00s WALL (    5000 calls)
                                       20.96s GPU  (    5000 calls)
     h_psi        :     72.54s CPU     73.04s WALL (    5080 calls)
                                       72.85s GPU  (    5080 calls)
     s_psi        :      2.06s CPU      2.01s WALL (    5080 calls)
     g_psi        :      0.02s CPU      0.57s WALL (    4120 calls)
                                        0.55s GPU  (    4120 calls)

     Called by h_psi:
     h_psi:calbec :      0.19s CPU      3.13s WALL (    5080 calls)
                                        3.10s GPU  (    5080 calls)
     vloc_psi     :     63.58s CPU     63.95s WALL (    5080 calls)
                                       63.93s GPU  (    5080 calls)
     add_vuspsi   :      2.13s CPU      5.15s WALL (    5080 calls)
                                        5.12s GPU  (    5080 calls)

     General routines
     calbec       :      0.23s CPU      0.24s WALL (    6200 calls)
     fft          :      2.18s CPU      2.39s WALL (     632 calls)
                                        0.19s GPU  (     585 calls)
     ffts         :      0.47s CPU      0.82s WALL (    4983 calls)
                                        0.38s GPU  (    4936 calls)
     fftw         :      0.71s CPU     54.15s WALL (   55162 calls)
                                       53.83s GPU  (   55162 calls)
     interpolate  :      2.86s CPU      3.50s WALL (      47 calls)
     davcio       :      2.86s CPU     42.72s WALL (    3662 calls)
 
     Parallel routines
 
     PWSCF        :   4m 3.46s CPU   4m25.59s WALL

 
   This run was terminated on:  19: 3:15  26Sep2026            

=------------------------------------------------------------------------------=
   JOB DONE.
=------------------------------------------------------------------------------=
