200
Lattice="10.055095635733188 0.0 0.0 0.0 20.110191271466377 0.0 0.0 0.0 32.347838292179006" Properties=species:S:1:pos:R:3:parent:I:1:image:I:1 pbc="T T F"
P        5.10245859       5.02755577       3.31004819        0        0
P        0.07491066      10.05509330       3.31004325        1        0
P        0.07491081       5.02754357       8.33759097        2        0
P        5.10245850       0.00000572       8.33759504        3        0
S        6.13044979       6.26995588       4.55310588        4        0
S        1.10287556       1.24239041       4.55313265        5        0
S        3.87221860       3.81671386       4.52113458        8        0
S        8.89977045       8.84422108       4.52110320        9        0
S        3.87221051       6.23840792       2.09897904       12        0
S        8.89975407       1.21084508       2.09897332       13        0
S        8.89975806       6.23839482       7.12652019       14        0
S        3.87221170       1.21085970       7.12652588       15        0
S        6.13043166       3.78515290       2.06697682       16        0
S        1.10291017       8.81272599       2.06696072       17        0
S        1.10290770       3.78517615       7.09450601       18        0
S        6.13042345       8.81269588       7.09451946       19        0
Li       2.80515069       4.76767279       0.50001300       20        0
Li       7.83269753       9.79520609       0.50000000       21        0
Li       7.83266988       4.76766618       5.52757071       22        0
Li       2.80514447       9.79522492       5.52756754       23        0
Li       2.80296634       7.83557691       3.56910145       26        0
Li       7.83053734       2.80803801       3.56909107       27        0
Li       7.83058418       2.21947078       8.07851946       28        0
Li       2.80293574       7.24711716       8.07857042       29        0
Li       2.80291731       2.21958185       3.05102434       30        0
Li       7.83055475       7.24704257       3.05097824       31        0
Li       2.80521491       5.28745579       6.12013328       32        0
Li       7.83265219       0.25985818       6.12002578       33        0
Li       7.83267747       5.28741293       1.09249905       34        0
Li       2.80521938       0.25991183       1.09259185       35        0
Li       0.21201702       3.44269391       1.72305136       36        0
Li       5.23959789       8.47020613       1.72312391       37        0
Li       5.23959682       3.44261768       6.75071338       38        0
Li       0.21201743       8.47022689       6.75061788       39        0
Li       0.21205419       6.61236488       4.89702953       40        0
Li       5.23956910       1.58492956       4.89695388       41        0
Cl       9.34385282      10.05508739       8.33759263       44        0
Cl       4.31630513       0.00001107       3.31004319       46        0
Cl       9.34385261       5.02753829       3.31003629       47        0
S        2.19262726       2.51378262       0.79628355       48        0
S        7.22017623       7.54131296       0.79626293       49        0
S        7.22017624       2.51376516       5.82381113       50        0
S        2.19262947       7.54133086       5.82383119       51        0
S        1.10287842       6.26993549       9.58067845        6        1
S        6.13045785       1.24240240       9.58064932        7        1
S        8.89976663       3.81667510       9.54864983       10        1
S        3.87221718       8.84426108       9.54868120       11        1
Li       2.80515069       4.76767279      10.55510864       20        1
Li       7.83269753       9.79520609      10.55509564       21        1
Li       7.83050554       7.83556070       8.59663116       24        1
Li       2.80294728       2.80801639       8.59664706       25        1
Li       7.83267747       5.28741293      11.14759469       34        1
Li       2.80521938       0.25991183      11.14768749       35        1
Li       5.23956897       6.61243792       9.92454354       42        1
Li       0.21205329       1.58480369       9.92459543       43        1
Cl       4.31630533       5.02755237       8.33760173       45        1
S        2.19262726       2.51378262      10.85137919       48        1
S        7.22017623       7.54131296      10.85135857       49        1
P        5.10245859      15.08265141       3.31004819        0        0
P        0.07491066      20.11018893       3.31004325        1        0
P        0.07491081      15.08263921       8.33759097        2        0
P        5.10245850      10.05510136       8.33759504        3        0
S        6.13044979      16.32505152       4.55310588        4        0
S        1.10287556      11.29748605       4.55313265        5        0
S        3.87221860      13.87180950       4.52113458        8        0
S        8.89977045      18.89931672       4.52110320        9        0
S        3.87221051      16.29350356       2.09897904       12        0
S        8.89975407      11.26594072       2.09897332       13        0
S        8.89975806      16.29349046       7.12652019       14        0
S        3.87221170      11.26595534       7.12652588       15        0
S        6.13043166      13.84024854       2.06697682       16        0
S        1.10291017      18.86782163       2.06696072       17        0
S        1.10290770      13.84027179       7.09450601       18        0
S        6.13042345      18.86779152       7.09451946       19        0
Li       2.80515069      14.82276843       0.50001300       20        0
Li       7.83269753      19.85030173       0.50000000       21        0
Li       7.83266988      14.82276182       5.52757071       22        0
Li       2.80514447      19.85032056       5.52756754       23        0
Li       2.80296634      17.89067255       3.56910145       26        0
Li       7.83053734      12.86313365       3.56909107       27        0
Li       7.83058418      12.27456642       8.07851946       28        0
Li       2.80293574      17.30221280       8.07857042       29        0
Li       2.80291731      12.27467749       3.05102434       30        0
Li       7.83055475      17.30213821       3.05097824       31        0
Li       2.80521491      15.34255143       6.12013328       32        0
Li       7.83265219      10.31495382       6.12002578       33        0
Li       7.83267747      15.34250857       1.09249905       34        0
Li       2.80521938      10.31500747       1.09259185       35        0
Li       0.21201702      13.49778955       1.72305136       36        0
Li       5.23959789      18.52530177       1.72312391       37        0
Li       5.23959682      13.49771332       6.75071338       38        0
Li       0.21201743      18.52532253       6.75061788       39        0
Li       0.21205419      16.66746052       4.89702953       40        0
Li       5.23956910      11.64002520       4.89695388       41        0
Cl       9.34385282      20.11018302       8.33759263       44        0
Cl       4.31630513      10.05510671       3.31004319       46        0
Cl       9.34385261      15.08263393       3.31003629       47        0
S        2.19262726      12.56887826       0.79628355       48        0
S        7.22017623      17.59640860       0.79626293       49        0
S        7.22017624      12.56886080       5.82381113       50        0
S        2.19262947      17.59642650       5.82383119       51        0
S        1.10287842      16.32503113       9.58067845        6        1
S        6.13045785      11.29749804       9.58064932        7        1
S        8.89976663      13.87177074       9.54864983       10        1
S        3.87221718      18.89935672       9.54868120       11        1
Li       2.80515069      14.82276843      10.55510864       20        1
Li       7.83269753      19.85030173      10.55509564       21        1
Li       7.83050554      17.89065634       8.59663116       24        1
Li       2.80294728      12.86311203       8.59664706       25        1
Li       7.83267747      15.34250857      11.14759469       34        1
Li       2.80521938      10.31500747      11.14768749       35        1
Li       5.23956897      16.66753356       9.92454354       42        1
Li       0.21205329      11.63989933       9.92459543       43        1
Cl       4.31630533      15.08264801       8.33760173       45        1
S        2.19262726      12.56887826      10.85137919       48        1
S        7.22017623      17.59640860      10.85135857       49        1
Ag       2.19260000       2.51380000      13.94768749        0        0
Ag       2.19260000       5.38668447      13.94768749        0        0
Ag       2.19260000       8.25956893      13.94768749        0        0
Ag       2.19260000      11.13245340      13.94768749        0        0
Ag       2.19260000      14.00533787      13.94768749        0        0
Ag       2.19260000      16.87822234      13.94768749        0        0
Ag       2.19260000      19.75110680      13.94768749        0        0
Ag       4.70637391       1.07735777      13.94768749        0        0
Ag       4.70637391       3.95024223      13.94768749        0        0
Ag       4.70637391       6.82312670      13.94768749        0        0
Ag       4.70637391       9.69601117      13.94768749        0        0
Ag       4.70637391      12.56889564      13.94768749        0        0
Ag       4.70637391      15.44178010      13.94768749        0        0
Ag       4.70637391      18.31466457      13.94768749        0        0
Ag       7.22014782       2.51380000      13.94768749        0        0
Ag       7.22014782       5.38668447      13.94768749        0        0
Ag       7.22014782       8.25956893      13.94768749        0        0
Ag       7.22014782      11.13245340      13.94768749        0        0
Ag       7.22014782      14.00533787      13.94768749        0        0
Ag       7.22014782      16.87822234      13.94768749        0        0
Ag       7.22014782      19.75110680      13.94768749        0        0
Ag       9.73392173       1.07735777      13.94768749        0        0
Ag       9.73392173       3.95024223      13.94768749        0        0
Ag       9.73392173       6.82312670      13.94768749        0        0
Ag       9.73392173       9.69601117      13.94768749        0        0
Ag       9.73392173      12.56889564      13.94768749        0        0
Ag       9.73392173      15.44178010      13.94768749        0        0
Ag       9.73392173      18.31466457      13.94768749        0        0
Ag       3.03052464       1.07735777      16.29776289        0        0
Ag       3.03052464       3.95024223      16.29776289        0        0
Ag       3.03052464       6.82312670      16.29776289        0        0
Ag       3.03052464       9.69601117      16.29776289        0        0
Ag       3.03052464      12.56889564      16.29776289        0        0
Ag       3.03052464      15.44178010      16.29776289        0        0
Ag       3.03052464      18.31466457      16.29776289        0        0
Ag       5.54429855       2.51380000      16.29776289        0        0
Ag       5.54429855       5.38668447      16.29776289        0        0
Ag       5.54429855       8.25956893      16.29776289        0        0
Ag       5.54429855      11.13245340      16.29776289        0        0
Ag       5.54429855      14.00533787      16.29776289        0        0
Ag       5.54429855      16.87822234      16.29776289        0        0
Ag       5.54429855      19.75110680      16.29776289        0        0
Ag       8.05807245       1.07735777      16.29776289        0        0
Ag       8.05807245       3.95024223      16.29776289        0        0
Ag       8.05807245       6.82312670      16.29776289        0        0
Ag       8.05807245       9.69601117      16.29776289        0        0
Ag       8.05807245      12.56889564      16.29776289        0        0
Ag       8.05807245      15.44178010      16.29776289        0        0
Ag       8.05807245      18.31466457      16.29776289        0        0
Ag      10.57184636       2.51380000      16.29776289        0        0
Ag      10.57184636       5.38668447      16.29776289        0        0
Ag      10.57184636       8.25956893      16.29776289        0        0
Ag      10.57184636      11.13245340      16.29776289        0        0
Ag      10.57184636      14.00533787      16.29776289        0        0
Ag      10.57184636      16.87822234      16.29776289        0        0
Ag      10.57184636      19.75110680      16.29776289        0        0
Ag       1.35467536       1.07735777      18.64783829        0        0
Ag       1.35467536       3.95024223      18.64783829        0        0
Ag       1.35467536       6.82312670      18.64783829        0        0
Ag       1.35467536       9.69601117      18.64783829        0        0
Ag       1.35467536      12.56889564      18.64783829        0        0
Ag       1.35467536      15.44178010      18.64783829        0        0
Ag       1.35467536      18.31466457      18.64783829        0        0
Ag       3.86844927       2.51380000      18.64783829        0        0
Ag       3.86844927       5.38668447      18.64783829        0        0
Ag       3.86844927       8.25956893      18.64783829        0        0
Ag       3.86844927      11.13245340      18.64783829        0        0
Ag       3.86844927      14.00533787      18.64783829        0        0
Ag       3.86844927      16.87822234      18.64783829        0        0
Ag       3.86844927      19.75110680      18.64783829        0        0
Ag       6.38222318       1.07735777      18.64783829        0        0
Ag       6.38222318       3.95024223      18.64783829        0        0
Ag       6.38222318       6.82312670      18.64783829        0        0
Ag       6.38222318       9.69601117      18.64783829        0        0
Ag       6.38222318      12.56889564      18.64783829        0        0
Ag       6.38222318      15.44178010      18.64783829        0        0
Ag       6.38222318      18.31466457      18.64783829        0        0
Ag       8.89599709       2.51380000      18.64783829        0        0
Ag       8.89599709       5.38668447      18.64783829        0        0
Ag       8.89599709       8.25956893      18.64783829        0        0
Ag       8.89599709      11.13245340      18.64783829        0        0
Ag       8.89599709      14.00533787      18.64783829        0        0
Ag       8.89599709      16.87822234      18.64783829        0        0
Ag       8.89599709      19.75110680      18.64783829        0        0
