SYSTEM = SDCP/LiNiO2(104) Phase-B v3 : complex_doped

# ── 단일점 (구조 이완 없음) ─────────────────────────────────────────
#  기하는 MLIP(UMA, freeze_frac 0.85)로 이완한 것이다. 절대 이완하지 말 것 —
#  6개 job 이 같은 기하 규약 위에 있어야 차이값이 성립한다.
IBRION = -1
NSW    = 0
ISIF   = 0
PREC   = Accurate
ENCUT  = 520          # POTCAR ENMAX(O 400 eV)의 1.3배 = MP 표준
                              # ⚠ QE 의 ecutwfc(Ry)에서 환산한 값이 아니다 — 기저가 다르다
EDIFF  = 1E-5
ALGO   = Normal
LREAL  = Auto                 # 226원자 규모에서 실공간 투영이 훨씬 싸다
LWAVE  = .FALSE.
LCHARG = .FALSE.
NELM   = 200

# ── 스핀 · AFM ──────────────────────────────────────────────────────
#  QE 의 Ni1/Ni2 부격자 배정을 그대로 옮겼다. VASP 에서는 같은 원소이므로
#  종 분리가 아니라 **MAGMOM 원자별 부호**로 AFM 을 준다.
ISPIN  = 2
MAGMOM = 0 0 0 0 0 0 0 0 0 0 0 0 0 0 0 0 0 0 0 0 0 0 0 0 0 0 0 0 0 0 0 0 0 0 0 0 0 0 0 0 0 0 0 0 0 0 0 0 -1 -1 -1 -1 -1 -1 -1 -1 -1 -1 -1 -1 -1 -1 -1 -1 -1 -1 -1 -1 -1 -1 -1 -1 1 1 1 1 1 1 1 1 1 1 1 1 1 1 1 1 1 1 1 1 1 1 1 1 0 0 0 0 0 0 0 0 0 0 0 0 0 0 0 0 0 0 0 0 0 0 0 0 0 0 0 0 0 0 0 0 0 0 0 0 0 0 0 0 0 0 0 0 0 0 0 0 0 0 0 0 0 0 0 0 0 0 0 0 0 0 0 0 0 0 0 0 0 0 0 0 0 0 0 0 0 0 0 0 0 0 0 0 0 0 0 0 0 0 0 0 0 0 0 0 0 0 0 0 0 0 0 0 0 0 0 0 0 0 0 0 0 0.6 0.6 0 0 0 0 0 0 0 0 0 0 0 0 0 0 0

# ── DFT+U (Dudarev) ────────────────────────────────────────────────
#  ⚠ U 는 투영 방식 의존적이다. QE 는 ortho-atomic, 여기는 PAW 구 투영이다.
#    U(Ni)=6.2 eV 는 Materials Project 의 VASP GGA+U 관례값과 같으나,
#    인용 전 원전 확인이 필요하다.
LDAU      = .TRUE.
LDAUTYPE  = 2
LDAUL     = -1 2 -1 -1 -1 -1
LDAUU     = 0.0 6.2 0.0 0.0 0.0 0.0
LDAUJ     = 0.0 0.0 0.0 0.0 0.0 0.0
LDAUPRINT = 1
LMAXMIX   = 4                 # d 전자계 필수 (안 넣으면 U 수렴이 흔들린다)

# ── 점유수 ─────────────────────────────────────────────────────────
#  금속성 Ni 표면이라 smearing. QE 는 Marzari-Vanderbilt 0.03 Ry(0.41 eV)였다.
ISMEAR = 1
SIGMA  = 0.2

# ── 분산 보정 ──────────────────────────────────────────────────────
#  QE 는 grimme-d3 였다. 자세마다 값이 달라 상쇄되지 않으므로 **6개 전부** 동일 적용.
IVDW = 11

# ── 병렬 (외주처 하드웨어에 맞게 조정) ──────────────────────────────
#  ⚠ 이 계산의 병목은 메모리다. NCORE 로 밴드를 쪼개고 랭크를 늘려야 한다.
#    gabia 48 GB 한 장에서는 QE 로 55-60 GB 급이 필요해 실패했다.
NCORE = 4
