
     Program PWSCF v.7.4.1 starts on 30Sep2026 at 19:20: 3 

     This program is part of the open-source Quantum ESPRESSO suite
     for quantum simulation of materials; please cite
         "P. Giannozzi et al., J. Phys.:Condens. Matter 21 395502 (2009);
         "P. Giannozzi et al., J. Phys.:Condens. Matter 29 465901 (2017);
         "P. Giannozzi et al., J. Chem. Phys. 152 154105 (2020);
          URL http://www.quantum-espresso.org", 
     in publications or presentations arising from this work. More details at
     http://www.quantum-espresso.org/quote

     Parallel version (MPI & OpenMP), running on      16 processor cores
     Number of MPI processes:                 1
     Threads/MPI process:                    16

     MPI processes distributed on     1 nodes
     97943 MiB available memory on the printing compute node when the environment starts
 
     Reading input from pw.in

     Current dimensions of program PWSCF are:
     Max number of different atomic species (ntypx) = 10
     Max number of k-points (npk) =  40000
     Max angular momentum in pseudopotentials (lmaxx) =  4
     Presently no symmetry can be used with electric field

     file C.pbe-n-kjpaw_psl.1.0.0.UPF: wavefunction(s)  2S 2P renormalized
 
     Subspace diagonalization in iterative solution of the eigenvalue problem:
     a serial algorithm will be used

 
     G-vector sticks info
     --------------------
     sticks:   dense  smooth     PW     G-vecs:    dense   smooth      PW
     Sum         769     313    109               244635    62135   12739
 
     Using Slab Decomposition
 


     bravais-lattice index     =            0
     lattice parameter (alat)  =       4.6601  a.u.
     unit-cell volume          =    1222.6043 (a.u.)^3
     number of atoms/cell      =           12
     number of atomic types    =            1
     number of electrons       =        48.00
     number of Kohn-Sham states=           29
     kinetic-energy cutoff     =      52.0000  Ry
     charge density cutoff     =     520.0000  Ry
     scf convergence threshold =      1.0E-08
     mixing beta               =       0.3000
     number of iterations used =            8  local-TF  mixing
     Exchange-correlation= SLA  PW   PBX  PBC
                           (   1   4   3   4   0   0   0)

     GPU acceleration is ACTIVE.  1 visible GPUs per MPI rank


     celldm(1)=   4.660140  celldm(2)=   0.000000  celldm(3)=   0.000000
     celldm(4)=   0.000000  celldm(5)=   0.000000  celldm(6)=   0.000000

     crystal axes: (cart. coord. in units of alat)
               a(1) = (   1.000000   0.000000   0.000000 )  
               a(2) = (   0.500000   0.866025   0.000000 )  
               a(3) = (   0.000000   0.000000  13.949490 )  

     reciprocal axes: (cart. coord. in units 2 pi/alat)
               b(1) = (  1.000000 -0.577350  0.000000 )  
               b(2) = (  0.000000  1.154701  0.000000 )  
               b(3) = (  0.000000  0.000000  0.071687 )  


     PseudoPot. # 1 for C  read from file:
     /home/ubuntu/wad4l/pseudo_kgy/C.pbe-n-kjpaw_psl.1.0.0.UPF
     MD5 check sum: 5d2aebdfa2cae82b50a7e79e9516da0f
     Pseudo is Projector augmented-wave + core cor, Zval =  4.0
     Generated using "atomic" code by A. Dal Corso  v.5.1
     Shape of augmentation charge: PSQ
     Using radial grid of 1073 points,  4 beta functions with: 
                l(1) =   0
                l(2) =   0
                l(3) =   1
                l(4) =   1
     Q(r) pseudized with 0 coefficients 


     atomic species   valence    mass     pseudopotential
     C                 4.00    12.01100     C ( 1.00)

     No symmetry found



   Cartesian axes

     site n.     atom                  positions (alat units)
         1        C      tau(   1) = (   0.0000000   0.0000000   0.2027542  )
         2        C      tau(   2) = (   0.5000000   0.2886751   0.2027542  )
         3        C      tau(   3) = (   0.5000000   0.2886751   1.5612074  )
         4        C      tau(   4) = (   1.0000000   0.5773503   1.5612074  )
         5        C      tau(   5) = (   0.0000000   0.0000000   2.9196607  )
         6        C      tau(   6) = (   0.5000000   0.2886751   2.9196607  )
         7        C      tau(   7) = (   0.5000000   0.2886751   6.9747449  )
         8        C      tau(   8) = (   1.0000000   0.5773503   6.9747449  )
         9        C      tau(   9) = (   0.0000000   0.0000000   8.3331982  )
        10        C      tau(  10) = (   0.5000000   0.2886751   8.3331982  )
        11        C      tau(  11) = (   0.5000000   0.2886751   9.6916514  )
        12        C      tau(  12) = (   1.0000000   0.5773503   9.6916514  )

     --------------------------------------------
     DFT-D3 Dispersion Correction (no 3-body):
     --------------------------------------------
       Reference C6 values for interpolation: 

         atom   Coordination number   C6
         C          0.000            98.23
         C          0.987            86.49
         C          1.998            58.72
         C          2.999            51.56
         C          3.984            36.41

       Values used:

         atom   Coordination number  R0_AB[au]  C6      C8
         C          3.314            2.750     48.28   1396.39
         C          3.314            2.750     48.28   1396.27
         C          3.321            2.750     48.14   1392.31
         C          3.321            2.750     48.15   1392.56
         C          3.314            2.750     48.28   1396.35
         C          3.315            2.750     48.28   1396.23
         C          3.315            2.750     48.28   1396.23
         C          3.314            2.750     48.28   1396.35
         C          3.321            2.750     48.15   1392.56
         C          3.321            2.750     48.14   1392.31
         C          3.314            2.750     48.28   1396.27
         C          3.314            2.750     48.28   1396.39

         Molecular C6 ( Ry / a.u.^6 ) =      6945.72


     number of k points=   290  Marzari-Vanderbilt smearing, width (Ry)=  0.0100

     Number of k-points >= 100: set verbosity='high' to print them.

     Dense  grid:   244635 G-vectors     FFT dimensions: (  36,  36, 480)

     Smooth grid:    62135 G-vectors     FFT dimensions: (  24,  24, 300)

     Estimated max dynamical RAM per process >     447.64 MB

     Check: negative core charge=   -0.000003

     Initial potential from superposition of free atoms

     starting charge      47.9995, renormalised to      48.0000

     negative rho (up, down):  2.593E-05 0.000E+00
 
     Adding external electric field

     Computed dipole along edir(3) : 
        Dipole               -0.0000 Ry au,         -0.0000 Debye
        Dipole field         -0.0000 Ry au, 
 
        Potential amp.        0.0000 Ry
        Total length         63.1168 bohr
 
     Starting wfcs are   48 randomized atomic wfcs
     Checking if some PAW data can be deallocated... 

     total cpu time spent up to now is        5.4 secs

     Self-consistent Calculation

     iteration #  1     ecut=    52.00 Ry     beta= 0.30
     Davidson diagonalization with overlap
     ethr =  1.00E-02,  avg # of iterations =  2.1

     negative rho (up, down):  1.096E-08 0.000E+00
 
     Adding external electric field

     Computed dipole along edir(3) : 
        Dipole               -0.0000 Ry au,         -0.0001 Debye
        Dipole field         -0.0000 Ry au, 
 
        Potential amp.        0.0000 Ry
        Total length         63.1168 bohr
 

     total cpu time spent up to now is       13.7 secs

     total energy              =    -221.75024476 Ry
     estimated scf accuracy    <       1.07907622 Ry

     iteration #  2     ecut=    52.00 Ry     beta= 0.30
     Davidson diagonalization with overlap
     ethr =  2.25E-03,  avg # of iterations =  1.0
 
     Adding external electric field

     Computed dipole along edir(3) : 
        Dipole               -0.0002 Ry au,         -0.0005 Debye
        Dipole field         -0.0000 Ry au, 
 
        Potential amp.        0.0002 Ry
        Total length         63.1168 bohr
 

     total cpu time spent up to now is       20.3 secs

     total energy              =    -221.31054519 Ry
     estimated scf accuracy    <       0.74053368 Ry

     iteration #  3     ecut=    52.00 Ry     beta= 0.30
     Davidson diagonalization with overlap
     ethr =  1.54E-03,  avg # of iterations =  3.0
 
     Adding external electric field

     Computed dipole along edir(3) : 
        Dipole               -0.0001 Ry au,         -0.0003 Debye
        Dipole field         -0.0000 Ry au, 
 
        Potential amp.        0.0002 Ry
        Total length         63.1168 bohr
 

     total cpu time spent up to now is       29.2 secs

     total energy              =    -221.43687443 Ry
     estimated scf accuracy    <       0.05897452 Ry

     iteration #  4     ecut=    52.00 Ry     beta= 0.30
     Davidson diagonalization with overlap
     c_bands:  1 eigenvalues not converged
     c_bands:  1 eigenvalues not converged
     ethr =  1.23E-04,  avg # of iterations =  3.7
 
     Adding external electric field

     Computed dipole along edir(3) : 
        Dipole               -0.0001 Ry au,         -0.0001 Debye
        Dipole field         -0.0000 Ry au, 
 
        Potential amp.        0.0001 Ry
        Total length         63.1168 bohr
 

     total cpu time spent up to now is       38.3 secs

     total energy              =    -221.43379016 Ry
     estimated scf accuracy    <       0.03022921 Ry

     iteration #  5     ecut=    52.00 Ry     beta= 0.30
     Davidson diagonalization with overlap
     c_bands:  1 eigenvalues not converged
     ethr =  6.30E-05,  avg # of iterations =  2.8
 
     Adding external electric field

     Computed dipole along edir(3) : 
        Dipole               -0.0000 Ry au,         -0.0000 Debye
        Dipole field         -0.0000 Ry au, 
 
        Potential amp.        0.0000 Ry
        Total length         63.1168 bohr
 

     total cpu time spent up to now is       46.3 secs

     total energy              =    -221.43476186 Ry
     estimated scf accuracy    <       0.00953528 Ry

     iteration #  6     ecut=    52.00 Ry     beta= 0.30
     Davidson diagonalization with overlap
     c_bands:  1 eigenvalues not converged
     c_bands:  1 eigenvalues not converged
     c_bands:  1 eigenvalues not converged
     c_bands:  1 eigenvalues not converged
     ethr =  1.99E-05,  avg # of iterations =  2.1

     negative rho (up, down):  7.646E-03 0.000E+00
 
     Adding external electric field

     Computed dipole along edir(3) : 
        Dipole                0.0002 Ry au,          0.0006 Debye
        Dipole field          0.0000 Ry au, 
 
        Potential amp.       -0.0003 Ry
        Total length         63.1168 bohr
 

     total cpu time spent up to now is       53.7 secs

     total energy              =    -221.43266129 Ry
     estimated scf accuracy    <       0.00798585 Ry

     iteration #  7     ecut=    52.00 Ry     beta= 0.30
     Davidson diagonalization with overlap
     ethr =  1.66E-05,  avg # of iterations =  4.2

     negative rho (up, down):  7.006E-08 0.000E+00
 
     Adding external electric field

     Computed dipole along edir(3) : 
        Dipole                0.0003 Ry au,          0.0007 Debye
        Dipole field          0.0000 Ry au, 
 
        Potential amp.       -0.0003 Ry
        Total length         63.1168 bohr
 

     total cpu time spent up to now is       63.4 secs

     total energy              =    -221.43158518 Ry
     estimated scf accuracy    <       0.00320688 Ry

     iteration #  8     ecut=    52.00 Ry     beta= 0.30
     Davidson diagonalization with overlap
     c_bands:  1 eigenvalues not converged
     c_bands:  1 eigenvalues not converged
     c_bands:  1 eigenvalues not converged
     c_bands:  1 eigenvalues not converged
     ethr =  6.68E-06,  avg # of iterations =  3.6

     negative rho (up, down):  1.204E-03 0.000E+00
 
     Adding external electric field

     Computed dipole along edir(3) : 
        Dipole                0.0003 Ry au,          0.0007 Debye
        Dipole field          0.0000 Ry au, 
 
        Potential amp.       -0.0004 Ry
        Total length         63.1168 bohr
 

     total cpu time spent up to now is       72.8 secs

     total energy              =    -221.43268003 Ry
     estimated scf accuracy    <       0.00109989 Ry

     iteration #  9     ecut=    52.00 Ry     beta= 0.30
     Davidson diagonalization with overlap
     c_bands:  1 eigenvalues not converged
     c_bands:  3 eigenvalues not converged
     c_bands:  2 eigenvalues not converged
     c_bands:  2 eigenvalues not converged
     ethr =  2.29E-06,  avg # of iterations =  4.7

     negative rho (up, down):  3.152E-03 0.000E+00
 
     Adding external electric field

     Computed dipole along edir(3) : 
        Dipole                0.0001 Ry au,          0.0003 Debye
        Dipole field          0.0000 Ry au, 
 
        Potential amp.       -0.0001 Ry
        Total length         63.1168 bohr
 

     total cpu time spent up to now is       82.1 secs

     total energy              =    -221.43165321 Ry
     estimated scf accuracy    <       0.00086495 Ry

     iteration # 10     ecut=    52.00 Ry     beta= 0.30
     Davidson diagonalization with overlap
     c_bands:  1 eigenvalues not converged
     c_bands:  1 eigenvalues not converged
     c_bands:  1 eigenvalues not converged
     c_bands:  1 eigenvalues not converged
     c_bands:  1 eigenvalues not converged
     c_bands:  1 eigenvalues not converged
     c_bands:  1 eigenvalues not converged
     c_bands:  1 eigenvalues not converged
     ethr =  1.80E-06,  avg # of iterations =  4.6

     negative rho (up, down):  2.819E-03 0.000E+00
 
     Adding external electric field

     Computed dipole along edir(3) : 
        Dipole                0.0001 Ry au,          0.0003 Debye
        Dipole field          0.0000 Ry au, 
 
        Potential amp.       -0.0001 Ry
        Total length         63.1168 bohr
 

     total cpu time spent up to now is       91.9 secs

     total energy              =    -221.43179636 Ry
     estimated scf accuracy    <       0.00020654 Ry

     iteration # 11     ecut=    52.00 Ry     beta= 0.30
     Davidson diagonalization with overlap
     ethr =  4.30E-07,  avg # of iterations =  2.3

     negative rho (up, down):  2.835E-03 0.000E+00
 
     Adding external electric field

     Computed dipole along edir(3) : 
        Dipole                0.0001 Ry au,          0.0003 Debye
        Dipole field          0.0000 Ry au, 
 
        Potential amp.       -0.0001 Ry
        Total length         63.1168 bohr
 

     total cpu time spent up to now is      100.2 secs

     total energy              =    -221.43188231 Ry
     estimated scf accuracy    <       0.00022823 Ry

     iteration # 12     ecut=    52.00 Ry     beta= 0.30
     Davidson diagonalization with overlap
     ethr =  4.30E-07,  avg # of iterations =  1.0

     negative rho (up, down):  2.832E-03 0.000E+00
 
     Adding external electric field

     Computed dipole along edir(3) : 
        Dipole               -0.0001 Ry au,         -0.0004 Debye
        Dipole field         -0.0000 Ry au, 
 
        Potential amp.        0.0002 Ry
        Total length         63.1168 bohr
 

     total cpu time spent up to now is      106.7 secs

     total energy              =    -221.43178594 Ry
     estimated scf accuracy    <       0.00030764 Ry

     iteration # 13     ecut=    52.00 Ry     beta= 0.30
     Davidson diagonalization with overlap
     c_bands:  1 eigenvalues not converged
     ethr =  4.30E-07,  avg # of iterations =  5.2

     negative rho (up, down):  4.295E-03 0.000E+00
 
     Adding external electric field

     Computed dipole along edir(3) : 
        Dipole               -0.0001 Ry au,         -0.0004 Debye
        Dipole field         -0.0000 Ry au, 
 
        Potential amp.        0.0002 Ry
        Total length         63.1168 bohr
 

     total cpu time spent up to now is      117.4 secs

     total energy              =    -221.43192144 Ry
     estimated scf accuracy    <       0.00021593 Ry

     iteration # 14     ecut=    52.00 Ry     beta= 0.30
     Davidson diagonalization with overlap
     c_bands:  1 eigenvalues not converged
     c_bands:  1 eigenvalues not converged
     ethr =  4.30E-07,  avg # of iterations =  2.9

     negative rho (up, down):  1.530E-03 0.000E+00
 
     Adding external electric field

     Computed dipole along edir(3) : 
        Dipole               -0.0001 Ry au,         -0.0002 Debye
        Dipole field         -0.0000 Ry au, 
 
        Potential amp.        0.0001 Ry
        Total length         63.1168 bohr
 

     total cpu time spent up to now is      125.4 secs

     total energy              =    -221.43165319 Ry
     estimated scf accuracy    <       0.00016336 Ry

     iteration # 15     ecut=    52.00 Ry     beta= 0.30
     Davidson diagonalization with overlap
     c_bands:  1 eigenvalues not converged
     c_bands:  1 eigenvalues not converged
     c_bands:  1 eigenvalues not converged
     c_bands:  1 eigenvalues not converged
     c_bands:  1 eigenvalues not converged
     c_bands:  1 eigenvalues not converged
     c_bands:  1 eigenvalues not converged
     c_bands:  1 eigenvalues not converged
     c_bands:  1 eigenvalues not converged
     c_bands:  1 eigenvalues not converged
     c_bands:  1 eigenvalues not converged
     c_bands:  1 eigenvalues not converged
     c_bands:  1 eigenvalues not converged
     ethr =  3.40E-07,  avg # of iterations =  5.8

     negative rho (up, down):  9.888E-04 0.000E+00
 
     Adding external electric field

     Computed dipole along edir(3) : 
        Dipole               -0.0002 Ry au,         -0.0005 Debye
        Dipole field         -0.0000 Ry au, 
 
        Potential amp.        0.0002 Ry
        Total length         63.1168 bohr
 

     total cpu time spent up to now is      136.6 secs

     total energy              =    -221.43168126 Ry
     estimated scf accuracy    <       0.00023591 Ry

     iteration # 16     ecut=    52.00 Ry     beta= 0.30
     Davidson diagonalization with overlap
     c_bands:  1 eigenvalues not converged
     c_bands:  1 eigenvalues not converged
     c_bands:  1 eigenvalues not converged
     c_bands:  1 eigenvalues not converged
     c_bands:  1 eigenvalues not converged
     c_bands:  1 eigenvalues not converged
     ethr =  3.40E-07,  avg # of iterations =  3.4

     negative rho (up, down):  6.190E-04 0.000E+00
 
     Adding external electric field

     Computed dipole along edir(3) : 
        Dipole               -0.0002 Ry au,         -0.0006 Debye
        Dipole field         -0.0000 Ry au, 
 
        Potential amp.        0.0003 Ry
        Total length         63.1168 bohr
 

     total cpu time spent up to now is      144.8 secs

     total energy              =    -221.43167919 Ry
     estimated scf accuracy    <       0.00004373 Ry

     iteration # 17     ecut=    52.00 Ry     beta= 0.30
     Davidson diagonalization with overlap
     ethr =  9.11E-08,  avg # of iterations =  3.4

     negative rho (up, down):  1.377E-04 0.000E+00
 
     Adding external electric field

     Computed dipole along edir(3) : 
        Dipole               -0.0002 Ry au,         -0.0005 Debye
        Dipole field         -0.0000 Ry au, 
 
        Potential amp.        0.0003 Ry
        Total length         63.1168 bohr
 

     total cpu time spent up to now is      153.5 secs

     total energy              =    -221.43168144 Ry
     estimated scf accuracy    <       0.00000910 Ry

     iteration # 18     ecut=    52.00 Ry     beta= 0.30
     Davidson diagonalization with overlap
     ethr =  1.90E-08,  avg # of iterations =  3.3

     negative rho (up, down):  1.225E-04 0.000E+00
 
     Adding external electric field

     Computed dipole along edir(3) : 
        Dipole               -0.0002 Ry au,         -0.0004 Debye
        Dipole field         -0.0000 Ry au, 
 
        Potential amp.        0.0002 Ry
        Total length         63.1168 bohr
 

     total cpu time spent up to now is      161.9 secs

     total energy              =    -221.43167987 Ry
     estimated scf accuracy    <       0.00000467 Ry

     iteration # 19     ecut=    52.00 Ry     beta= 0.30
     Davidson diagonalization with overlap
     ethr =  9.73E-09,  avg # of iterations =  2.0

     negative rho (up, down):  4.653E-05 0.000E+00
 
     Adding external electric field

     Computed dipole along edir(3) : 
        Dipole               -0.0000 Ry au,         -0.0001 Debye
        Dipole field         -0.0000 Ry au, 
 
        Potential amp.        0.0000 Ry
        Total length         63.1168 bohr
 

     total cpu time spent up to now is      169.3 secs

     total energy              =    -221.43168110 Ry
     estimated scf accuracy    <       0.00000346 Ry

     iteration # 20     ecut=    52.00 Ry     beta= 0.30
     Davidson diagonalization with overlap
     ethr =  7.21E-09,  avg # of iterations =  2.0

     negative rho (up, down):  6.782E-05 0.000E+00
 
     Adding external electric field

     Computed dipole along edir(3) : 
        Dipole                0.0000 Ry au,          0.0000 Debye
        Dipole field          0.0000 Ry au, 
 
        Potential amp.       -0.0000 Ry
        Total length         63.1168 bohr
 

     total cpu time spent up to now is      176.9 secs

     total energy              =    -221.43168141 Ry
     estimated scf accuracy    <       0.00000321 Ry

     iteration # 21     ecut=    52.00 Ry     beta= 0.30
     Davidson diagonalization with overlap
     ethr =  6.69E-09,  avg # of iterations =  1.0

     negative rho (up, down):  5.818E-05 0.000E+00
 
     Adding external electric field

     Computed dipole along edir(3) : 
        Dipole                0.0001 Ry au,          0.0004 Debye
        Dipole field          0.0000 Ry au, 
 
        Potential amp.       -0.0002 Ry
        Total length         63.1168 bohr
 

     total cpu time spent up to now is      183.6 secs

     total energy              =    -221.43168082 Ry
     estimated scf accuracy    <       0.00000203 Ry

     iteration # 22     ecut=    52.00 Ry     beta= 0.30
     Davidson diagonalization with overlap
     ethr =  4.22E-09,  avg # of iterations =  3.4

     negative rho (up, down):  4.572E-05 0.000E+00
 
     Adding external electric field

     Computed dipole along edir(3) : 
        Dipole                0.0002 Ry au,          0.0004 Debye
        Dipole field          0.0000 Ry au, 
 
        Potential amp.       -0.0002 Ry
        Total length         63.1168 bohr
 

     total cpu time spent up to now is      192.9 secs

     total energy              =    -221.43168165 Ry
     estimated scf accuracy    <       0.00000549 Ry

     iteration # 23     ecut=    52.00 Ry     beta= 0.30
     Davidson diagonalization with overlap
     ethr =  4.22E-09,  avg # of iterations =  1.3

     negative rho (up, down):  7.934E-05 0.000E+00
 
     Adding external electric field

     Computed dipole along edir(3) : 
        Dipole                0.0001 Ry au,          0.0004 Debye
        Dipole field          0.0000 Ry au, 
 
        Potential amp.       -0.0002 Ry
        Total length         63.1168 bohr
 

     total cpu time spent up to now is      199.7 secs

     total energy              =    -221.43168143 Ry
     estimated scf accuracy    <       0.00000221 Ry

     iteration # 24     ecut=    52.00 Ry     beta= 0.30
     Davidson diagonalization with overlap
     ethr =  4.22E-09,  avg # of iterations =  1.9

     negative rho (up, down):  1.889E-04 0.000E+00
 
     Adding external electric field

     Computed dipole along edir(3) : 
        Dipole                0.0001 Ry au,          0.0002 Debye
        Dipole field          0.0000 Ry au, 
 
        Potential amp.       -0.0001 Ry
        Total length         63.1168 bohr
 

     total cpu time spent up to now is      207.1 secs

     total energy              =    -221.43168167 Ry
     estimated scf accuracy    <       0.00000084 Ry

     iteration # 25     ecut=    52.00 Ry     beta= 0.30
     Davidson diagonalization with overlap
     ethr =  1.74E-09,  avg # of iterations =  2.4

     negative rho (up, down):  1.598E-04 0.000E+00
 
     Adding external electric field

     Computed dipole along edir(3) : 
        Dipole                0.0001 Ry au,          0.0001 Debye
        Dipole field          0.0000 Ry au, 
 
        Potential amp.       -0.0001 Ry
        Total length         63.1168 bohr
 

     total cpu time spent up to now is      214.8 secs

     total energy              =    -221.43168162 Ry
     estimated scf accuracy    <       0.00000038 Ry

     iteration # 26     ecut=    52.00 Ry     beta= 0.30
     Davidson diagonalization with overlap
     ethr =  7.82E-10,  avg # of iterations =  1.4

     negative rho (up, down):  7.698E-05 0.000E+00
 
     Adding external electric field

     Computed dipole along edir(3) : 
        Dipole                0.0000 Ry au,          0.0001 Debye
        Dipole field          0.0000 Ry au, 
 
        Potential amp.       -0.0000 Ry
        Total length         63.1168 bohr
 

     total cpu time spent up to now is      221.7 secs

     total energy              =    -221.43168139 Ry
     estimated scf accuracy    <       0.00000020 Ry

     iteration # 27     ecut=    52.00 Ry     beta= 0.30
     Davidson diagonalization with overlap
     ethr =  4.26E-10,  avg # of iterations =  2.2

     negative rho (up, down):  7.952E-05 0.000E+00
 
     Adding external electric field

     Computed dipole along edir(3) : 
        Dipole                0.0000 Ry au,          0.0000 Debye
        Dipole field          0.0000 Ry au, 
 
        Potential amp.       -0.0000 Ry
        Total length         63.1168 bohr
 

     total cpu time spent up to now is      229.5 secs

     total energy              =    -221.43168142 Ry
     estimated scf accuracy    <       0.00000003 Ry

     iteration # 28     ecut=    52.00 Ry     beta= 0.30
     Davidson diagonalization with overlap
     ethr =  6.34E-11,  avg # of iterations =  1.6

     negative rho (up, down):  7.869E-05 0.000E+00
 
     Adding external electric field

     Computed dipole along edir(3) : 
        Dipole                0.0000 Ry au,          0.0000 Debye
        Dipole field          0.0000 Ry au, 
 
        Potential amp.       -0.0000 Ry
        Total length         63.1168 bohr
 

     total cpu time spent up to now is      236.5 secs

     total energy              =    -221.43168142 Ry
     estimated scf accuracy    <       0.00000002 Ry

     iteration # 29     ecut=    52.00 Ry     beta= 0.30
     Davidson diagonalization with overlap
     ethr =  3.87E-11,  avg # of iterations =  3.2

     negative rho (up, down):  7.313E-05 0.000E+00
 
     Adding external electric field

     Computed dipole along edir(3) : 
        Dipole                0.0000 Ry au,          0.0000 Debye
        Dipole field          0.0000 Ry au, 
 
        Potential amp.       -0.0000 Ry
        Total length         63.1168 bohr
 

     total cpu time spent up to now is      245.5 secs

     total energy              =    -221.43168144 Ry
     estimated scf accuracy    <       0.00000002 Ry

     iteration # 30     ecut=    52.00 Ry     beta= 0.30
     Davidson diagonalization with overlap
     ethr =  3.55E-11,  avg # of iterations =  1.6

     negative rho (up, down):  7.745E-05 0.000E+00
 
     Adding external electric field

     Computed dipole along edir(3) : 
        Dipole                0.0001 Ry au,          0.0004 Debye
        Dipole field          0.0000 Ry au, 
 
        Potential amp.       -0.0002 Ry
        Total length         63.1168 bohr
 

     total cpu time spent up to now is      252.4 secs

     End of self-consistent calculation

     Number of k-points >= 100: set verbosity='high' to print the bands.

     the Fermi energy is     2.3445 ev

!    total energy              =    -221.43168143 Ry
     total all-electron energy =      -914.600855 Ry
     estimated scf accuracy    <          2.2E-09 Ry
     smearing contrib. (-TS)   =      -0.00008834 Ry
     internal energy E=F+TS    =    -221.43159310 Ry

     The total energy is F=E-TS. E is the sum of the following terms:
     one-electron contribution =    -857.18896837 Ry
     hartree contribution      =     445.50466694 Ry
     xc contribution           =     -55.67148951 Ry
     ewald contribution        =     320.04371486 Ry
     DFT-D3 Dispersion         =      -0.11657824 Ry
     electric field correction =       0.00000000 Ry
     one-center paw contrib.   =     -74.00293877 Ry

     convergence has been achieved in  30 iterations

     negative rho (up, down):  7.745E-05 0.000E+00

     Forces acting on atoms (cartesian axes, Ry/au):

     atom    1 type  1   force =     0.00000000    0.00000000   -0.00057189
     atom    2 type  1   force =     0.00000003   -0.00000003   -0.00002434
     atom    3 type  1   force =    -0.00000001    0.00000001    0.00000716
     atom    4 type  1   force =    -0.00000002    0.00000001    0.00000873
     atom    5 type  1   force =    -0.00000003    0.00000003    0.00057512
     atom    6 type  1   force =    -0.00000000   -0.00000000    0.00002573
     atom    7 type  1   force =     0.00000004   -0.00000002   -0.00003277
     atom    8 type  1   force =    -0.00000003    0.00000002   -0.00058224
     atom    9 type  1   force =    -0.00000000    0.00000001    0.00000673
     atom   10 type  1   force =     0.00000002   -0.00000000    0.00000557
     atom   11 type  1   force =    -0.00000001   -0.00000005    0.00001673
     atom   12 type  1   force =    -0.00000002    0.00000003    0.00056547

     Total force =     0.001149     Total SCF correction =     0.000091

     Writing all to output data dir ./tmp/CC_S33_AB_G4_k24_far.save/ :
     XML data file, charge density, pseudopotentials, collected wavefunctions
 
     init_run     :      5.32s CPU      5.18s WALL (       1 calls)
     electrons    :    246.23s CPU    247.08s WALL (       1 calls)
     forces       :      1.08s CPU      1.17s WALL (       1 calls)
     force_dftd3  :      0.04s CPU      0.03s WALL (       1 calls)

     Called by init_run:
     wfcinit      :      2.51s CPU      3.08s WALL (       1 calls)
     potinit      :      2.15s CPU      1.44s WALL (       1 calls)
     hinit0       :      0.31s CPU      0.29s WALL (       1 calls)

     Called by electrons:
     c_bands      :    154.43s CPU    171.99s WALL (      30 calls)
     sum_band     :     26.71s CPU     32.34s WALL (      30 calls)
     v_of_rho     :      5.50s CPU      3.92s WALL (      31 calls)
     newd         :      0.20s CPU      0.21s WALL (      31 calls)
                                        0.21s GPU  (      31 calls)
     PAW_pot      :     57.69s CPU     36.12s WALL (      31 calls)
     mix_rho      :      2.59s CPU      2.70s WALL (      30 calls)
     energy_dftd3 :      0.00s CPU      0.00s WALL (       1 calls)

     Called by c_bands:
     init_us_2    :      6.04s CPU      7.67s WALL (   17980 calls)
     cegterg      :    129.72s CPU    133.90s WALL (    8700 calls)

     Called by *egterg:
     cdiaghg      :     31.77s CPU     32.56s WALL (   32881 calls)
                                       32.35s GPU  (   32881 calls)
     h_psi        :     71.71s CPU     75.40s WALL (   33171 calls)
                                       75.18s GPU  (   33171 calls)
     s_psi        :     10.22s CPU     10.49s WALL (   33171 calls)
     g_psi        :      0.12s CPU      0.77s WALL (   24181 calls)
                                        0.64s GPU  (   24181 calls)

     Called by h_psi:
     h_psi:calbec :      1.02s CPU      2.92s WALL (   33171 calls)
                                        2.73s GPU  (   33171 calls)
     vloc_psi     :     57.64s CPU     60.88s WALL (   33171 calls)
                                       60.71s GPU  (   33171 calls)
     add_vuspsi   :      8.04s CPU      9.76s WALL (   33171 calls)
                                        9.56s GPU  (   33171 calls)

     General routines
     calbec       :      1.22s CPU      1.32s WALL (   43031 calls)
     fft          :      0.44s CPU      0.49s WALL (     412 calls)
                                        0.05s GPU  (     381 calls)
     ffts         :      0.15s CPU      0.23s WALL (    3280 calls)
                                        0.11s GPU  (    3249 calls)
     fftw         :      1.60s CPU     46.19s WALL (  125486 calls)
                                       45.51s GPU  (  125486 calls)
     interpolate  :      0.62s CPU      0.62s WALL (      31 calls)
     davcio       :     15.45s CPU     23.76s WALL (   27476 calls)
 
     Parallel routines
 
     PWSCF        :   4m27.68s CPU   4m23.76s WALL

 
   This run was terminated on:  19:24:26  30Sep2026            

=------------------------------------------------------------------------------=
   JOB DONE.
=------------------------------------------------------------------------------=
