131
complex_neutral | nat=131 | cell a=11.512 b=18.272 c=28.790 A | z-span=20.776 A | vertical vacuum=8.014 A | UNRELAXED single-point geometry from /data/work/runs/sdcp_linio2_binding/phaseB_v7c_slabfirst/complex_neutral/scf.in
Li        1.43900000       7.23823684       0.06852354
Li        0.00000000       5.80539088       2.10791449
Li       -1.43900000       4.37254491       4.14730543
Li       -2.87800000       2.93969895       6.18669638
Li       -4.31700000       1.50685298       8.22608733
Li       -5.75600000       0.07400702      10.26547828
Li        4.31700000       7.23823684       0.06852354
Li        2.87800000       5.80539088       2.10791449
Li        1.43900000       4.37254491       4.14730543
Li        0.00000000       2.93969895       6.18669638
Li       -1.43900000       1.50685298       8.22608733
Li       -2.87800000       0.07400702      10.26547828
Li        7.19500000       7.23823684       0.06852354
Li        5.75600000       5.80539088       2.10791449
Li        4.31700000       4.37254491       4.14730543
Li        2.87800000       2.93969895       6.18669638
Li        1.43900000       1.50685298       8.22608733
Li        0.00000000       0.07400702      10.26547828
Li       10.07300000       7.23823684       0.06852354
Li        8.63400000       5.80539088       2.10791449
Li        7.19500000       4.37254491       4.14730543
Li        5.75600000       2.93969895       6.18669638
Li        4.31700000       1.50685298       8.22608733
Li        2.87800000       0.07400702      10.26547828
Ni       -1.43900000      -1.43284596       0.06852354
Ni       -2.87800000      -2.86569193       2.10791449
Ni       -4.31700000      -4.29853789       4.14730543
Ni       -5.75600000      -5.73138386       6.18669638
Ni       -7.19500000      -7.16422982       8.22608733
Ni       -8.63400000      -8.59707578      10.26547828
Ni        1.43900000      -1.43284596       0.06852354
Ni        0.00000000      -2.86569193       2.10791449
Ni       -1.43900000      -4.29853789       4.14730543
Ni       -2.87800000      -5.73138386       6.18669638
Ni       -4.31700000      -7.16422982       8.22608733
Ni       -5.75600000      -8.59707578      10.26547828
Ni        4.31700000      -1.43284596       0.06852354
Ni        2.87800000      -2.86569193       2.10791449
Ni        1.43900000      -4.29853789       4.14730543
Ni        0.00000000      -5.73138386       6.18669638
Ni       -1.43900000      -7.16422982       8.22608733
Ni       -2.87800000      -8.59707578      10.26547828
Ni        7.19500000      -1.43284596       0.06852354
Ni        5.75600000      -2.86569193       2.10791449
Ni        4.31700000      -4.29853789       4.14730543
Ni        2.87800000      -5.73138386       6.18669638
Ni        1.43900000      -7.16422982       8.22608733
Ni        0.00000000      -8.59707578      10.26547828
O         0.00000000       3.00022600       0.13704707
O         2.87800000      11.47624768       0.00000000
O        -1.43900000       1.56738004       2.17643802
O         1.43900000      10.04340171       2.03939095
O        -2.87800000       0.13453408       4.21582897
O         0.00000000       8.61055575       4.07878190
O        -4.31700000      -1.29831189       6.25521992
O        -1.43900000       7.17770978       6.11817285
O        -5.75600000      -2.73115785       8.29461087
O        -2.87800000       5.74486382       8.15756380
O        -7.19500000      -4.16400382      10.33400182
O        -4.31700000       4.31201786      10.19695475
O         2.87800000       3.00022600       0.13704707
O         5.75600000      11.47624768       0.00000000
O         1.43900000       1.56738004       2.17643802
O         4.31700000      10.04340171       2.03939095
O         0.00000000       0.13453408       4.21582897
O         2.87800000       8.61055575       4.07878190
O        -1.43900000      -1.29831189       6.25521992
O         1.43900000       7.17770978       6.11817285
O        -2.87800000      -2.73115785       8.29461087
O         0.00000000       5.74486382       8.15756380
O        -4.31700000      -4.16400382      10.33400182
O        -1.43900000       4.31201786      10.19695475
O         5.75600000       3.00022600       0.13704707
O         8.63400000      11.47624768       0.00000000
O         4.31700000       1.56738004       2.17643802
O         7.19500000      10.04340171       2.03939095
O         2.87800000       0.13453408       4.21582897
O         5.75600000       8.61055575       4.07878190
O         1.43900000      -1.29831189       6.25521992
O         4.31700000       7.17770978       6.11817285
O         0.00000000      -2.73115785       8.29461087
O         2.87800000       5.74486382       8.15756380
O        -1.43900000      -4.16400382      10.33400182
O         1.43900000       4.31201786      10.19695475
O         8.63400000       3.00022600       0.13704707
O        11.51200000      11.47624768       0.00000000
O         7.19500000       1.56738004       2.17643802
O        10.07300000      10.04340171       2.03939095
O         5.75600000       0.13453408       4.21582897
O         8.63400000       8.61055575       4.07878190
O         4.31700000      -1.29831189       6.25521992
O         7.19500000       7.17770978       6.11817285
O         2.87800000      -2.73115785       8.29461087
O         5.75600000       5.74486382       8.15756380
O         1.43900000      -4.16400382      10.33400182
O         4.31700000       4.31201786      10.19695475
O         5.89499515       8.78944709      12.19952405
O         6.24213913       6.62677885      13.48602632
O         8.13617621       7.66374537      12.17436038
O         9.99142322      10.00750476      14.85739594
O        11.49763809       8.32693997      18.46647799
O         9.18388251       9.95004977      17.71014044
C         5.94731265       8.90303580      15.46881459
C         7.18728867       8.94754857      14.54852960
C         7.63899241      10.38626779      14.20975760
C         9.12083760      10.53950266      13.83437251
C        10.39941744      10.93161552      15.87196109
C        10.53815887      10.21713444      17.21539686
C        11.33718503       8.91386148      17.14351668
C        10.28730208       8.24158826      19.12230760
C        10.02138724       7.42006043      20.19528130
C         8.07378170       8.84965175      19.58825969
C         9.16275613       9.06786898      18.77285506
S         6.72062154       7.92083661      13.07831569
S         8.41265530       7.64414366      20.77563475
H         6.22429135       9.41241201      16.40716940
H         5.64363760       7.87396332      15.71213673
H         5.09168935       9.43871758      15.02662121
H         8.01277669       8.36820284      14.99775661
H         8.21376766       6.68606746      12.00961280
H         7.43949551      10.97391591      15.12561526
H         7.00458579      10.83178270      13.42335611
H         9.36251487       9.97258263      12.91915102
H         9.34604161      11.60147717      13.61960915
H         9.67226043      11.75823441      15.99202660
H        11.38168607      11.37850207      15.60771621
H        11.03072108      10.90823942      17.93189483
H        10.83999782       8.18620421      16.47781740
H        12.35816956       9.10354094      16.77616148
H        10.69032306       6.70380077      20.67015309
H         7.09966240       9.33481506      19.54685356
