slab | nat=96 | cell a=11.512 b=18.272 c=28.790 A | z-span=10.334 A | vertical vacuum=18.456 A | UNRELAXED single-point geometry from /data/work/runs/sdcp_linio2_binding/phaseB_v7c_slabfirst/slab/scf.in
1.0
     11.512000000000     0.000000000000     0.000000000000
      5.756000000000    17.342165608712     0.000000000000
      0.000000000000     0.000000000000    28.790000000000
  Li  Ni  O
  24  24  48
Cartesian
      1.439000000000     7.238236840000     0.068523540000
      0.000000000000     5.805390880000     2.107914490000
     -1.439000000000     4.372544910000     4.147305430000
     -2.878000000000     2.939698950000     6.186696380000
     -4.317000000000     1.506852980000     8.226087330000
     -5.756000000000     0.074007020000    10.265478280000
      4.317000000000     7.238236840000     0.068523540000
      2.878000000000     5.805390880000     2.107914490000
      1.439000000000     4.372544910000     4.147305430000
      0.000000000000     2.939698950000     6.186696380000
     -1.439000000000     1.506852980000     8.226087330000
     -2.878000000000     0.074007020000    10.265478280000
      7.195000000000     7.238236840000     0.068523540000
      5.756000000000     5.805390880000     2.107914490000
      4.317000000000     4.372544910000     4.147305430000
      2.878000000000     2.939698950000     6.186696380000
      1.439000000000     1.506852980000     8.226087330000
      0.000000000000     0.074007020000    10.265478280000
     10.073000000000     7.238236840000     0.068523540000
      8.634000000000     5.805390880000     2.107914490000
      7.195000000000     4.372544910000     4.147305430000
      5.756000000000     2.939698950000     6.186696380000
      4.317000000000     1.506852980000     8.226087330000
      2.878000000000     0.074007020000    10.265478280000
     -1.439000000000    -1.432845960000     0.068523540000
     -2.878000000000    -2.865691930000     2.107914490000
     -4.317000000000    -4.298537890000     4.147305430000
     -5.756000000000    -5.731383860000     6.186696380000
     -7.195000000000    -7.164229820000     8.226087330000
     -8.634000000000    -8.597075780000    10.265478280000
      1.439000000000    -1.432845960000     0.068523540000
      0.000000000000    -2.865691930000     2.107914490000
     -1.439000000000    -4.298537890000     4.147305430000
     -2.878000000000    -5.731383860000     6.186696380000
     -4.317000000000    -7.164229820000     8.226087330000
     -5.756000000000    -8.597075780000    10.265478280000
      4.317000000000    -1.432845960000     0.068523540000
      2.878000000000    -2.865691930000     2.107914490000
      1.439000000000    -4.298537890000     4.147305430000
      0.000000000000    -5.731383860000     6.186696380000
     -1.439000000000    -7.164229820000     8.226087330000
     -2.878000000000    -8.597075780000    10.265478280000
      7.195000000000    -1.432845960000     0.068523540000
      5.756000000000    -2.865691930000     2.107914490000
      4.317000000000    -4.298537890000     4.147305430000
      2.878000000000    -5.731383860000     6.186696380000
      1.439000000000    -7.164229820000     8.226087330000
      0.000000000000    -8.597075780000    10.265478280000
      0.000000000000     3.000226000000     0.137047070000
      2.878000000000    11.476247680000     0.000000000000
     -1.439000000000     1.567380040000     2.176438020000
      1.439000000000    10.043401710000     2.039390950000
     -2.878000000000     0.134534080000     4.215828970000
      0.000000000000     8.610555750000     4.078781900000
     -4.317000000000    -1.298311890000     6.255219920000
     -1.439000000000     7.177709780000     6.118172850000
     -5.756000000000    -2.731157850000     8.294610870000
     -2.878000000000     5.744863820000     8.157563800000
     -7.195000000000    -4.164003820000    10.334001820000
     -4.317000000000     4.312017860000    10.196954750000
      2.878000000000     3.000226000000     0.137047070000
      5.756000000000    11.476247680000     0.000000000000
      1.439000000000     1.567380040000     2.176438020000
      4.317000000000    10.043401710000     2.039390950000
      0.000000000000     0.134534080000     4.215828970000
      2.878000000000     8.610555750000     4.078781900000
     -1.439000000000    -1.298311890000     6.255219920000
      1.439000000000     7.177709780000     6.118172850000
     -2.878000000000    -2.731157850000     8.294610870000
      0.000000000000     5.744863820000     8.157563800000
     -4.317000000000    -4.164003820000    10.334001820000
     -1.439000000000     4.312017860000    10.196954750000
      5.756000000000     3.000226000000     0.137047070000
      8.634000000000    11.476247680000     0.000000000000
      4.317000000000     1.567380040000     2.176438020000
      7.195000000000    10.043401710000     2.039390950000
      2.878000000000     0.134534080000     4.215828970000
      5.756000000000     8.610555750000     4.078781900000
      1.439000000000    -1.298311890000     6.255219920000
      4.317000000000     7.177709780000     6.118172850000
      0.000000000000    -2.731157850000     8.294610870000
      2.878000000000     5.744863820000     8.157563800000
     -1.439000000000    -4.164003820000    10.334001820000
      1.439000000000     4.312017860000    10.196954750000
      8.634000000000     3.000226000000     0.137047070000
     11.512000000000    11.476247680000     0.000000000000
      7.195000000000     1.567380040000     2.176438020000
     10.073000000000    10.043401710000     2.039390950000
      5.756000000000     0.134534080000     4.215828970000
      8.634000000000     8.610555750000     4.078781900000
      4.317000000000    -1.298311890000     6.255219920000
      7.195000000000     7.177709780000     6.118172850000
      2.878000000000    -2.731157850000     8.294610870000
      5.756000000000     5.744863820000     8.157563800000
      1.439000000000    -4.164003820000    10.334001820000
      4.317000000000     4.312017860000    10.196954750000
