23
Lattice="6.987379042 1.078e-06 4.0341667 2.329126022 6.58776353 4.0341667 -8e-09 -4e-09 8.068331402" Properties=species:S:1:pos:R:3 pbc="T T T"
Li       1.16456303       0.82347056       2.01708310
Li       3.49368938       2.47041179       6.05124930
S        0.03202789       0.02264714       0.05547398
Li       1.03154735       0.72941426       6.05124880
Li       3.46107699       2.44735134      10.08541500
S        0.03202790       0.02264715       3.97869172
Li       2.26261866       4.21140840       3.91897164
Li       4.64194648       5.78735401       8.04008928
S        1.16456314       3.22594090       2.01708335
Li       2.26261862       4.21140837       8.18352696
Li       4.64194647       5.78735400      12.13074172
S        1.15932380       3.29573408       6.05124905
Li       4.72476030       0.72941488       3.91897171
Li       7.00368514       2.44735212       8.04008938
S        3.42963396       0.02264759       2.01708335
Li       4.72476027       0.72941486       8.18352689
Li       7.00368513       2.44735212      12.13074162
S        3.49368942      -0.00555641       6.05124905
Li       8.18455428       5.78735437      10.08541600
S        4.66087206       3.29573455       4.02962942
Li       5.82281551       4.11735291      10.08541550
Li       5.95583091       4.21140861      14.11958120
S        4.66087206       3.29573455       8.07286969
