 ANIMSTEPS   7
 CRYSTAL 
 PRIMVEC 
  6.9873790420  0.0000010780  4.0341667000
  2.3291260220  6.5877635300  4.0341667000
 -0.0000000080 -0.0000000040  8.0683314020
 PRIMCOORD   1
   23  1
Li    1.1971727761    0.8465290557    2.0170831004    0.0000568052    0.0000401153    0.0000000000
Li    3.6267105760    2.5644722142    6.0512493014   -0.0000813595   -0.0000574044   -0.0000000000
 S   -0.0026202477   -0.0018527677    0.0045382768   -0.0000028638   -0.0000019218    0.0000049243
Li    1.1645629272    0.8234699199    6.0512488014   -0.0000000691    0.0000002155    0.0000000000
Li    3.4936894379    2.4704119858   10.0854150022    0.0000001979   -0.0000001960    0.0000000000
 S   -0.0026202504   -0.0018527688    4.0296274242   -0.0000028638   -0.0000019218   -0.0000049243
Li    2.3454308700    4.0942937603    4.0059257358    0.0000284129   -0.0000400614   -0.0000493292
Li    4.7247634475    5.6702335091    7.9531330965   -0.0000406703    0.0000574421    0.0000704165
 S    1.2286202054    3.2712341375    2.0170833501    0.0004918776   -0.0001738203    0.0000000000
Li    2.3454308579    4.0942937526    8.0965728661    0.0000284129   -0.0000400614    0.0000493292
Li    4.7247634106    5.6702334838   12.2176979069   -0.0000406703    0.0000574421   -0.0000704165
 S    1.1645630626    3.2994399717    6.0512490510   -0.0000000378    0.0000060269    0.0000000000
Li    4.6419473905    0.8465296488    4.0059257887   -0.0000284414    0.0000402070   -0.0000489494
Li    6.9208683026    2.5644720383    7.9531327474    0.0000407606   -0.0000577345    0.0000707885
 S    3.4936894310    0.0679439533    2.0170833500    0.0000000801    0.0005217098    0.0000000000
Li    4.6419473784    0.8465296411    8.0965728131   -0.0000284414    0.0000402070    0.0000489494
Li    6.9208682657    2.5644720130   12.2176982560    0.0000407606   -0.0000577345   -0.0000707885
 S    3.4989298792   -0.0018522422    6.0512490510    0.0000056445   -0.0000019563    0.0000000000
Li    8.1519419588    5.7642938697   10.0854160012    0.0000000639   -0.0000001769   -0.0000000000
 S    4.6262237190    3.2712347158    3.9786913267   -0.0002459386   -0.0001738682   -0.0004260261
Li    5.7902063833    4.0942942880   10.0854155014   -0.0000567599   -0.0000403093   -0.0000000000
Li    8.0189212884    5.6702341427   14.1195817020    0.0000810382    0.0000576693    0.0000000000
 S    4.6262236992    3.2712347026    8.1238077743   -0.0002459388   -0.0001738683    0.0004260261
 PRIMCOORD   2
   23  1
Li    1.1099850361    0.7848778462    2.0170831003    0.0009040720    0.0006394350    0.0000000000
Li    3.6049702257    2.5490990481    6.0512493014    0.0005345123    0.0003778228    0.0000000000
 S   -0.0540954102   -0.0382511434   -0.0055018213   -0.0005855779   -0.0004142374    0.0000155754
Li    1.0903125968    0.7709682062    6.0512488013    0.0001809533    0.0001277136    0.0000000000
Li    3.5106207373    2.4823843711   10.0854150022   -0.0014023443   -0.0009915416   -0.0000000000
 S   -0.0540954158   -0.0382511465    4.0396675222   -0.0005855779   -0.0004142374   -0.0000155754
Li    2.3430943307    4.0909557603    3.9885729269   -0.0004755595   -0.0012401171    0.0002712760
Li    4.6741127792    5.6960583367    7.9872478550    0.0001968287   -0.0008120120   -0.0004992282
 S    1.2231656036    3.1766649201    2.0170833500   -0.0010399791    0.0007359644   -0.0000000000
Li    2.3430943137    4.0909557491    8.1139256749   -0.0004755595   -0.0012401170   -0.0002712760
Li    4.6741127520    5.6960583183   12.1835831483    0.0001968285   -0.0008120121    0.0004992282
 S    1.1607802223    3.2782945236    6.0512490510   -0.0003457461   -0.0005941944   -0.0000000000
Li    4.6380217659    0.8454385284    3.9885729170   -0.0013277539   -0.0000344811    0.0002711885
Li    6.9283333627    2.5081102950    7.9872475924   -0.0007000775    0.0004562209   -0.0004991685
 S    3.4027099110    0.0943243528    2.0170833499    0.0003470391   -0.0012258316   -0.0000000000
Li    4.6380217489    0.8454385172    8.1139256848   -0.0013277538   -0.0000344811   -0.0002711885
Li    6.9283333355    2.5081102766   12.1835834110   -0.0007000776    0.0004562208    0.0004991685
 S    3.4777321654    0.0016297178    6.0512490510   -0.0006753173   -0.0001280571   -0.0000000000
Li    8.1336663470    5.7513714166   10.0854160012   -0.0011421173   -0.0008077235   -0.0000000000
 S    4.6372561456    3.2790355447    3.9824742327   -0.0009647593   -0.0006823602   -0.0006682013
Li    5.8014977914    4.1022788621   10.0854155014   -0.0006060191   -0.0004284473   -0.0000000000
Li    7.6353391592    5.3990010786   14.1195815185    0.0109587455    0.0077488338    0.0000000000
 S    4.6372561269    3.2790355323    8.1200248683   -0.0009647595   -0.0006823603    0.0006682013
 PRIMCOORD   3
   23  1
Li    1.0931320876    0.7729615691    2.0170831003    0.0002756145    0.0001950041    0.0000000000
Li    3.5991916183    2.5450133246    6.0512493014    0.0006199869    0.0004387881    0.0000000000
 S   -0.0425517864   -0.0300885801    0.0118208760   -0.0008080475   -0.0005715585   -0.0000308489
Li    1.0705142692    0.7569679470    6.0512488013   -0.0002735752   -0.0001935019   -0.0000000000
Li    3.5384354447    2.5020517118   10.0854150023   -0.0009669241   -0.0006833634   -0.0000000000
 S   -0.0425517870   -0.0300885797    4.0223448249   -0.0008080475   -0.0005715586    0.0000308489
Li    2.3438944618    4.1126388244    3.9787180839   -0.0000786469   -0.0010197518    0.0002167245
Li    4.6544690035    5.7226725691    7.9987289378    0.0000465852   -0.0005569380   -0.0002692640
 S    1.2499944157    3.1393459178    2.0170833500   -0.0009290946    0.0002834821   -0.0000000000
Li    2.3438944420    4.1126388112    8.1237805180   -0.0000786469   -0.0010197517   -0.0002167245
Li    4.6544689797    5.7226725530   12.1721020655    0.0000465851   -0.0005569381    0.0002692640
 S    1.1662267682    3.2786196709    6.0512490510   -0.0001164990   -0.0005341434   -0.0000000000
Li    4.6587315859    0.8389652704    3.9787176438   -0.0009877422    0.0002654737    0.0002166924
Li    6.9468770530    2.4807190066    7.9987290799   -0.0005096743    0.0002297449   -0.0002697066
 S    3.3764681126    0.1320579298    2.0170833499   -0.0000424433   -0.0009702952   -0.0000000000
Li    4.6587315660    0.8389652572    8.1237809580   -0.0009877422    0.0002654737   -0.0002166924
Li    6.9468770291    2.4807189905   12.1721019235   -0.0005096743    0.0002297448    0.0002697066
 S    3.4798546483    0.0066571089    6.0512490510   -0.0005424342    0.0000684787   -0.0000000000
Li    8.1387244598    5.7549481984   10.0854160012   -0.0007850533   -0.0005559971   -0.0000000000
 S    4.6583812917    3.2939730914    3.9933728799   -0.0007532901   -0.0005327918   -0.0008458793
Li    5.8146869550    4.1116049121   10.0854155014   -0.0002922556   -0.0002066687   -0.0000000000
Li    7.2876338266    5.1531355281   14.1195814691    0.0092343098    0.0065298602    0.0000000000
 S    4.6583812761    3.2939730812    8.1091262212   -0.0007532904   -0.0005327920    0.0008458793
 PRIMCOORD   4
   23  1
Li    1.1001112262    0.7778963760    2.0170831003    0.0004001672    0.0002830335    0.0000000000
Li    3.5950270130    2.5420687153    6.0512493013    0.0005108378    0.0003611693    0.0000000000
 S   -0.0216665930   -0.0153205459    0.0279347580   -0.0000313396   -0.0000220156    0.0004572247
Li    1.0632278218    0.7518151756    6.0512488013   -0.0005108378   -0.0003611693   -0.0000000000
Li    3.5581392774    2.5159846640   10.0854150023   -0.0004001672   -0.0002830335   -0.0000000000
 S   -0.0216665890   -0.0153205423    4.0062309429   -0.0000313394   -0.0000220155   -0.0004572247
Li    2.3412489866    4.1355031803    3.9714926665    0.0000222579   -0.0002346816   -0.0000105480
Li    4.6461304753    5.7461414265    8.0056553190   -0.0000222579    0.0002346816   -0.0000105480
 S    1.2742083127    3.1388210647    2.0170833501   -0.0002342436    0.0003312470   -0.0000000000
Li    2.3412489647    4.1355031656    8.1310059354    0.0000222579   -0.0002346816    0.0000105480
Li    4.6461304534    5.7461414119   12.1651756843   -0.0000222579    0.0002346816    0.0000105480
 S    1.1725615921    3.2825701344    6.0512490510    0.0002209937   -0.0003128546    0.0000000000
Li    4.6794059482    0.8288498089    3.9714930941   -0.0002139304    0.0000990743   -0.0000107279
Li    6.9662243144    2.4650343594    8.0056555633    0.0002139304   -0.0000990743   -0.0000107279
 S    3.3840450319    0.1550622120    2.0170833499    0.0002342436   -0.0003312470    0.0000000000
Li    4.6794059263    0.8288497943    8.1310055077   -0.0002139304    0.0000990743    0.0000107279
Li    6.9662242925    2.4650343447   12.1651754401    0.0002139304   -0.0000990743    0.0000107279
 S    3.4856912311    0.0113123838    6.0512490510   -0.0002209937    0.0003128546   -0.0000000000
Li    8.1484604067    5.7618319298   10.0854160012   -0.0002293816   -0.0001613857   -0.0000000000
 S    4.6799180779    3.3092022049    4.0062316967    0.0000313396    0.0000220156   -0.0004572247
Li    5.8262984024    4.1198156061   10.0854155014    0.0002293816    0.0001613857    0.0000000000
Li    6.9873755154    4.9408209625   14.1195814523    0.0000000000    0.0000000000    0.0000000000
 S    4.6799180659    3.3092021973    8.0962674044    0.0000313394    0.0000220155    0.0004572247
 PRIMCOORD   5
   23  1
Li    1.1198197595    0.7918318545    2.0170831003    0.0009669056    0.0006831539    0.0000000000
Li    3.5877393907    2.5369153187    6.0512493013    0.0002721953    0.0001931578    0.0000000000
 S   -0.0001154618   -0.0000816526    0.0407970110    0.0007425858    0.0005250370    0.0008282134
Li    1.0590560958    0.7488655604    6.0512488012   -0.0006177060   -0.0004369777   -0.0000000000
Li    3.5651169421    2.5209189308   10.0854150023   -0.0002748889   -0.0001945261   -0.0000000000
 S   -0.0001154541   -0.0000816464    3.9933686900    0.0007425860    0.0005250372   -0.0008282134
Li    2.3329008421    4.1589762544    3.9645662935   -0.0000442808    0.0005556088   -0.0002680275
Li    4.6434919802    5.7690000962    8.0128778398    0.0000771107    0.0010214101    0.0002180633
 S    1.2817864781    3.1618285488    2.0170833501    0.0000293576    0.0009921623    0.0000000000
Li    2.3329008182    4.1589762384    8.1379323084   -0.0000442809    0.0005556088    0.0002680275
Li    4.6434919604    5.7690000830   12.1579531636    0.0000771108    0.0010214101   -0.0002180633
 S    1.1784015050    3.2872221206    6.0512490510    0.0005401882   -0.0000691876    0.0000000000
Li    4.6987543764    0.8131554531    3.9645659462    0.0005090912   -0.0002269347   -0.0002678396
Li    6.9868963379    2.4549271557    8.0128776662    0.0009879879   -0.0002680324    0.0002181083
 S    3.4082628421    0.1545377728    2.0170833500    0.0009450241   -0.0003036633    0.0000000000
Li    4.6987543525    0.8131554371    8.1379326556    0.0005090911   -0.0002269347    0.0002678396
Li    6.9868963180    2.4549271425   12.1579533372    0.0009879880   -0.0002680323   -0.0002181083
 S    3.4920237884    0.0152672552    6.0512490510    0.0001147657    0.0005326685    0.0000000000
Li    8.1600657710    5.7700383111   10.0854160012    0.0002948578    0.0002082396    0.0000000000
 S    4.7007854230    3.3239575559    4.0223374926    0.0008172029    0.0005782406    0.0000428121
Li    5.8360338184    4.1266996582   10.0854155014    0.0007844075    0.0005540994    0.0000000000
Li    6.6871160116    4.7285059021   14.1195814355   -0.0092345024   -0.0065297860   -0.0000000000
 S    4.7007854156    3.3239575515    8.0801616085    0.0008172029    0.0005782406   -0.0000428121
 PRIMCOORD   6
   23  1
Li    1.1476445246    0.8115055770    2.0170831004    0.0014000927    0.0009903719    0.0000000000
Li    3.5679221088    2.5229021725    6.0512493013   -0.0001816452   -0.0001284247   -0.0000000000
 S    0.0210110045    0.0148573628    0.0516908030    0.0009608126    0.0006792530    0.0006703439
Li    1.0532677258    0.7447734287    6.0512488012   -0.0005324759   -0.0003764917   -0.0000000000
Li    3.5482449977    2.5089873654   10.0854150023   -0.0009014940   -0.0006367952   -0.0000000000
 S    0.0210110153    0.0148573712    3.9824748980    0.0009608128    0.0006792532   -0.0006703439
Li    2.3132898664    4.1855749441    3.9530887587   -0.0001982706    0.0008130572   -0.0004992032
Li    4.6442826185    5.7906983837    8.0227338862    0.0004762001    0.0012389740    0.0002718155
 S    1.2555647359    3.1995553958    2.0170833501   -0.0003552464    0.0012305469    0.0000000000
Li    2.3132898392    4.1855749257    8.1494098432   -0.0001982707    0.0008130571    0.0004992032
Li    4.6442826015    5.7906983725   12.1480971172    0.0004762002    0.0012389740   -0.0002718155
 S    1.1805197105    3.2922320121    6.0512490510    0.0006732844    0.0001319385    0.0000000000
Li    4.7172943932    0.7857993244    3.9530885841    0.0007005257   -0.0004581288   -0.0004989904
Li    7.0076171682    2.4484402981    8.0227331861    0.0013271176    0.0000363209    0.0002721680
 S    3.4350926217    0.1172390097    2.0170833500    0.0010416288   -0.0007452781    0.0000000000
Li    4.7172943660    0.7857993061    8.1494100178    0.0007005255   -0.0004581289    0.0004989904
Li    7.0076171512    2.4484402869   12.1480978173    0.0013271177    0.0000363209   -0.0002721680
 S    3.4974524045    0.0155952073    6.0512490510    0.0003488770    0.0005905461    0.0000000000
Li    8.1732520688    5.7793628764   10.0854160012    0.0006043490    0.0004282898    0.0000000000
 S    4.7123096155    3.3321067444    4.0396696717    0.0005929871    0.0004190492   -0.0000151987
Li    5.8410791914    4.1302673062   10.0854155014    0.0011418724    0.0008071800    0.0000000000
Li    6.3394041035    4.4826362643   14.1195813861   -0.0109579880   -0.0077489347   -0.0000000000
 S    4.7123096131    3.3321067436    8.0628294295    0.0005929871    0.0004190492    0.0000151987
 PRIMCOORD   7
   23  1
Li    1.1645630271    0.8234705648    2.0170831004   -0.0000001324    0.0000002492   -0.0000000000
Li    3.4936893848    2.4704117880    6.0512493012    0.0000000560    0.0000001955    0.0000000000
 S    0.0320278918    0.0226471402    0.0554739774    0.0002472526    0.0001749571    0.0004283536
Li    1.0315473490    0.7294142607    6.0512488012    0.0000818911    0.0000582782    0.0000000000
Li    3.4610769855    2.4473513358   10.0854150022   -0.0000569924   -0.0000405031   -0.0000000000
 S    0.0320279037    0.0226471494    3.9786917237    0.0002472527    0.0001749571   -0.0004283536
Li    2.2626186611    4.2114083957    3.9189716431    0.0000410475   -0.0000581992    0.0000708608
Li    4.6419464830    5.7873540056    8.0400892826   -0.0000285034    0.0000403976   -0.0000493081
 S    1.1645631364    3.2259409018    2.0170833500   -0.0000002482   -0.0005247304   -0.0000000000
Li    2.2626186242    4.2114083704    8.1835269587    0.0000410475   -0.0000581992   -0.0000708608
Li    4.6419464709    5.7873539979   12.1307417208   -0.0000285034    0.0000403976    0.0000493081
 S    1.1593238018    3.2957340829    6.0512490510   -0.0000048197    0.0000016302   -0.0000000000
Li    4.7247603045    0.7294148805    3.9189717075   -0.0000410004    0.0000577944    0.0000710485
Li    7.0036851377    2.4473521237    8.0400893822    0.0000286211   -0.0000402346   -0.0000493999
 S    3.4296339645    0.0226475949    2.0170833499   -0.0004949308    0.0001747773   -0.0000000000
Li    4.7247602676    0.7294148553    8.1835268943   -0.0000410003    0.0000577945   -0.0000710485
Li    7.0036851256    2.4473521160   12.1307416212    0.0000286211   -0.0000402346    0.0000493999
 S    3.4936894175   -0.0055564123    6.0512490510    0.0000000252   -0.0000050316   -0.0000000000
Li    8.1845542800    5.7873543718   10.0854160012    0.0000572860    0.0000405660    0.0000000000
 S    4.6608720632    3.2957345526    4.0296294160    0.0000024229    0.0000017337   -0.0000040647
Li    5.8228155100    4.1173529058   10.0854155014   -0.0000000041   -0.0000002098   -0.0000000000
Li    5.9558309132    4.2114086102   14.1195812026   -0.0000818116   -0.0000581198   -0.0000000000
 S    4.6608720579    3.2957345497    8.0728696850    0.0000024229    0.0000017337    0.0000040647
