
     Program PWSCF v.7.4.1 starts on  2Oct2026 at 22:10:27 

     This program is part of the open-source Quantum ESPRESSO suite
     for quantum simulation of materials; please cite
         "P. Giannozzi et al., J. Phys.:Condens. Matter 21 395502 (2009);
         "P. Giannozzi et al., J. Phys.:Condens. Matter 29 465901 (2017);
         "P. Giannozzi et al., J. Chem. Phys. 152 154105 (2020);
          URL http://www.quantum-espresso.org", 
     in publications or presentations arising from this work. More details at
     http://www.quantum-espresso.org/quote

     Parallel version (MPI & OpenMP), running on       1 processor cores
     Number of MPI processes:                 1
     Threads/MPI process:                     1

     MPI processes distributed on     1 nodes
     10225 MiB available memory on the printing compute node when the environment starts
 
     Reading input from pw.in

     Current dimensions of program PWSCF are:
     Max number of different atomic species (ntypx) = 10
     Max number of k-points (npk) =  40000
     Max angular momentum in pseudopotentials (lmaxx) =  4
     Presently no symmetry can be used with electric field

     file C.pbe-n-kjpaw_psl.1.0.0.UPF: wavefunction(s)  2S 2P renormalized
 
     Subspace diagonalization in iterative solution of the eigenvalue problem:
     a serial algorithm will be used

 
     G-vector sticks info
     --------------------
     sticks:   dense  smooth     PW     G-vecs:    dense   smooth      PW
     Sum        3193    1273    367               699545   177041   27695
 
     Using Slab Decomposition
 


     bravais-lattice index     =            0
     lattice parameter (alat)  =       9.4208  a.u.
     unit-cell volume          =    3493.5493 (a.u.)^3
     number of atoms/cell      =           20
     number of atomic types    =            2
     number of electrons       =       260.00
     number of Kohn-Sham states=          156
     kinetic-energy cutoff     =      52.0000  Ry
     charge density cutoff     =     520.0000  Ry
     scf convergence threshold =      1.0E-08
     mixing beta               =       0.3000
     number of iterations used =            8  local-TF  mixing
     Exchange-correlation= SLA  PW   PBX  PBC
                           (   1   4   3   4   0   0   0)

     GPU acceleration is ACTIVE.  1 visible GPUs per MPI rank


     celldm(1)=   9.420781  celldm(2)=   0.000000  celldm(3)=   0.000000
     celldm(4)=   0.000000  celldm(5)=   0.000000  celldm(6)=   0.000000

     crystal axes: (cart. coord. in units of alat)
               a(1) = (   1.000000  -0.000000   0.000000 )  
               a(2) = (   0.500000   0.866025   0.000000 )  
               a(3) = (   0.000000   0.000000   4.824757 )  

     reciprocal axes: (cart. coord. in units 2 pi/alat)
               b(1) = (  1.000000 -0.577350  0.000000 )  
               b(2) = (  0.000000  1.154701 -0.000000 )  
               b(3) = ( -0.000000  0.000000  0.207264 )  


     PseudoPot. # 1 for Ag read from file:
     /home/kgy/work/pseudo/Ag_ONCV_PBE-1.0.oncvpsp.upf
     MD5 check sum: 94f47bd0669c641108e45594df92fabc
     Pseudo is Norm-conserving, Zval = 19.0
     Generated using ONCVPSP code by D. R. Hamann
     Using radial grid of 1398 points,  6 beta functions with: 
                l(1) =   0
                l(2) =   0
                l(3) =   1
                l(4) =   1
                l(5) =   2
                l(6) =   2

     PseudoPot. # 2 for C  read from file:
     /home/kgy/work/pseudo/C.pbe-n-kjpaw_psl.1.0.0.UPF
     MD5 check sum: 5d2aebdfa2cae82b50a7e79e9516da0f
     Pseudo is Projector augmented-wave + core cor, Zval =  4.0
     Generated using "atomic" code by A. Dal Corso  v.5.1
     Shape of augmentation charge: PSQ
     Using radial grid of 1073 points,  4 beta functions with: 
                l(1) =   0
                l(2) =   0
                l(3) =   1
                l(4) =   1
     Q(r) pseudized with 0 coefficients 


     atomic species   valence    mass     pseudopotential
     Ag               19.00   107.86820     Ag( 1.00)
     C                 4.00    12.01100     C ( 1.00)

     No symmetry found



   Cartesian axes

     site n.     atom                  positions (alat units)
         1        Ag     tau(   1) = (   0.3337695   0.5765948   0.5717001  )
         2        Ag     tau(   2) = (   0.8337695   0.8652699   0.5717001  )
         3        Ag     tau(   3) = (   0.1686118   0.2891880   1.0412003  )
         4        Ag     tau(   4) = (   0.5004501   0.2909658   0.1002956  )
         5        Ag     tau(   5) = (   0.8337695   0.2879196   0.5717001  )
         6        Ag     tau(   6) = (   0.6682533   0.5780678   1.0411952  )
         7        Ag     tau(   7) = (   0.5010511   0.2905737   1.5138552  )
         8        Ag     tau(   8) = (   1.0004501   0.5796409   0.1002956  )
         9        Ag     tau(   9) = (   1.0010597   0.5792406   1.5110488  )
        10        Ag     tau(  10) = (   0.6686160   0.0009230   1.0411962  )
        11        Ag     tau(  11) = (   1.0004501   0.0022906   0.1002956  )
        12        Ag     tau(  12) = (   1.0010502   0.0018969   1.5138803  )
        13        C      tau(  13) = (   0.5004501   0.2909658   2.1761647  )
        14        C      tau(  14) = (   0.7504501   0.4353033   2.1772826  )
        15        C      tau(  15) = (   0.7504501   0.7239785   2.1772858  )
        16        C      tau(  16) = (   1.0004501   0.8683160   2.1772824  )
        17        C      tau(  17) = (   1.0004501   0.2909658   2.1772865  )
        18        C      tau(  18) = (   1.2504501   0.4353033   2.1772830  )
        19        C      tau(  19) = (   1.2504501   0.7239785   2.1772863  )
        20        C      tau(  20) = (   1.5004501   0.8683160   2.1761753  )

     --------------------------------------------
     DFT-D3 Dispersion Correction (no 3-body):
     --------------------------------------------
       Reference C6 values for interpolation: 

         atom   Coordination number   C6
         C          0.000            98.23
         C          0.987            86.49
         C          1.998            58.72
         C          2.999            51.56
         C          3.984            36.41
         Ag         0.000           853.49
         Ag         0.968           537.23

       Values used:

         atom   Coordination number  R0_AB[au]  C6      C8
         Ag         9.086            3.147    537.23  47741.54
         Ag         9.086            3.147    537.23  47741.54
         Ag         9.083            3.147    537.23  47741.54
         Ag         6.766            3.147    537.23  47741.54
         Ag         9.086            3.147    537.23  47741.54
         Ag         9.083            3.147    537.23  47741.54
         Ag         6.819            3.147    537.23  47741.54
         Ag         6.766            3.147    537.23  47741.54
         Ag         6.848            3.147    537.23  47741.54
         Ag         9.083            3.147    537.23  47741.54
         Ag         6.766            3.147    537.23  47741.54
         Ag         6.819            3.147    537.23  47741.54
         C          3.300            2.750     48.56   1404.34
         C          3.292            2.750     48.72   1408.99
         C          3.292            2.750     48.72   1408.99
         C          3.292            2.750     48.72   1408.99
         C          3.292            2.750     48.72   1408.99
         C          3.292            2.750     48.72   1408.99
         C          3.292            2.750     48.72   1408.99
         C          3.300            2.750     48.56   1404.34

         Molecular C6 ( Ry / a.u.^6 ) =    111465.19


     number of k points=    20  Marzari-Vanderbilt smearing, width (Ry)=  0.0100
                       cart. coord. in units 2pi/alat
        k(    1) = (   0.0000000   0.0000000   0.0000000), wk =   0.0555556
        k(    2) = (   0.0000000   0.1924501   0.0000000), wk =   0.1111111
        k(    3) = (   0.0000000   0.3849002   0.0000000), wk =   0.1111111
        k(    4) = (   0.0000000  -0.5773503   0.0000000), wk =   0.0555556
        k(    5) = (   0.1666667  -0.0962250   0.0000000), wk =   0.1111111
        k(    6) = (   0.1666667   0.0962250   0.0000000), wk =   0.1111111
        k(    7) = (   0.1666667   0.2886751   0.0000000), wk =   0.1111111
        k(    8) = (   0.1666667  -0.6735753   0.0000000), wk =   0.1111111
        k(    9) = (   0.1666667  -0.4811252   0.0000000), wk =   0.1111111
        k(   10) = (   0.1666667  -0.2886751   0.0000000), wk =   0.1111111
        k(   11) = (   0.3333333  -0.1924501   0.0000000), wk =   0.1111111
        k(   12) = (   0.3333333  -0.0000000   0.0000000), wk =   0.1111111
        k(   13) = (   0.3333333   0.1924501   0.0000000), wk =   0.1111111
        k(   14) = (   0.3333333  -0.7698004   0.0000000), wk =   0.1111111
        k(   15) = (   0.3333333  -0.5773503   0.0000000), wk =   0.1111111
        k(   16) = (   0.3333333  -0.3849002   0.0000000), wk =   0.1111111
        k(   17) = (  -0.5000000   0.2886751   0.0000000), wk =   0.0555556
        k(   18) = (  -0.5000000   0.4811252   0.0000000), wk =   0.1111111
        k(   19) = (  -0.5000000   0.6735753   0.0000000), wk =   0.1111111
        k(   20) = (  -0.5000000  -0.2886751   0.0000000), wk =   0.0555556

     Dense  grid:   699545 G-vectors     FFT dimensions: (  72,  72, 360)

     Smooth grid:   177041 G-vectors     FFT dimensions: (  45,  45, 216)

     Estimated max dynamical RAM per process >       1.34 GB

     Check: negative core charge=   -0.000001

     Initial potential from superposition of free atoms

     starting charge     259.9962, renormalised to     260.0000

     negative rho (up, down):  1.046E-04 0.000E+00
 
     Adding external electric field

     Computed dipole along edir(3) : 
        Dipole               -0.0110 Ry au,         -0.0280 Debye
        Dipole field         -0.0000 Ry au, 
 
        Potential amp.        0.0035 Ry
        Total length         43.5630 bohr
 
     Starting wfcs are  152 randomized atomic wfcs +    4 random wfcs
     Checking if some PAW data can be deallocated... 

     total cpu time spent up to now is        8.1 secs

     Self-consistent Calculation

     iteration #  1     ecut=    52.00 Ry     beta= 0.30
     Davidson diagonalization with overlap
     ethr =  1.00E-02,  avg # of iterations =  5.0

     Threshold (ethr) on eigenvalues was too large:
     Diagonalizing with lowered threshold

     Davidson diagonalization with overlap
     ethr =  5.65E-04,  avg # of iterations =  2.3

     negative rho (up, down):  5.188E-08 0.000E+00
 
     Adding external electric field

     Computed dipole along edir(3) : 
        Dipole               -0.1185 Ry au,         -0.3013 Debye
        Dipole field         -0.0004 Ry au, 
 
        Potential amp.        0.0371 Ry
        Total length         43.5630 bohr
 

     total cpu time spent up to now is       50.5 secs

     total energy              =   -3596.10611000 Ry
     estimated scf accuracy    <       1.48278906 Ry

     iteration #  2     ecut=    52.00 Ry     beta= 0.30
     Davidson diagonalization with overlap
     ethr =  5.70E-04,  avg # of iterations =  2.1
 
     Adding external electric field

     Computed dipole along edir(3) : 
        Dipole               -0.3499 Ry au,         -0.8893 Debye
        Dipole field         -0.0013 Ry au, 
 
        Potential amp.        0.1097 Ry
        Total length         43.5630 bohr
 

     total cpu time spent up to now is       68.0 secs

     total energy              =   -3595.89108292 Ry
     estimated scf accuracy    <       0.81780627 Ry

     iteration #  3     ecut=    52.00 Ry     beta= 0.30
     Davidson diagonalization with overlap
     ethr =  3.15E-04,  avg # of iterations =  7.1
 
     Adding external electric field

     Computed dipole along edir(3) : 
        Dipole               -0.6442 Ry au,         -1.6375 Debye
        Dipole field         -0.0023 Ry au, 
 
        Potential amp.        0.2019 Ry
        Total length         43.5630 bohr
 

     total cpu time spent up to now is       92.3 secs

     total energy              =   -3595.84431520 Ry
     estimated scf accuracy    <       0.30328897 Ry

     iteration #  4     ecut=    52.00 Ry     beta= 0.30
     Davidson diagonalization with overlap
     c_bands:  1 eigenvalues not converged
     ethr =  1.17E-04,  avg # of iterations =  8.6
 
     Adding external electric field

     Computed dipole along edir(3) : 
        Dipole               -0.6038 Ry au,         -1.5348 Debye
        Dipole field         -0.0022 Ry au, 
 
        Potential amp.        0.1892 Ry
        Total length         43.5630 bohr
 

     total cpu time spent up to now is      118.8 secs

     total energy              =   -3595.86945603 Ry
     estimated scf accuracy    <       0.56485270 Ry

     iteration #  5     ecut=    52.00 Ry     beta= 0.30
     Davidson diagonalization with overlap
     ethr =  1.17E-04,  avg # of iterations =  1.0
 
     Adding external electric field

     Computed dipole along edir(3) : 
        Dipole               -1.0274 Ry au,         -2.6113 Debye
        Dipole field         -0.0037 Ry au, 
 
        Potential amp.        0.3220 Ry
        Total length         43.5630 bohr
 

     total cpu time spent up to now is      135.4 secs

     total energy              =   -3595.86120838 Ry
     estimated scf accuracy    <       0.56097735 Ry

     iteration #  6     ecut=    52.00 Ry     beta= 0.30
     Davidson diagonalization with overlap
     ethr =  1.17E-04,  avg # of iterations =  3.5
 
     Adding external electric field

     Computed dipole along edir(3) : 
        Dipole               -1.0929 Ry au,         -2.7778 Debye
        Dipole field         -0.0039 Ry au, 
 
        Potential amp.        0.3425 Ry
        Total length         43.5630 bohr
 

     total cpu time spent up to now is      154.8 secs

     total energy              =   -3595.85274990 Ry
     estimated scf accuracy    <       0.45311292 Ry

     iteration #  7     ecut=    52.00 Ry     beta= 0.30
     Davidson diagonalization with overlap
     ethr =  1.17E-04,  avg # of iterations =  1.8
 
     Adding external electric field

     Computed dipole along edir(3) : 
        Dipole               -0.8847 Ry au,         -2.2487 Debye
        Dipole field         -0.0032 Ry au, 
 
        Potential amp.        0.2773 Ry
        Total length         43.5630 bohr
 

     total cpu time spent up to now is      174.1 secs

     total energy              =   -3595.85130880 Ry
     estimated scf accuracy    <       0.14422340 Ry

     iteration #  8     ecut=    52.00 Ry     beta= 0.30
     Davidson diagonalization with overlap
     ethr =  5.55E-05,  avg # of iterations =  5.3

     negative rho (up, down):  2.691E-08 0.000E+00
 
     Adding external electric field

     Computed dipole along edir(3) : 
        Dipole               -0.6415 Ry au,         -1.6304 Debye
        Dipole field         -0.0023 Ry au, 
 
        Potential amp.        0.2010 Ry
        Total length         43.5630 bohr
 

     total cpu time spent up to now is      197.6 secs

     total energy              =   -3595.84259936 Ry
     estimated scf accuracy    <       0.12605408 Ry

     iteration #  9     ecut=    52.00 Ry     beta= 0.30
     Davidson diagonalization with overlap
     ethr =  4.85E-05,  avg # of iterations =  3.4

     negative rho (up, down):  4.786E-07 0.000E+00
 
     Adding external electric field

     Computed dipole along edir(3) : 
        Dipole               -0.3359 Ry au,         -0.8539 Debye
        Dipole field         -0.0012 Ry au, 
 
        Potential amp.        0.1053 Ry
        Total length         43.5630 bohr
 

     total cpu time spent up to now is      216.7 secs

     total energy              =   -3595.83171022 Ry
     estimated scf accuracy    <       0.06322430 Ry

     iteration # 10     ecut=    52.00 Ry     beta= 0.30
     Davidson diagonalization with overlap
     ethr =  2.43E-05,  avg # of iterations =  8.7

     negative rho (up, down):  1.983E-04 0.000E+00
 
     Adding external electric field

     Computed dipole along edir(3) : 
        Dipole               -0.1150 Ry au,         -0.2924 Debye
        Dipole field         -0.0004 Ry au, 
 
        Potential amp.        0.0361 Ry
        Total length         43.5630 bohr
 

     total cpu time spent up to now is      242.5 secs

     total energy              =   -3595.83899224 Ry
     estimated scf accuracy    <       0.01820222 Ry

     iteration # 11     ecut=    52.00 Ry     beta= 0.30
     Davidson diagonalization with overlap
     c_bands:  1 eigenvalues not converged
     c_bands:  1 eigenvalues not converged
     ethr =  7.00E-06,  avg # of iterations = 11.8

     negative rho (up, down):  3.051E-03 0.000E+00
 
     Adding external electric field

     Computed dipole along edir(3) : 
        Dipole                0.0602 Ry au,          0.1530 Debye
        Dipole field          0.0002 Ry au, 
 
        Potential amp.       -0.0189 Ry
        Total length         43.5630 bohr
 

     total cpu time spent up to now is      274.6 secs

     total energy              =   -3595.83975428 Ry
     estimated scf accuracy    <       0.02467087 Ry

     iteration # 12     ecut=    52.00 Ry     beta= 0.30
     Davidson diagonalization with overlap
     ethr =  7.00E-06,  avg # of iterations =  7.7

     negative rho (up, down):  2.612E-04 0.000E+00
 
     Adding external electric field

     Computed dipole along edir(3) : 
        Dipole                0.0160 Ry au,          0.0408 Debye
        Dipole field          0.0001 Ry au, 
 
        Potential amp.       -0.0050 Ry
        Total length         43.5630 bohr
 

     total cpu time spent up to now is      299.9 secs

     total energy              =   -3595.83854824 Ry
     estimated scf accuracy    <       0.03567596 Ry

     iteration # 13     ecut=    52.00 Ry     beta= 0.30
     Davidson diagonalization with overlap
     ethr =  7.00E-06,  avg # of iterations =  6.2

     negative rho (up, down):  1.154E-03 0.000E+00
 
     Adding external electric field

     Computed dipole along edir(3) : 
        Dipole                0.0513 Ry au,          0.1304 Debye
        Dipole field          0.0002 Ry au, 
 
        Potential amp.       -0.0161 Ry
        Total length         43.5630 bohr
 

     total cpu time spent up to now is      324.2 secs

     total energy              =   -3595.83943449 Ry
     estimated scf accuracy    <       0.02539522 Ry

     iteration # 14     ecut=    52.00 Ry     beta= 0.30
     Davidson diagonalization with overlap
     ethr =  7.00E-06,  avg # of iterations =  3.5

     negative rho (up, down):  2.815E-03 0.000E+00
 
     Adding external electric field

     Computed dipole along edir(3) : 
        Dipole               -0.1183 Ry au,         -0.3006 Debye
        Dipole field         -0.0004 Ry au, 
 
        Potential amp.        0.0371 Ry
        Total length         43.5630 bohr
 

     total cpu time spent up to now is      343.4 secs

     total energy              =   -3595.83139750 Ry
     estimated scf accuracy    <       0.03084413 Ry

     iteration # 15     ecut=    52.00 Ry     beta= 0.30
     Davidson diagonalization with overlap
     ethr =  7.00E-06,  avg # of iterations = 10.2

     negative rho (up, down):  4.183E-03 0.000E+00
 
     Adding external electric field

     Computed dipole along edir(3) : 
        Dipole                0.0106 Ry au,          0.0268 Debye
        Dipole field          0.0000 Ry au, 
 
        Potential amp.       -0.0033 Ry
        Total length         43.5630 bohr
 

     total cpu time spent up to now is      374.6 secs

     total energy              =   -3595.83309401 Ry
     estimated scf accuracy    <       0.04721524 Ry

     iteration # 16     ecut=    52.00 Ry     beta= 0.30
     Davidson diagonalization with overlap
     c_bands:  1 eigenvalues not converged
     ethr =  7.00E-06,  avg # of iterations = 11.1

     negative rho (up, down):  3.928E-03 0.000E+00
 
     Adding external electric field

     Computed dipole along edir(3) : 
        Dipole                0.0289 Ry au,          0.0735 Debye
        Dipole field          0.0001 Ry au, 
 
        Potential amp.       -0.0091 Ry
        Total length         43.5630 bohr
 

     total cpu time spent up to now is      403.1 secs

     total energy              =   -3595.83479836 Ry
     estimated scf accuracy    <       0.00158446 Ry

     iteration # 17     ecut=    52.00 Ry     beta= 0.30
     Davidson diagonalization with overlap
     ethr =  6.09E-07,  avg # of iterations =  2.8

     negative rho (up, down):  2.669E-03 0.000E+00
 
     Adding external electric field

     Computed dipole along edir(3) : 
        Dipole                0.0120 Ry au,          0.0306 Debye
        Dipole field          0.0000 Ry au, 
 
        Potential amp.       -0.0038 Ry
        Total length         43.5630 bohr
 

     total cpu time spent up to now is      424.2 secs

     total energy              =   -3595.83466383 Ry
     estimated scf accuracy    <       0.00132174 Ry

     iteration # 18     ecut=    52.00 Ry     beta= 0.30
     Davidson diagonalization with overlap
     c_bands:  1 eigenvalues not converged
     ethr =  5.08E-07,  avg # of iterations =  9.7

     negative rho (up, down):  1.434E-03 0.000E+00
 
     Adding external electric field

     Computed dipole along edir(3) : 
        Dipole                0.0619 Ry au,          0.1573 Debye
        Dipole field          0.0002 Ry au, 
 
        Potential amp.       -0.0194 Ry
        Total length         43.5630 bohr
 

     total cpu time spent up to now is      451.6 secs

     total energy              =   -3595.83442679 Ry
     estimated scf accuracy    <       0.00167936 Ry

     iteration # 19     ecut=    52.00 Ry     beta= 0.30
     Davidson diagonalization with overlap
     ethr =  5.08E-07,  avg # of iterations =  7.1

     negative rho (up, down):  9.968E-05 0.000E+00
 
     Adding external electric field

     Computed dipole along edir(3) : 
        Dipole                0.0242 Ry au,          0.0616 Debye
        Dipole field          0.0001 Ry au, 
 
        Potential amp.       -0.0076 Ry
        Total length         43.5630 bohr
 

     total cpu time spent up to now is      476.4 secs

     total energy              =   -3595.83470042 Ry
     estimated scf accuracy    <       0.00172470 Ry

     iteration # 20     ecut=    52.00 Ry     beta= 0.30
     Davidson diagonalization with overlap
     c_bands:  1 eigenvalues not converged
     c_bands:  1 eigenvalues not converged
     c_bands:  1 eigenvalues not converged
     c_bands:  1 eigenvalues not converged
     c_bands:  1 eigenvalues not converged
     c_bands:  1 eigenvalues not converged
     ethr =  5.08E-07,  avg # of iterations = 11.8

     negative rho (up, down):  5.873E-05 0.000E+00
 
     Adding external electric field

     Computed dipole along edir(3) : 
        Dipole                0.0109 Ry au,          0.0277 Debye
        Dipole field          0.0000 Ry au, 
 
        Potential amp.       -0.0034 Ry
        Total length         43.5630 bohr
 

     total cpu time spent up to now is      506.8 secs

     total energy              =   -3595.83471140 Ry
     estimated scf accuracy    <       0.00020672 Ry

     iteration # 21     ecut=    52.00 Ry     beta= 0.30
     Davidson diagonalization with overlap
     ethr =  7.95E-08,  avg # of iterations =  4.0

     negative rho (up, down):  4.033E-05 0.000E+00
 
     Adding external electric field

     Computed dipole along edir(3) : 
        Dipole                0.0185 Ry au,          0.0469 Debye
        Dipole field          0.0001 Ry au, 
 
        Potential amp.       -0.0058 Ry
        Total length         43.5630 bohr
 

     total cpu time spent up to now is      527.8 secs

     total energy              =   -3595.83470842 Ry
     estimated scf accuracy    <       0.00093652 Ry

     iteration # 22     ecut=    52.00 Ry     beta= 0.30
     Davidson diagonalization with overlap
     ethr =  7.95E-08,  avg # of iterations =  2.0

     negative rho (up, down):  5.510E-05 0.000E+00
 
     Adding external electric field

     Computed dipole along edir(3) : 
        Dipole                0.0126 Ry au,          0.0321 Debye
        Dipole field          0.0000 Ry au, 
 
        Potential amp.       -0.0040 Ry
        Total length         43.5630 bohr
 

     total cpu time spent up to now is      547.7 secs

     total energy              =   -3595.83474056 Ry
     estimated scf accuracy    <       0.00000510 Ry

     iteration # 23     ecut=    52.00 Ry     beta= 0.30
     Davidson diagonalization with overlap
     ethr =  1.96E-09,  avg # of iterations =  2.4

     negative rho (up, down):  8.492E-05 0.000E+00
 
     Adding external electric field

     Computed dipole along edir(3) : 
        Dipole                0.0172 Ry au,          0.0436 Debye
        Dipole field          0.0001 Ry au, 
 
        Potential amp.       -0.0054 Ry
        Total length         43.5630 bohr
 

     total cpu time spent up to now is      566.8 secs

     total energy              =   -3595.83473739 Ry
     estimated scf accuracy    <       0.00036647 Ry

     iteration # 24     ecut=    52.00 Ry     beta= 0.30
     Davidson diagonalization with overlap
     ethr =  1.96E-09,  avg # of iterations =  2.0

     negative rho (up, down):  1.175E-04 0.000E+00
 
     Adding external electric field

     Computed dipole along edir(3) : 
        Dipole                0.0184 Ry au,          0.0468 Debye
        Dipole field          0.0001 Ry au, 
 
        Potential amp.       -0.0058 Ry
        Total length         43.5630 bohr
 

     total cpu time spent up to now is      584.0 secs

     total energy              =   -3595.83474257 Ry
     estimated scf accuracy    <       0.00002807 Ry

     iteration # 25     ecut=    52.00 Ry     beta= 0.30
     Davidson diagonalization with overlap
     ethr =  1.96E-09,  avg # of iterations =  1.0

     negative rho (up, down):  1.257E-04 0.000E+00
 
     Adding external electric field

     Computed dipole along edir(3) : 
        Dipole                0.0185 Ry au,          0.0470 Debye
        Dipole field          0.0001 Ry au, 
 
        Potential amp.       -0.0058 Ry
        Total length         43.5630 bohr
 

     total cpu time spent up to now is      600.9 secs

     total energy              =   -3595.83474258 Ry
     estimated scf accuracy    <       0.00001839 Ry

     iteration # 26     ecut=    52.00 Ry     beta= 0.30
     Davidson diagonalization with overlap
     ethr =  1.96E-09,  avg # of iterations =  1.0

     negative rho (up, down):  1.317E-04 0.000E+00
 
     Adding external electric field

     Computed dipole along edir(3) : 
        Dipole                0.0197 Ry au,          0.0501 Debye
        Dipole field          0.0001 Ry au, 
 
        Potential amp.       -0.0062 Ry
        Total length         43.5630 bohr
 

     total cpu time spent up to now is      616.4 secs

     total energy              =   -3595.83474157 Ry
     estimated scf accuracy    <       0.00001636 Ry

     iteration # 27     ecut=    52.00 Ry     beta= 0.30
     Davidson diagonalization with overlap
     ethr =  1.96E-09,  avg # of iterations =  1.1

     negative rho (up, down):  1.242E-04 0.000E+00
 
     Adding external electric field

     Computed dipole along edir(3) : 
        Dipole                0.0194 Ry au,          0.0493 Debye
        Dipole field          0.0001 Ry au, 
 
        Potential amp.       -0.0061 Ry
        Total length         43.5630 bohr
 

     total cpu time spent up to now is      631.5 secs

     total energy              =   -3595.83474205 Ry
     estimated scf accuracy    <       0.00000008 Ry

     iteration # 28     ecut=    52.00 Ry     beta= 0.30
     Davidson diagonalization with overlap
     ethr =  3.05E-11,  avg # of iterations =  2.0

     negative rho (up, down):  1.231E-04 0.000E+00
 
     Adding external electric field

     Computed dipole along edir(3) : 
        Dipole                0.0194 Ry au,          0.0494 Debye
        Dipole field          0.0001 Ry au, 
 
        Potential amp.       -0.0061 Ry
        Total length         43.5630 bohr
 

     total cpu time spent up to now is      650.9 secs

     total energy              =   -3595.83474205 Ry
     estimated scf accuracy    <       0.00000026 Ry

     iteration # 29     ecut=    52.00 Ry     beta= 0.30
     Davidson diagonalization with overlap
     ethr =  3.05E-11,  avg # of iterations =  1.0

     negative rho (up, down):  1.216E-04 0.000E+00
 
     Adding external electric field

     Computed dipole along edir(3) : 
        Dipole                0.0195 Ry au,          0.0496 Debye
        Dipole field          0.0001 Ry au, 
 
        Potential amp.       -0.0061 Ry
        Total length         43.5630 bohr
 

     total cpu time spent up to now is      666.5 secs

     total energy              =   -3595.83474204 Ry
     estimated scf accuracy    <       0.00000008 Ry

     iteration # 30     ecut=    52.00 Ry     beta= 0.30
     Davidson diagonalization with overlap
     ethr =  3.01E-11,  avg # of iterations =  1.4

     negative rho (up, down):  1.224E-04 0.000E+00
 
     Adding external electric field

     Computed dipole along edir(3) : 
        Dipole                0.0194 Ry au,          0.0494 Debye
        Dipole field          0.0001 Ry au, 
 
        Potential amp.       -0.0061 Ry
        Total length         43.5630 bohr
 

     total cpu time spent up to now is      682.3 secs

     total energy              =   -3595.83474205 Ry
     estimated scf accuracy    <       0.00000015 Ry

     iteration # 31     ecut=    52.00 Ry     beta= 0.30
     Davidson diagonalization with overlap
     ethr =  3.01E-11,  avg # of iterations =  1.0

     negative rho (up, down):  1.220E-04 0.000E+00
 
     Adding external electric field

     Computed dipole along edir(3) : 
        Dipole                0.0187 Ry au,          0.0475 Debye
        Dipole field          0.0001 Ry au, 
 
        Potential amp.       -0.0059 Ry
        Total length         43.5630 bohr
 

     total cpu time spent up to now is      700.0 secs

     End of self-consistent calculation

          k = 0.0000 0.0000 0.0000 ( 22161 PWs)   bands (ev):

   -86.0392 -86.0295 -86.0219 -86.0219 -86.0195 -86.0195 -85.8676 -85.8545
   -85.8503 -85.8215 -85.8080 -85.8079 -49.5490 -49.5231 -49.5227 -49.5222
   -49.5219 -49.5205 -49.5203 -49.4954 -49.4953 -49.4706 -49.4705 -49.4681
   -49.4680 -49.4647 -49.4219 -49.4213 -49.4082 -49.4080 -49.3512 -49.3511
   -49.3454 -49.3453 -49.3040 -49.3040 -49.3017 -49.3017 -49.2904 -49.2790
   -49.2747 -49.2596 -49.2594 -49.2417 -49.2299 -49.2298 -49.2140 -49.2136
   -13.2718  -8.1801  -8.1693  -8.1693  -7.0454  -7.0406  -7.0406  -1.6349
    -1.3332  -0.4736  -0.3356  -0.3356  -0.3297  -0.2178  -0.0565   0.4188
     0.4205   0.4341   0.4355   0.4367   0.4381   0.7768   0.7770   0.7847
     0.7850   0.9717   0.9764   0.9906   0.9908   1.2186   1.2776   1.2787
     1.3248   1.3271   1.3799   1.3803   1.3986   1.3990   1.4141   1.5251
     1.5258   1.5926   1.5945   1.6482   1.6486   1.6913   1.6916   1.7305
     1.7305   1.7510   1.7510   2.1668   2.1705   2.2848   2.2920   2.2955
     2.2956   2.3290   2.3291   2.4268   2.4387   2.6632   2.7090   2.7270
     2.7662   2.7695   2.8739   2.8933   2.9451   2.9452   2.9535   2.9536
     2.9621   2.9621   3.0213   3.0240   3.6987   3.6987   3.7103   5.2059
     6.4570   7.5253   7.5859   7.5859   9.4941   9.5001   9.6878   9.6883
     9.7008   9.7013   9.7803  10.1415  10.4711  10.4736  10.4885  10.4912
    10.8781  10.8904  11.3343  11.9932  12.1447  12.1493  12.1519  12.1564
    12.4185  12.4413  13.0608  13.0704

          k = 0.0000 0.1925 0.0000 ( 22089 PWs)   bands (ev):

   -86.0380 -86.0286 -86.0229 -86.0226 -86.0198 -86.0196 -85.8667 -85.8549
   -85.8509 -85.8204 -85.8086 -85.8084 -49.5459 -49.5398 -49.5346 -49.5333
   -49.5288 -49.5035 -49.4978 -49.4879 -49.4824 -49.4727 -49.4669 -49.4665
   -49.4636 -49.4619 -49.4311 -49.4255 -49.4190 -49.4109 -49.3669 -49.3616
   -49.3264 -49.3238 -49.3216 -49.3163 -49.2897 -49.2809 -49.2792 -49.2782
   -49.2751 -49.2706 -49.2625 -49.2407 -49.2305 -49.2302 -49.2250 -49.2167
   -13.1109  -9.3738  -8.5379  -8.5316  -6.4208  -6.4169  -5.6025  -1.4322
    -1.0927  -0.8136  -0.8094  -0.2558  -0.1756  -0.0388   0.1300   0.1380
     0.2655   0.3212   0.3318   0.4058   0.5408   0.6305   0.7083   0.7301
     0.7690   0.8185   0.9172   0.9405   0.9435   1.1109   1.1896   1.2111
     1.2820   1.3282   1.4081   1.4249   1.4290   1.4513   1.4882   1.5000
     1.5129   1.5482   1.5717   1.6464   1.6482   1.7182   1.7300   1.7953
     1.9105   2.0082   2.0479   2.0778   2.0946   2.1992   2.2140   2.2903
     2.3030   2.3139   2.3876   2.3944   2.4036   2.5157   2.5590   2.5769
     2.6208   2.7098   2.7274   2.7589   2.8082   2.9003   2.9681   3.0138
     3.0183   3.0753   3.1004   3.1718   3.4417   3.5995   3.6222   5.5569
     6.9480   6.9709   7.7926   7.8320   7.8429   8.0991   8.4596   8.6350
     9.0242   9.2949   9.4916  10.0001  10.3474  10.7876  10.9812  11.3193
    11.4321  11.5433  11.5758  12.1667  12.3618  12.4450  12.4541  12.5829
    13.1522  13.3883  13.5705  13.8324

          k = 0.0000 0.3849 0.0000 ( 22135 PWs)   bands (ev):

   -86.0346 -86.0263 -86.0259 -86.0237 -86.0210 -86.0200 -85.8646 -85.8557
   -85.8521 -85.8176 -85.8107 -85.8091 -49.5530 -49.5458 -49.5377 -49.5317
   -49.5249 -49.4980 -49.4900 -49.4782 -49.4760 -49.4657 -49.4627 -49.4603
   -49.4517 -49.4506 -49.4476 -49.4470 -49.4320 -49.4198 -49.3790 -49.3561
   -49.3343 -49.3108 -49.3049 -49.3027 -49.2977 -49.2880 -49.2794 -49.2762
   -49.2712 -49.2591 -49.2554 -49.2537 -49.2380 -49.2322 -49.2310 -49.2256
   -12.6298 -10.7378  -8.9350  -8.9290  -5.2939  -5.2899  -3.5453  -1.9353
    -1.9306  -0.8487  -0.4528  -0.1105  -0.0112  -0.0050   0.2271   0.2709
     0.2847   0.2906   0.3063   0.3768   0.4585   0.4680   0.5141   0.6123
     0.6864   0.6950   0.8198   0.8270   0.8591   0.9638   0.9959   1.0064
     1.1182   1.1854   1.2435   1.2834   1.3148   1.3566   1.3916   1.4344
     1.4663   1.5389   1.6590   1.6687   1.6912   1.7884   1.7923   1.8003
     1.8413   1.8532   1.8682   1.9960   1.9993   2.0514   2.0757   2.2409
     2.2455   2.3226   2.3875   2.4419   2.4654   2.4920   2.5535   2.6510
     2.7034   2.7849   2.8479   2.8572   2.9301   2.9703   2.9995   3.0489
     3.0781   3.1039   3.1772   3.1978   3.4258   3.4810   4.1834   4.7210
     5.4457   6.3879   6.7963   6.9667   7.4386   7.9327   8.1985   8.2603
     8.3900   8.4602   9.1327  10.2888  10.6552  10.7337  10.9340  10.9683
    11.6007  11.7446  12.1672  12.7208  12.9506  13.1795  13.3964  13.4359
    13.5161  13.6557  14.0851  14.4733

          k = 0.0000-0.5774 0.0000 ( 22116 PWs)   bands (ev):

   -86.0301 -86.0301 -86.0242 -86.0234 -86.0234 -86.0202 -85.8633 -85.8563
   -85.8529 -85.8140 -85.8139 -85.8095 -49.5577 -49.5505 -49.5294 -49.5292
   -49.5043 -49.5040 -49.4918 -49.4843 -49.4841 -49.4682 -49.4583 -49.4563
   -49.4560 -49.4464 -49.4462 -49.4376 -49.4344 -49.4341 -49.3833 -49.3388
   -49.3351 -49.3300 -49.2917 -49.2884 -49.2874 -49.2870 -49.2868 -49.2834
   -49.2793 -49.2770 -49.2462 -49.2401 -49.2400 -49.2350 -49.2348 -49.2314
   -11.8358 -11.8333  -9.0775  -9.0716  -4.4655  -4.4620  -2.8004  -2.7950
    -1.3816  -1.3785  -0.2642  -0.1733  -0.1072   0.0616   0.0703   0.1321
     0.1908   0.1932   0.2785   0.4094   0.4115   0.5609   0.5833   0.5850
     0.6216   0.6231   0.7169   0.7179   0.8503   0.8540   0.9974   0.9982
     1.1009   1.1285   1.1296   1.1723   1.1958   1.1984   1.3678   1.3681
     1.3987   1.4303   1.4331   1.4762   1.4815   1.7183   1.7203   1.7861
     1.7887   1.9578   2.0040   2.0232   2.0279   2.2300   2.2349   2.2886
     2.3439   2.3450   2.5744   2.6189   2.6195   2.7084   2.7092   2.7435
     2.8135   2.8142   2.9723   2.9782   2.9786   3.0097   3.1110   3.1614
     3.1627   3.1915   3.3078   3.3378   3.3555   3.4073   3.6489   3.6489
     5.2615   5.2617   6.1827   7.0113   7.5242   7.5401   7.5405   7.7324
     8.6961   8.7114   9.8048   9.8123  10.1687  10.7620  11.4988  11.7259
    11.7277  12.0223  12.0246  12.7177  12.9717  12.9735  13.2534  13.2578
    13.6566  13.6581  13.8374  13.8435

          k = 0.1667-0.0962 0.0000 ( 22089 PWs)   bands (ev):

   -86.0380 -86.0286 -86.0230 -86.0225 -86.0197 -86.0197 -85.8667 -85.8549
   -85.8509 -85.8204 -85.8086 -85.8084 -49.5459 -49.5404 -49.5343 -49.5332
   -49.5283 -49.5047 -49.4975 -49.4869 -49.4825 -49.4728 -49.4669 -49.4664
   -49.4643 -49.4614 -49.4307 -49.4259 -49.4192 -49.4108 -49.3669 -49.3616
   -49.3265 -49.3237 -49.3216 -49.3164 -49.2897 -49.2808 -49.2792 -49.2783
   -49.2751 -49.2706 -49.2625 -49.2407 -49.2305 -49.2302 -49.2251 -49.2166
   -13.1109  -9.3738  -8.5379  -8.5316  -6.4208  -6.4169  -5.6025  -1.4322
    -1.0927  -0.8136  -0.8094  -0.2563  -0.1756  -0.0385   0.1303   0.1371
     0.2678   0.3222   0.3301   0.4066   0.5381   0.6307   0.7126   0.7317
     0.7648   0.8191   0.9161   0.9379   0.9459   1.1104   1.1903   1.2123
     1.2831   1.3270   1.4096   1.4249   1.4255   1.4515   1.4857   1.5018
     1.5103   1.5487   1.5724   1.6465   1.6525   1.7181   1.7286   1.7965
     1.9127   2.0020   2.0440   2.0781   2.0970   2.1958   2.2194   2.2862
     2.3029   2.3112   2.3873   2.3993   2.4053   2.5175   2.5618   2.5768
     2.6208   2.7149   2.7256   2.7556   2.8077   2.9011   2.9688   3.0132
     3.0192   3.0735   3.0998   3.1736   3.4386   3.5995   3.6222   5.5572
     6.9479   6.9708   7.7932   7.8321   7.8434   8.1037   8.4512   8.6350
     9.0271   9.2938   9.4877  10.0001  10.3474  10.7968  10.9843  11.3140
    11.4292  11.5433  11.5777  12.1667  12.3583  12.4500  12.4606  12.5827
    13.1521  13.3827  13.5616  13.8325

          k = 0.1667 0.0962 0.0000 ( 22089 PWs)   bands (ev):

   -86.0380 -86.0286 -86.0229 -86.0226 -86.0198 -86.0196 -85.8667 -85.8549
   -85.8509 -85.8204 -85.8086 -85.8084 -49.5459 -49.5400 -49.5345 -49.5333
   -49.5286 -49.5039 -49.4977 -49.4877 -49.4824 -49.4726 -49.4669 -49.4664
   -49.4638 -49.4618 -49.4310 -49.4256 -49.4190 -49.4109 -49.3668 -49.3617
   -49.3264 -49.3239 -49.3218 -49.3162 -49.2897 -49.2810 -49.2792 -49.2781
   -49.2751 -49.2707 -49.2624 -49.2407 -49.2304 -49.2302 -49.2248 -49.2169
   -13.1109  -9.3738  -8.5379  -8.5316  -6.4208  -6.4169  -5.6025  -1.4322
    -1.0927  -0.8136  -0.8094  -0.2559  -0.1756  -0.0388   0.1299   0.1375
     0.2661   0.3219   0.3315   0.4061   0.5402   0.6309   0.7090   0.7306
     0.7675   0.8185   0.9166   0.9402   0.9447   1.1110   1.1898   1.2118
     1.2816   1.3280   1.4084   1.4243   1.4286   1.4516   1.4883   1.5024
     1.5126   1.5476   1.5712   1.6456   1.6479   1.7182   1.7295   1.7974
     1.9096   2.0075   2.0474   2.0764   2.0951   2.1998   2.2161   2.2893
     2.3030   2.3134   2.3875   2.3935   2.4033   2.5158   2.5599   2.5779
     2.6208   2.7090   2.7271   2.7582   2.8083   2.9017   2.9675   3.0126
     3.0204   3.0757   3.1003   3.1726   3.4408   3.5995   3.6222   5.5567
     6.9480   6.9708   7.7928   7.8318   7.8432   8.1008   8.4581   8.6350
     9.0232   9.2950   9.4885  10.0001  10.3474  10.7923  10.9828  11.3181
    11.4314  11.5433  11.5747  12.1667  12.3632  12.4454  12.4561  12.5828
    13.1522  13.3856  13.5720  13.8324

          k = 0.1667 0.2887 0.0000 ( 22093 PWs)   bands (ev):

   -86.0357 -86.0270 -86.0242 -86.0242 -86.0202 -86.0202 -85.8652 -85.8554
   -85.8518 -85.8185 -85.8095 -85.8094 -49.5419 -49.5417 -49.5401 -49.5365
   -49.5362 -49.4938 -49.4935 -49.4772 -49.4771 -49.4738 -49.4612 -49.4610
   -49.4536 -49.4533 -49.4457 -49.4398 -49.4307 -49.4154 -49.3690 -49.3681
   -49.3236 -49.3234 -49.3087 -49.3075 -49.2916 -49.2880 -49.2793 -49.2759
   -49.2675 -49.2622 -49.2621 -49.2456 -49.2387 -49.2313 -49.2311 -49.2221
   -12.7899  -9.9726  -9.9695  -7.7552  -6.6643  -4.5289  -4.5279  -2.1157
    -1.0406  -0.6582  -0.4924  -0.4890   0.0592   0.0767   0.0786   0.1858
     0.1869   0.2211   0.2213   0.2463   0.4113   0.5189   0.5209   0.7004
     0.7010   0.7297   0.7310   0.8998   0.9406   0.9409   1.0773   1.1165
     1.2791   1.3157   1.3229   1.3969   1.4577   1.4713   1.4732   1.5548
     1.5728   1.5746   1.6260   1.6525   1.7060   1.7095   1.7155   1.8528
     1.9355   1.9641   2.0609   2.0622   2.0876   2.1425   2.1588   2.2006
     2.2429   2.2532   2.3288   2.3786   2.3833   2.4463   2.4990   2.5147
     2.5962   2.6004   2.6936   2.6983   2.7202   2.7665   2.9839   2.9904
     3.0444   3.0929   3.0952   3.2225   3.2254   3.9522   4.2634   5.8064
     5.8089   6.1291   6.5910   6.5960   7.3671   7.8284   8.0054   8.0113
     9.5138   9.5805   9.8134   9.8607  10.4379  10.7602  10.8669  10.8739
    11.6619  11.6657  11.9593  12.5292  12.5336  12.5376  13.5994  13.6103
    13.9532  13.9593  14.2575  14.2911

          k = 0.1667-0.6736 0.0000 ( 22151 PWs)   bands (ev):

   -86.0318 -86.0275 -86.0252 -86.0245 -86.0219 -86.0206 -85.8634 -85.8559
   -85.8532 -85.8153 -85.8120 -85.8102 -49.5485 -49.5429 -49.5320 -49.5312
   -49.5246 -49.4976 -49.4940 -49.4938 -49.4730 -49.4669 -49.4625 -49.4567
   -49.4546 -49.4529 -49.4407 -49.4381 -49.4380 -49.4245 -49.3747 -49.3533
   -49.3298 -49.3238 -49.3080 -49.2922 -49.2911 -49.2875 -49.2792 -49.2779
   -49.2771 -49.2769 -49.2463 -49.2453 -49.2361 -49.2333 -49.2319 -49.2316
   -12.1517 -11.2054 -10.2765  -7.6918  -5.8451  -3.4945  -3.4259  -2.4458
    -1.3636  -0.4080  -0.2973  -0.1510  -0.0877  -0.0812  -0.0134   0.1215
     0.1290   0.1639   0.2194   0.2199   0.2320   0.3876   0.3890   0.4869
     0.5711   0.6261   0.6597   0.7250   0.7548   0.8530   0.9224   0.9940
     1.0690   1.0851   1.1457   1.2510   1.3321   1.3751   1.4355   1.4421
     1.4880   1.5228   1.5786   1.6940   1.7614   1.7964   1.8725   1.9248
     1.9798   1.9910   2.0190   2.0400   2.1539   2.1870   2.2066   2.2138
     2.3030   2.3357   2.4045   2.5011   2.5349   2.5407   2.6498   2.6556
     2.6869   2.7554   2.8632   2.9121   2.9261   2.9436   2.9825   3.0067
     3.0492   3.0848   3.1216   3.1326   3.2214   3.8162   4.4662   4.6357
     4.7739   4.9395   5.6915   6.0947   7.0567   7.1434   7.2360   8.3657
     9.0028   9.1955  10.2700  10.5965  10.8154  11.3004  11.3040  11.5944
    11.7302  12.0572  12.5726  12.7835  12.7988  13.1401  13.2449  13.3068
    13.8217  13.8790  13.9422  14.1922

          k = 0.1667-0.4811 0.0000 ( 22151 PWs)   bands (ev):

   -86.0318 -86.0275 -86.0252 -86.0244 -86.0219 -86.0206 -85.8634 -85.8559
   -85.8532 -85.8153 -85.8120 -85.8102 -49.5484 -49.5429 -49.5321 -49.5313
   -49.5247 -49.4973 -49.4940 -49.4938 -49.4730 -49.4668 -49.4623 -49.4567
   -49.4546 -49.4530 -49.4409 -49.4381 -49.4379 -49.4245 -49.3747 -49.3533
   -49.3298 -49.3237 -49.3078 -49.2921 -49.2910 -49.2875 -49.2792 -49.2781
   -49.2772 -49.2770 -49.2463 -49.2455 -49.2361 -49.2333 -49.2319 -49.2314
   -12.1517 -11.2054 -10.2765  -7.6918  -5.8451  -3.4945  -3.4259  -2.4458
    -1.3636  -0.4080  -0.2976  -0.1511  -0.0879  -0.0816  -0.0131   0.1225
     0.1290   0.1636   0.2183   0.2192   0.2324   0.3887   0.3913   0.4871
     0.5731   0.6257   0.6576   0.7259   0.7532   0.8520   0.9220   0.9940
     1.0698   1.0860   1.1481   1.2493   1.3310   1.3749   1.4342   1.4381
     1.4836   1.5252   1.5784   1.6966   1.7638   1.7992   1.8744   1.9221
     1.9769   1.9947   2.0198   2.0413   2.1521   2.1852   2.2052   2.2136
     2.3005   2.3375   2.4054   2.5030   2.5358   2.5415   2.6523   2.6562
     2.6838   2.7538   2.8610   2.9118   2.9262   2.9445   2.9831   3.0088
     3.0492   3.0846   3.1221   3.1335   3.2203   3.8164   4.4650   4.6357
     4.7716   4.9395   5.6916   6.0966   7.0577   7.1434   7.2361   8.3648
     9.0028   9.1957  10.2700  10.5966  10.8152  11.3004  11.3041  11.5943
    11.7301  12.0571  12.5723  12.7834  12.8007  13.1381  13.2450  13.3073
    13.8217  13.8791  13.9433  14.1919

          k = 0.1667-0.2887 0.0000 ( 22093 PWs)   bands (ev):

   -86.0357 -86.0270 -86.0242 -86.0241 -86.0203 -86.0202 -85.8652 -85.8554
   -85.8518 -85.8185 -85.8095 -85.8094 -49.5423 -49.5416 -49.5402 -49.5363
   -49.5360 -49.4944 -49.4934 -49.4768 -49.4766 -49.4735 -49.4617 -49.4613
   -49.4535 -49.4532 -49.4456 -49.4401 -49.4310 -49.4152 -49.3690 -49.3681
   -49.3235 -49.3234 -49.3087 -49.3074 -49.2915 -49.2880 -49.2793 -49.2759
   -49.2676 -49.2623 -49.2622 -49.2460 -49.2387 -49.2313 -49.2311 -49.2217
   -12.7899  -9.9726  -9.9695  -7.7552  -6.6643  -4.5289  -4.5279  -2.1157
    -1.0407  -0.6583  -0.4924  -0.4890   0.0574   0.0766   0.0786   0.1855
     0.1867   0.2213   0.2216   0.2477   0.4140   0.5200   0.5227   0.6999
     0.7009   0.7276   0.7292   0.8997   0.9404   0.9433   1.0764   1.1159
     1.2791   1.3141   1.3212   1.3955   1.4568   1.4695   1.4729   1.5545
     1.5699   1.5738   1.6281   1.6523   1.7065   1.7120   1.7210   1.8527
     1.9353   1.9641   2.0586   2.0600   2.0879   2.1450   2.1606   2.2007
     2.2409   2.2517   2.3275   2.3783   2.3833   2.4499   2.5019   2.5173
     2.5966   2.6004   2.6910   2.6968   2.7250   2.7645   2.9840   2.9906
     3.0438   3.0921   3.0950   3.2225   3.2256   3.9495   4.2634   5.8066
     5.8090   6.1301   6.5903   6.5957   7.3671   7.8285   8.0060   8.0123
     9.5139   9.5805   9.8128   9.8600  10.4379  10.7601  10.8673  10.8746
    11.6612  11.6652  11.9592  12.5296  12.5336  12.5433  13.5928  13.6079
    13.9531  13.9591  14.2577  14.2892

          k = 0.3333-0.1925 0.0000 ( 22135 PWs)   bands (ev):

   -86.0346 -86.0263 -86.0259 -86.0236 -86.0210 -86.0201 -85.8646 -85.8557
   -85.8521 -85.8176 -85.8107 -85.8091 -49.5536 -49.5458 -49.5378 -49.5314
   -49.5243 -49.4991 -49.4889 -49.4777 -49.4762 -49.4657 -49.4628 -49.4607
   -49.4519 -49.4503 -49.4476 -49.4470 -49.4324 -49.4197 -49.3791 -49.3561
   -49.3343 -49.3109 -49.3050 -49.3027 -49.2977 -49.2880 -49.2794 -49.2762
   -49.2712 -49.2590 -49.2555 -49.2538 -49.2381 -49.2322 -49.2309 -49.2255
   -12.6298 -10.7378  -8.9350  -8.9290  -5.2939  -5.2899  -3.5453  -1.9353
    -1.9306  -0.8487  -0.4531  -0.1105  -0.0107  -0.0049   0.2249   0.2725
     0.2847   0.2930   0.3053   0.3795   0.4558   0.4666   0.5152   0.6112
     0.6864   0.6965   0.8175   0.8263   0.8577   0.9639   1.0015   1.0034
     1.1204   1.1873   1.2417   1.2841   1.3124   1.3574   1.3920   1.4376
     1.4600   1.5409   1.6547   1.6698   1.6902   1.7888   1.7919   1.7990
     1.8407   1.8531   1.8605   2.0017   2.0044   2.0532   2.0754   2.2406
     2.2476   2.3225   2.3899   2.4428   2.4667   2.4906   2.5528   2.6469
     2.6996   2.7859   2.8513   2.8584   2.9291   2.9707   3.0009   3.0496
     3.0752   3.1062   3.1791   3.1959   3.4257   3.4811   4.1808   4.7210
     5.4464   6.3883   6.8017   6.9655   7.4239   7.9393   8.1983   8.2595
     8.3900   8.4598   9.1329  10.2971  10.6552  10.7335  10.9312  10.9683
    11.5998  11.7552  12.1672  12.7210  12.9376  13.1798  13.3956  13.4359
    13.5188  13.6538  14.0851  14.4735

          k = 0.3333-0.0000 0.0000 ( 22093 PWs)   bands (ev):

   -86.0357 -86.0270 -86.0242 -86.0241 -86.0203 -86.0202 -85.8652 -85.8554
   -85.8518 -85.8185 -85.8095 -85.8094 -49.5423 -49.5418 -49.5402 -49.5362
   -49.5359 -49.4944 -49.4936 -49.4767 -49.4765 -49.4734 -49.4617 -49.4614
   -49.4535 -49.4531 -49.4456 -49.4400 -49.4311 -49.4153 -49.3690 -49.3681
   -49.3236 -49.3234 -49.3087 -49.3075 -49.2916 -49.2880 -49.2793 -49.2759
   -49.2675 -49.2623 -49.2620 -49.2458 -49.2387 -49.2313 -49.2311 -49.2219
   -12.7899  -9.9726  -9.9695  -7.7552  -6.6643  -4.5289  -4.5279  -2.1157
    -1.0407  -0.6585  -0.4924  -0.4890   0.0568   0.0765   0.0784   0.1857
     0.1869   0.2215   0.2218   0.2480   0.4138   0.5204   0.5230   0.6994
     0.6998   0.7281   0.7298   0.9008   0.9411   0.9437   1.0764   1.1159
     1.2791   1.3126   1.3198   1.3960   1.4574   1.4709   1.4751   1.5538
     1.5698   1.5737   1.6265   1.6523   1.7065   1.7105   1.7199   1.8527
     1.9353   1.9641   2.0597   2.0616   2.0888   2.1423   2.1580   2.2010
     2.2412   2.2521   2.3276   2.3784   2.3835   2.4493   2.5017   2.5170
     2.5980   2.6017   2.6910   2.6961   2.7255   2.7636   2.9837   2.9902
     3.0454   3.0921   3.0945   3.2235   3.2263   3.9486   4.2634   5.8067
     5.8091   6.1296   6.5902   6.5953   7.3671   7.8282   8.0057   8.0121
     9.5135   9.5804   9.8118   9.8592  10.4379  10.7602  10.8696  10.8757
    11.6611  11.6651  11.9593  12.5302  12.5367  12.5432  13.5929  13.6084
    13.9531  13.9592  14.2576  14.2892

          k = 0.3333 0.1925 0.0000 ( 22135 PWs)   bands (ev):

   -86.0346 -86.0263 -86.0259 -86.0237 -86.0210 -86.0200 -85.8646 -85.8557
   -85.8521 -85.8176 -85.8107 -85.8091 -49.5532 -49.5458 -49.5377 -49.5316
   -49.5247 -49.4983 -49.4898 -49.4781 -49.4760 -49.4658 -49.4626 -49.4604
   -49.4517 -49.4507 -49.4475 -49.4469 -49.4321 -49.4199 -49.3790 -49.3562
   -49.3344 -49.3107 -49.3048 -49.3028 -49.2978 -49.2880 -49.2794 -49.2762
   -49.2711 -49.2592 -49.2552 -49.2536 -49.2380 -49.2322 -49.2310 -49.2258
   -12.6298 -10.7378  -8.9350  -8.9290  -5.2939  -5.2899  -3.5453  -1.9353
    -1.9306  -0.8487  -0.4530  -0.1105  -0.0111  -0.0051   0.2265   0.2715
     0.2847   0.2916   0.3062   0.3773   0.4577   0.4680   0.5138   0.6124
     0.6864   0.6950   0.8208   0.8257   0.8592   0.9638   0.9968   1.0059
     1.1188   1.1847   1.2422   1.2833   1.3148   1.3565   1.3915   1.4348
     1.4650   1.5412   1.6568   1.6675   1.6925   1.7884   1.7922   1.8008
     1.8419   1.8532   1.8674   1.9957   1.9986   2.0511   2.0769   2.2410
     2.2454   2.3230   2.3880   2.4423   2.4656   2.4907   2.5534   2.6508
     2.7022   2.7856   2.8491   2.8575   2.9301   2.9701   3.0008   3.0483
     3.0770   3.1044   3.1791   3.1975   3.4256   3.4811   4.1825   4.7210
     5.4459   6.3875   6.7986   6.9664   7.4365   7.9325   8.1981   8.2542
     8.3900   8.4608   9.1323  10.2943  10.6551  10.7339  10.9333  10.9684
    11.5997  11.7490  12.1673  12.7208  12.9530  13.1793  13.3989  13.4357
    13.5133  13.6567  14.0851  14.4732

          k = 0.3333-0.7698 0.0000 ( 22151 PWs)   bands (ev):

   -86.0318 -86.0276 -86.0252 -86.0244 -86.0219 -86.0207 -85.8634 -85.8559
   -85.8532 -85.8153 -85.8120 -85.8102 -49.5486 -49.5429 -49.5321 -49.5312
   -49.5245 -49.4976 -49.4940 -49.4937 -49.4730 -49.4670 -49.4625 -49.4566
   -49.4546 -49.4529 -49.4407 -49.4381 -49.4379 -49.4246 -49.3747 -49.3533
   -49.3299 -49.3238 -49.3078 -49.2922 -49.2911 -49.2875 -49.2793 -49.2779
   -49.2771 -49.2768 -49.2461 -49.2455 -49.2361 -49.2333 -49.2320 -49.2317
   -12.1517 -11.2054 -10.2765  -7.6918  -5.8451  -3.4945  -3.4259  -2.4458
    -1.3636  -0.4080  -0.2973  -0.1508  -0.0873  -0.0812  -0.0138   0.1211
     0.1290   0.1636   0.2196   0.2204   0.2317   0.3879   0.3892   0.4871
     0.5712   0.6262   0.6594   0.7249   0.7546   0.8529   0.9221   0.9940
     1.0693   1.0860   1.1458   1.2490   1.3325   1.3749   1.4364   1.4410
     1.4876   1.5236   1.5774   1.6940   1.7606   1.7969   1.8727   1.9245
     1.9794   1.9916   2.0190   2.0402   2.1548   2.1864   2.2072   2.2142
     2.3031   2.3359   2.4040   2.5012   2.5351   2.5409   2.6502   2.6554
     2.6867   2.7550   2.8634   2.9121   2.9257   2.9431   2.9829   3.0082
     3.0487   3.0862   3.1219   3.1322   3.2207   3.8160   4.4669   4.6358
     4.7735   4.9403   5.6901   6.0943   7.0565   7.1429   7.2360   8.3653
     9.0009   9.1953  10.2700  10.6002  10.8139  11.3002  11.3039  11.5944
    11.7301  12.0616  12.5724  12.7836  12.7997  13.1391  13.2475  13.3067
    13.8217  13.8793  13.9408  14.1934

          k = 0.3333-0.5774 0.0000 ( 22161 PWs)   bands (ev):

   -86.0283 -86.0282 -86.0282 -86.0223 -86.0223 -86.0222 -85.8628 -85.8549
   -85.8548 -85.8126 -85.8124 -85.8124 -49.5325 -49.5324 -49.5320 -49.5264
   -49.5261 -49.5259 -49.4929 -49.4927 -49.4925 -49.4604 -49.4602 -49.4600
   -49.4493 -49.4492 -49.4490 -49.4301 -49.4301 -49.4300 -49.3549 -49.3548
   -49.3512 -49.3084 -49.3083 -49.3082 -49.2873 -49.2850 -49.2849 -49.2814
   -49.2784 -49.2783 -49.2383 -49.2381 -49.2379 -49.2340 -49.2337 -49.2337
   -11.3637 -11.3637 -11.3597  -6.5088  -6.5088  -4.3311  -1.7318  -1.7278
    -1.7278  -0.3293  -0.3293  -0.3273  -0.0497  -0.0491  -0.0480  -0.0138
    -0.0131  -0.0122   0.1644   0.1658   0.1666   0.3227   0.3237   0.3242
     0.4799   0.4817   0.4826   0.6219   0.6226   0.6375   0.8114   0.8118
     0.8201   1.2086   1.2094   1.2129   1.4105   1.4115   1.4156   1.5104
     1.5115   1.5147   1.6305   1.6345   1.6355   2.0032   2.0063   2.0096
     2.0634   2.0716   2.0720   2.3745   2.3754   2.3804   2.4458   2.4459
     2.4470   2.6365   2.6391   2.6401   2.6935   2.6943   2.6948   2.7519
     2.7528   2.7533   2.8445   2.8447   2.8458   2.8915   2.8921   2.8930
     3.0937   3.0956   3.0961   3.1372   3.1382   3.1407   3.9237   3.9264
     3.9278   5.7284   5.7298   5.7333   5.9676   5.9676   8.0655   8.0779
     8.0788  10.5156  10.5213  10.5222  12.1572  12.1572  12.1641  12.3432
    12.3434  12.3436  12.5651  12.5665  12.5676  12.9707  12.9906  12.9918
    13.6938  13.7322  13.7336  13.9935

          k = 0.3333-0.3849 0.0000 ( 22151 PWs)   bands (ev):

   -86.0318 -86.0276 -86.0251 -86.0244 -86.0219 -86.0207 -85.8634 -85.8559
   -85.8532 -85.8153 -85.8120 -85.8102 -49.5490 -49.5428 -49.5322 -49.5311
   -49.5243 -49.4971 -49.4944 -49.4931 -49.4731 -49.4673 -49.4624 -49.4566
   -49.4546 -49.4530 -49.4409 -49.4380 -49.4379 -49.4244 -49.3747 -49.3533
   -49.3297 -49.3236 -49.3079 -49.2921 -49.2910 -49.2875 -49.2792 -49.2781
   -49.2772 -49.2770 -49.2464 -49.2454 -49.2362 -49.2333 -49.2318 -49.2313
   -12.1517 -11.2054 -10.2765  -7.6918  -5.8451  -3.4945  -3.4259  -2.4458
    -1.3636  -0.4079  -0.2976  -0.1509  -0.0867  -0.0817  -0.0133   0.1210
     0.1290   0.1632   0.2183   0.2211   0.2311   0.3872   0.3925   0.4892
     0.5728   0.6249   0.6586   0.7240   0.7528   0.8516   0.9211   0.9940
     1.0705   1.0894   1.1453   1.2512   1.3330   1.3756   1.4363   1.4390
     1.4800   1.5219   1.5754   1.6968   1.7593   1.8018   1.8739   1.9213
     1.9824   1.9906   2.0223   2.0388   2.1548   2.1856   2.2045   2.2166
     2.3044   2.3376   2.4025   2.5037   2.5356   2.5417   2.6506   2.6556
     2.6837   2.7534   2.8624   2.9113   2.9245   2.9434   2.9834   3.0083
     3.0500   3.0857   3.1225   3.1347   3.2199   3.8161   4.4669   4.6359
     4.7710   4.9410   5.6869   6.0941   7.0578   7.1471   7.2362   8.3656
     8.9995   9.1956  10.2700  10.6012  10.8140  11.2990  11.3037  11.5942
    11.7303  12.0679  12.5725  12.7834  12.7997  13.1389  13.2339  13.3074
    13.8217  13.8777  13.9408  14.1925

          k =-0.5000 0.2887 0.0000 ( 22116 PWs)   bands (ev):

   -86.0302 -86.0301 -86.0241 -86.0234 -86.0234 -86.0203 -85.8633 -85.8563
   -85.8529 -85.8140 -85.8139 -85.8095 -49.5583 -49.5505 -49.5295 -49.5292
   -49.5036 -49.5033 -49.4906 -49.4847 -49.4845 -49.4691 -49.4581 -49.4564
   -49.4560 -49.4466 -49.4464 -49.4376 -49.4342 -49.4340 -49.3834 -49.3388
   -49.3350 -49.3300 -49.2916 -49.2884 -49.2874 -49.2871 -49.2868 -49.2834
   -49.2793 -49.2770 -49.2463 -49.2400 -49.2399 -49.2350 -49.2348 -49.2313
   -11.8358 -11.8333  -9.0775  -9.0716  -4.4655  -4.4620  -2.8004  -2.7950
    -1.3816  -1.3785  -0.2641  -0.1722  -0.1070   0.0616   0.0703   0.1311
     0.1902   0.1925   0.2768   0.4130   0.4151   0.5592   0.5810   0.5828
     0.6193   0.6208   0.7206   0.7216   0.8501   0.8538   0.9974   0.9982
     1.1058   1.1241   1.1254   1.1733   1.1952   1.1979   1.3704   1.3711
     1.4007   1.4305   1.4320   1.4739   1.4796   1.7160   1.7180   1.7851
     1.7877   1.9554   1.9943   2.0299   2.0346   2.2315   2.2364   2.2960
     2.3461   2.3471   2.5758   2.6153   2.6159   2.7052   2.7059   2.7408
     2.8158   2.8164   2.9726   2.9792   2.9796   3.0109   3.1087   3.1615
     3.1628   3.1936   3.3078   3.3377   3.3550   3.4076   3.6494   3.6495
     5.2598   5.2600   6.1878   6.9942   7.5336   7.5405   7.5408   7.7316
     8.6961   8.7114   9.8044   9.8119  10.1769  10.7585  11.5104  11.7260
    11.7277  12.0223  12.0246  12.7032  12.9717  12.9735  13.2533  13.2578
    13.6568  13.6583  13.8375  13.8436

          k =-0.5000 0.4811 0.0000 ( 22151 PWs)   bands (ev):

   -86.0318 -86.0276 -86.0251 -86.0244 -86.0219 -86.0207 -85.8634 -85.8559
   -85.8532 -85.8153 -85.8120 -85.8102 -49.5490 -49.5428 -49.5322 -49.5312
   -49.5243 -49.4970 -49.4944 -49.4931 -49.4731 -49.4672 -49.4623 -49.4566
   -49.4546 -49.4530 -49.4410 -49.4380 -49.4379 -49.4245 -49.3747 -49.3533
   -49.3297 -49.3237 -49.3080 -49.2921 -49.2911 -49.2875 -49.2792 -49.2780
   -49.2772 -49.2769 -49.2464 -49.2453 -49.2362 -49.2333 -49.2318 -49.2315
   -12.1517 -11.2054 -10.2765  -7.6918  -5.8451  -3.4945  -3.4259  -2.4458
    -1.3636  -0.4079  -0.2975  -0.1510  -0.0867  -0.0826  -0.0132   0.1215
     0.1290   0.1633   0.2175   0.2208   0.2312   0.3872   0.3936   0.4893
     0.5733   0.6248   0.6590   0.7234   0.7519   0.8521   0.9213   0.9940
     1.0710   1.0901   1.1465   1.2507   1.3325   1.3752   1.4344   1.4382
     1.4798   1.5233   1.5751   1.6986   1.7599   1.8005   1.8731   1.9208
     1.9834   1.9901   2.0223   2.0388   2.1545   2.1860   2.2035   2.2161
     2.3047   2.3384   2.4027   2.5039   2.5356   2.5418   2.6505   2.6558
     2.6837   2.7526   2.8628   2.9118   2.9245   2.9430   2.9818   3.0085
     3.0509   3.0860   3.1216   3.1358   3.2213   3.8162   4.4663   4.6359
     4.7705   4.9409   5.6869   6.0942   7.0574   7.1470   7.2361   8.3657
     8.9994   9.1949  10.2700  10.6012  10.8152  11.2990  11.3037  11.5943
    11.7303  12.0679  12.5726  12.7835  12.7988  13.1402  13.2339  13.3072
    13.8217  13.8778  13.9422  14.1920

          k =-0.5000 0.6736 0.0000 ( 22151 PWs)   bands (ev):

   -86.0318 -86.0275 -86.0252 -86.0244 -86.0219 -86.0206 -85.8634 -85.8559
   -85.8532 -85.8153 -85.8120 -85.8102 -49.5486 -49.5429 -49.5322 -49.5313
   -49.5246 -49.4971 -49.4939 -49.4939 -49.4730 -49.4668 -49.4623 -49.4567
   -49.4546 -49.4530 -49.4410 -49.4381 -49.4379 -49.4245 -49.3747 -49.3534
   -49.3299 -49.3238 -49.3078 -49.2922 -49.2910 -49.2875 -49.2793 -49.2779
   -49.2771 -49.2768 -49.2461 -49.2456 -49.2361 -49.2333 -49.2320 -49.2316
   -12.1517 -11.2054 -10.2765  -7.6918  -5.8451  -3.4945  -3.4259  -2.4458
    -1.3636  -0.4080  -0.2974  -0.1509  -0.0875  -0.0825  -0.0133   0.1226
     0.1290   0.1633   0.2176   0.2196   0.2322   0.3890   0.3926   0.4873
     0.5737   0.6258   0.6577   0.7253   0.7521   0.8524   0.9218   0.9940
     1.0707   1.0875   1.1495   1.2468   1.3309   1.3744   1.4330   1.4362
     1.4829   1.5274   1.5770   1.6983   1.7636   1.7983   1.8738   1.9212
     1.9776   1.9946   2.0197   2.0415   2.1527   2.1850   2.2049   2.2135
     2.3009   2.3384   2.4051   2.5032   2.5361   2.5417   2.6526   2.6562
     2.6835   2.7525   2.8615   2.9121   2.9259   2.9436   2.9820   3.0105
     3.0497   3.0863   3.1216   3.1342   3.2211   3.8163   4.4651   4.6358
     4.7707   4.9402   5.6902   6.0962   7.0571   7.1428   7.2361   8.3645
     9.0008   9.1948  10.2700  10.6003  10.8149  11.3002  11.3039  11.5944
    11.7301  12.0615  12.5723  12.7836  12.8007  13.1383  13.2476  13.3071
    13.8217  13.8794  13.9434  14.1928

          k =-0.5000-0.2887 0.0000 ( 22116 PWs)   bands (ev):

   -86.0302 -86.0301 -86.0242 -86.0234 -86.0234 -86.0202 -85.8633 -85.8563
   -85.8529 -85.8140 -85.8139 -85.8095 -49.5579 -49.5506 -49.5294 -49.5292
   -49.5041 -49.5038 -49.4916 -49.4843 -49.4842 -49.4684 -49.4582 -49.4563
   -49.4560 -49.4464 -49.4462 -49.4375 -49.4344 -49.4342 -49.3833 -49.3389
   -49.3351 -49.3301 -49.2918 -49.2885 -49.2872 -49.2868 -49.2866 -49.2833
   -49.2793 -49.2770 -49.2460 -49.2402 -49.2401 -49.2350 -49.2348 -49.2314
   -11.8358 -11.8333  -9.0775  -9.0716  -4.4655  -4.4620  -2.8004  -2.7950
    -1.3816  -1.3785  -0.2640  -0.1730  -0.1074   0.0617   0.0704   0.1319
     0.1906   0.1929   0.2787   0.4106   0.4126   0.5610   0.5825   0.5842
     0.6208   0.6225   0.7177   0.7188   0.8501   0.8538   0.9974   0.9982
     1.1041   1.1270   1.1282   1.1678   1.1968   1.1994   1.3679   1.3681
     1.3996   1.4286   1.4322   1.4772   1.4817   1.7176   1.7196   1.7875
     1.7901   1.9576   2.0032   2.0224   2.0272   2.2307   2.2355   2.2886
     2.3446   2.3457   2.5748   2.6181   2.6186   2.7081   2.7088   2.7457
     2.8140   2.8146   2.9722   2.9797   2.9802   3.0089   3.1103   3.1612
     3.1625   3.1917   3.3073   3.3376   3.3559   3.4075   3.6491   3.6491
     5.2608   5.2610   6.1856   7.0090   7.5229   7.5395   7.5400   7.7277
     8.6961   8.7114   9.8042   9.8117  10.1742  10.7618  11.5033  11.7259
    11.7277  12.0225  12.0248  12.7206  12.9718  12.9735  13.2536  13.2580
    13.6565  13.6580  13.8373  13.8434

     the Fermi energy is     6.0837 ev

!    total energy              =   -3595.83474205 Ry
     estimated scf accuracy    <          4.5E-09 Ry
     smearing contrib. (-TS)   =      -0.00084876 Ry
     internal energy E=F+TS    =   -3595.83389329 Ry

     The total energy is F=E-TS. E is the sum of the following terms:
     one-electron contribution =  -24427.93137362 Ry
     hartree contribution      =   12244.04546001 Ry
     xc contribution           =    -362.17265520 Ry
     ewald contribution        =    9000.05619342 Ry
     DFT-D3 Dispersion         =      -0.50438975 Ry
     electric field correction =       0.00000126 Ry
     one-center paw contrib.   =     -49.32712941 Ry

     convergence has been achieved in  31 iterations

     negative rho (up, down):  1.220E-04 0.000E+00

     Forces acting on atoms (cartesian axes, Ry/au):

     atom    1 type  1   force =     0.00014664    0.00053287    0.00215405
     atom    2 type  1   force =     0.00017207    0.00051931    0.00215529
     atom    3 type  1   force =    -0.00019686   -0.00014840   -0.00028873
     atom    4 type  1   force =     0.00000327   -0.00034303   -0.00087620
     atom    5 type  1   force =     0.00017362    0.00054898    0.00215117
     atom    6 type  1   force =    -0.00036930   -0.00004583   -0.00030084
     atom    7 type  1   force =     0.00009159   -0.00012421    0.00060267
     atom    8 type  1   force =     0.00000298   -0.00034264   -0.00089266
     atom    9 type  1   force =     0.00008542   -0.00012160    0.00092977
     atom   10 type  1   force =    -0.00019251    0.00005456   -0.00029952
     atom   11 type  1   force =     0.00000347   -0.00034296   -0.00087610
     atom   12 type  1   force =     0.00009197   -0.00012234    0.00058705
     atom   13 type  2   force =    -0.00000020   -0.00000819    0.00020026
     atom   14 type  2   force =     0.00093756    0.00052869   -0.00090072
     atom   15 type  2   force =     0.00093763   -0.00054541   -0.00090727
     atom   16 type  2   force =    -0.00000419   -0.00109115   -0.00090015
     atom   17 type  2   force =    -0.00000392    0.00107786   -0.00090818
     atom   18 type  2   force =    -0.00093964    0.00053569   -0.00090148
     atom   19 type  2   force =    -0.00093885   -0.00055223   -0.00090797
     atom   20 type  2   force =    -0.00000074   -0.00000997    0.00017956

     Total force =     0.005630     Total SCF correction =     0.000639
     SCF correction compared to forces is large: reduce conv_thr to get better values

     Writing all to output data dir ./tmp/V2_top_fcc_dft_bound.save/ :
     XML data file, charge density, pseudopotentials, collected wavefunctions
 
     init_run     :      7.10s CPU      7.89s WALL (       1 calls)
     electrons    :    676.13s CPU    691.97s WALL (       1 calls)
     forces       :      2.03s CPU      2.19s WALL (       1 calls)
     force_dftd3  :      0.01s CPU      0.02s WALL (       1 calls)

     Called by init_run:
     wfcinit      :      5.17s CPU      5.70s WALL (       1 calls)
     potinit      :      1.55s CPU      1.63s WALL (       1 calls)
     hinit0       :      0.18s CPU      0.26s WALL (       1 calls)

     Called by electrons:
     c_bands      :    590.19s CPU    600.70s WALL (      32 calls)
     sum_band     :     70.76s CPU     75.04s WALL (      32 calls)
     v_of_rho     :      2.51s CPU      3.01s WALL (      32 calls)
     newd         :      1.18s CPU      1.22s WALL (      32 calls)
                                        1.22s GPU  (      32 calls)
     PAW_pot      :      4.14s CPU      4.16s WALL (      32 calls)
     mix_rho      :      6.18s CPU      6.49s WALL (      32 calls)
     energy_dftd3 :      0.00s CPU      0.00s WALL (       1 calls)

     Called by c_bands:
     init_us_2    :      8.39s CPU      8.61s WALL (    1320 calls)
     cegterg      :    570.49s CPU    570.51s WALL (     640 calls)

     Called by *egterg:
     cdiaghg      :     63.83s CPU     64.02s WALL (    3607 calls)
                                       61.34s GPU  (    3607 calls)
     h_psi        :    258.54s CPU    260.10s WALL (    3647 calls)
                                      258.55s GPU  (    3647 calls)
     s_psi        :      9.62s CPU      9.61s WALL (    3647 calls)
     g_psi        :      0.02s CPU      3.21s WALL (    2987 calls)
                                        0.54s GPU  (    2987 calls)

     Called by h_psi:
     h_psi:calbec :      0.26s CPU     27.25s WALL (    3647 calls)
                                       26.79s GPU  (    3647 calls)
     vloc_psi     :    182.68s CPU    183.39s WALL (    3647 calls)
                                      182.46s GPU  (    3647 calls)
     add_vuspsi   :     14.13s CPU     43.08s WALL (    3647 calls)
                                       41.46s GPU  (    3647 calls)

     General routines
     calbec       :      0.30s CPU      0.33s WALL (    4367 calls)
     fft          :      1.58s CPU      1.99s WALL (     426 calls)
                                        0.34s GPU  (     394 calls)
     ffts         :      0.51s CPU      1.29s WALL (    3348 calls)
                                        0.71s GPU  (    3316 calls)
     fftw         :      0.93s CPU    126.02s WALL (   37496 calls)
                                      114.89s GPU  (   37496 calls)
     interpolate  :      2.17s CPU      2.43s WALL (      32 calls)
     davcio       :      1.58s CPU     15.16s WALL (    2506 calls)
 
     Parallel routines
 
     PWSCF        :  11m25.54s CPU  11m42.88s WALL

 
   This run was terminated on:  22:22:10   2Oct2026            

=------------------------------------------------------------------------------=
   JOB DONE.
=------------------------------------------------------------------------------=
