SYSTEM = gas sdcp_neutral box+24 [closure static · 원자중첩 시작]
# 기체상 기준계 2/2상 — E_ads 에 들어가는 정본 에너지.
GGA      = PE
PREC     = Accurate
ENCUT    = 520
ISMEAR   = 0
SIGMA    = 0.05
ALGO     = Normal
NELM     = 200
NELMIN   = 6
ISPIN    = 2
ISYM     = 0
LASPH    = .TRUE.
ADDGRID  = .TRUE.
LORBIT   = 11
AMIN     = 0.01
IVDW     = 11
NCORE    = 4
KPAR     = 1
EDIFF    = 1E-6
IBRION   = -1
NSW      = 0
LREAL    = .FALSE.
LDIPOL   = .TRUE.
IDIPOL   = 4
DIPOL    = 0.5000 0.5000 0.5000
NUPDOWN  = 0
MAGMOM   = 0.000 0.000 0.000 0.000 0.000 0.000 0.000 0.000 0.000 0.000 0.000 0.000 0.000 0.000 0.000 0.000 0.000 0.000 0.000 0.000 0.000 0.000 0.000 0.000 0.000 0.000 0.000 0.000 0.000 0.000 0.000 0.000 0.000 0.000 0.000
ISTART   = 0
ICHARG   = 2
LWAVE    = .FALSE.
LCHARG   = .FALSE.
