120
Lattice="13.99358543 0.0 0.0 0.0 13.99358543 0.0 0.0 0.0 13.99358543" Properties=species:S:1:pos:R:3:forces:R:3 t_ps=23.0 charge=0 spin=0 energy=-507.71288926633724 free_energy=-507.71288926633724 stress="0.0035872864803187937 -0.0007137692085944742 -0.0006097533498837641 -0.0007137692085944742 0.0027569269202481527 -4.742304716721231e-05 -0.0006097533498837641 -4.742304716721231e-05 0.0020419099865103068" pbc="T T T"
P        1.27978647      10.54932071     -14.66670442      -0.00813293      -0.01502918      -0.02036108
S        0.05621186      11.24338062     -16.12800886      -0.00801944       0.00081888       0.00020276
S        0.82036007       8.65463331     -14.01025802       0.00544540       0.00875030      -0.01674705
S        1.04861712      11.85989280     -13.08080451       0.00324057       0.00651082       0.00848447
S        3.29417156      10.53211701     -15.26108032      -0.00250215       0.00952817      -0.01272701
P       17.37393525      22.72090286     -10.29517274      -0.02488681       0.02908032       0.00347823
S       15.33799254      23.03805377     -10.15025783       0.03351692      -0.00628188      -0.02060694
S       18.40793350      23.80691970     -11.68019262       0.00167656      -0.01858830      -0.00184850
S       17.65157860      20.73956486     -10.74607077       0.00521127      -0.01760020      -0.01526666
S       18.19400995      23.15982435      -8.41273758       0.00267394      -0.01179577      -0.02671653
P       -9.93606628      14.97376935      13.34978740      -0.00397088      -0.00956677      -0.00979261
S       -9.19191932      14.02551759      11.67096199       0.00162251       0.00446489      -0.00064459
S       -9.45564142      13.76115459      14.99522689       0.00986855      -0.00769854       0.01160881
S      -11.93923908      15.28016153      13.14055323       0.00163402      -0.00380203       0.01110291
S       -8.85263361      16.71292490      13.66333892       0.01162799       0.00055177       0.00490801
P        0.26026640       2.76447898       3.95978249       0.00356065      -0.01424699       0.02414515
S        0.90921783       1.24151647       2.72800271       0.00954055      -0.00547574      -0.00367955
S        0.42427155       4.54065081       2.92091515       0.00379009       0.00909565       0.00212686
S        1.31401506       2.78906801       5.72935277       0.00274391      -0.00842015      -0.00174393
S       -1.75191404       2.37463982       4.26139433       0.00996809      -0.00804487       0.00305743
P       20.78969761      24.81038066       9.08940241      -0.02725813      -0.02513747       0.00575156
S       19.26318938      26.16346158       8.78653063       0.00145564       0.00641169       0.02110129
S       20.49764444      23.59006610      10.74768217       0.00581694       0.01147684       0.00146533
S       22.54896409      25.81343029       9.38390259       0.02215687       0.00455830       0.00705575
S       20.96822997      23.62491903       7.40281187      -0.02294837       0.01545014       0.01407612
P        5.28398296      14.82189276      19.44399421       0.00156326      -0.01370728       0.02933426
S        5.05891570      16.27256758      17.93663544      -0.00566474      -0.02307962       0.00837510
S        7.26374244      14.42261977      19.76404757      -0.00301152      -0.00401857       0.01053065
S        4.11838310      13.23066162      18.88679768       0.01395916      -0.02650770       0.01097244
S        4.55083901      15.61300365      21.18385759      -0.00155779      -0.02496861      -0.00382943
P      -15.58156596       3.83876992      -5.02819292       0.00353568      -0.01013043      -0.00561060
S      -15.79282414       5.16988902      -6.57555580      -0.00199915      -0.00386926      -0.00433031
S      -16.38670442       2.03459084      -5.59892406       0.01488896       0.01155755       0.00520799
S      -16.64590677       4.58269937      -3.42118254       0.00439244       0.00462958      -0.00585870
S      -13.54532539       3.75792045      -4.63396367       0.00187932       0.01152715       0.00109999
P       -4.35832167      -6.49299821     -14.58093935      -0.01130926       0.02533392      -0.02376807
S       -5.54052086      -5.67017827     -13.10467701      -0.01159857       0.00439993       0.00794602
S       -5.47349300      -8.02263456     -15.40067746       0.00224881      -0.00126308      -0.00045916
S       -2.61894126      -7.24766852     -13.79514590       0.01396774       0.01474331       0.00128848
S       -3.82244346      -5.14950314     -16.04057969      -0.01375338       0.00155627       0.01181304
P       11.67279042      29.52454997      13.30030409      -0.03252856       0.00735730      -0.00797992
S       13.06028692      29.28735257      11.80193646       0.01623529      -0.00129706      -0.01034687
S       11.68023183      27.84718185      14.47091292       0.00259685       0.01969249       0.00224618
S        9.75046356      29.88177643      12.64955387       0.03583737      -0.00085856       0.01021031
S       12.31132572      31.24409605      14.28242859       0.00845141       0.02291438       0.00688796
P       28.77756970      -1.83271027      21.98438946      -0.00346422       0.03918325      -0.00699389
S       29.91698108      -3.50264827      22.45002111       0.00262326      -0.02178643       0.00253364
S       26.83349786      -2.07854500      22.64399979      -0.01695370       0.00078188      -0.00184820
S       28.79812948      -1.60225718      19.96280343      -0.01055459      -0.01858391       0.00040386
S       29.60796994      -0.19781190      22.91926756      -0.01438776      -0.02470130      -0.01315568
P       10.45681803      -2.98199025      31.99545177      -0.00153740       0.00327496       0.00285910
S        8.42409300      -2.99060089      31.56765719      -0.00489413       0.00883889      -0.01188193
S       11.00702817      -1.02174187      32.32980204       0.00235303      -0.00777566      -0.00406715
S       11.38853426      -3.81069440      30.35093114       0.00443669      -0.00532267      -0.00890260
S       10.97637744      -3.99198809      33.71868618      -0.01256388       0.00907991      -0.01070275
P       -5.34682986      -8.45978861       4.42687816       0.00270920      -0.00871345       0.01939035
S       -6.53595704      -9.04562529       2.88065024      -0.00924047      -0.00632110       0.00506410
S       -5.28009090     -10.03823343       5.77586667       0.00517248       0.00012628      -0.00259139
S       -6.18999026      -6.75980807       5.26861533       0.00457486      -0.00888381       0.00416882
S       -3.39765136      -7.93118591       3.97076425      -0.00279566      -0.00470986      -0.00490339
Cl      22.10967983      -1.93198954      -0.38720321       0.01131419       0.00777678      -0.00714547
Cl       1.38669223     -21.17243203       6.54934038      -0.01272745       0.01002479      -0.00390103
Cl       7.13704208      33.78255796      -4.72070506      -0.00574496       0.00309635       0.00055003
Cl     -12.58896210      18.85122919      12.58071232       0.00744351      -0.00171013       0.00205123
Cl      17.99918075     -24.33583672      24.40456932       0.00632821       0.00971058       0.00645191
Cl      21.53959072     -11.83069587       9.44492646       0.00974478       0.00780357       0.00453878
Cl      18.71741194       6.86191342      13.21108490       0.00058584      -0.00297414       0.00342652
Cl     -10.65674289      -6.80529997     -32.38611605      -0.00486124       0.01491671      -0.00490235
Cl      41.53029352      -6.30175009      -3.61095317      -0.00928005       0.00300173      -0.00380474
Cl      -4.04534949       7.94828751      22.35428077      -0.00960303       0.00255130       0.00032116
Cl      18.87380242      -8.74589752      -7.31687584      -0.01127777      -0.00075372      -0.00506504
Cl      22.23314240      15.05894210      58.21366966       0.00334882       0.00825687       0.00077589
Li     -19.42998989      41.41001297     -38.04661886      -0.00173610       0.01044372      -0.00029333
Li      36.51898448     -31.25832830      39.61997922       0.00202257      -0.00328352       0.00429558
Li     -38.61670925      50.38592071      56.47789686      -0.00378758      -0.00799239      -0.00607673
Li     -15.30086645      -5.76068621     -15.38485981      -0.01432135       0.02975794      -0.01128563
Li      -0.05495627     -28.64018235    -126.72790431      -0.01631307      -0.00397671       0.00110413
Li      45.16687174      12.29223602      24.39632863      -0.00348341      -0.00690938       0.01596104
Li       4.83312899       5.45365554     -32.79586870      -0.00773060       0.01090243       0.00156884
Li     -50.12602555      68.49450384      55.21489191       0.01137919       0.01213370      -0.00440444
Li      24.44072543       7.83926417      16.24516258      -0.00769754      -0.00059870      -0.00051435
Li       1.59571707      37.31202384       6.25276489       0.00060662       0.03828458      -0.02424395
Li       1.28100328       6.04996115      -3.58398441      -0.01974906       0.00271123      -0.00168703
Li      47.77708363      72.18483167     -58.84881690       0.00284058      -0.00016406      -0.00141406
Li      -8.26610704      34.11738550       4.41216010      -0.00422688      -0.00152522       0.00949119
Li      -2.07054943      -9.73266887      16.72693096       0.00273862      -0.01362380       0.01175299
Li       9.37411754     -59.72051753     -48.31531043      -0.01753583      -0.00960102      -0.00692437
Li     -27.99066358      23.93625336      51.82526570      -0.00069203       0.00303496       0.00502174
Li      -7.46125184      65.91806259       4.95466523       0.00647905       0.00547342      -0.01711303
Li      -3.79579612      21.69947069      89.81539806       0.00197188      -0.00090915      -0.01587424
Li      97.21929324      45.82085573      12.00021545       0.00553076       0.00102416      -0.00283232
Li      45.84641696      25.47413726       6.78267412       0.02897248      -0.01412676       0.00343303
Li       0.01707615      37.93645490       1.99986542      -0.00346329      -0.00555683      -0.01383827
Li      17.80827350     -23.31629442      96.62884659       0.01328862      -0.00063187       0.00281115
Li      -7.38166393      28.23418177     -19.78983940       0.01361388      -0.00175546       0.01412590
Li      60.27869521      22.51732460      -2.63586073      -0.00295703       0.01195298      -0.00799182
Li      20.02989767      43.55619490     -26.29978317      -0.00382317      -0.00626726       0.00603457
Li       6.86534906      20.57872125     -13.64782186      -0.00165823      -0.00756234       0.00065404
Li     -10.26346187      59.37958814     -22.29258900       0.00005895      -0.01110853       0.00884804
Li     -27.44348527      -9.29557799       7.06552274       0.00532156       0.00235120      -0.00815866
Li       0.78761659     -25.09007816       0.86580111       0.01698231       0.00037860       0.00152555
Li      66.30195844       4.37938085      41.22948556       0.00979393       0.01602428      -0.01179527
Li     -39.71672468       0.47757107       6.50813412      -0.01414699      -0.01631112       0.01100396
Li      35.55888784      16.61460037      -9.93521716      -0.00254181      -0.00658680       0.00883380
Li      23.14201112      10.60448682      29.23244153      -0.00377846      -0.00163811      -0.01107226
Li     -46.76011203     -69.86022488     -13.71847141       0.00762511       0.00839482      -0.00605092
Li      49.71170917      21.31972740     -20.30917948      -0.00275430       0.01620798       0.00820985
Li      26.47012472       0.39994465      58.74619179       0.00888122      -0.00300752       0.00906010
Li      -4.12092474     -39.52928943     -31.77575750       0.01097850       0.00919231      -0.00089430
Li      -2.32220689     -21.27391783      37.33316721      -0.00491796      -0.00165891      -0.01284371
Li      25.10995541     -10.62739228     -49.75026523       0.00687559      -0.01736528       0.00505849
Li     -10.62449479     -16.37264905     -12.90121469      -0.00207310      -0.00073832       0.00038228
Li      41.13157395      14.30271713      -4.56165780      -0.00113858      -0.00258869       0.00782139
Li     -12.08879331      30.78922055      11.22760528       0.00832770      -0.00003814       0.01314476
Li      -6.90414407      45.87517128      35.71896382       0.01012086       0.00585270       0.00327732
Li     -12.57233589      34.49094999     -51.80016682      -0.00348842       0.00691746       0.00241400
Li      36.33824586      21.56633397      24.60828030      -0.00647034       0.00441397      -0.00412115
Li      87.57257970     -48.75102908      21.07461597      -0.01770159       0.00154974       0.00161290
Li     -66.66318496     -41.27370975     -10.93112536      -0.00311988      -0.03521748       0.02116935
Li      26.37115223      12.02802036     -21.78561626      -0.00981684      -0.00146828      -0.00401524
