120
Lattice="13.99358543 0.0 0.0 0.0 13.99358543 0.0 0.0 0.0 13.99358543" Properties=species:S:1:pos:R:3:forces:R:3 t_ps=18.0 charge=0 spin=0 energy=-508.15296274283656 free_energy=-508.15296274283656 stress="0.0034426399388602837 -0.0012794941106711228 0.00017627615813168857 -0.0012794941106711228 0.0008517012396689446 0.0001745037596917028 0.00017627615813168857 0.0001745037596917028 0.0029410468758391175" pbc="T T T"
P        1.16553330      10.49760586     -14.61026064       0.01020062       0.00280271       0.00373433
S       -0.43857587      10.89653282     -15.82778339      -0.01015982       0.00397478      -0.00360174
S        1.05182094       8.55148635     -13.96304180       0.01148045       0.00465669      -0.01341373
S        0.98833227      11.76943652     -12.98977762       0.00200423      -0.00012851      -0.00271189
S        2.98935407      10.91263542     -15.50463974      -0.00328863       0.01083909      -0.00537632
P       17.44542769      22.62664202     -10.34190602      -0.00268636      -0.00203702       0.00873311
S       15.44557441      23.00466189      -9.99973786       0.00048767       0.00791464       0.00524252
S       18.44652137      23.70147378     -11.79809151       0.00082768      -0.00657519      -0.00284647
S       17.59542607      20.65294437     -10.91972308      -0.00844822      -0.00104414       0.00991478
S       18.42306569      23.04453886      -8.56734882      -0.00083221       0.00383608       0.00017451
P       -9.79952597      14.89917704      13.39132557       0.00548624       0.00478959       0.00071283
S       -8.98346843      14.13075608      11.65114173      -0.00084024      -0.00068172       0.00155956
S       -9.35153685      13.68201803      15.01790817      -0.00463617      -0.00431288      -0.00110997
S      -11.81939912      14.99362522      13.08634630      -0.00601104      -0.00087680      -0.00069931
S       -8.88769757      16.71143658      13.78817054      -0.00182433      -0.00642011       0.00316831
P        0.23314134       2.67708275       4.01920578      -0.00816048       0.01673880      -0.00183569
S        0.85229999       1.27326338       2.63734013       0.00820191       0.00568223       0.00045168
S        0.31422558       4.53173594       3.10943545      -0.00614326       0.00089863       0.00627139
S        1.38091360       2.57789667       5.71625340       0.00609598       0.00695295       0.00862029
S       -1.76413030       2.25652295       4.39457787       0.00631859      -0.00072899       0.00178012
P       20.85185094      25.18244386       9.13399162       0.02860496       0.00417823       0.00304101
S       19.51611050      26.66663871       8.72519376      -0.00128125       0.00150313       0.00103028
S       20.17911849      24.13003345      10.79014974       0.00240543      -0.00413027       0.00605743
S       22.76420795      25.80983931       9.50529370      -0.00963017      -0.00556156      -0.00069844
S       20.89030390      24.00798140       7.40588076       0.00683197      -0.00002177       0.00042712
P        5.24473380      14.87419467      19.40117953       0.00545671      -0.00533751       0.00377123
S        5.02907037      16.29718626      17.89307866       0.00147004      -0.00753038      -0.00165169
S        7.22823427      14.41062539      19.72910659       0.00173945      -0.00485091      -0.00159368
S        4.15854356      13.22312084      18.88087410       0.00266420      -0.00561017       0.00238798
S        4.52033426      15.67568397      21.14044778       0.00545721      -0.00497920      -0.00143028
P      -15.55223979       3.92494059      -4.92813639      -0.00419291       0.00272189      -0.02569211
S      -15.72226848       5.17387370      -6.55681310      -0.00591333      -0.00882360       0.00471155
S      -16.37360948       2.11059605      -5.46610302      -0.00338553       0.00445795       0.00405569
S      -16.70584035       4.72507724      -3.38561241      -0.01091659       0.00876242       0.00417438
S      -13.54484053       3.85068542      -4.47919669      -0.00659967       0.00415601      -0.00009652
P       -4.23519840      -6.63411465     -14.67619481       0.00546624      -0.02338318       0.00485323
S       -5.39567247      -5.75492993     -13.21896323      -0.00306657       0.00269935       0.00357034
S       -5.34519956      -8.27396743     -15.29122871       0.00583894       0.00702821       0.00392984
S       -2.39234192      -7.13805525     -13.89225599      -0.00260340       0.00341713      -0.00288720
S       -3.88314052      -5.43632831     -16.29593222       0.00164483       0.00668488      -0.00839225
P       11.63023538      29.42983144      13.32324306      -0.00345303      -0.00108889       0.00399495
S       13.14555469      29.06056806      11.99802285       0.00156559       0.00063928      -0.00247170
S       11.51444377      27.84406183      14.61988982       0.00333547       0.00048886      -0.00132693
S        9.76311984      29.61340459      12.45448321       0.00115380       0.00004767       0.00178192
S       12.03024667      31.21829479      14.32609578       0.00002735      -0.00014739      -0.00078627
P       28.72978952      -1.84797501      22.13183654      -0.00855017      -0.00329597      -0.00418847
S       29.77587735      -3.58288599      22.53890380       0.00237005       0.01081039      -0.00302504
S       26.75072425      -2.06083354      22.70779743       0.00478576       0.00483871      -0.00568096
S       28.78242516      -1.59809116      20.09087313      -0.00067496       0.00808220      -0.00247571
S       29.50006816      -0.17776926      23.05248777       0.00408139       0.00826338       0.00790367
P       10.44097989      -2.98271972      31.94914693      -0.00130497       0.00824419      -0.01443839
S        8.41898044      -2.93520002      31.44154204       0.00806567      -0.00585999       0.00149719
S       10.98919677      -1.03157875      32.33205554       0.00334395      -0.00768443      -0.00463245
S       11.43350879      -3.80879899      30.34012105       0.00278746      -0.00597919      -0.00042612
S       10.90102683      -3.98975317      33.68404410       0.00825463      -0.00957197       0.00768681
P       -5.36775761      -8.39416160       4.38037114      -0.01156069      -0.00088330      -0.00811171
S       -6.54697839      -9.03153654       2.83328559      -0.00306809       0.00377818       0.00615548
S       -5.33410860      -9.90607922       5.79328512      -0.00903210      -0.00242667       0.00392310
S       -6.21195762      -6.64796433       5.13940040      -0.00713940       0.00012424       0.00268504
S       -3.40760812      -7.92626052       3.90427991      -0.00562785      -0.00067379       0.00305367
Cl      22.20721565      -2.06657719      -0.49873444      -0.00038916       0.00029394       0.00419497
Cl       1.60835883     -21.58835959       6.75101602      -0.00534996       0.02009850      -0.01644963
Cl       6.97912278      34.17166407      -4.67533254      -0.00018833      -0.00127139      -0.00000518
Cl     -12.80909309      18.61731598      13.18892365      -0.00004658       0.00219285       0.00060935
Cl      17.96590957     -23.90417846      24.61934659       0.00372998       0.00016406      -0.00326376
Cl      21.48337812     -11.41974701       9.46054737       0.00229588      -0.00563559      -0.00352919
Cl      18.87784837       6.52819098      13.28402422      -0.00105886      -0.00429002      -0.00054052
Cl     -10.52393142      -6.41616572     -32.46511822      -0.00333751       0.00405891      -0.00424468
Cl      41.60197546      -6.32707962      -3.66634560       0.00002926       0.00798894      -0.01250613
Cl      -4.07052675       7.90805096      22.20652144      -0.00170772       0.00197825      -0.00002070
Cl      19.02615252      -8.73411896      -7.55386681      -0.01240534      -0.00182152       0.00571491
Cl      22.26328636      15.15863534      58.18629245       0.00110045      -0.00341985       0.00009848
Li     -19.40870518      41.47294442     -38.12808178       0.00353355      -0.00610736      -0.00002929
Li      36.54236665     -31.50170711      39.55222797       0.00578141       0.00615993       0.00259079
Li     -38.49952105      49.88061260      56.65838601      -0.00086918      -0.01455657       0.00518700
Li     -15.15276525      -5.49856473     -15.42493820       0.00232807      -0.00484843      -0.01134230
Li      -0.49967946     -28.96183522    -126.50838163      -0.00125066       0.00136291       0.00147921
Li      44.67645557      13.25108459      25.27234280      -0.00018168      -0.02213647       0.00845737
Li       4.98876354       6.22357454     -31.25328725      -0.00515887       0.00150989      -0.00392713
Li     -49.82738430      68.09998203      54.31507470      -0.00304147       0.00092506       0.00284806
Li      24.56148020       7.84135878      16.17411237      -0.00164763      -0.00306500       0.00163600
Li       2.09737059      38.23737282       6.05610121       0.00505345       0.00803681       0.00630446
Li       1.35343942       6.39001576      -4.73421265      -0.00855149       0.02527903      -0.00498141
Li      47.61514402      72.46611550     -58.82898244       0.00535101       0.00054499       0.00082174
Li      -8.31453179      34.07296090       4.32889654      -0.00863701      -0.00597104       0.00398382
Li      -2.13777284      -9.85639801      16.88246622      -0.00241015      -0.00066476       0.00143156
Li       9.33653080     -59.65634197     -48.33007744       0.00753000       0.00440257       0.00250886
Li     -28.13607807      23.97342275      51.89229301       0.00052703       0.00697571      -0.00760001
Li      -7.50929670      65.39179656       3.93611454       0.00164507      -0.00733706       0.00596316
Li      -3.80808911      21.70773849      89.72873515      -0.00383032      -0.00069104       0.00380337
Li      96.77547105      46.96468503      12.65635331      -0.00077037      -0.00185295      -0.00243496
Li      47.77181003      26.03661404       6.40160922       0.00578630      -0.00145305       0.00412643
Li       0.14127036      37.76074970       2.07362994       0.00270095      -0.00217604       0.00403104
Li      17.59581509     -23.48876495      96.87993667       0.00172834      -0.00679563      -0.00212769
Li      -7.32979285      28.73278458     -19.81398578       0.00600820      -0.00615683      -0.00226286
Li      59.63817064      23.86062605      -3.71680152       0.00184707       0.00301444      -0.00321479
Li      20.02074265      43.51037030     -26.26295620       0.00320312      -0.01181646      -0.00261097
Li       7.01005757      20.36463661     -13.51487101      -0.00013024      -0.00691697       0.00202259
Li     -10.27953473      59.45128742     -22.31484862       0.00819773      -0.01100647      -0.00334384
Li     -27.43815059      -9.63437067       7.08714873      -0.00141404       0.01237800       0.00151130
Li       0.58084058     -24.86668168       0.95975864      -0.00050700       0.00766032       0.00628798
Li      65.92604257       3.85807949      41.32177073      -0.00229332       0.00000756       0.00320262
Li     -39.62622793       0.31959148       6.62688090       0.00635055       0.00214892      -0.00094253
Li      35.52745346      16.68341105      -9.92897261       0.00103080      -0.00035920      -0.00600958
Li      23.23062599      10.57039531      29.14701903       0.00116744      -0.00110709      -0.00092625
Li     -46.89294495     -69.93710203     -13.76465598       0.00101939      -0.00039734      -0.00017175
Li      49.55887902      21.67079269     -20.33991239       0.00039611      -0.00197496      -0.00182764
Li      26.47122756       0.36114942      58.80631255       0.00917793      -0.00148561      -0.00082144
Li      -4.16086376     -39.36338586     -31.81410879      -0.00209411      -0.00442595       0.00158334
Li      -2.23539216     -21.17942169      37.22057652       0.00163095       0.00299625      -0.00877565
Li      25.08044685     -10.61204903     -49.65626741      -0.00734821      -0.00882295       0.00220968
Li     -10.59937849     -16.37103994     -13.09077787       0.00362393      -0.00873163      -0.00058055
Li      41.05116327      14.30838745      -4.44587555      -0.00424768       0.00073368       0.00092823
Li     -12.85515667      30.75751353      11.68215568      -0.00532671       0.00246837       0.00000255
Li      -7.13792108      46.29159568      35.75088748      -0.00873853      -0.00367285       0.00582480
Li     -12.51108955      34.42358579     -51.62454302      -0.01018256       0.00895706       0.00389147
Li      36.94907119      20.73454813      24.41702206      -0.00158428      -0.00563972       0.00126774
Li      87.76275639     -48.79648956      21.12136130       0.00228586       0.00854678      -0.00002181
Li     -66.67933642     -41.33880317     -11.02684972       0.00214877      -0.00212350       0.00042845
Li      26.33605023      11.99309555     -21.74390182       0.00006767      -0.00151937       0.00010658
