120
Lattice="13.98529913 0.0 0.0 0.0 13.98529913 0.0 0.0 0.0 13.98529913" Properties=species:S:1:pos:R:3:forces:R:3 t_ps=43.0 charge=0 spin=0 energy=-507.87314643685363 free_energy=-507.87314643685363 stress="0.002263059069595481 -0.0010994140024102339 0.0003810974816652899 -0.0010994140024102339 0.0015477346567558102 0.0007787315987539199 0.0003810974816652899 0.0007787315987539199 0.0014552630712649506" pbc="T T T"
P        0.94165954      10.49550481     -14.63431078       0.00528855      -0.00053807       0.00285192
S       -0.62730611      10.90782899     -15.87436635       0.01111762       0.00193243      -0.00342287
S        0.86551845       8.54140161     -14.03449821      -0.00114923       0.00133965       0.00591153
S        0.77195018      11.77053623     -13.02379990       0.01304783      -0.00088782      -0.00010657
S        2.82919085      10.86851233     -15.46166828       0.00967443      -0.00695452       0.00395240
P       17.54994810      22.63307856     -10.55203843      -0.00937507       0.00017845       0.00654562
S       15.55987517      22.97879353     -10.12846374      -0.01395441      -0.00282204       0.00969303
S       18.40254245      23.67232680     -12.12262344      -0.01180816       0.00374370       0.00795947
S       17.80762759      20.62534552     -10.84880396      -0.00566503       0.00555468      -0.00431656
S       18.62239614      23.21300626      -8.85518818      -0.01506229       0.00223039       0.00640619
P       -9.91392013      14.90666355      13.46890717      -0.00503224      -0.00394115       0.00626351
S       -9.02931207      14.08944258      11.78881895       0.01212874      -0.00995448       0.00287105
S       -9.55074579      13.73257330      15.13339181       0.01690165      -0.01355745      -0.00201316
S      -11.90190797      15.06448289      12.99779678       0.00460037      -0.00440158       0.00034412
S       -8.96688740      16.71823025      13.86504715      -0.00382770      -0.01118710       0.00193217
P        0.43217598       2.73425187       4.00986623      -0.01114300      -0.00873583      -0.00029044
S        1.02059806       1.25273781       2.68841645      -0.00379054      -0.00940016      -0.00920405
S        0.57599983       4.54406269       3.05119399       0.00795978      -0.00867462      -0.00828590
S        1.59798652       2.64609476       5.70736241      -0.01517578      -0.01014634       0.00024157
S       -1.56962484       2.32315620       4.37835248      -0.00038047       0.00136809      -0.00374080
P       20.69178965      25.02783844       9.20651618       0.00365596      -0.01088156       0.00010420
S       19.45136538      26.57585940       8.72676367       0.00795726      -0.00536329       0.02045410
S       20.05291199      24.16083860      10.98264540      -0.00614357      -0.00168432       0.01159204
S       22.65581133      25.54642609       9.39337308      -0.00431795       0.00654753      -0.00959587
S       20.52606967      23.65581919       7.63796529       0.00567858      -0.00758215       0.00392237
P        5.46398859      15.06154560      19.53431323      -0.00396440      -0.00470638       0.00197870
S        5.19401417      16.45658123      17.99895528      -0.00601777       0.00317528       0.00958312
S        7.43591905      14.67468368      19.88708119      -0.00251732       0.00473412      -0.01025230
S        4.35976557      13.40483498      19.01250364       0.00972181      -0.00986675       0.00288696
S        4.65261974      15.85018900      21.26039749      -0.00927787      -0.00782897       0.00207598
P      -15.63535420       3.66649761      -5.00119829      -0.00264962       0.00301628      -0.00265709
S      -15.58137885       4.98421490      -6.57587859       0.00295848      -0.00212910      -0.00301103
S      -16.65994144       1.97293887      -5.55974293       0.00427544       0.00507292      -0.00100163
S      -16.61097764       4.56110861      -3.41652390       0.01343839       0.00240087      -0.00649360
S      -13.68196510       3.17515141      -4.53718801       0.00989516      -0.00603802       0.00312255
P       -4.36839301      -6.58565953     -14.68561946       0.01270860       0.01466173      -0.00732759
S       -5.52785054      -5.63018327     -13.25970024       0.00652643      -0.00397137      -0.00504913
S       -5.45197801      -8.22942476     -15.29731643       0.01075594       0.00598287      -0.01266067
S       -2.57680197      -7.15327545     -13.89289053       0.01432000       0.02141505      -0.01032251
S       -3.96318457      -5.41005325     -16.32621368       0.00213285       0.01624213      -0.00199475
P       11.52398576      29.50238138      13.50215748      -0.00230266      -0.00244033      -0.00230202
S       12.87104916      29.08383890      12.02214727      -0.00369884       0.00833844       0.01078745
S       11.43013542      27.89476002      14.78008865       0.01160266       0.00222591      -0.00094522
S        9.62240737      29.91419692      12.83449722       0.00737567       0.01161585       0.00868179
S       12.23631144      31.23201147      14.40511020      -0.01051569       0.01698642       0.01831895
P       28.84002563      -1.86641133      22.02657642      -0.00905228       0.00629658      -0.00542478
S       29.82193310      -3.65980575      22.47803015       0.00283804       0.00004530       0.00378728
S       26.87306050      -1.92976497      22.61462771      -0.00531305      -0.00285518      -0.00204249
S       28.92253444      -1.66514073      19.98782012      -0.00226186       0.00045509       0.00260118
S       29.73295425      -0.26242186      22.93934160      -0.00158296      -0.00785601      -0.00774038
P       10.43941687      -2.98591243      32.01139720       0.00569891      -0.00842585      -0.00763787
S        8.43002398      -2.84855522      31.48246304       0.00868953      -0.01464511      -0.00101166
S       11.06667707      -1.05508147      32.36924637      -0.00019606       0.00632616       0.00712138
S       11.41231107      -3.85913225      30.41542765      -0.00934718       0.00235444      -0.01487299
S       10.81527774      -3.98340216      33.77760797       0.00992969      -0.00358137      -0.00609655
P       -5.08266659      -8.41605000       4.06428019      -0.00614934       0.00681394      -0.01013468
S       -5.84378955      -9.24653330       2.37013419       0.00382841      -0.00030249      -0.00732171
S       -5.20286334      -9.78734989       5.60591824       0.00171886      -0.01014176      -0.01242432
S       -6.09861191      -6.70457613       4.72100438      -0.01144152      -0.00074636      -0.00015655
S       -3.11735842      -7.81409803       3.85649096      -0.00619148       0.00769957       0.00204794
Cl      22.24684737      -2.01666739      -0.48914616      -0.00365573       0.01642378       0.00086061
Cl       1.73610896     -21.57129652       6.72134534      -0.01460214       0.00178889       0.00548276
Cl       6.76731007      34.08611129      -4.45532022       0.00373407       0.00161341      -0.01624594
Cl     -12.63428867      18.53135330      13.04359812      -0.01194182       0.00292835       0.00484961
Cl      18.11378261     -24.12615157      24.39743172       0.00292253      -0.00175087       0.00859534
Cl      21.44410363     -11.55485614       9.74896452       0.00414667      -0.00201595      -0.00451977
Cl      18.78609938       6.56687265      13.35436885      -0.00135433      -0.00005661      -0.00210996
Cl     -10.50743779      -6.34959399     -32.13666908       0.00527532       0.02061448      -0.00007757
Cl      41.42428564      -6.18823811      -3.93642423      -0.00362697      -0.00894165      -0.02231913
Cl      -4.30082049       7.45680610      22.04378320       0.00487962       0.00233191      -0.01261464
Cl      19.25488480      -8.48708567      -7.24744084      -0.01122188      -0.01854675      -0.00665698
Cl      22.11923113      14.96114175      58.24653379       0.00472059       0.00255258       0.00025397
Li     -19.33950878      41.47282908     -37.88809289      -0.00436170       0.00017257      -0.00435025
Li      36.46772135     -31.48948474      39.56310978      -0.00026258       0.01710473       0.00872823
Li     -38.57512270      50.43410881      55.88479777       0.00062493      -0.00373331       0.00329559
Li     -15.33580914      -5.64535424     -15.58980801       0.01211642       0.01854327       0.01833690
Li      -0.78509597     -28.94609161    -126.47581192       0.01215041       0.00865193       0.00181270
Li      44.62586201      13.21260916      25.28556907      -0.00964562       0.00680941      -0.00994892
Li       4.83414644       6.07957562     -30.94661959       0.00436575       0.00227376      -0.00055462
Li     -49.79693757      68.07818906      54.46880941       0.00316297       0.00446623      -0.01351968
Li      24.46391471       7.84669896      16.09797322      -0.00382602       0.01322642       0.00874487
Li       2.17991408      38.09843774       5.95277295      -0.00271704       0.00873871       0.00642098
Li       1.38788211       7.56636184      -5.30030003       0.01074815       0.01276436      -0.00188533
Li      47.72264101      72.32133202     -58.50057803      -0.00228430      -0.00725416      -0.01092680
Li      -8.53813830      34.82422082       4.89560891      -0.00838131      -0.00503205      -0.01450923
Li      -1.87026520      -9.75857799      16.84372277      -0.00068377      -0.01767481       0.00915199
Li       9.01325047     -60.05744879     -48.30609100       0.00984828      -0.00491023      -0.00077907
Li     -28.19824256      24.09280868      51.80448422       0.00181151      -0.00716605      -0.00543945
Li      -7.39724498      65.39464472       3.52398905      -0.00441751      -0.01983733       0.01980101
Li      -3.78294324      21.68745327      89.56800855      -0.00269251      -0.00943533      -0.00168624
Li      97.11377047      45.64590928      12.03329548      -0.01072472       0.00651803       0.01068054
Li      47.36114731      25.62471068       6.49265629       0.00414830      -0.01277594      -0.00448196
Li       0.05137227      37.69998955       2.06817547       0.00851405      -0.00233352      -0.00092250
Li      17.50781604     -23.28922139      97.72232879       0.00171419       0.00228993      -0.01450930
Li      -7.23058999      28.61878762     -19.66090534      -0.00494133      -0.00402877       0.00317498
Li      59.56308695      23.95116721      -3.67384473       0.00623135       0.01123024       0.01266574
Li      19.94238708      43.48050806     -26.15350097       0.01626600      -0.01923402       0.00238357
Li       7.04012674      20.34050786     -13.39940867      -0.00892576       0.00294027      -0.00857743
Li     -10.09520336      59.65899200     -22.23799510      -0.00653765      -0.01252016       0.01356196
Li     -27.22497455      -9.62501498       7.26124250      -0.01488144      -0.00453904      -0.01713053
Li       0.73033879     -25.17467817       0.72604849      -0.00074305       0.02825803       0.02855106
Li      66.00484893       4.30940150      41.87392743      -0.00346237      -0.00948239      -0.00142822
Li     -39.47123704       0.37397315       6.56880222       0.00612962      -0.00036994       0.01081945
Li      35.68620571      16.72794296     -10.04566285      -0.01678526      -0.00100650       0.01099351
Li      23.25201821      10.62241947      29.18144185      -0.00026158       0.01071975      -0.00900328
Li     -46.90139052     -69.85182047     -13.65877876       0.00692886       0.00719249      -0.01205408
Li      49.75107299      20.05022416     -20.96467822       0.00422342      -0.02736529      -0.00833490
Li      26.59587075       0.38506459      58.83361167      -0.00596325       0.00245098       0.01015011
Li      -4.14490933     -39.43683305     -31.54954626      -0.00485905       0.01191825      -0.00593333
Li      -2.29790897     -21.38229366      37.08111581      -0.00700599      -0.00207613      -0.01097188
Li      25.09078488     -10.66686094     -49.71228072       0.00663543       0.01367157       0.01425827
Li     -10.80506593     -16.30112963     -13.04624014       0.01466137      -0.00577046      -0.00175641
Li      41.31009075      14.67738900      -4.72984584       0.00708313      -0.01531781       0.01166836
Li     -11.88203521      31.01094593      11.39387013       0.00281625       0.00054597       0.01503331
Li      -8.18616755      45.82601859      36.58272123       0.00023259       0.00941843       0.00247971
Li     -12.33399676      34.42639626     -51.57172708      -0.00675390      -0.00614253       0.00172816
Li      36.75940262      20.82113458      24.40701284      -0.00735248       0.01140556      -0.00223955
Li      89.18372228     -48.38570977      22.27187079      -0.00016142       0.01065756      -0.00114588
Li     -66.55356259     -41.14024716     -10.77561217      -0.00890930      -0.00427014      -0.00401571
Li      26.40235352      11.93691551     -21.74763543      -0.00926834      -0.00314021       0.00198424
