120
Lattice="13.99602846 0.0 0.0 0.0 13.99602846 0.0 0.0 0.0 13.99602846" Properties=species:S:1:pos:R:3:forces:R:3 t_ps=12.0 charge=0 spin=0 energy=-508.1356370590554 free_energy=-508.1356370590554 stress="0.002542679476407167 -0.0006146092884972858 0.00012008837188601282 -0.0006146092884972858 0.001739381043858139 -0.00010976470804185816 0.00012008837188601282 -0.00010976470804185816 0.0032943582856441926" pbc="T T T"
P        1.12790715      10.50194473     -14.67727553       0.00874543      -0.00780878       0.00493884
S       -0.47207175      10.94014642     -15.87955526      -0.00351965      -0.00252466       0.00358997
S        1.01629625       8.54969435     -14.05003229       0.00778361       0.00464689       0.00165958
S        0.96456782      11.76043752     -13.04594184       0.00329927       0.00252262       0.00194427
S        2.96939902      10.89295223     -15.55563739      -0.00083506       0.00464908      -0.00276425
P       17.48894721      22.68219820     -10.38938676      -0.00047844       0.00209778       0.00137704
S       15.49009820      23.08870766     -10.06489532       0.00327599       0.00169373      -0.00045411
S       18.48172972      23.70508322     -11.88491772       0.00657596       0.00363251       0.00263397
S       17.63506870      20.69227045     -10.88538208       0.00183291       0.00464719      -0.00655674
S       18.47455482      23.13981270      -8.62188998       0.00015348      -0.00296549       0.00356465
P       -9.75424455      14.78247701      13.45622637      -0.00070500       0.00357283      -0.00819979
S       -8.90886995      13.92400605      11.77325019      -0.00303992       0.00512350      -0.00682547
S       -9.39438394      13.60751510      15.12870411       0.00459215      -0.00027738      -0.00754748
S      -11.75101077      14.95125692      13.03980826      -0.00039291       0.00442333      -0.00029686
S       -8.79645540      16.58302649      13.83357547       0.00137037       0.00271814      -0.00475240
P        0.35377679       2.78000561       3.98198395      -0.00313085      -0.00126346       0.00036062
S        1.01734742       1.36147722       2.63615486      -0.00207621      -0.00629216      -0.00038847
S        0.44806102       4.62070592       3.05870891      -0.00090425      -0.00440065      -0.00087545
S        1.45793254       2.70802361       5.72067812      -0.00317358      -0.00566961      -0.00010679
S       -1.64578280       2.33773550       4.30842871      -0.00403262       0.00029518      -0.00064021
P       20.73125652      24.88671175       9.22021743       0.00177925       0.00350778      -0.00311092
S       19.21978405      26.22681471       8.87633715       0.00660603       0.00351281      -0.00601082
S       20.25978366      23.89322899      10.99649607      -0.00130211       0.00279589      -0.00458126
S       22.57075360      25.74860844       9.43126624       0.00620337      -0.00074334       0.00127624
S       20.76103968      23.66774545       7.54803329       0.00513378       0.00377063      -0.00433963
P        5.30030954      14.73330544      19.59505109      -0.00261276       0.00130098      -0.00715562
S        5.21911636      16.16118437      18.06634090      -0.00410228      -0.00011323      -0.00858764
S        7.16772420      13.99068086      19.98993394       0.00270100       0.00552135      -0.00901562
S        4.02348092      13.22267119      19.06112361       0.00301314      -0.00355963      -0.00465273
S        4.59004878      15.62577469      21.30828665      -0.00091112      -0.00210749      -0.00931017
P      -15.57923229       3.93193839      -5.03813153       0.00039358       0.00047374       0.00143102
S      -15.71259520       5.17850669      -6.66436041       0.00069555      -0.00332463       0.00448499
S      -16.38312511       2.11597027      -5.56404213      -0.00228015      -0.00335631      -0.00115316
S      -16.71215807       4.73427686      -3.48618923      -0.00100504      -0.00261380       0.00168173
S      -13.58209115       3.91364037      -4.49469888      -0.00147139      -0.00770321       0.00269004
P       -4.26897557      -6.57031932     -14.71619101       0.01086012       0.00385524      -0.00299078
S       -5.48674906      -5.61870110     -13.34178536      -0.00092289       0.00264573       0.00310235
S       -5.33863006      -8.24807042     -15.28131112      -0.00094583       0.00227200      -0.00171012
S       -2.47036158      -7.07546574     -13.89293457      -0.00447417       0.00613970      -0.00485333
S       -3.87102651      -5.44496124     -16.38737181      -0.00404994       0.00458631       0.00391813
P       11.76166904      29.57004640      13.34354026      -0.00061493       0.00346876       0.00265497
S       13.19556884      29.23282902      11.91242221      -0.00366689       0.00171939       0.00332543
S       11.67173485      27.95647279      14.60625355      -0.00346132      -0.00270397       0.00205615
S        9.86643702      29.87324831      12.60267187      -0.00375515       0.00155486       0.00176210
S       12.36021516      31.33097187      14.27422168      -0.00452477      -0.00187455       0.00179124
P       28.66036756      -1.76725720      22.08566265       0.00389131       0.00088800       0.00046393
S       29.67179642      -3.53149157      22.43896548       0.00086557      -0.00091262       0.00293005
S       26.69178494      -1.94751212      22.69824110      -0.00086459      -0.00052252       0.00225801
S       28.67859343      -1.46757900      20.05509974       0.00186314      -0.00090128       0.00346377
S       29.50708178      -0.15412004      23.04856516      -0.00068459      -0.00019508       0.00271108
P       10.45048708      -2.99143341      31.94542338       0.00239271       0.00004168       0.00045138
S        8.43159001      -2.94584575      31.43756647      -0.00159196      -0.00024808      -0.00213109
S       11.01613374      -1.03905615      32.29389464      -0.00113584       0.00074702       0.00223699
S       11.44330049      -3.83866153      30.35066233       0.00026709       0.00223647       0.00055554
S       10.86708568      -3.98813432      33.70299451      -0.00138041       0.00060484      -0.00165455
P       -5.35275069      -8.41972657       4.26516301       0.00846221      -0.00230365       0.00241597
S       -6.59281471      -9.00015828       2.72866042       0.00192456      -0.00243115      -0.00767030
S       -5.29676787      -9.93825929       5.62911268       0.00192302       0.00181881      -0.00566019
S       -6.22546747      -6.69591569       5.08167991       0.00013961      -0.00083610      -0.00183020
S       -3.41955236      -7.87991440       3.76593838      -0.00066040       0.00086524      -0.00202664
Cl      22.38197474      -1.96666969      -0.54620538      -0.00801676      -0.00184311       0.00264595
Cl       1.58455538     -21.38912023       6.75792845       0.00291061      -0.00603928       0.00134600
Cl       6.92327613      34.06691938      -4.51021424       0.00012833       0.00780246       0.00152435
Cl     -12.39782470      18.49312492      12.97429726      -0.00429391       0.00548724       0.00434105
Cl      18.14993084     -24.34940805      24.46755770      -0.00705045       0.00591036      -0.00481314
Cl      21.49040876     -11.71069476       9.63368870      -0.00289180       0.00670397      -0.00785123
Cl      18.97147254       6.66843870      13.18572978       0.00294193      -0.00431607       0.00778525
Cl     -10.45960593      -6.23375318     -32.50346337       0.00075730       0.00221155       0.00137594
Cl      41.55478932      -6.22575987      -3.79854669       0.00145552       0.00298778      -0.00225549
Cl      -4.13600629       7.78510776      22.13933137       0.00396133      -0.00000646      -0.00106434
Cl      18.97821738      -8.72010159      -7.41336813      -0.00098021      -0.00116045      -0.00817559
Cl      22.31719956      15.07175101      58.29688904      -0.00401592      -0.00291534      -0.00358114
Li     -19.41231492      41.43330554     -37.98754193      -0.00010581      -0.00058879      -0.00312143
Li      36.66212754     -31.48891142      39.56557355      -0.00397062       0.00223009       0.00311012
Li     -38.52829691      49.96544420      56.54124463       0.00535246      -0.03264818       0.03558084
Li     -15.22407501      -5.56674551     -15.51698171       0.00678761       0.00444350       0.00571791
Li      -0.40446917     -28.87257084    -126.62567220      -0.00091157      -0.00181661       0.00250261
Li      44.72453412      13.17800590      25.28707846      -0.00886949       0.00487857      -0.00391121
Li       5.46763571       7.41171724     -31.14473382      -0.00222000       0.00163038       0.00609558
Li     -49.77066984      67.93399109      54.52519519      -0.00773912       0.00203429      -0.00223072
Li      24.45375697       7.89412578      16.08915142       0.00376359       0.00125552      -0.00053384
Li       2.02327555      38.38846485       5.96490505       0.00500864      -0.00699888       0.00268090
Li       1.38413902       6.71261109      -4.81706710       0.00355796       0.00166834       0.00108550
Li      47.85843793      72.19365336     -58.61225712      -0.00414058       0.00634030      -0.00635401
Li      -8.31637483      34.03136427       4.40562124       0.00338667      -0.00258366      -0.00495322
Li      -2.01267526      -9.77591987      16.75504966      -0.00572008      -0.00191634       0.00381719
Li       9.19739227     -59.82794727     -48.36644491       0.00463872       0.00069444       0.00016049
Li     -28.22722474      24.07265179      51.84258600       0.00274566       0.00386692       0.00331223
Li      -7.42452395      65.31344531       3.85967138       0.00436630      -0.00802704       0.00601911
Li      -3.82467164      21.69745709      89.65970362      -0.00043774      -0.00300289       0.00003955
Li      97.41523218      45.92556236      11.95346591      -0.00277778      -0.00091110       0.01130731
Li      47.55656227      25.73961265       6.46089433       0.00919777      -0.00150653      -0.00279985
Li       0.11987707      37.74281278       2.00602600       0.00168109       0.00228079      -0.00299653
Li      17.96931221     -23.44532066      96.71274949      -0.00301485       0.00085909      -0.00122183
Li      -7.42022063      28.35219333     -19.56416331      -0.00531710       0.00897312      -0.00624198
Li      59.62318421      24.17416450      -3.94714638       0.00232427       0.00032192       0.00194058
Li      20.07904392      43.36446449     -26.18915937      -0.00117285       0.00337026      -0.00488622
Li       7.06552863      20.39514067     -13.49374681       0.00144163       0.00324202      -0.00037910
Li     -10.14456428      59.38992539     -22.25350442      -0.00034313      -0.00841587      -0.00274108
Li     -27.38040917      -9.48666650       7.07379795      -0.00022795      -0.00626282       0.00338892
Li       0.86284111     -24.83826895       0.85913627      -0.00540523      -0.00285499       0.00217668
Li      66.46165718       4.28322640      41.11767256      -0.00399839      -0.00134701       0.00266749
Li     -39.68019714       0.42278629       6.65773864      -0.00185938      -0.00931402      -0.00406498
Li      35.61537353      16.79981944     -10.12740295       0.00164176      -0.00248353      -0.00116547
Li      23.28387053      10.63338214      29.14070348      -0.00078953       0.00038616       0.00153169
Li     -46.74547560     -69.83443152     -13.73737828      -0.00601719      -0.00026975      -0.00118931
Li      49.53487860      21.26266517     -20.41060052       0.00255898       0.00488210       0.00011820
Li      26.63279417       0.40096439      58.81437655      -0.00348305      -0.00218250       0.00340113
Li      -4.13375343     -39.42318543     -31.80064399       0.00068576       0.00270318      -0.00165584
Li      -2.23904157     -21.18129641      37.12183870       0.00343373      -0.00245844       0.00393114
Li      25.08606835     -10.57938435     -49.81434478       0.00141480      -0.01195940       0.01462488
Li     -10.64725640     -16.42500705     -13.10946784       0.00307599       0.00019194       0.00169044
Li      41.06863384      14.40023864      -4.47125669      -0.00594456      -0.00189675       0.00497125
Li     -11.89160073      30.75562056      11.36813936      -0.00681836       0.00660397       0.00181336
Li      -8.12387948      45.97181071      36.61474385      -0.00311236       0.00594198       0.00099734
Li     -12.48622522      34.52187467     -51.63685221       0.00126016      -0.00122173      -0.00166726
Li      37.00543686      20.62515649      24.41158343      -0.00009632       0.01338628      -0.00068462
Li      87.80882092     -48.67046363      21.09419189       0.00162263      -0.00571535       0.00229492
Li     -66.62513813     -41.34262438     -10.87505889       0.00188944      -0.00667318      -0.00719804
Li      26.25585778      12.03266150     -21.74642082      -0.00028581      -0.00064962       0.00186388
