120
Lattice="13.99099511 0.0 0.0 0.0 13.99099511 0.0 0.0 0.0 13.99099511" Properties=species:S:1:pos:R:3:forces:R:3 t_ps=21.0 charge=0 spin=0 energy=-507.80341367216823 free_energy=-507.80341367216823 stress="0.0023978925871664036 -0.00045656287236576777 -0.0009849607331999157 -0.00045656287236576777 0.002260856439954698 -0.00016833890249591969 -0.0009849607331999157 -0.00016833890249591969 0.0020707512399265023" pbc="T T T"
P        1.08427751      10.42685128     -14.65057314       0.01118697       0.00270296      -0.01352660
S       -0.50655746      10.81272713     -15.89371662       0.00522242       0.01910732       0.00220930
S        0.93450890       8.51031256     -13.94020207       0.00193009       0.00299515      -0.00601256
S        0.90638473      11.77997518     -13.09933729       0.00408955       0.00281823       0.00909560
S        2.92592664      10.73411956     -15.56082283      -0.00093047      -0.00340829       0.00063474
P       17.35594639      22.73271991     -10.40122574       0.00019840      -0.00992689       0.01086515
S       15.32783298      23.06430874     -10.10919139      -0.01502713      -0.02385705       0.01394101
S       18.29290668      23.81393562     -11.84093877      -0.01126508      -0.00347473      -0.00072058
S       17.57774793      20.73972764     -10.91638301       0.00399283       0.00089578       0.02016041
S       18.25344378      23.07657503      -8.55239029      -0.01304115       0.00299344       0.00147054
P       -9.75589417      14.82491094      13.34880326       0.00708285      -0.00773046       0.00678650
S       -8.94589299      13.96758344      11.64336756       0.00981249      -0.00010558       0.00671193
S       -9.35266191      13.61085167      14.98539740       0.00156477      -0.01092540       0.01262742
S      -11.76600801      14.95538156      12.99128353       0.01097775      -0.00601030      -0.00812032
S       -8.79615577      16.62529867      13.71138697       0.00602866      -0.00879295       0.00613816
P        0.29049116       2.83114213       3.91944879       0.00748479      -0.01238348      -0.00521595
S        0.99611791       1.31555529       2.70524485      -0.00908429      -0.00107737       0.00137908
S        0.38894219       4.60389275       2.88528175      -0.00667766      -0.00109011       0.00621721
S        1.34268336       2.95185100       5.68978529      -0.00330653      -0.00104233       0.00350311
S       -1.69783977       2.38920165       4.27323755       0.00253132      -0.00907960       0.01284286
P       20.76720918      24.96291583       9.11363457       0.00372631      -0.00576069       0.00069152
S       19.42467124      26.44453820       8.78920740      -0.00397591      -0.01265754      -0.00107180
S       20.35526128      23.89381980      10.87749127       0.00580314      -0.00167562       0.00744968
S       22.62727063      25.83052994       9.38176709       0.00038641      -0.00176448      -0.00963295
S       20.85058936      23.71103563       7.47491955       0.00057385      -0.01038113      -0.00112977
P        5.34544022      14.57590266      19.45126465       0.00472617      -0.00559053      -0.01000089
S        5.02058199      16.03605838      17.98223693      -0.00258955      -0.01149138       0.00309389
S        7.35078478      14.53086577      19.89157832       0.00332059      -0.01083176       0.00205770
S        4.63132222      12.79081895      18.72717026       0.00404994      -0.01451860      -0.00205520
S        4.28984135      15.15246239      21.11059995      -0.00090674      -0.01796878      -0.00235004
P      -15.49133631       3.87987767      -4.96372569      -0.00958978       0.00895987      -0.00679496
S      -15.81593488       5.21246885      -6.47727608      -0.01198951       0.00498120      -0.00474510
S      -16.25971976       2.05639723      -5.54360965      -0.00155499       0.00488554       0.00128397
S      -16.53464041       4.55760129      -3.31169355      -0.00602213      -0.00037633      -0.00031884
S      -13.44824263       3.86607727      -4.59690554      -0.01187336       0.01694159       0.00008746
P       -4.38973138      -6.61425524     -14.60283482       0.00222515       0.00494926       0.00000534
S       -5.54389116      -5.62484640     -13.20033095       0.00211789      -0.00070057       0.00094339
S       -5.51790075      -8.30065674     -15.05084181       0.00377149       0.00579713      -0.01113586
S       -2.55985335      -7.09846951     -13.83971032      -0.00278403      -0.00127020      -0.00757109
S       -4.10801889      -5.57374960     -16.35403160       0.00299995       0.01158601       0.00238635
P       11.64967542      29.45945202      13.37470897      -0.00011319       0.00304513      -0.00049263
S       13.10095512      29.09616388      11.96124400       0.00490443       0.01392661      -0.00025465
S       11.53467689      27.85345773      14.64024627       0.00609202       0.00444445      -0.00212628
S        9.76600893      29.78021356      12.60985276       0.00044281      -0.00081675       0.00159570
S       12.27479628      31.20586395      14.30897202      -0.00189917       0.00447829       0.00531798
P       28.72624990      -1.72931116      22.08563538       0.00492740       0.00119840       0.00068396
S       29.88155647      -3.38922364      22.44130163       0.00203081      -0.00274041       0.00831190
S       26.75762435      -2.06477272      22.59945778       0.00246413       0.00246282      -0.00200931
S       28.88747025      -1.27641443      20.09265235       0.00906933      -0.01100236      -0.00080468
S       29.41003170      -0.11682128      23.19247076       0.00248583       0.00390052      -0.00599387
P       10.45555132      -2.86717708      31.95751810       0.00469329       0.00072625      -0.01086051
S        8.42361536      -2.84944037      31.57485720      -0.00161763      -0.00615112      -0.00410451
S       11.06678909      -0.92361528      32.31780309       0.00082929      -0.00611144      -0.01102980
S       11.35876446      -3.70743626      30.29767707       0.00069372      -0.00878806      -0.00417249
S       10.97955272      -3.89680606      33.65765009       0.00777463       0.00702294      -0.00565921
P       -5.36253548      -8.42875066       4.48851956      -0.00122786      -0.00095354       0.00012768
S       -6.67540893      -9.06370442       3.03495957       0.00654086      -0.00935323      -0.00531760
S       -5.19597382     -10.04010994       5.78933514      -0.00235523      -0.00560342       0.00672768
S       -6.18067477      -6.73807001       5.31553692      -0.01072619      -0.01419777       0.01151153
S       -3.45712612      -7.90619657       3.87254228      -0.00712217       0.00405554      -0.00428496
Cl      22.26597884      -1.99213319      -0.52128370       0.00702373      -0.00771696      -0.00464090
Cl       1.35608907     -21.13736651       6.64956491       0.00222178      -0.00973003       0.02025557
Cl       7.12760668      33.89938593      -4.71005707       0.00105567       0.00322196       0.00213825
Cl     -12.47518565      18.45892578      12.95378640      -0.00237458       0.00074829       0.01843979
Cl      18.10783213     -24.28322296      24.44483718      -0.00600129      -0.00940553       0.00336787
Cl      21.69266578     -11.76947678       9.46004598      -0.00503745       0.00556101      -0.01026380
Cl      18.69051580       6.93371671      13.02677440      -0.00130945      -0.00796789       0.00603979
Cl     -10.56338386      -6.68710344     -32.55162061       0.00135889      -0.00084202       0.00048497
Cl      41.49416999      -6.27506895      -3.72548345      -0.00584869       0.00740815      -0.00190061
Cl      -3.89759989       8.06426800      22.12261259      -0.00260545      -0.00136021      -0.00063929
Cl      18.82095217      -8.83068515      -7.35644690       0.00100812      -0.01076601       0.01216852
Cl      22.24859777      15.13869170      58.25318190       0.00604965      -0.01033033      -0.00075509
Li     -19.35802471      41.52528766     -37.97505836       0.00508418      -0.00367656      -0.00539085
Li      36.67723328     -31.39089213      39.54387556       0.00832740       0.00138479       0.00125246
Li     -38.57749709      49.92931493      56.69513432      -0.00493582      -0.00847845       0.01146145
Li     -15.14110735      -5.66452110     -15.41227540      -0.00056251       0.00697817      -0.01068705
Li      -0.61572144     -29.02601651    -126.59102711       0.01690885       0.01911823      -0.00336358
Li      44.72202358      13.05116889      25.25353291      -0.00906115      -0.00209280      -0.01556646
Li       4.81689017       5.45586404     -32.87653482       0.00326259      -0.00211971       0.00896786
Li     -49.80731860      67.94217396      54.39730674      -0.00722021       0.00034669      -0.00542597
Li      24.42309974       7.94164976      16.18211653       0.00258340       0.00197722      -0.00502056
Li       1.83465857      37.50827144       6.20590355      -0.00172757       0.03152790      -0.00388767
Li       1.19659195       6.39961436      -4.63602481      -0.01095245       0.02155926      -0.04129021
Li      47.85990936      72.17616578     -58.81892094       0.00152421       0.00848533      -0.00190696
Li      -8.36005922      34.30317274       4.47973288       0.00390272      -0.00480822      -0.00524386
Li      -2.09878030      -9.73955299      16.72581049       0.00285163      -0.00387096      -0.00356267
Li       9.32738118     -59.67507844     -48.39391383       0.00599959       0.00215477      -0.01089693
Li     -28.03205682      23.98631139      51.80710750      -0.01596232       0.01116069       0.00398934
Li      -7.81434548      66.78261782       5.25341890      -0.00275202      -0.00294134       0.00043931
Li      -3.77784328      21.79706728      89.66206751       0.00548427       0.00048778       0.00215592
Li      97.32104551      45.73975692      12.08804398      -0.00377153       0.02120663      -0.00586016
Li      45.62379090      26.32293254       7.03207689       0.00335936       0.01353670      -0.00469629
Li      -0.02249828      37.82693549       2.02168009       0.00454823      -0.00291789       0.00501750
Li      17.89725436     -23.29629863      96.65742485      -0.00207169       0.01113893      -0.00359246
Li      -6.72950413      28.01070224     -19.60583370      -0.00886666      -0.00757270       0.00691074
Li      60.06295703      22.65807660      -2.64903745       0.00346214       0.00147158       0.01622190
Li      20.01792237      43.42995313     -26.23836919       0.00949901       0.00129527      -0.01438356
Li       7.22700625      20.29512689     -13.02441085       0.00463328       0.01682444      -0.01374359
Li     -10.19172900      59.15877291     -22.23217862      -0.00032634       0.00301085       0.00803071
Li     -27.52645526      -9.26797211       6.98819233      -0.00523617      -0.00924159       0.01923416
Li       0.87367747     -25.02803859       0.77795210      -0.00354977       0.02067996      -0.00516095
Li      66.30215539       4.18517043      41.15851947       0.00815550       0.00263562      -0.00384888
Li     -40.20243584       0.86058376       6.89709351      -0.00379207       0.00555541      -0.00681109
Li      35.49129251      16.58160520      -9.82311818       0.00581573      -0.00162890      -0.00258937
Li      23.09729287      10.65715414      29.24972001       0.00737582       0.00061726      -0.00826149
Li     -46.86635524     -69.84996621     -13.69309752       0.00592334       0.00884469       0.00443891
Li      49.83521226      21.49752493     -20.22869093      -0.00592237      -0.00415083      -0.00193359
Li      26.57013294       0.42042755      58.77267258       0.00196074       0.00198641       0.00180647
Li      -3.97714150     -39.49313310     -31.72871417      -0.01123172       0.00086450       0.00203223
Li      -2.55452978     -21.17602659      37.55579482      -0.00586779       0.01067435       0.01167950
Li      25.19869787     -10.61705839     -49.69786593      -0.00531158      -0.00315269       0.00482023
Li     -10.70513816     -16.37538033     -13.18108407       0.00683449      -0.01326933       0.00447047
Li      40.96549519      14.23201410      -4.37403672      -0.00395645       0.00954865      -0.00327974
Li     -11.90710915      30.76451499      11.33347990      -0.01296767       0.00504594      -0.00080529
Li      -6.53746598      45.98829765      35.83836602      -0.01741487      -0.01024330       0.00462986
Li     -12.58760512      34.51703654     -51.79486114      -0.00318101       0.00230009       0.02235371
Li      35.71642649      21.27525898      25.11158591      -0.00970408       0.01660279      -0.00518667
Li      87.59077199     -48.74587519      20.96957466       0.01217094      -0.00371554       0.00111356
Li     -66.58483473     -41.56844915     -10.93919258       0.00851450      -0.00279390      -0.00714862
Li      26.40877633      12.09505434     -21.82557847      -0.00044956      -0.00643076      -0.00552269
