176
Lattice="10.055095635733188 0.0 0.0 0.0 20.110191271466377 0.0 0.0 0.0 29.90169487217901" Properties=species:S:1:pos:R:3:parent:I:1:image:I:1 pbc="T T F"
P        5.10245859       5.02755577       2.08699683        0        0
P        0.07491066      10.05509330       2.08699189        1        0
P        0.07491081       5.02754357       7.11453961        2        0
P        5.10245850       0.00000572       7.11454368        3        0
S        6.13044979       6.26995588       3.33005452        4        0
S        1.10287556       1.24239041       3.33008129        5        0
S        3.87221860       3.81671386       3.29808322        8        0
S        8.89977045       8.84422108       3.29805184        9        0
S        3.87221051       6.23840792       0.87592768       12        0
S        8.89975407       1.21084508       0.87592196       13        0
S        8.89975806       6.23839482       5.90346883       14        0
S        3.87221170       1.21085970       5.90347452       15        0
S        6.13043166       3.78515290       0.84392546       16        0
S        1.10291017       8.81272599       0.84390936       17        0
S        1.10290770       3.78517615       5.87145465       18        0
S        6.13042345       8.81269588       5.87146810       19        0
Li       7.83266988       4.76766618       4.30451935       22        0
Li       2.80514447       9.79522492       4.30451618       23        0
Li       2.80296634       7.83557691       2.34605009       26        0
Li       7.83053734       2.80803801       2.34603971       27        0
Li       7.83058418       2.21947078       6.85546810       28        0
Li       2.80293574       7.24711716       6.85551906       29        0
Li       2.80291731       2.21958185       1.82797298       30        0
Li       7.83055475       7.24704257       1.82792688       31        0
Li       2.80521491       5.28745579       4.89708192       32        0
Li       7.83265219       0.25985818       4.89697442       33        0
Li       0.21201702       3.44269391       0.50000000       36        0
Li       5.23959789       8.47020613       0.50007255       37        0
Li       5.23959682       3.44261768       5.52766202       38        0
Li       0.21201743       8.47022689       5.52756652       39        0
Li       0.21205419       6.61236488       3.67397817       40        0
Li       5.23956910       1.58492956       3.67390252       41        0
Cl       9.34385282      10.05508739       7.11454127       44        0
Cl       4.31630513       0.00001107       2.08699183       46        0
Cl       9.34385261       5.02753829       2.08698493       47        0
S        7.22017624       2.51376516       4.60075977       50        0
S        2.19262947       7.54133086       4.60077983       51        0
S        1.10287842       6.26993549       8.35762709        6        1
S        6.13045785       1.24240240       8.35759796        7        1
S        8.89976663       3.81667510       8.32559847       10        1
S        3.87221718       8.84426108       8.32562984       11        1
Li       7.83050554       7.83556070       7.37357980       24        1
Li       2.80294728       2.80801639       7.37359570       25        1
Li       5.23956897       6.61243792       8.70149218       42        1
Li       0.21205329       1.58480369       8.70154407       43        1
Cl       4.31630533       5.02755237       7.11455037       45        1
P        5.10245859      15.08265141       2.08699683        0        0
P        0.07491066      20.11018893       2.08699189        1        0
P        0.07491081      15.08263921       7.11453961        2        0
P        5.10245850      10.05510136       7.11454368        3        0
S        6.13044979      16.32505152       3.33005452        4        0
S        1.10287556      11.29748605       3.33008129        5        0
S        3.87221860      13.87180950       3.29808322        8        0
S        8.89977045      18.89931672       3.29805184        9        0
S        3.87221051      16.29350356       0.87592768       12        0
S        8.89975407      11.26594072       0.87592196       13        0
S        8.89975806      16.29349046       5.90346883       14        0
S        3.87221170      11.26595534       5.90347452       15        0
S        6.13043166      13.84024854       0.84392546       16        0
S        1.10291017      18.86782163       0.84390936       17        0
S        1.10290770      13.84027179       5.87145465       18        0
S        6.13042345      18.86779152       5.87146810       19        0
Li       7.83266988      14.82276182       4.30451935       22        0
Li       2.80514447      19.85032056       4.30451618       23        0
Li       2.80296634      17.89067255       2.34605009       26        0
Li       7.83053734      12.86313365       2.34603971       27        0
Li       7.83058418      12.27456642       6.85546810       28        0
Li       2.80293574      17.30221280       6.85551906       29        0
Li       2.80291731      12.27467749       1.82797298       30        0
Li       7.83055475      17.30213821       1.82792688       31        0
Li       2.80521491      15.34255143       4.89708192       32        0
Li       7.83265219      10.31495382       4.89697442       33        0
Li       0.21201702      13.49778955       0.50000000       36        0
Li       5.23959789      18.52530177       0.50007255       37        0
Li       5.23959682      13.49771332       5.52766202       38        0
Li       0.21201743      18.52532253       5.52756652       39        0
Li       0.21205419      16.66746052       3.67397817       40        0
Li       5.23956910      11.64002520       3.67390252       41        0
Cl       9.34385282      20.11018302       7.11454127       44        0
Cl       4.31630513      10.05510671       2.08699183       46        0
Cl       9.34385261      15.08263393       2.08698493       47        0
S        7.22017624      12.56886080       4.60075977       50        0
S        2.19262947      17.59642650       4.60077983       51        0
S        1.10287842      16.32503113       8.35762709        6        1
S        6.13045785      11.29749804       8.35759796        7        1
S        8.89976663      13.87177074       8.32559847       10        1
S        3.87221718      18.89935672       8.32562984       11        1
Li       7.83050554      17.89065634       7.37357980       24        1
Li       2.80294728      12.86311203       7.37359570       25        1
Li       5.23956897      16.66753356       8.70149218       42        1
Li       0.21205329      11.63989933       8.70154407       43        1
Cl       4.31630533      15.08264801       7.11455037       45        1
Ag       5.23960000       6.61240000      11.50154407        0        0
Ag       5.23960000       9.48528447      11.50154407        0        0
Ag       5.23960000      12.35816893      11.50154407        0        0
Ag       5.23960000      15.23105340      11.50154407        0        0
Ag       5.23960000      18.10393787      11.50154407        0        0
Ag       5.23960000      20.97682234      11.50154407        0        0
Ag       5.23960000      23.84970680      11.50154407        0        0
Ag       7.75337391       5.17595777      11.50154407        0        0
Ag       7.75337391       8.04884223      11.50154407        0        0
Ag       7.75337391      10.92172670      11.50154407        0        0
Ag       7.75337391      13.79461117      11.50154407        0        0
Ag       7.75337391      16.66749564      11.50154407        0        0
Ag       7.75337391      19.54038010      11.50154407        0        0
Ag       7.75337391      22.41326457      11.50154407        0        0
Ag      10.26714782       6.61240000      11.50154407        0        0
Ag      10.26714782       9.48528447      11.50154407        0        0
Ag      10.26714782      12.35816893      11.50154407        0        0
Ag      10.26714782      15.23105340      11.50154407        0        0
Ag      10.26714782      18.10393787      11.50154407        0        0
Ag      10.26714782      20.97682234      11.50154407        0        0
Ag      10.26714782      23.84970680      11.50154407        0        0
Ag      12.78092173       5.17595777      11.50154407        0        0
Ag      12.78092173       8.04884223      11.50154407        0        0
Ag      12.78092173      10.92172670      11.50154407        0        0
Ag      12.78092173      13.79461117      11.50154407        0        0
Ag      12.78092173      16.66749564      11.50154407        0        0
Ag      12.78092173      19.54038010      11.50154407        0        0
Ag      12.78092173      22.41326457      11.50154407        0        0
Ag       6.07752464       5.17595777      13.85161947        0        0
Ag       6.07752464       8.04884223      13.85161947        0        0
Ag       6.07752464      10.92172670      13.85161947        0        0
Ag       6.07752464      13.79461117      13.85161947        0        0
Ag       6.07752464      16.66749564      13.85161947        0        0
Ag       6.07752464      19.54038010      13.85161947        0        0
Ag       6.07752464      22.41326457      13.85161947        0        0
Ag       8.59129855       6.61240000      13.85161947        0        0
Ag       8.59129855       9.48528447      13.85161947        0        0
Ag       8.59129855      12.35816893      13.85161947        0        0
Ag       8.59129855      15.23105340      13.85161947        0        0
Ag       8.59129855      18.10393787      13.85161947        0        0
Ag       8.59129855      20.97682234      13.85161947        0        0
Ag       8.59129855      23.84970680      13.85161947        0        0
Ag      11.10507245       5.17595777      13.85161947        0        0
Ag      11.10507245       8.04884223      13.85161947        0        0
Ag      11.10507245      10.92172670      13.85161947        0        0
Ag      11.10507245      13.79461117      13.85161947        0        0
Ag      11.10507245      16.66749564      13.85161947        0        0
Ag      11.10507245      19.54038010      13.85161947        0        0
Ag      11.10507245      22.41326457      13.85161947        0        0
Ag      13.61884636       6.61240000      13.85161947        0        0
Ag      13.61884636       9.48528447      13.85161947        0        0
Ag      13.61884636      12.35816893      13.85161947        0        0
Ag      13.61884636      15.23105340      13.85161947        0        0
Ag      13.61884636      18.10393787      13.85161947        0        0
Ag      13.61884636      20.97682234      13.85161947        0        0
Ag      13.61884636      23.84970680      13.85161947        0        0
Ag       4.40167536       5.17595777      16.20169487        0        0
Ag       4.40167536       8.04884223      16.20169487        0        0
Ag       4.40167536      10.92172670      16.20169487        0        0
Ag       4.40167536      13.79461117      16.20169487        0        0
Ag       4.40167536      16.66749564      16.20169487        0        0
Ag       4.40167536      19.54038010      16.20169487        0        0
Ag       4.40167536      22.41326457      16.20169487        0        0
Ag       6.91544927       6.61240000      16.20169487        0        0
Ag       6.91544927       9.48528447      16.20169487        0        0
Ag       6.91544927      12.35816893      16.20169487        0        0
Ag       6.91544927      15.23105340      16.20169487        0        0
Ag       6.91544927      18.10393787      16.20169487        0        0
Ag       6.91544927      20.97682234      16.20169487        0        0
Ag       6.91544927      23.84970680      16.20169487        0        0
Ag       9.42922318       5.17595777      16.20169487        0        0
Ag       9.42922318       8.04884223      16.20169487        0        0
Ag       9.42922318      10.92172670      16.20169487        0        0
Ag       9.42922318      13.79461117      16.20169487        0        0
Ag       9.42922318      16.66749564      16.20169487        0        0
Ag       9.42922318      19.54038010      16.20169487        0        0
Ag       9.42922318      22.41326457      16.20169487        0        0
Ag      11.94299709       6.61240000      16.20169487        0        0
Ag      11.94299709       9.48528447      16.20169487        0        0
Ag      11.94299709      12.35816893      16.20169487        0        0
Ag      11.94299709      15.23105340      16.20169487        0        0
Ag      11.94299709      18.10393787      16.20169487        0        0
Ag      11.94299709      20.97682234      16.20169487        0        0
Ag      11.94299709      23.84970680      16.20169487        0        0
