
     Program PWSCF v.7.4.1 starts on 26Sep2026 at 20: 5:45 

     This program is part of the open-source Quantum ESPRESSO suite
     for quantum simulation of materials; please cite
         "P. Giannozzi et al., J. Phys.:Condens. Matter 21 395502 (2009);
         "P. Giannozzi et al., J. Phys.:Condens. Matter 29 465901 (2017);
         "P. Giannozzi et al., J. Chem. Phys. 152 154105 (2020);
          URL http://www.quantum-espresso.org", 
     in publications or presentations arising from this work. More details at
     http://www.quantum-espresso.org/quote

     Parallel version (MPI & OpenMP), running on      16 processor cores
     Number of MPI processes:                 1
     Threads/MPI process:                    16

     MPI processes distributed on     1 nodes
     83866 MiB available memory on the printing compute node when the environment starts
 
     Reading input from pw.in

     Current dimensions of program PWSCF are:
     Max number of different atomic species (ntypx) = 10
     Max number of k-points (npk) =  40000
     Max angular momentum in pseudopotentials (lmaxx) =  4
     Presently no symmetry can be used with electric field

     file C.pbe-n-kjpaw_psl.1.0.0.UPF: wavefunction(s)  2S 2P renormalized
 
     Subspace diagonalization in iterative solution of the eigenvalue problem:
     a serial algorithm will be used

 
     G-vector sticks info
     --------------------
     sticks:   dense  smooth     PW     G-vecs:    dense   smooth      PW
     Sum        3193    1273    367               757641   191735   29935
 
     Using Slab Decomposition
 


     bravais-lattice index     =            0
     lattice parameter (alat)  =       9.4208  a.u.
     unit-cell volume          =    3784.0407 (a.u.)^3
     number of atoms/cell      =           20
     number of atomic types    =            2
     number of electrons       =       260.00
     number of Kohn-Sham states=          156
     kinetic-energy cutoff     =      52.0000  Ry
     charge density cutoff     =     520.0000  Ry
     scf convergence threshold =      1.0E-08
     mixing beta               =       0.3000
     number of iterations used =            8  local-TF  mixing
     Exchange-correlation= SLA  PW   PBX  PBC
                           (   1   4   3   4   0   0   0)

     GPU acceleration is ACTIVE.  1 visible GPUs per MPI rank


     celldm(1)=   9.420781  celldm(2)=   0.000000  celldm(3)=   0.000000
     celldm(4)=   0.000000  celldm(5)=   0.000000  celldm(6)=   0.000000

     crystal axes: (cart. coord. in units of alat)
               a(1) = (   1.000000  -0.000000   0.000000 )  
               a(2) = (   0.500000   0.866025   0.000000 )  
               a(3) = (   0.000000   0.000000   5.225940 )  

     reciprocal axes: (cart. coord. in units 2 pi/alat)
               b(1) = (  1.000000 -0.577350  0.000000 )  
               b(2) = (  0.000000  1.154701 -0.000000 )  
               b(3) = ( -0.000000  0.000000  0.191353 )  


     PseudoPot. # 1 for Ag read from file:
     /home/ubuntu/wad4l/pseudo_kgy/Ag_ONCV_PBE-1.0.oncvpsp.upf
     MD5 check sum: 94f47bd0669c641108e45594df92fabc
     Pseudo is Norm-conserving, Zval = 19.0
     Generated using ONCVPSP code by D. R. Hamann
     Using radial grid of 1398 points,  6 beta functions with: 
                l(1) =   0
                l(2) =   0
                l(3) =   1
                l(4) =   1
                l(5) =   2
                l(6) =   2

     PseudoPot. # 2 for C  read from file:
     /home/ubuntu/wad4l/pseudo_kgy/C.pbe-n-kjpaw_psl.1.0.0.UPF
     MD5 check sum: 5d2aebdfa2cae82b50a7e79e9516da0f
     Pseudo is Projector augmented-wave + core cor, Zval =  4.0
     Generated using "atomic" code by A. Dal Corso  v.5.1
     Shape of augmentation charge: PSQ
     Using radial grid of 1073 points,  4 beta functions with: 
                l(1) =   0
                l(2) =   0
                l(3) =   1
                l(4) =   1
     Q(r) pseudized with 0 coefficients 


     atomic species   valence    mass     pseudopotential
     Ag               19.00   107.86820     Ag( 1.00)
     C                 4.00    12.01100     C ( 1.00)

     No symmetry found



   Cartesian axes

     site n.     atom                  positions (alat units)
         1        Ag     tau(   1) = (   0.3337695   0.5765948   0.5717001  )
         2        Ag     tau(   2) = (   0.8337695   0.8652699   0.5717001  )
         3        Ag     tau(   3) = (   0.1686118   0.2891880   1.0412003  )
         4        Ag     tau(   4) = (   0.5004501   0.2909658   0.1002956  )
         5        Ag     tau(   5) = (   0.8337695   0.2879196   0.5717001  )
         6        Ag     tau(   6) = (   0.6682533   0.5780678   1.0411952  )
         7        Ag     tau(   7) = (   0.5010511   0.2905737   1.5138552  )
         8        Ag     tau(   8) = (   1.0004501   0.5796409   0.1002956  )
         9        Ag     tau(   9) = (   1.0010597   0.5792406   1.5110488  )
        10        Ag     tau(  10) = (   0.6686160   0.0009230   1.0411962  )
        11        Ag     tau(  11) = (   1.0004501   0.0022906   0.1002956  )
        12        Ag     tau(  12) = (   1.0010502   0.0018969   1.5138803  )
        13        C      tau(  13) = (   0.5004501   0.2909658   3.5197926  )
        14        C      tau(  14) = (   0.7504501   0.4353033   3.5209105  )
        15        C      tau(  15) = (   0.7504501   0.7239785   3.5209137  )
        16        C      tau(  16) = (   1.0004501   0.8683160   3.5209103  )
        17        C      tau(  17) = (   1.0004501   0.2909658   3.5209144  )
        18        C      tau(  18) = (   1.2504501   0.4353033   3.5209109  )
        19        C      tau(  19) = (   1.2504501   0.7239785   3.5209142  )
        20        C      tau(  20) = (   1.5004501   0.8683160   3.5198032  )

     --------------------------------------------
     DFT-D3 Dispersion Correction (no 3-body):
     --------------------------------------------
       Reference C6 values for interpolation: 

         atom   Coordination number   C6
         C          0.000            98.23
         C          0.987            86.49
         C          1.998            58.72
         C          2.999            51.56
         C          3.984            36.41
         Ag         0.000           853.49
         Ag         0.968           537.23

       Values used:

         atom   Coordination number  R0_AB[au]  C6      C8
         Ag         9.085            3.147    537.23  47741.54
         Ag         9.085            3.147    537.23  47741.54
         Ag         9.081            3.147    537.23  47741.54
         Ag         6.766            3.147    537.23  47741.54
         Ag         9.085            3.147    537.23  47741.54
         Ag         9.080            3.147    537.23  47741.54
         Ag         6.749            3.147    537.23  47741.54
         Ag         6.766            3.147    537.23  47741.54
         Ag         6.786            3.147    537.23  47741.54
         Ag         9.080            3.147    537.23  47741.54
         Ag         6.766            3.147    537.23  47741.54
         Ag         6.749            3.147    537.23  47741.54
         C          3.268            2.750     49.14   1421.11
         C          3.268            2.750     49.14   1421.11
         C          3.268            2.750     49.14   1421.11
         C          3.268            2.750     49.14   1421.11
         C          3.268            2.750     49.14   1421.11
         C          3.268            2.750     49.14   1421.11
         C          3.268            2.750     49.14   1421.11
         C          3.268            2.750     49.14   1421.11

         Molecular C6 ( Ry / a.u.^6 ) =    111573.43


     number of k points=    20  Marzari-Vanderbilt smearing, width (Ry)=  0.0100
                       cart. coord. in units 2pi/alat
        k(    1) = (   0.0000000   0.0000000   0.0000000), wk =   0.0555556
        k(    2) = (   0.0000000   0.1924501   0.0000000), wk =   0.1111111
        k(    3) = (   0.0000000   0.3849002   0.0000000), wk =   0.1111111
        k(    4) = (   0.0000000  -0.5773503   0.0000000), wk =   0.0555556
        k(    5) = (   0.1666667  -0.0962250   0.0000000), wk =   0.1111111
        k(    6) = (   0.1666667   0.0962250   0.0000000), wk =   0.1111111
        k(    7) = (   0.1666667   0.2886751   0.0000000), wk =   0.1111111
        k(    8) = (   0.1666667  -0.6735753   0.0000000), wk =   0.1111111
        k(    9) = (   0.1666667  -0.4811252   0.0000000), wk =   0.1111111
        k(   10) = (   0.1666667  -0.2886751   0.0000000), wk =   0.1111111
        k(   11) = (   0.3333333  -0.1924501   0.0000000), wk =   0.1111111
        k(   12) = (   0.3333333  -0.0000000   0.0000000), wk =   0.1111111
        k(   13) = (   0.3333333   0.1924501   0.0000000), wk =   0.1111111
        k(   14) = (   0.3333333  -0.7698004   0.0000000), wk =   0.1111111
        k(   15) = (   0.3333333  -0.5773503   0.0000000), wk =   0.1111111
        k(   16) = (   0.3333333  -0.3849002   0.0000000), wk =   0.1111111
        k(   17) = (  -0.5000000   0.2886751   0.0000000), wk =   0.0555556
        k(   18) = (  -0.5000000   0.4811252   0.0000000), wk =   0.1111111
        k(   19) = (  -0.5000000   0.6735753   0.0000000), wk =   0.1111111
        k(   20) = (  -0.5000000  -0.2886751   0.0000000), wk =   0.0555556

     Dense  grid:   757641 G-vectors     FFT dimensions: (  72,  72, 360)

     Smooth grid:   191735 G-vectors     FFT dimensions: (  45,  45, 240)

     Estimated max dynamical RAM per process >       1.44 GB

     Check: negative core charge=   -0.000001

     Initial potential from superposition of free atoms

     starting charge     259.9962, renormalised to     260.0000

     negative rho (up, down):  2.972E-06 0.000E+00
 
     Adding external electric field

     Computed dipole along edir(3) : 
        Dipole               -0.0093 Ry au,         -0.0236 Debye
        Dipole field         -0.0000 Ry au, 
 
        Potential amp.        0.0029 Ry
        Total length         47.3429 bohr
 
     Starting wfcs are  152 randomized atomic wfcs +    4 random wfcs
     Checking if some PAW data can be deallocated... 

     total cpu time spent up to now is        4.2 secs

     Self-consistent Calculation

     iteration #  1     ecut=    52.00 Ry     beta= 0.30
     Davidson diagonalization with overlap
     ethr =  1.00E-02,  avg # of iterations =  4.0

     Threshold (ethr) on eigenvalues was too large:
     Diagonalizing with lowered threshold

     Davidson diagonalization with overlap
     ethr =  6.02E-04,  avg # of iterations =  2.8
 
     Adding external electric field

     Computed dipole along edir(3) : 
        Dipole               -0.0076 Ry au,         -0.0194 Debye
        Dipole field         -0.0000 Ry au, 
 
        Potential amp.        0.0024 Ry
        Total length         47.3429 bohr
 

     total cpu time spent up to now is       14.5 secs

     total energy              =   -3596.11182785 Ry
     estimated scf accuracy    <       1.58520760 Ry

     iteration #  2     ecut=    52.00 Ry     beta= 0.30
     Davidson diagonalization with overlap
     ethr =  6.10E-04,  avg # of iterations =  1.3
 
     Adding external electric field

     Computed dipole along edir(3) : 
        Dipole               -0.0079 Ry au,         -0.0201 Debye
        Dipole field         -0.0000 Ry au, 
 
        Potential amp.        0.0025 Ry
        Total length         47.3429 bohr
 

     total cpu time spent up to now is       19.7 secs

     total energy              =   -3595.76315784 Ry
     estimated scf accuracy    <       0.95419916 Ry

     iteration #  3     ecut=    52.00 Ry     beta= 0.30
     Davidson diagonalization with overlap
     ethr =  3.67E-04,  avg # of iterations =  9.0
 
     Adding external electric field

     Computed dipole along edir(3) : 
        Dipole               -0.0185 Ry au,         -0.0471 Debye
        Dipole field         -0.0001 Ry au, 
 
        Potential amp.        0.0058 Ry
        Total length         47.3429 bohr
 

     total cpu time spent up to now is       26.3 secs

     total energy              =   -3595.81321883 Ry
     estimated scf accuracy    <       0.18363620 Ry

     iteration #  4     ecut=    52.00 Ry     beta= 0.30
     Davidson diagonalization with overlap
     ethr =  7.06E-05,  avg # of iterations =  4.8
 
     Adding external electric field

     Computed dipole along edir(3) : 
        Dipole               -0.0719 Ry au,         -0.1827 Debye
        Dipole field         -0.0002 Ry au, 
 
        Potential amp.        0.0226 Ry
        Total length         47.3429 bohr
 

     total cpu time spent up to now is       32.1 secs

     total energy              =   -3595.78642767 Ry
     estimated scf accuracy    <       0.10357151 Ry

     iteration #  5     ecut=    52.00 Ry     beta= 0.30
     Davidson diagonalization with overlap
     c_bands:  1 eigenvalues not converged
     ethr =  3.98E-05,  avg # of iterations = 10.3
 
     Adding external electric field

     Computed dipole along edir(3) : 
        Dipole               -0.0713 Ry au,         -0.1813 Debye
        Dipole field         -0.0002 Ry au, 
 
        Potential amp.        0.0224 Ry
        Total length         47.3429 bohr
 

     total cpu time spent up to now is       38.8 secs

     total energy              =   -3595.79590784 Ry
     estimated scf accuracy    <       0.09154183 Ry

     iteration #  6     ecut=    52.00 Ry     beta= 0.30
     Davidson diagonalization with overlap
     ethr =  3.52E-05,  avg # of iterations =  1.0
 
     Adding external electric field

     Computed dipole along edir(3) : 
        Dipole               -0.0501 Ry au,         -0.1274 Debye
        Dipole field         -0.0002 Ry au, 
 
        Potential amp.        0.0158 Ry
        Total length         47.3429 bohr
 

     total cpu time spent up to now is       44.0 secs

     total energy              =   -3595.78876650 Ry
     estimated scf accuracy    <       0.08406771 Ry

     iteration #  7     ecut=    52.00 Ry     beta= 0.30
     Davidson diagonalization with overlap
     ethr =  3.23E-05,  avg # of iterations =  8.3
 
     Adding external electric field

     Computed dipole along edir(3) : 
        Dipole               -0.0405 Ry au,         -0.1031 Debye
        Dipole field         -0.0001 Ry au, 
 
        Potential amp.        0.0128 Ry
        Total length         47.3429 bohr
 

     total cpu time spent up to now is       50.3 secs

     total energy              =   -3595.78997043 Ry
     estimated scf accuracy    <       0.04354055 Ry

     iteration #  8     ecut=    52.00 Ry     beta= 0.30
     Davidson diagonalization with overlap
     ethr =  1.67E-05,  avg # of iterations =  1.1
 
     Adding external electric field

     Computed dipole along edir(3) : 
        Dipole               -0.0302 Ry au,         -0.0767 Debye
        Dipole field         -0.0001 Ry au, 
 
        Potential amp.        0.0095 Ry
        Total length         47.3429 bohr
 

     total cpu time spent up to now is       55.5 secs

     total energy              =   -3595.78994549 Ry
     estimated scf accuracy    <       0.04084975 Ry

     iteration #  9     ecut=    52.00 Ry     beta= 0.30
     Davidson diagonalization with overlap
     ethr =  1.57E-05,  avg # of iterations =  1.0
 
     Adding external electric field

     Computed dipole along edir(3) : 
        Dipole                0.0134 Ry au,          0.0340 Debye
        Dipole field          0.0000 Ry au, 
 
        Potential amp.       -0.0042 Ry
        Total length         47.3429 bohr
 

     total cpu time spent up to now is       60.7 secs

     total energy              =   -3595.79021171 Ry
     estimated scf accuracy    <       0.03694039 Ry

     iteration # 10     ecut=    52.00 Ry     beta= 0.30
     Davidson diagonalization with overlap
     ethr =  1.42E-05,  avg # of iterations =  4.5
 
     Adding external electric field

     Computed dipole along edir(3) : 
        Dipole                0.0603 Ry au,          0.1533 Debye
        Dipole field          0.0002 Ry au, 
 
        Potential amp.       -0.0190 Ry
        Total length         47.3429 bohr
 

     total cpu time spent up to now is       66.5 secs

     total energy              =   -3595.79024744 Ry
     estimated scf accuracy    <       0.01912652 Ry

     iteration # 11     ecut=    52.00 Ry     beta= 0.30
     Davidson diagonalization with overlap
     c_bands:  2 eigenvalues not converged
     ethr =  7.36E-06,  avg # of iterations =  7.2
 
     Adding external electric field

     Computed dipole along edir(3) : 
        Dipole                0.0281 Ry au,          0.0714 Debye
        Dipole field          0.0001 Ry au, 
 
        Potential amp.       -0.0088 Ry
        Total length         47.3429 bohr
 

     total cpu time spent up to now is       72.6 secs

     total energy              =   -3595.78931044 Ry
     estimated scf accuracy    <       0.05284788 Ry

     iteration # 12     ecut=    52.00 Ry     beta= 0.30
     Davidson diagonalization with overlap
     ethr =  7.36E-06,  avg # of iterations =  4.7

     negative rho (up, down):  1.017E-05 0.000E+00
 
     Adding external electric field

     Computed dipole along edir(3) : 
        Dipole                0.0299 Ry au,          0.0760 Debye
        Dipole field          0.0001 Ry au, 
 
        Potential amp.       -0.0094 Ry
        Total length         47.3429 bohr
 

     total cpu time spent up to now is       78.5 secs

     total energy              =   -3595.79001915 Ry
     estimated scf accuracy    <       0.00015671 Ry

     iteration # 13     ecut=    52.00 Ry     beta= 0.30
     Davidson diagonalization with overlap
     ethr =  6.03E-08,  avg # of iterations =  6.5

     negative rho (up, down):  5.443E-06 0.000E+00
 
     Adding external electric field

     Computed dipole along edir(3) : 
        Dipole                0.0217 Ry au,          0.0552 Debye
        Dipole field          0.0001 Ry au, 
 
        Potential amp.       -0.0068 Ry
        Total length         47.3429 bohr
 

     total cpu time spent up to now is       85.3 secs

     total energy              =   -3595.79002682 Ry
     estimated scf accuracy    <       0.00034252 Ry

     iteration # 14     ecut=    52.00 Ry     beta= 0.30
     Davidson diagonalization with overlap
     ethr =  6.03E-08,  avg # of iterations =  1.4

     negative rho (up, down):  3.756E-04 0.000E+00
 
     Adding external electric field

     Computed dipole along edir(3) : 
        Dipole                0.0302 Ry au,          0.0766 Debye
        Dipole field          0.0001 Ry au, 
 
        Potential amp.       -0.0095 Ry
        Total length         47.3429 bohr
 

     total cpu time spent up to now is       90.6 secs

     total energy              =   -3595.79005411 Ry
     estimated scf accuracy    <       0.00096041 Ry

     iteration # 15     ecut=    52.00 Ry     beta= 0.30
     Davidson diagonalization with overlap
     ethr =  6.03E-08,  avg # of iterations =  6.3

     negative rho (up, down):  5.585E-05 0.000E+00
 
     Adding external electric field

     Computed dipole along edir(3) : 
        Dipole                0.0211 Ry au,          0.0537 Debye
        Dipole field          0.0001 Ry au, 
 
        Potential amp.       -0.0066 Ry
        Total length         47.3429 bohr
 

     total cpu time spent up to now is       96.4 secs

     total energy              =   -3595.79005188 Ry
     estimated scf accuracy    <       0.00146582 Ry

     iteration # 16     ecut=    52.00 Ry     beta= 0.30
     Davidson diagonalization with overlap
     ethr =  6.03E-08,  avg # of iterations =  3.2

     negative rho (up, down):  6.904E-05 0.000E+00
 
     Adding external electric field

     Computed dipole along edir(3) : 
        Dipole                0.0245 Ry au,          0.0623 Debye
        Dipole field          0.0001 Ry au, 
 
        Potential amp.       -0.0077 Ry
        Total length         47.3429 bohr
 

     total cpu time spent up to now is      102.0 secs

     total energy              =   -3595.79008886 Ry
     estimated scf accuracy    <       0.00037951 Ry

     iteration # 17     ecut=    52.00 Ry     beta= 0.30
     Davidson diagonalization with overlap
     ethr =  6.03E-08,  avg # of iterations =  3.8

     negative rho (up, down):  1.481E-04 0.000E+00
 
     Adding external electric field

     Computed dipole along edir(3) : 
        Dipole                0.0263 Ry au,          0.0668 Debye
        Dipole field          0.0001 Ry au, 
 
        Potential amp.       -0.0083 Ry
        Total length         47.3429 bohr
 

     total cpu time spent up to now is      107.7 secs

     total energy              =   -3595.79009141 Ry
     estimated scf accuracy    <       0.00001171 Ry

     iteration # 18     ecut=    52.00 Ry     beta= 0.30
     Davidson diagonalization with overlap
     ethr =  4.50E-09,  avg # of iterations =  1.4

     negative rho (up, down):  2.650E-05 0.000E+00
 
     Adding external electric field

     Computed dipole along edir(3) : 
        Dipole                0.0254 Ry au,          0.0646 Debye
        Dipole field          0.0001 Ry au, 
 
        Potential amp.       -0.0080 Ry
        Total length         47.3429 bohr
 

     total cpu time spent up to now is      113.1 secs

     total energy              =   -3595.79009204 Ry
     estimated scf accuracy    <       0.00006163 Ry

     iteration # 19     ecut=    52.00 Ry     beta= 0.30
     Davidson diagonalization with overlap
     ethr =  4.50E-09,  avg # of iterations =  1.4

     negative rho (up, down):  1.629E-05 0.000E+00
 
     Adding external electric field

     Computed dipole along edir(3) : 
        Dipole                0.0251 Ry au,          0.0639 Debye
        Dipole field          0.0001 Ry au, 
 
        Potential amp.       -0.0079 Ry
        Total length         47.3429 bohr
 

     total cpu time spent up to now is      118.4 secs

     total energy              =   -3595.79009257 Ry
     estimated scf accuracy    <       0.00000080 Ry

     iteration # 20     ecut=    52.00 Ry     beta= 0.30
     Davidson diagonalization with overlap
     ethr =  3.07E-10,  avg # of iterations =  2.0

     negative rho (up, down):  2.029E-05 0.000E+00
 
     Adding external electric field

     Computed dipole along edir(3) : 
        Dipole                0.0250 Ry au,          0.0636 Debye
        Dipole field          0.0001 Ry au, 
 
        Potential amp.       -0.0079 Ry
        Total length         47.3429 bohr
 

     total cpu time spent up to now is      123.9 secs

     total energy              =   -3595.79009257 Ry
     estimated scf accuracy    <       0.00000140 Ry

     iteration # 21     ecut=    52.00 Ry     beta= 0.30
     Davidson diagonalization with overlap
     ethr =  3.07E-10,  avg # of iterations =  1.0

     negative rho (up, down):  1.947E-05 0.000E+00
 
     Adding external electric field

     Computed dipole along edir(3) : 
        Dipole                0.0250 Ry au,          0.0636 Debye
        Dipole field          0.0001 Ry au, 
 
        Potential amp.       -0.0079 Ry
        Total length         47.3429 bohr
 

     total cpu time spent up to now is      129.2 secs

     total energy              =   -3595.79009259 Ry
     estimated scf accuracy    <       0.00000007 Ry

     iteration # 22     ecut=    52.00 Ry     beta= 0.30
     Davidson diagonalization with overlap
     ethr =  2.86E-11,  avg # of iterations =  1.9

     negative rho (up, down):  1.822E-05 0.000E+00
 
     Adding external electric field

     Computed dipole along edir(3) : 
        Dipole                0.0250 Ry au,          0.0636 Debye
        Dipole field          0.0001 Ry au, 
 
        Potential amp.       -0.0079 Ry
        Total length         47.3429 bohr
 

     total cpu time spent up to now is      134.6 secs

     total energy              =   -3595.79009260 Ry
     estimated scf accuracy    <       0.00000017 Ry

     iteration # 23     ecut=    52.00 Ry     beta= 0.30
     Davidson diagonalization with overlap
     ethr =  2.86E-11,  avg # of iterations =  1.0

     negative rho (up, down):  1.793E-05 0.000E+00
 
     Adding external electric field

     Computed dipole along edir(3) : 
        Dipole                0.0250 Ry au,          0.0635 Debye
        Dipole field          0.0001 Ry au, 
 
        Potential amp.       -0.0079 Ry
        Total length         47.3429 bohr
 

     total cpu time spent up to now is      139.8 secs

     total energy              =   -3595.79009261 Ry
     estimated scf accuracy    <       0.00000009 Ry

     iteration # 24     ecut=    52.00 Ry     beta= 0.30
     Davidson diagonalization with overlap
     ethr =  2.86E-11,  avg # of iterations =  1.0

     negative rho (up, down):  1.860E-05 0.000E+00
 
     Adding external electric field

     Computed dipole along edir(3) : 
        Dipole                0.0250 Ry au,          0.0635 Debye
        Dipole field          0.0001 Ry au, 
 
        Potential amp.       -0.0079 Ry
        Total length         47.3429 bohr
 

     total cpu time spent up to now is      145.0 secs

     total energy              =   -3595.79009260 Ry
     estimated scf accuracy    <       0.00000002 Ry

     iteration # 25     ecut=    52.00 Ry     beta= 0.30
     Davidson diagonalization with overlap
     ethr =  8.78E-12,  avg # of iterations =  1.0

     negative rho (up, down):  1.928E-05 0.000E+00
 
     Adding external electric field

     Computed dipole along edir(3) : 
        Dipole                0.0259 Ry au,          0.0659 Debye
        Dipole field          0.0001 Ry au, 
 
        Potential amp.       -0.0082 Ry
        Total length         47.3429 bohr
 

     total cpu time spent up to now is      150.1 secs

     End of self-consistent calculation

          k = 0.0000 0.0000 0.0000 ( 24029 PWs)   bands (ev):

   -86.8430 -86.8336 -86.8250 -86.8250 -86.8243 -86.8243 -86.6325 -86.6324
   -86.6195 -86.6191 -86.6189 -86.6157 -50.3530 -50.3269 -50.3265 -50.3262
   -50.3258 -50.3242 -50.3240 -50.2992 -50.2990 -50.2738 -50.2735 -50.2729
   -50.2727 -50.2683 -50.2256 -50.2251 -50.2121 -50.2119 -50.1159 -50.1158
   -50.1154 -50.1154 -50.1130 -50.1130 -50.1109 -50.1108 -50.0538 -50.0513
   -50.0410 -50.0407 -50.0405 -50.0370 -50.0254 -50.0250 -50.0242 -50.0241
   -14.0491  -8.9547  -8.9547  -8.9546  -7.8242  -7.8242  -7.8242  -2.1864
    -2.1835  -1.2939  -1.1226  -1.1225  -1.1225  -1.0203  -0.8544  -0.3846
    -0.3831  -0.3658  -0.3643  -0.3637  -0.3621  -0.0173  -0.0163  -0.0144
    -0.0134   0.1761   0.1785   0.1880   0.1934   0.4184   0.4752   0.4764
     0.5217   0.5240   0.5922   0.5936   0.5968   0.5982   0.6040   0.7437
     0.7447   0.7966   0.7978   0.9152   0.9154   0.9180   0.9180   0.9404
     0.9405   0.9438   0.9440   1.3653   1.3676   1.4845   1.4913   1.5185
     1.5204   1.5211   1.5230   1.6340   1.6456   1.8748   1.9324   1.9335
     1.9786   1.9831   2.1049   2.1062   2.1557   2.1561   2.1574   2.1574
     2.1592   2.1596   2.2250   2.2267   2.9249   2.9249   2.9249   4.2705
     5.4845   6.8884   6.8889   6.8889   8.5333   8.6916   8.6957   8.8836
     8.8841   8.8882   8.8886   9.0413   9.6677   9.6703   9.6712   9.6738
     9.8931  10.0716  10.0738  10.1295  11.3313  11.3356  11.3383  11.3425
    11.5685  11.5693  11.7767  12.2940

          k = 0.0000 0.1925 0.0000 ( 23919 PWs)   bands (ev):

   -86.8418 -86.8327 -86.8263 -86.8260 -86.8242 -86.8241 -86.6315 -86.6314
   -86.6199 -86.6197 -86.6194 -86.6163 -50.3499 -50.3435 -50.3384 -50.3373
   -50.3327 -50.3074 -50.3015 -50.2917 -50.2860 -50.2766 -50.2706 -50.2701
   -50.2677 -50.2659 -50.2349 -50.2293 -50.2229 -50.2148 -50.1330 -50.1322
   -50.1277 -50.1269 -50.0923 -50.0913 -50.0896 -50.0886 -50.0526 -50.0507
   -50.0413 -50.0412 -50.0410 -50.0375 -50.0364 -50.0353 -50.0281 -50.0271
   -13.8883 -10.1544  -9.3161  -9.3161  -7.2015  -7.2014  -6.3858  -1.9926
    -1.9356  -1.5996  -1.5995  -1.0724  -0.9645  -0.8422  -0.6666  -0.6633
    -0.5372  -0.4789  -0.4693  -0.3957  -0.2588  -0.1627  -0.0889  -0.0644
    -0.0302   0.0282   0.1264   0.1468   0.1484   0.3058   0.3876   0.4138
     0.4928   0.5422   0.6062   0.6225   0.6342   0.6636   0.6896   0.7156
     0.7224   0.7503   0.7948   0.8566   0.8628   0.9234   0.9442   1.0345
     1.1242   1.1960   1.2582   1.2989   1.3094   1.4134   1.4160   1.4909
     1.5139   1.5293   1.5914   1.5985   1.6196   1.7595   1.7893   1.8183
     1.8303   1.9069   1.9646   1.9800   2.1104   2.1202   2.1214   2.1813
     2.2205   2.2466   2.3008   2.3656   2.5951   2.8238   2.8239   4.6332
     6.0116   6.1471   7.0210   7.1493   7.1496   7.2886   7.6394   7.9454
     8.2030   8.4366   8.6813   8.7531   9.2460   9.9694  10.1077  10.1463
    10.3199  10.5148  10.5778  10.7460  11.5443  11.5697  11.6192  11.7778
    11.9706  12.3788  12.5068  12.6480

          k = 0.0000 0.3849 0.0000 ( 23951 PWs)   bands (ev):

   -86.8384 -86.8304 -86.8295 -86.8273 -86.8253 -86.8243 -86.6292 -86.6286
   -86.6217 -86.6209 -86.6201 -86.6175 -50.3567 -50.3497 -50.3418 -50.3357
   -50.3287 -50.3019 -50.2937 -50.2819 -50.2798 -50.2692 -50.2668 -50.2641
   -50.2554 -50.2545 -50.2515 -50.2508 -50.2358 -50.2237 -50.1456 -50.1448
   -50.1222 -50.1213 -50.0704 -50.0696 -50.0671 -50.0668 -50.0651 -50.0627
   -50.0501 -50.0486 -50.0430 -50.0419 -50.0417 -50.0386 -50.0370 -50.0359
   -13.4077 -11.5172  -9.7130  -9.7130  -6.0756  -6.0756  -4.3302  -2.7193
    -2.7193  -1.4252  -1.2786  -0.9115  -0.8126  -0.8065  -0.5801  -0.5303
    -0.5103  -0.5044  -0.4824  -0.4321  -0.3404  -0.3207  -0.2812  -0.1756
    -0.1017  -0.1004   0.0263   0.0477   0.0601   0.1644   0.2055   0.2224
     0.3160   0.4330   0.4485   0.4941   0.5297   0.6001   0.6424   0.6626
     0.7316   0.7410   0.8471   0.8623   0.9010   0.9810   0.9973   1.0050
     1.0392   1.0627   1.0851   1.1892   1.2049   1.2539   1.2739   1.4461
     1.4632   1.5192   1.5935   1.6479   1.6884   1.6919   1.7319   1.8959
     1.9136   1.9983   2.0314   2.0681   2.1551   2.1832   2.1925   2.2666
     2.2823   2.3135   2.3771   2.4107   2.6452   2.6453   3.3313   3.9192
     4.6334   5.4852   5.9918   6.1339   6.6355   7.1386   7.2546   7.4747
     7.6818   7.6821   8.2650   9.4120   9.4746   9.8557  10.0057  10.0745
    10.6410  10.7311  10.8654  10.9296  12.0177  12.1098  12.2904  12.5693
    12.6455  12.6851  12.7366  13.1990

          k = 0.0000-0.5774 0.0000 ( 23940 PWs)   bands (ev):

   -86.8339 -86.8338 -86.8278 -86.8276 -86.8276 -86.8245 -86.6277 -86.6251
   -86.6249 -86.6217 -86.6205 -86.6182 -50.3614 -50.3545 -50.3335 -50.3333
   -50.3079 -50.3077 -50.2954 -50.2880 -50.2879 -50.2720 -50.2621 -50.2603
   -50.2600 -50.2501 -50.2500 -50.2415 -50.2382 -50.2380 -50.1501 -50.1493
   -50.0997 -50.0983 -50.0982 -50.0952 -50.0576 -50.0564 -50.0526 -50.0515
   -50.0513 -50.0489 -50.0483 -50.0458 -50.0455 -50.0421 -50.0421 -50.0394
   -12.6131 -12.6131  -9.8554  -9.8554  -5.2486  -5.2486  -3.5828  -3.5827
    -2.1665  -2.1664  -1.0654  -0.9750  -0.9087  -0.6549  -0.6147  -0.6130
    -0.5113  -0.5006  -0.5005  -0.4028  -0.4006  -0.2260  -0.2185  -0.2168
    -0.1804  -0.1787  -0.0924  -0.0920   0.0506   0.0533   0.2086   0.2087
     0.3257   0.3334   0.3340   0.3714   0.4038   0.4065   0.5781   0.5798
     0.5973   0.6284   0.6302   0.6774   0.6840   0.9238   0.9247   0.9835
     0.9865   1.1657   1.2203   1.2242   1.2367   1.4154   1.4192   1.5287
     1.5478   1.5489   1.7867   1.8219   1.8222   1.9152   1.9157   2.0089
     2.0124   2.0138   2.1745   2.1789   2.1804   2.2795   2.3076   2.3640
     2.3658   2.3907   2.5356   2.5504   2.5651   2.5651   2.8258   2.8271
     4.4143   4.4157   5.3739   6.2023   6.6592   6.6628   6.7166   6.9269
     7.9609   7.9613   8.8497   8.8551   9.3570   9.9183  10.5076  10.5078
    10.6303  10.8695  10.8724  11.7111  11.7149  11.8788  12.0186  12.0222
    12.2891  12.2905  12.9918  12.9920

          k = 0.1667-0.0962 0.0000 ( 23919 PWs)   bands (ev):

   -86.8418 -86.8327 -86.8264 -86.8259 -86.8242 -86.8241 -86.6315 -86.6314
   -86.6199 -86.6197 -86.6194 -86.6163 -50.3499 -50.3441 -50.3381 -50.3372
   -50.3321 -50.3085 -50.3013 -50.2908 -50.2862 -50.2767 -50.2705 -50.2700
   -50.2684 -50.2654 -50.2345 -50.2297 -50.2230 -50.2147 -50.1329 -50.1322
   -50.1277 -50.1268 -50.0922 -50.0913 -50.0897 -50.0886 -50.0526 -50.0507
   -50.0413 -50.0412 -50.0409 -50.0375 -50.0365 -50.0352 -50.0280 -50.0272
   -13.8883 -10.1544  -9.3161  -9.3161  -7.2015  -7.2014  -6.3858  -1.9926
    -1.9357  -1.5996  -1.5995  -1.0729  -0.9645  -0.8419  -0.6663  -0.6641
    -0.5349  -0.4779  -0.4710  -0.3949  -0.2614  -0.1626  -0.0846  -0.0621
    -0.0351   0.0288   0.1250   0.1446   0.1507   0.3053   0.3883   0.4151
     0.4938   0.5407   0.6075   0.6224   0.6308   0.6633   0.6879   0.7165
     0.7215   0.7506   0.7951   0.8608   0.8621   0.9234   0.9426   1.0369
     1.1255   1.1900   1.2542   1.3014   1.3093   1.4105   1.4219   1.4868
     1.5139   1.5265   1.5912   1.6028   1.6210   1.7624   1.7897   1.8204
     1.8303   1.9125   1.9601   1.9774   2.1104   2.1199   2.1223   2.1811
     2.2216   2.2448   2.3003   2.3675   2.5920   2.8238   2.8239   4.6334
     6.0116   6.1471   7.0221   7.1493   7.1496   7.2933   7.6309   7.9454
     8.2059   8.4355   8.6773   8.7531   9.2460   9.9785  10.1077  10.1492
    10.3199  10.5096  10.5747  10.7481  11.5414  11.5780  11.6223  11.7775
    11.9707  12.3788  12.5011  12.6480

          k = 0.1667 0.0962 0.0000 ( 23919 PWs)   bands (ev):

   -86.8418 -86.8327 -86.8263 -86.8260 -86.8242 -86.8241 -86.6315 -86.6314
   -86.6199 -86.6197 -86.6194 -86.6163 -50.3499 -50.3437 -50.3383 -50.3372
   -50.3325 -50.3078 -50.3014 -50.2915 -50.2861 -50.2765 -50.2706 -50.2701
   -50.2678 -50.2658 -50.2347 -50.2294 -50.2229 -50.2148 -50.1331 -50.1321
   -50.1275 -50.1269 -50.0924 -50.0912 -50.0895 -50.0887 -50.0526 -50.0507
   -50.0413 -50.0412 -50.0410 -50.0375 -50.0362 -50.0354 -50.0283 -50.0270
   -13.8883 -10.1544  -9.3161  -9.3161  -7.2015  -7.2014  -6.3858  -1.9926
    -1.9356  -1.5996  -1.5995  -1.0725  -0.9645  -0.8422  -0.6666  -0.6638
    -0.5365  -0.4780  -0.4696  -0.3954  -0.2595  -0.1626  -0.0881  -0.0641
    -0.0316   0.0284   0.1258   0.1466   0.1491   0.3060   0.3878   0.4144
     0.4925   0.5424   0.6064   0.6220   0.6334   0.6639   0.6893   0.7176
     0.7211   0.7498   0.7949   0.8566   0.8627   0.9236   0.9442   1.0347
     1.1241   1.1956   1.2566   1.2995   1.3094   1.4133   1.4178   1.4891
     1.5139   1.5289   1.5912   1.5988   1.6195   1.7604   1.7891   1.8190
     1.8303   1.9073   1.9644   1.9797   2.1104   2.1207   2.1212   2.1809
     2.2220   2.2460   2.3005   2.3668   2.5940   2.8238   2.8239   4.6331
     6.0114   6.1472   7.0213   7.1493   7.1496   7.2898   7.6378   7.9454
     8.2023   8.4367   8.6781   8.7531   9.2460   9.9738  10.1077  10.1479
    10.3199  10.5135  10.5780  10.7452  11.5435  11.5724  11.6198  11.7776
    11.9706  12.3788  12.5045  12.6481

          k = 0.1667 0.2887 0.0000 ( 23943 PWs)   bands (ev):

   -86.8394 -86.8311 -86.8278 -86.8277 -86.8245 -86.8245 -86.6299 -86.6295
   -86.6206 -86.6205 -86.6204 -86.6172 -50.3457 -50.3454 -50.3442 -50.3403
   -50.3401 -50.2976 -50.2973 -50.2809 -50.2808 -50.2774 -50.2652 -50.2649
   -50.2574 -50.2571 -50.2495 -50.2438 -50.2345 -50.2193 -50.1349 -50.1348
   -50.1343 -50.1336 -50.0736 -50.0735 -50.0733 -50.0722 -50.0570 -50.0560
   -50.0506 -50.0491 -50.0421 -50.0419 -50.0416 -50.0383 -50.0334 -50.0322
   -13.5676 -10.7512 -10.7511  -8.5374  -7.4467  -5.3126  -5.3125  -2.9020
    -1.6134  -1.4888  -1.2789  -1.2788  -0.7501  -0.7244  -0.7226  -0.6153
    -0.6138  -0.5800  -0.5796  -0.5600  -0.3843  -0.2746  -0.2730  -0.0792
    -0.0784  -0.0666  -0.0656   0.0997   0.1500   0.1504   0.2770   0.3152
     0.4907   0.5281   0.5314   0.6004   0.6683   0.6921   0.6949   0.7531
     0.7812   0.7822   0.8269   0.8504   0.9082   0.9337   0.9340   1.0604
     1.1443   1.1747   1.2919   1.3144   1.3181   1.4022   1.4083   1.4090
     1.5260   1.5577   1.5577   1.5787   1.5803   1.6525   1.6778   1.6778
     1.7942   1.7948   1.8634   1.8661   1.8907   1.9782   2.1566   2.1572
     2.2469   2.2953   2.2965   2.4217   2.4229   3.0990   3.5071   5.0047
     5.0048   5.2210   5.7865   5.7876   6.6528   6.8747   7.1875   7.1907
     8.8538   8.8545   8.9606   8.9640   9.1932   9.6527  10.0450  10.0490
    10.5260  10.7200  10.8235  10.8278  11.6276  11.6326  12.3669  12.7431
    12.7448  13.0570  13.0624  13.0627

          k = 0.1667-0.6736 0.0000 ( 23989 PWs)   bands (ev):

   -86.8355 -86.8312 -86.8288 -86.8286 -86.8261 -86.8249 -86.6279 -86.6263
   -86.6230 -86.6212 -86.6212 -86.6186 -50.3522 -50.3469 -50.3362 -50.3353
   -50.3283 -50.3013 -50.2977 -50.2976 -50.2767 -50.2707 -50.2664 -50.2605
   -50.2585 -50.2567 -50.2445 -50.2420 -50.2418 -50.2284 -50.1412 -50.1402
   -50.1194 -50.1183 -50.0894 -50.0885 -50.0577 -50.0568 -50.0567 -50.0558
   -50.0490 -50.0468 -50.0441 -50.0430 -50.0427 -50.0419 -50.0416 -50.0396
   -12.9300 -11.9845 -11.0564  -8.4739  -6.6287  -4.2791  -4.2112  -3.2315
    -2.1502  -1.1951  -0.9523  -0.9016  -0.8889  -0.8662  -0.8143  -0.6770
    -0.6591  -0.6373  -0.5833  -0.5798  -0.5554  -0.4202  -0.4003  -0.3027
    -0.2233  -0.1592  -0.1017  -0.0512  -0.0250   0.1228   0.2049   0.2190
     0.2672   0.3091   0.3182   0.4589   0.5359   0.5725   0.6406   0.6427
     0.6898   0.7068   0.7780   0.9026   1.0003   1.0801   1.0824   1.1400
     1.1840   1.2234   1.2383   1.2621   1.3402   1.3970   1.3993   1.4134
     1.4453   1.5289   1.6109   1.7024   1.7447   1.7495   1.8509   1.8607
     1.8847   1.9623   2.0557   2.1118   2.1253   2.1427   2.1765   2.2045
     2.2502   2.2849   2.3036   2.3308   2.4241   3.0163   3.6506   3.9074
     3.9224   4.1204   4.8772   5.2544   6.1814   6.3157   6.4883   7.4940
     8.1701   8.2431   9.5283   9.7765   9.8689  10.0705  10.4578  10.4621
    10.9780  11.1586  11.3306  11.3764  11.5778  11.6597  12.2305  12.3731
    12.5650  12.6895  12.9066  13.0944

          k = 0.1667-0.4811 0.0000 ( 23989 PWs)   bands (ev):

   -86.8355 -86.8312 -86.8288 -86.8286 -86.8261 -86.8249 -86.6279 -86.6263
   -86.6230 -86.6212 -86.6212 -86.6186 -50.3521 -50.3468 -50.3363 -50.3354
   -50.3284 -50.3010 -50.2977 -50.2976 -50.2768 -50.2706 -50.2662 -50.2605
   -50.2585 -50.2568 -50.2446 -50.2420 -50.2418 -50.2284 -50.1412 -50.1402
   -50.1192 -50.1184 -50.0896 -50.0884 -50.0577 -50.0569 -50.0568 -50.0557
   -50.0490 -50.0469 -50.0440 -50.0428 -50.0427 -50.0419 -50.0417 -50.0396
   -12.9300 -11.9845 -11.0564  -8.4739  -6.6287  -4.2791  -4.2112  -3.2315
    -2.1502  -1.1951  -0.9524  -0.9025  -0.8891  -0.8662  -0.8139  -0.6761
    -0.6591  -0.6377  -0.5846  -0.5802  -0.5550  -0.4165  -0.4004  -0.3025
    -0.2216  -0.1596  -0.1036  -0.0527  -0.0254   0.1225   0.2049   0.2190
     0.2677   0.3097   0.3212   0.4575   0.5348   0.5723   0.6367   0.6412
     0.6851   0.7091   0.7783   0.9059   1.0031   1.0815   1.0877   1.1367
     1.1815   1.2243   1.2394   1.2621   1.3385   1.3947   1.3985   1.4128
     1.4437   1.5310   1.6121   1.7040   1.7458   1.7503   1.8526   1.8613
     1.8813   1.9605   2.0537   2.1121   2.1254   2.1430   2.1770   2.2067
     2.2508   2.2849   2.3046   2.3299   2.4238   3.0166   3.6493   3.9074
     3.9203   4.1204   4.8773   5.2562   6.1822   6.3156   6.4883   7.4932
     8.1700   8.2434   9.5283   9.7765   9.8687  10.0705  10.4578  10.4621
    10.9780  11.1585  11.3308  11.3764  11.5776  11.6594  12.2303  12.3732
    12.5665  12.6895  12.9042  13.0945

          k = 0.1667-0.2887 0.0000 ( 23943 PWs)   bands (ev):

   -86.8394 -86.8311 -86.8278 -86.8277 -86.8246 -86.8245 -86.6299 -86.6295
   -86.6206 -86.6205 -86.6204 -86.6172 -50.3460 -50.3454 -50.3443 -50.3402
   -50.3400 -50.2982 -50.2972 -50.2806 -50.2804 -50.2772 -50.2656 -50.2652
   -50.2573 -50.2570 -50.2494 -50.2439 -50.2347 -50.2192 -50.1348 -50.1347
   -50.1343 -50.1336 -50.0737 -50.0735 -50.0732 -50.0722 -50.0573 -50.0559
   -50.0506 -50.0491 -50.0421 -50.0418 -50.0416 -50.0383 -50.0331 -50.0323
   -13.5676 -10.7512 -10.7511  -8.5374  -7.4467  -5.3126  -5.3125  -2.9020
    -1.6134  -1.4890  -1.2789  -1.2788  -0.7518  -0.7245  -0.7226  -0.6156
    -0.6141  -0.5797  -0.5793  -0.5581  -0.3821  -0.2735  -0.2710  -0.0823
    -0.0801  -0.0667  -0.0658   0.0992   0.1499   0.1529   0.2760   0.3149
     0.4907   0.5264   0.5296   0.5989   0.6686   0.6909   0.6951   0.7529
     0.7787   0.7820   0.8279   0.8501   0.9056   0.9386   0.9392   1.0603
     1.1438   1.1747   1.2915   1.3134   1.3173   1.4011   1.4075   1.4087
     1.5250   1.5577   1.5577   1.5780   1.5804   1.6560   1.6810   1.6818
     1.7944   1.7966   1.8592   1.8633   1.8958   1.9752   2.1567   2.1576
     2.2469   2.2940   2.2965   2.4217   2.4235   3.0965   3.5071   5.0046
     5.0052   5.2216   5.7853   5.7878   6.6528   6.8749   7.1880   7.1919
     8.8538   8.8545   8.9598   8.9638   9.1932   9.6527  10.0452  10.0499
    10.5261  10.7199  10.8220  10.8267  11.6281  11.6394  12.3671  12.7352
    12.7448  13.0568  13.0621  13.0627

          k = 0.3333-0.1925 0.0000 ( 23951 PWs)   bands (ev):

   -86.8384 -86.8304 -86.8296 -86.8271 -86.8252 -86.8245 -86.6292 -86.6286
   -86.6217 -86.6209 -86.6201 -86.6175 -50.3572 -50.3498 -50.3419 -50.3354
   -50.3281 -50.3029 -50.2925 -50.2814 -50.2800 -50.2693 -50.2668 -50.2645
   -50.2556 -50.2542 -50.2515 -50.2508 -50.2361 -50.2236 -50.1455 -50.1449
   -50.1222 -50.1213 -50.0703 -50.0696 -50.0671 -50.0669 -50.0652 -50.0626
   -50.0501 -50.0486 -50.0430 -50.0419 -50.0417 -50.0386 -50.0368 -50.0359
   -13.4077 -11.5172  -9.7130  -9.7130  -6.0756  -6.0756  -4.3302  -2.7193
    -2.7193  -1.4252  -1.2790  -0.9115  -0.8120  -0.8065  -0.5823  -0.5288
    -0.5078  -0.5044  -0.4836  -0.4291  -0.3430  -0.3221  -0.2802  -0.1766
    -0.1017  -0.0990   0.0253   0.0462   0.0586   0.1646   0.2114   0.2187
     0.3182   0.4357   0.4467   0.4947   0.5278   0.6006   0.6456   0.6559
     0.7316   0.7434   0.8471   0.8580   0.9012   0.9805   0.9960   1.0058
     1.0386   1.0627   1.0769   1.1931   1.2116   1.2553   1.2735   1.4452
     1.4664   1.5198   1.5962   1.6488   1.6869   1.6927   1.7308   1.8912
     1.9094   1.9997   2.0355   2.0696   2.1555   2.1822   2.1939   2.2674
     2.2791   2.3157   2.3793   2.4091   2.6452   2.6453   3.3287   3.9192
     4.6341   5.4855   5.9973   6.1327   6.6207   7.1461   7.2544   7.4728
     7.6818   7.6821   8.2652   9.4120   9.4828   9.8557  10.0057  10.0709
    10.6401  10.7311  10.8768  10.9295  12.0176  12.0969  12.2907  12.5696
    12.6453  12.6900  12.7316  13.1989

          k = 0.3333-0.0000 0.0000 ( 23943 PWs)   bands (ev):

   -86.8394 -86.8311 -86.8278 -86.8277 -86.8246 -86.8245 -86.6299 -86.6295
   -86.6206 -86.6205 -86.6204 -86.6172 -50.3460 -50.3456 -50.3443 -50.3401
   -50.3399 -50.2982 -50.2974 -50.2804 -50.2802 -50.2770 -50.2657 -50.2653
   -50.2573 -50.2569 -50.2494 -50.2439 -50.2349 -50.2192 -50.1349 -50.1347
   -50.1343 -50.1336 -50.0737 -50.0734 -50.0733 -50.0722 -50.0572 -50.0560
   -50.0506 -50.0491 -50.0421 -50.0418 -50.0416 -50.0383 -50.0333 -50.0322
   -13.5676 -10.7512 -10.7511  -8.5374  -7.4467  -5.3126  -5.3125  -2.9020
    -1.6134  -1.4891  -1.2789  -1.2788  -0.7524  -0.7245  -0.7228  -0.6154
    -0.6139  -0.5795  -0.5791  -0.5580  -0.3820  -0.2731  -0.2707  -0.0821
    -0.0801  -0.0670  -0.0660   0.1004   0.1506   0.1533   0.2761   0.3147
     0.4907   0.5249   0.5282   0.5993   0.6686   0.6917   0.6967   0.7522
     0.7784   0.7820   0.8270   0.8502   0.9055   0.9377   0.9386   1.0603
     1.1440   1.1747   1.2928   1.3130   1.3166   1.4009   1.4073   1.4085
     1.5249   1.5577   1.5577   1.5780   1.5801   1.6555   1.6813   1.6822
     1.7953   1.7970   1.8593   1.8631   1.8963   1.9748   2.1565   2.1570
     2.2481   2.2941   2.2961   2.4229   2.4238   3.0955   3.5071   5.0048
     5.0052   5.2214   5.7854   5.7872   6.6528   6.8744   7.1876   7.1916
     8.8538   8.8545   8.9592   8.9620   9.1932   9.6527  10.0477  10.0505
    10.5261  10.7200  10.8222  10.8271  11.6307  11.6394  12.3671  12.7351
    12.7454  13.0569  13.0620  13.0626

          k = 0.3333 0.1925 0.0000 ( 23951 PWs)   bands (ev):

   -86.8384 -86.8304 -86.8295 -86.8272 -86.8253 -86.8244 -86.6292 -86.6286
   -86.6217 -86.6209 -86.6201 -86.6175 -50.3569 -50.3497 -50.3418 -50.3356
   -50.3285 -50.3021 -50.2935 -50.2817 -50.2798 -50.2692 -50.2668 -50.2642
   -50.2554 -50.2545 -50.2515 -50.2508 -50.2359 -50.2237 -50.1457 -50.1448
   -50.1220 -50.1214 -50.0706 -50.0695 -50.0672 -50.0666 -50.0649 -50.0628
   -50.0501 -50.0486 -50.0429 -50.0419 -50.0418 -50.0386 -50.0371 -50.0358
   -13.4077 -11.5172  -9.7130  -9.7130  -6.0756  -6.0756  -4.3302  -2.7193
    -2.7193  -1.4252  -1.2788  -0.9114  -0.8124  -0.8066  -0.5808  -0.5297
    -0.5092  -0.5044  -0.4825  -0.4317  -0.3413  -0.3208  -0.2812  -0.1755
    -0.1017  -0.1004   0.0262   0.0474   0.0602   0.1645   0.2060   0.2219
     0.3165   0.4325   0.4474   0.4943   0.5291   0.6002   0.6431   0.6612
     0.7316   0.7429   0.8477   0.8598   0.9008   0.9808   0.9977   1.0051
     1.0393   1.0627   1.0846   1.1890   1.2051   1.2543   1.2749   1.4463
     1.4627   1.5197   1.5934   1.6481   1.6877   1.6917   1.7319   1.8963
     1.9133   1.9982   2.0320   2.0685   2.1547   2.1829   2.1937   2.2665
     2.2817   2.3140   2.3786   2.4104   2.6452   2.6453   3.3303   3.9192
     4.6336   5.4849   5.9942   6.1336   6.6332   7.1372   7.2541   7.4707
     7.6818   7.6821   8.2647   9.4120   9.4798   9.8557  10.0057  10.0751
    10.6400  10.7310  10.8687  10.9297  12.0177  12.1119  12.2903  12.5693
    12.6454  12.6863  12.7360  13.1991

          k = 0.3333-0.7698 0.0000 ( 23989 PWs)   bands (ev):

   -86.8355 -86.8312 -86.8288 -86.8286 -86.8261 -86.8249 -86.6279 -86.6263
   -86.6230 -86.6212 -86.6212 -86.6186 -50.3524 -50.3468 -50.3362 -50.3352
   -50.3282 -50.3012 -50.2978 -50.2974 -50.2767 -50.2708 -50.2664 -50.2604
   -50.2585 -50.2568 -50.2445 -50.2420 -50.2418 -50.2284 -50.1413 -50.1402
   -50.1193 -50.1184 -50.0893 -50.0885 -50.0575 -50.0569 -50.0569 -50.0557
   -50.0490 -50.0468 -50.0441 -50.0431 -50.0427 -50.0420 -50.0415 -50.0396
   -12.9300 -11.9845 -11.0564  -8.4739  -6.6287  -4.2791  -4.2112  -3.2315
    -2.1502  -1.1951  -0.9520  -0.9016  -0.8885  -0.8662  -0.8146  -0.6775
    -0.6591  -0.6377  -0.5834  -0.5789  -0.5556  -0.4199  -0.4003  -0.3025
    -0.2233  -0.1591  -0.1018  -0.0514  -0.0255   0.1224   0.2049   0.2190
     0.2674   0.3084   0.3185   0.4588   0.5369   0.5716   0.6402   0.6432
     0.6887   0.7077   0.7772   0.9024   1.0007   1.0799   1.0821   1.1401
     1.1840   1.2233   1.2384   1.2621   1.3410   1.3978   1.3989   1.4139
     1.4451   1.5290   1.6107   1.7024   1.7447   1.7495   1.8513   1.8606
     1.8846   1.9623   2.0560   2.1116   2.1248   2.1424   2.1769   2.2053
     2.2501   2.2860   2.3035   2.3308   2.4236   3.0162   3.6512   3.9074
     3.9220   4.1212   4.8758   5.2538   6.1812   6.3153   6.4883   7.4937
     8.1680   8.2430   9.5283   9.7798   9.8674  10.0705  10.4585  10.4623
    10.9780  11.1618  11.3305  11.3764  11.5779  11.6596  12.2300  12.3753
    12.5652  12.6894  12.9057  13.0929

          k = 0.3333-0.5774 0.0000 ( 23967 PWs)   bands (ev):

   -86.8320 -86.8319 -86.8319 -86.8265 -86.8264 -86.8264 -86.6272 -86.6237
   -86.6234 -86.6234 -86.6203 -86.6202 -50.3365 -50.3365 -50.3361 -50.3301
   -50.3298 -50.3297 -50.2967 -50.2965 -50.2963 -50.2643 -50.2641 -50.2640
   -50.2531 -50.2530 -50.2528 -50.2340 -50.2340 -50.2339 -50.1202 -50.1201
   -50.1196 -50.1194 -50.1193 -50.1166 -50.0497 -50.0496 -50.0495 -50.0495
   -50.0493 -50.0486 -50.0464 -50.0448 -50.0445 -50.0444 -50.0410 -50.0409
   -12.1413 -12.1413 -12.1413  -7.2920  -7.2920  -5.1146  -2.5158  -2.5158
    -2.5156  -1.1159  -1.1158  -1.1158  -0.8496  -0.8490  -0.8481  -0.8136
    -0.8130  -0.8120  -0.6341  -0.6327  -0.6319  -0.4562  -0.4554  -0.4543
    -0.2884  -0.2873  -0.2870  -0.0200  -0.0198  -0.0179   0.0450   0.0450
     0.0450   0.4022   0.4031   0.4047   0.6007   0.6017   0.6056   0.7089
     0.7101   0.7130   0.8258   0.8302   0.8307   1.2098   1.2128   1.2160
     1.2464   1.2512   1.2519   1.5779   1.5786   1.5816   1.6503   1.6505
     1.6517   1.8344   1.8359   1.8366   1.8936   1.8948   1.8954   1.9614
     1.9622   1.9629   2.0590   2.0591   2.0598   2.0947   2.0948   2.0956
     2.2965   2.2985   2.2991   2.3343   2.3352   2.3371   3.0988   3.1017
     3.1031   4.8864   4.8878   4.8915   5.2240   5.2240   7.1987   7.2005
     7.2011   9.5716   9.5726   9.5797  11.1568  11.1568  11.1586  11.4095
    11.4100  11.4100  11.4254  11.4256  11.4308  12.0537  12.0540  12.0565
    12.3374  12.3384  12.3421  12.6953

          k = 0.3333-0.3849 0.0000 ( 23989 PWs)   bands (ev):

   -86.8355 -86.8313 -86.8287 -86.8285 -86.8260 -86.8250 -86.6279 -86.6263
   -86.6230 -86.6212 -86.6212 -86.6186 -50.3527 -50.3468 -50.3363 -50.3352
   -50.3280 -50.3008 -50.2981 -50.2968 -50.2769 -50.2711 -50.2663 -50.2604
   -50.2586 -50.2568 -50.2447 -50.2419 -50.2418 -50.2284 -50.1412 -50.1403
   -50.1193 -50.1184 -50.0896 -50.0884 -50.0578 -50.0568 -50.0568 -50.0557
   -50.0490 -50.0469 -50.0441 -50.0427 -50.0426 -50.0419 -50.0417 -50.0396
   -12.9300 -11.9845 -11.0564  -8.4739  -6.6287  -4.2791  -4.2112  -3.2315
    -2.1502  -1.1951  -0.9522  -0.9026  -0.8879  -0.8662  -0.8141  -0.6776
    -0.6591  -0.6380  -0.5848  -0.5783  -0.5565  -0.4152  -0.4019  -0.3002
    -0.2217  -0.1605  -0.1032  -0.0533  -0.0270   0.1216   0.2049   0.2190
     0.2685   0.3136   0.3178   0.4593   0.5367   0.5736   0.6367   0.6442
     0.6815   0.7055   0.7753   0.9064   1.0057   1.0772   1.0813   1.1364
     1.1874   1.2267   1.2369   1.2621   1.3410   1.3946   1.3985   1.4159
     1.4485   1.5308   1.6090   1.7046   1.7454   1.7509   1.8501   1.8609
     1.8814   1.9598   2.0556   2.1123   2.1235   2.1409   2.1775   2.2065
     2.2515   2.2861   2.3058   2.3304   2.4233   3.0163   3.6512   3.9074
     3.9196   4.1221   4.8726   5.2537   6.1823   6.3194   6.4883   7.4939
     8.1668   8.2433   9.5283   9.7811   9.8675  10.0705  10.4556  10.4618
    10.9780  11.1701  11.3308  11.3764  11.5776  11.6596  12.2301  12.3632
    12.5654  12.6887  12.9056  13.0925

          k =-0.5000 0.2887 0.0000 ( 23940 PWs)   bands (ev):

   -86.8339 -86.8339 -86.8277 -86.8275 -86.8275 -86.8246 -86.6277 -86.6251
   -86.6249 -86.6217 -86.6205 -86.6182 -50.3619 -50.3545 -50.3336 -50.3334
   -50.3073 -50.3071 -50.2942 -50.2884 -50.2883 -50.2729 -50.2618 -50.2603
   -50.2600 -50.2503 -50.2502 -50.2414 -50.2381 -50.2379 -50.1500 -50.1493
   -50.0997 -50.0984 -50.0983 -50.0952 -50.0577 -50.0564 -50.0527 -50.0514
   -50.0512 -50.0489 -50.0484 -50.0458 -50.0455 -50.0421 -50.0421 -50.0394
   -12.6131 -12.6131  -9.8554  -9.8554  -5.2486  -5.2486  -3.5828  -3.5827
    -2.1665  -2.1664  -1.0653  -0.9738  -0.9084  -0.6561  -0.6155  -0.6138
    -0.5129  -0.5006  -0.5005  -0.3991  -0.3969  -0.2278  -0.2207  -0.2190
    -0.1828  -0.1811  -0.0888  -0.0883   0.0506   0.0532   0.2086   0.2087
     0.3282   0.3286   0.3337   0.3700   0.4040   0.4068   0.5818   0.5829
     0.5992   0.6275   0.6284   0.6753   0.6822   0.9217   0.9226   0.9824
     0.9854   1.1633   1.2262   1.2273   1.2310   1.4168   1.4206   1.5370
     1.5500   1.5511   1.7882   1.8180   1.8184   1.9118   1.9123   2.0056
     2.0148   2.0162   2.1749   2.1800   2.1816   2.2813   2.3053   2.3640
     2.3658   2.3928   2.5354   2.5501   2.5651   2.5651   2.8264   2.8277
     4.4127   4.4141   5.3789   6.1855   6.6594   6.6630   6.7265   6.9255
     7.9609   7.9613   8.8493   8.8547   9.3651   9.9145  10.5076  10.5078
    10.6425  10.8696  10.8724  11.7112  11.7151  11.8643  12.0184  12.0220
    12.2892  12.2905  12.9918  12.9920

          k =-0.5000 0.4811 0.0000 ( 23989 PWs)   bands (ev):

   -86.8355 -86.8313 -86.8287 -86.8285 -86.8261 -86.8250 -86.6279 -86.6263
   -86.6230 -86.6212 -86.6212 -86.6186 -50.3527 -50.3468 -50.3363 -50.3352
   -50.3281 -50.3007 -50.2982 -50.2969 -50.2769 -50.2710 -50.2662 -50.2604
   -50.2586 -50.2568 -50.2448 -50.2419 -50.2418 -50.2284 -50.1412 -50.1403
   -50.1194 -50.1183 -50.0895 -50.0885 -50.0578 -50.0568 -50.0566 -50.0558
   -50.0490 -50.0469 -50.0441 -50.0428 -50.0426 -50.0419 -50.0417 -50.0396
   -12.9300 -11.9845 -11.0564  -8.4739  -6.6287  -4.2791  -4.2112  -3.2315
    -2.1502  -1.1951  -0.9523  -0.9032  -0.8879  -0.8662  -0.8140  -0.6770
    -0.6591  -0.6380  -0.5855  -0.5786  -0.5564  -0.4143  -0.4019  -0.3001
    -0.2211  -0.1605  -0.1030  -0.0543  -0.0270   0.1218   0.2049   0.2190
     0.2691   0.3149   0.3188   0.4578   0.5362   0.5732   0.6345   0.6441
     0.6815   0.7070   0.7747   0.9075   1.0046   1.0770   1.0813   1.1362
     1.1880   1.2268   1.2371   1.2621   1.3407   1.3940   1.3985   1.4155
     1.4485   1.5314   1.6092   1.7049   1.7455   1.7509   1.8503   1.8610
     1.8813   1.9591   2.0559   2.1126   2.1235   2.1407   2.1761   2.2068
     2.2520   2.2864   2.3066   2.3304   2.4242   3.0164   3.6506   3.9074
     3.9190   4.1220   4.8726   5.2539   6.1820   6.3193   6.4883   7.4939
     8.1667   8.2426   9.5283   9.7811   9.8687  10.0705  10.4556  10.4618
    10.9780  11.1700  11.3307  11.3764  11.5776  11.6597  12.2306  12.3632
    12.5652  12.6887  12.9066  13.0926

          k =-0.5000 0.6736 0.0000 ( 23989 PWs)   bands (ev):

   -86.8355 -86.8312 -86.8288 -86.8285 -86.8261 -86.8249 -86.6279 -86.6263
   -86.6230 -86.6212 -86.6212 -86.6186 -50.3524 -50.3468 -50.3363 -50.3353
   -50.3283 -50.3008 -50.2977 -50.2976 -50.2768 -50.2706 -50.2662 -50.2605
   -50.2586 -50.2568 -50.2447 -50.2420 -50.2417 -50.2284 -50.1413 -50.1402
   -50.1192 -50.1184 -50.0894 -50.0885 -50.0575 -50.0570 -50.0569 -50.0557
   -50.0490 -50.0468 -50.0440 -50.0430 -50.0427 -50.0420 -50.0415 -50.0396
   -12.9300 -11.9845 -11.0564  -8.4739  -6.6287  -4.2791  -4.2112  -3.2315
    -2.1502  -1.1951  -0.9522  -0.9031  -0.8887  -0.8662  -0.8141  -0.6760
    -0.6591  -0.6379  -0.5855  -0.5796  -0.5551  -0.4152  -0.4004  -0.3023
    -0.2210  -0.1595  -0.1036  -0.0538  -0.0258   0.1223   0.2049   0.2190
     0.2685   0.3102   0.3225   0.4560   0.5352   0.5711   0.6336   0.6420
     0.6840   0.7114   0.7770   0.9069   1.0024   1.0815   1.0870   1.1365
     1.1820   1.2243   1.2396   1.2621   1.3390   1.3947   1.3982   1.4130
     1.4435   1.5317   1.6119   1.7043   1.7458   1.7504   1.8533   1.8613
     1.8812   1.9598   2.0542   2.1121   2.1250   2.1425   2.1759   2.2078
     2.2512   2.2863   2.3052   2.3300   2.4242   3.0166   3.6494   3.9074
     3.9192   4.1211   4.8759   5.2558   6.1818   6.3152   6.4883   7.4929
     8.1679   8.2425   9.5283   9.7799   9.8684  10.0705  10.4585  10.4623
    10.9780  11.1618  11.3306  11.3764  11.5777  11.6594  12.2304  12.3754
    12.5665  12.6894  12.9043  13.0930

          k =-0.5000-0.2887 0.0000 ( 23940 PWs)   bands (ev):

   -86.8339 -86.8338 -86.8278 -86.8276 -86.8275 -86.8245 -86.6277 -86.6251
   -86.6249 -86.6217 -86.6205 -86.6182 -50.3616 -50.3544 -50.3336 -50.3333
   -50.3077 -50.3075 -50.2952 -50.2881 -50.2880 -50.2722 -50.2620 -50.2603
   -50.2600 -50.2502 -50.2501 -50.2414 -50.2383 -50.2380 -50.1502 -50.1492
   -50.0998 -50.0982 -50.0981 -50.0953 -50.0574 -50.0565 -50.0526 -50.0517
   -50.0515 -50.0488 -50.0482 -50.0458 -50.0455 -50.0422 -50.0421 -50.0394
   -12.6131 -12.6131  -9.8554  -9.8554  -5.2486  -5.2486  -3.5828  -3.5827
    -2.1665  -2.1664  -1.0651  -0.9746  -0.9088  -0.6549  -0.6148  -0.6130
    -0.5113  -0.5006  -0.5005  -0.4016  -0.3995  -0.2260  -0.2194  -0.2177
    -0.1812  -0.1795  -0.0917  -0.0912   0.0505   0.0531   0.2086   0.2087
     0.3253   0.3327   0.3335   0.3706   0.4036   0.4063   0.5783   0.5800
     0.5982   0.6276   0.6303   0.6781   0.6840   0.9224   0.9234   0.9848
     0.9878   1.1656   1.2196   1.2237   1.2360   1.4161   1.4199   1.5290
     1.5485   1.5496   1.7870   1.8215   1.8218   1.9149   1.9154   2.0099
     2.0126   2.0139   2.1745   2.1801   2.1816   2.2793   2.3068   2.3639
     2.3657   2.3909   2.5357   2.5504   2.5651   2.5651   2.8260   2.8273
     4.4136   4.4150   5.3766   6.2001   6.6588   6.6624   6.7146   6.9229
     7.9609   7.9613   8.8491   8.8544   9.3624   9.9191  10.5076  10.5078
    10.6337  10.8696  10.8724  11.7110  11.7148  11.8814  12.0187  12.0223
    12.2891  12.2905  12.9918  12.9920

     the Fermi energy is     5.2411 ev

!    total energy              =   -3595.79009259 Ry
     estimated scf accuracy    <          5.8E-09 Ry
     smearing contrib. (-TS)   =      -0.00097599 Ry
     internal energy E=F+TS    =   -3595.78911660 Ry

     The total energy is F=E-TS. E is the sum of the following terms:
     one-electron contribution =  -23302.77264220 Ry
     hartree contribution      =   11673.82619054 Ry
     xc contribution           =    -362.10666701 Ry
     ewald contribution        =    8445.04522606 Ry
     DFT-D3 Dispersion         =      -0.45433301 Ry
     electric field correction =       0.00000223 Ry
     one-center paw contrib.   =     -49.32689321 Ry

     convergence has been achieved in  25 iterations

     negative rho (up, down):  1.928E-05 0.000E+00

     Forces acting on atoms (cartesian axes, Ry/au):

     atom    1 type  1   force =     0.00015012    0.00053423    0.00170307
     atom    2 type  1   force =     0.00017267    0.00052246    0.00170431
     atom    3 type  1   force =    -0.00022595   -0.00010225   -0.00151489
     atom    4 type  1   force =     0.00000390   -0.00034274   -0.00085361
     atom    5 type  1   force =     0.00017411    0.00054836    0.00170035
     atom    6 type  1   force =    -0.00031768   -0.00004574   -0.00152674
     atom    7 type  1   force =     0.00009230   -0.00012713    0.00006679
     atom    8 type  1   force =     0.00000367   -0.00034236   -0.00085852
     atom    9 type  1   force =     0.00008401   -0.00012240    0.00173176
     atom   10 type  1   force =    -0.00022219    0.00000795   -0.00152541
     atom   11 type  1   force =     0.00000414   -0.00034259   -0.00085352
     atom   12 type  1   force =     0.00009286   -0.00012509    0.00005160
     atom   13 type  2   force =    -0.00000241   -0.00000586    0.00297646
     atom   14 type  2   force =    -0.00000631   -0.00001316   -0.00095592
     atom   15 type  2   force =    -0.00000813   -0.00000257   -0.00096238
     atom   16 type  2   force =    -0.00000059   -0.00000314   -0.00095570
     atom   17 type  2   force =    -0.00000240   -0.00001243   -0.00096356
     atom   18 type  2   force =     0.00000521   -0.00001309   -0.00095675
     atom   19 type  2   force =     0.00000324   -0.00000248   -0.00096346
     atom   20 type  2   force =    -0.00000058   -0.00000998    0.00295612

     Total force =     0.006749     Total SCF correction =     0.000636

     Writing all to output data dir ./tmp/V2_top_fcc_G3_c2_far_ii.save/ :
     XML data file, charge density, pseudopotentials, collected wavefunctions
 
     init_run     :      3.75s CPU      3.92s WALL (       1 calls)
     electrons    :    131.38s CPU    145.97s WALL (       1 calls)
     forces       :      0.82s CPU      0.92s WALL (       1 calls)
     force_dftd3  :      0.04s CPU      0.03s WALL (       1 calls)

     Called by init_run:
     wfcinit      :      1.14s CPU      1.74s WALL (       1 calls)
     potinit      :      1.72s CPU      1.25s WALL (       1 calls)
     hinit0       :      0.58s CPU      0.49s WALL (       1 calls)

     Called by electrons:
     c_bands      :     71.59s CPU     89.55s WALL (      26 calls)
     sum_band     :     15.62s CPU     22.98s WALL (      26 calls)
     v_of_rho     :      6.39s CPU      5.90s WALL (      26 calls)
     newd         :      0.39s CPU      0.40s WALL (      26 calls)
                                        0.40s GPU  (      26 calls)
     PAW_pot      :     31.71s CPU     20.05s WALL (      26 calls)
     mix_rho      :      4.50s CPU      4.94s WALL (      26 calls)
     energy_dftd3 :      0.00s CPU      0.00s WALL (       1 calls)

     Called by c_bands:
     init_us_2    :      0.98s CPU      1.32s WALL (    1080 calls)
     cegterg      :     62.63s CPU     62.96s WALL (     520 calls)

     Called by *egterg:
     cdiaghg      :      9.42s CPU      9.65s WALL (    2332 calls)
                                        9.63s GPU  (    2332 calls)
     h_psi        :     42.98s CPU     43.26s WALL (    2372 calls)
                                       43.15s GPU  (    2372 calls)
     s_psi        :      1.03s CPU      1.01s WALL (    2372 calls)
     g_psi        :      0.01s CPU      0.33s WALL (    1832 calls)
                                        0.32s GPU  (    1832 calls)

     Called by h_psi:
     h_psi:calbec :      0.10s CPU      1.76s WALL (    2372 calls)
                                        1.75s GPU  (    2372 calls)
     vloc_psi     :     38.14s CPU     38.35s WALL (    2372 calls)
                                       38.34s GPU  (    2372 calls)
     add_vuspsi   :      1.00s CPU      2.70s WALL (    2372 calls)
                                        2.68s GPU  (    2372 calls)

     General routines
     calbec       :      0.12s CPU      0.12s WALL (    2972 calls)
     fft          :      1.20s CPU      1.31s WALL (     348 calls)
                                        0.10s GPU  (     322 calls)
     ffts         :      0.28s CPU      0.50s WALL (    2488 calls)
                                        0.24s GPU  (    2462 calls)
     fftw         :      0.39s CPU     32.83s WALL (   29458 calls)
                                       32.67s GPU  (   29458 calls)
     interpolate  :      1.57s CPU      2.00s WALL (      26 calls)
     davcio       :      2.12s CPU     25.98s WALL (    2026 calls)
 
     Parallel routines
 
     PWSCF        :   2m18.15s CPU   2m33.31s WALL

 
   This run was terminated on:  20: 8:18  26Sep2026            

=------------------------------------------------------------------------------=
   JOB DONE.
=------------------------------------------------------------------------------=
