
     Program PWSCF v.7.4.1 starts on  6Aug2026 at 19:50: 1 

     This program is part of the open-source Quantum ESPRESSO suite
     for quantum simulation of materials; please cite
         "P. Giannozzi et al., J. Phys.:Condens. Matter 21 395502 (2009);
         "P. Giannozzi et al., J. Phys.:Condens. Matter 29 465901 (2017);
         "P. Giannozzi et al., J. Chem. Phys. 152 154105 (2020);
          URL http://www.quantum-espresso.org", 
     in publications or presentations arising from this work. More details at
     http://www.quantum-espresso.org/quote

     Parallel version (MPI & OpenMP), running on       1 processor cores
     Number of MPI processes:                 1
     Threads/MPI process:                     1

     MPI processes distributed on     1 nodes
     47274 MiB available memory on the printing compute node when the environment starts
 
     Reading input from 01_vcrelax.in

     Current dimensions of program PWSCF are:
     Max number of different atomic species (ntypx) = 10
     Max number of k-points (npk) =  40000
     Max angular momentum in pseudopotentials (lmaxx) =  4
     Message from routine setup:
     using ibrav=0 with symmetry is DISCOURAGED, use correct ibrav instead
 
     Subspace diagonalization in iterative solution of the eigenvalue problem:
     a serial algorithm will be used

 
     G-vector sticks info
     --------------------
     sticks:   dense  smooth     PW     G-vecs:    dense   smooth      PW
     Sum        1903     955    283                54769    19339    3143
 
     Using Slab Decomposition
 


     bravais-lattice index     =            0
     lattice parameter (alat)  =       7.5769  a.u.
     unit-cell volume          =     307.5834 (a.u.)^3
     number of atoms/cell      =            3
     number of atomic types    =            2
     number of electrons       =        12.00
     number of Kohn-Sham states=           10
     kinetic-energy cutoff     =      60.0000  Ry
     charge density cutoff     =     480.0000  Ry
     scf convergence threshold =      1.0E-08
     mixing beta               =       0.3000
     number of iterations used =            8  plain     mixing
     energy convergence thresh.=      1.0E-04
     force convergence thresh. =      1.0E-03
     press convergence thresh. =      5.0E-01
     Exchange-correlation=  SLA  PW   PBX  PBC
                           (   1   4   3   4   0   0   0)
     nstep                     =           50


     GPU acceleration is ACTIVE.  1 visible GPUs per MPI rank


     celldm(1)=   7.576921  celldm(2)=   0.000000  celldm(3)=   0.000000
     celldm(4)=   0.000000  celldm(5)=   0.000000  celldm(6)=   0.000000

     crystal axes: (cart. coord. in units of alat)
               a(1) = (   0.866025   0.000000   0.500000 )  
               a(2) = (   0.288675   0.816496   0.500000 )  
               a(3) = (   0.000000   0.000000   1.000000 )  

     reciprocal axes: (cart. coord. in units 2 pi/alat)
               b(1) = (  1.154701 -0.408248  0.000000 )  
               b(2) = (  0.000000  1.224745  0.000000 )  
               b(3) = ( -0.577350 -0.408249  1.000000 )  


     PseudoPot. # 1 for Li read from file:
     /data/work/pseudo/li_pbe_v1.4.uspp.F.UPF
     MD5 check sum: e912e257baa3777c20ea3d68f190483c
     Pseudo is Ultrasoft, Zval =  3.0
     Generated by new atomic code, or converted to UPF format
     Using radial grid of  751 points,  5 beta functions with: 
                l(1) =   0
                l(2) =   0
                l(3) =   0
                l(4) =   1
                l(5) =   1
     Q(r) pseudized with 10 coefficients,  rinner =    1.150   1.150   1.150


     PseudoPot. # 2 for S  read from file:
     /data/work/pseudo/s_pbe_v1.4.uspp.F.UPF
     MD5 check sum: 88d86576ff6df21479756cfb9bdac1df
     Pseudo is Ultrasoft + core correction, Zval =  6.0
     Generated by new atomic code, or converted to UPF format
     Using radial grid of  907 points,  6 beta functions with: 
                l(1) =   0
                l(2) =   0
                l(3) =   1
                l(4) =   1
                l(5) =   2
                l(6) =   2
     Q(r) pseudized with  8 coefficients,  rinner =    1.300   1.300   1.300
                                                       1.300   1.300

     atomic species   valence    mass     pseudopotential
     Li                3.00     6.94000     Li( 1.00)
     S                 6.00    32.06000     S ( 1.00)

      4 Sym. Ops., with inversion, found



   Cartesian axes

     site n.     atom                  positions (alat units)
         1        Li     tau(   1) = (   0.2886751   0.2041240   0.5000000  )
         2        Li     tau(   2) = (   0.8660253   0.6123721   1.4999999  )
         3        S      tau(   3) = (   0.0000000   0.0000000   0.0000000  )

     number of k points=   100  Marzari-Vanderbilt smearing, width (Ry)=  0.0100

     Number of k-points >= 100: set verbosity='high' to print them.

     Dense  grid:    54769 G-vectors     FFT dimensions: (  54,  54,  54)

     Smooth grid:    19339 G-vectors     FFT dimensions: (  40,  40,  40)

     Estimated max dynamical RAM per process >     248.52 MB

     Initial potential from superposition of free atoms

     starting charge      11.0985, renormalised to      12.0000
     Starting wfcs are   14 randomized atomic wfcs

     total cpu time spent up to now is        2.0 secs

     Self-consistent Calculation

     iteration #  1     ecut=    60.00 Ry     beta= 0.30
     Davidson diagonalization with overlap
     ethr =  1.00E-02,  avg # of iterations =  4.1

     Threshold (ethr) on eigenvalues was too large:
     Diagonalizing with lowered threshold

     Davidson diagonalization with overlap
     ethr =  6.92E-04,  avg # of iterations =  1.8

     total cpu time spent up to now is        4.2 secs

     total energy              =     -53.35947118 Ry
     estimated scf accuracy    <       0.08260079 Ry

     iteration #  2     ecut=    60.00 Ry     beta= 0.30
     Davidson diagonalization with overlap
     ethr =  6.88E-04,  avg # of iterations =  1.0

     total cpu time spent up to now is        4.9 secs

     total energy              =     -53.33660650 Ry
     estimated scf accuracy    <       0.03610821 Ry

     iteration #  3     ecut=    60.00 Ry     beta= 0.30
     Davidson diagonalization with overlap
     ethr =  3.01E-04,  avg # of iterations =  2.1

     total cpu time spent up to now is        5.8 secs

     total energy              =     -53.34036425 Ry
     estimated scf accuracy    <       0.00104159 Ry

     iteration #  4     ecut=    60.00 Ry     beta= 0.30
     Davidson diagonalization with overlap
     c_bands:  1 eigenvalues not converged
     c_bands:  1 eigenvalues not converged
     c_bands:  1 eigenvalues not converged
     c_bands:  1 eigenvalues not converged
     ethr =  8.68E-06,  avg # of iterations =  7.0

     total cpu time spent up to now is        8.4 secs

     total energy              =     -53.34098601 Ry
     estimated scf accuracy    <       0.00014656 Ry

     iteration #  5     ecut=    60.00 Ry     beta= 0.30
     Davidson diagonalization with overlap
     ethr =  1.22E-06,  avg # of iterations =  3.8

     total cpu time spent up to now is       10.0 secs

     total energy              =     -53.34102289 Ry
     estimated scf accuracy    <       0.00008928 Ry

     iteration #  6     ecut=    60.00 Ry     beta= 0.30
     Davidson diagonalization with overlap
     ethr =  7.44E-07,  avg # of iterations =  2.0

     total cpu time spent up to now is       10.9 secs

     total energy              =     -53.34104570 Ry
     estimated scf accuracy    <       0.00000620 Ry

     iteration #  7     ecut=    60.00 Ry     beta= 0.30
     Davidson diagonalization with overlap
     ethr =  5.16E-08,  avg # of iterations =  4.2

     total cpu time spent up to now is       12.4 secs

     total energy              =     -53.34104889 Ry
     estimated scf accuracy    <       0.00001129 Ry

     iteration #  8     ecut=    60.00 Ry     beta= 0.30
     Davidson diagonalization with overlap
     ethr =  5.16E-08,  avg # of iterations =  1.0

     total cpu time spent up to now is       13.1 secs

     total energy              =     -53.34104582 Ry
     estimated scf accuracy    <       0.00000516 Ry

     iteration #  9     ecut=    60.00 Ry     beta= 0.30
     Davidson diagonalization with overlap
     ethr =  4.30E-08,  avg # of iterations =  2.0

     total cpu time spent up to now is       13.9 secs

     total energy              =     -53.34104715 Ry
     estimated scf accuracy    <       0.00000023 Ry

     iteration # 10     ecut=    60.00 Ry     beta= 0.30
     Davidson diagonalization with overlap
     ethr =  1.93E-09,  avg # of iterations =  3.8

     total cpu time spent up to now is       15.3 secs

     total energy              =     -53.34104726 Ry
     estimated scf accuracy    <       0.00000017 Ry

     iteration # 11     ecut=    60.00 Ry     beta= 0.30
     Davidson diagonalization with overlap
     ethr =  1.42E-09,  avg # of iterations =  1.0

     total cpu time spent up to now is       16.0 secs

     total energy              =     -53.34104721 Ry
     estimated scf accuracy    <       0.00000019 Ry

     iteration # 12     ecut=    60.00 Ry     beta= 0.30
     Davidson diagonalization with overlap
     ethr =  1.42E-09,  avg # of iterations =  1.0

     total cpu time spent up to now is       16.7 secs

     total energy              =     -53.34104716 Ry
     estimated scf accuracy    <       0.00000008 Ry

     iteration # 13     ecut=    60.00 Ry     beta= 0.30
     Davidson diagonalization with overlap
     ethr =  6.53E-10,  avg # of iterations =  2.0

     total cpu time spent up to now is       17.5 secs

     End of self-consistent calculation

     Number of k-points >= 100: set verbosity='high' to print the bands.

     the Fermi energy is     3.7917 ev

!    total energy              =     -53.34104719 Ry
     estimated scf accuracy    <          7.0E-09 Ry
     smearing contrib. (-TS)   =       0.00000000 Ry
     internal energy E=F+TS    =     -53.34104719 Ry

     The total energy is F=E-TS. E is the sum of the following terms:
     one-electron contribution =     -17.26813280 Ry
     hartree contribution      =       9.68172196 Ry
     xc contribution           =     -15.43027185 Ry
     ewald contribution        =     -30.32436450 Ry

     convergence has been achieved in  13 iterations

     Forces acting on atoms (cartesian axes, Ry/au):

     atom    1 type  1   force =     0.00000091    0.00000019    0.00000000
     atom    2 type  1   force =    -0.00000091   -0.00000019    0.00000000
     atom    3 type  2   force =     0.00000000    0.00000000    0.00000000

     Total force =     0.000001     Total SCF correction =     0.000006
     SCF correction compared to forces is large: reduce conv_thr to get better values


     Computing stress (Cartesian axis) and pressure

          total   stress  (Ry/bohr**3)                   (kbar)     P=        7.70
   0.00005232   0.00000001  -0.00000000            7.70        0.00       -0.00
   0.00000001   0.00005232  -0.00000000            0.00        7.70       -0.00
  -0.00000000  -0.00000000   0.00005234           -0.00       -0.00        7.70


     BFGS Geometry Optimization
     Energy error            =      6.3E-05 Ry
     Gradient error          =      9.1E-07 Ry/Bohr
     Cell gradient error     =      7.7E+00 kbar

     number of scf cycles    =   1
     number of bfgs steps    =   0

     enthalpy           new  =     -53.3410471864 Ry

     new trust radius        =       0.0045894542 bohr
     new conv_thr            =       0.0000000100 Ry

     new unit-cell volume =    308.79210 a.u.^3 (    45.75827 Ang^3 )
     density =      1.66713 g/cm^3

CELL_PARAMETERS (angstrom)
   3.476899953   0.000000922   2.007390091
   1.158966853   3.278051417   2.007390091
  -0.000000001  -0.000000001   4.014779182

ATOMIC_POSITIONS (angstrom)
Li               1.1589671832        0.8195131857        2.0073898411
Li               3.4768996222        2.4585391525        6.0221695234
S                0.0000000000        0.0000000000        0.0000000000



     Writing config-only to output data dir ./tmp/li2s_mp-1153.save/ :
     XML data file
     NEW-OLD atomic charge density approx. for the potential
     New effective cutoffs (rho, wfc):  478.73   59.82

     total cpu time spent up to now is       18.2 secs

     Self-consistent Calculation

     iteration #  1     ecut=    60.00 Ry     beta= 0.30
     Davidson diagonalization with overlap
     ethr =  1.00E-06,  avg # of iterations =  3.0

     Threshold (ethr) on eigenvalues was too large:
     Diagonalizing with lowered threshold

     Davidson diagonalization with overlap
     ethr =  7.85E-10,  avg # of iterations =  6.8

     total cpu time spent up to now is       21.1 secs

     total energy              =     -53.34110390 Ry
     estimated scf accuracy    <       0.00000013 Ry

     iteration #  2     ecut=    60.00 Ry     beta= 0.30
     Davidson diagonalization with overlap
     ethr =  1.07E-09,  avg # of iterations =  1.0

     total cpu time spent up to now is       21.8 secs

     total energy              =     -53.34110391 Ry
     estimated scf accuracy    <       0.00000003 Ry

     iteration #  3     ecut=    60.00 Ry     beta= 0.30
     Davidson diagonalization with overlap
     ethr =  2.39E-10,  avg # of iterations =  2.5

     total cpu time spent up to now is       22.9 secs

     End of self-consistent calculation

     Number of k-points >= 100: set verbosity='high' to print the bands.

     the Fermi energy is     3.7420 ev

!    total energy              =     -53.34110393 Ry
     estimated scf accuracy    <          2.2E-09 Ry
     smearing contrib. (-TS)   =       0.00000000 Ry
     internal energy E=F+TS    =     -53.34110393 Ry

     The total energy is F=E-TS. E is the sum of the following terms:
     one-electron contribution =     -17.32683281 Ry
     hartree contribution      =       9.69792555 Ry
     xc contribution           =     -15.42744932 Ry
     ewald contribution        =     -30.28474736 Ry

     convergence has been achieved in   3 iterations

     Forces acting on atoms (cartesian axes, Ry/au):

     atom    1 type  1   force =    -0.00000004    0.00000001   -0.00000000
     atom    2 type  1   force =     0.00000004   -0.00000001    0.00000000
     atom    3 type  2   force =     0.00000000    0.00000000    0.00000000

     Total force =     0.000000     Total SCF correction =     0.000000
     SCF correction compared to forces is large: reduce conv_thr to get better values


     Computing stress (Cartesian axis) and pressure

          total   stress  (Ry/bohr**3)                   (kbar)     P=        6.04
   0.00004107  -0.00000000  -0.00000000            6.04       -0.00       -0.00
  -0.00000000   0.00004108  -0.00000000           -0.00        6.04       -0.00
  -0.00000000  -0.00000000   0.00004108           -0.00       -0.00        6.04

     Energy error            =      5.7E-05 Ry
     Gradient error          =      4.4E-08 Ry/Bohr
     Cell gradient error     =      6.0E+00 kbar

     number of scf cycles    =   2
     number of bfgs steps    =   1

     enthalpy           old  =     -53.3410471864 Ry
     enthalpy           new  =     -53.3411039335 Ry

     CASE: enthalpy          _new < enthalpy          _old

     new trust radius        =       0.0050516992 bohr
     new conv_thr            =            1.0E-10 Ry

     new unit-cell volume =    310.12551 a.u.^3 (    45.95586 Ang^3 )
     density =      1.65997 g/cm^3

CELL_PARAMETERS (angstrom)
   3.481897185   0.000000767   2.010275321
   1.160632449   3.282763200   2.010275321
  -0.000000002  -0.000000001   4.020549642

ATOMIC_POSITIONS (angstrom)
Li               1.1606328581        0.8206911032        2.0102750711
Li               3.4818967745        2.4620728626        6.0308252134
S                0.0000000000        0.0000000000        0.0000000000



     Writing config-only to output data dir ./tmp/li2s_mp-1153.save/ :
     XML data file
     NEW-OLD atomic charge density approx. for the potential
     New effective cutoffs (rho, wfc):  477.36   59.65

     total cpu time spent up to now is       23.5 secs

     Self-consistent Calculation

     iteration #  1     ecut=    60.00 Ry     beta= 0.30
     Davidson diagonalization with overlap
     ethr =  1.00E-06,  avg # of iterations =  3.0

     Threshold (ethr) on eigenvalues was too large:
     Diagonalizing with lowered threshold

     Davidson diagonalization with overlap
     ethr =  9.37E-10,  avg # of iterations =  6.8

     total cpu time spent up to now is       26.5 secs

     total energy              =     -53.34115047 Ry
     estimated scf accuracy    <       0.00000022 Ry

     iteration #  2     ecut=    60.00 Ry     beta= 0.30
     Davidson diagonalization with overlap
     ethr =  1.84E-09,  avg # of iterations =  1.0

     total cpu time spent up to now is       27.2 secs

     total energy              =     -53.34115049 Ry
     estimated scf accuracy    <       0.00000005 Ry

     iteration #  3     ecut=    60.00 Ry     beta= 0.30
     Davidson diagonalization with overlap
     ethr =  3.94E-10,  avg # of iterations =  2.1

     total cpu time spent up to now is       28.1 secs

     total energy              =     -53.34115051 Ry
     estimated scf accuracy    <          2.9E-09 Ry

     iteration #  4     ecut=    60.00 Ry     beta= 0.30
     Davidson diagonalization with overlap
     ethr =  2.39E-11,  avg # of iterations =  4.6

     total cpu time spent up to now is       30.0 secs

     total energy              =     -53.34115052 Ry
     estimated scf accuracy    <          1.6E-10 Ry

     iteration #  5     ecut=    60.00 Ry     beta= 0.30
     Davidson diagonalization with overlap
     ethr =  1.33E-12,  avg # of iterations =  3.9

     total cpu time spent up to now is       31.3 secs

     End of self-consistent calculation

     Number of k-points >= 100: set verbosity='high' to print the bands.

     the Fermi energy is     3.6874 ev

!    total energy              =     -53.34115052 Ry
     estimated scf accuracy    <          1.1E-11 Ry
     smearing contrib. (-TS)   =       0.00000000 Ry
     internal energy E=F+TS    =     -53.34115052 Ry

     The total energy is F=E-TS. E is the sum of the following terms:
     one-electron contribution =     -17.39131740 Ry
     hartree contribution      =       9.71584958 Ry
     xc contribution           =     -15.42440174 Ry
     ewald contribution        =     -30.24128096 Ry

     convergence has been achieved in   5 iterations

     Forces acting on atoms (cartesian axes, Ry/au):

     atom    1 type  1   force =    -0.00000009   -0.00000004   -0.00000000
     atom    2 type  1   force =     0.00000009    0.00000004    0.00000000
     atom    3 type  2   force =     0.00000000    0.00000000    0.00000000

     Total force =     0.000000     Total SCF correction =     0.000000
     SCF correction compared to forces is large: reduce conv_thr to get better values


     Computing stress (Cartesian axis) and pressure

          total   stress  (Ry/bohr**3)                   (kbar)     P=        4.23
   0.00002873  -0.00000000  -0.00000000            4.23       -0.00       -0.00
  -0.00000000   0.00002873  -0.00000000           -0.00        4.23       -0.00
  -0.00000000  -0.00000000   0.00002873           -0.00       -0.00        4.23

     Energy error            =      4.7E-05 Ry
     Gradient error          =      9.0E-08 Ry/Bohr
     Cell gradient error     =      4.2E+00 kbar

     number of scf cycles    =   3
     number of bfgs steps    =   2

     enthalpy           old  =     -53.3411039335 Ry
     enthalpy           new  =     -53.3411505215 Ry

     CASE: enthalpy          _new < enthalpy          _old

     new trust radius        =       0.0075829920 bohr
     new conv_thr            =            1.0E-10 Ry

     new unit-cell volume =    312.13281 a.u.^3 (    46.25331 Ang^3 )
     density =      1.64929 g/cm^3

CELL_PARAMETERS (angstrom)
   3.489393207   0.000000645   2.014602978
   1.163131008   3.289830913   2.014602978
  -0.000000003  -0.000000002   4.029204956

ATOMIC_POSITIONS (angstrom)
Li               1.1631313868        0.8224579601        2.0146027282
Li               3.4893928247        2.4673735958        6.0438081846
S                0.0000000000        0.0000000000        0.0000000000



     Writing config-only to output data dir ./tmp/li2s_mp-1153.save/ :
     XML data file
     NEW-OLD atomic charge density approx. for the potential
     New effective cutoffs (rho, wfc):  475.31   59.40

     total cpu time spent up to now is       32.0 secs

     Self-consistent Calculation

     iteration #  1     ecut=    60.00 Ry     beta= 0.30
     Davidson diagonalization with overlap
     ethr =  1.00E-06,  avg # of iterations =  3.9

     Threshold (ethr) on eigenvalues was too large:
     Diagonalizing with lowered threshold

     Davidson diagonalization with overlap
     ethr =  1.21E-09,  avg # of iterations =  5.9

     total cpu time spent up to now is       35.0 secs

     total energy              =     -53.34118961 Ry
     estimated scf accuracy    <       0.00000052 Ry

     iteration #  2     ecut=    60.00 Ry     beta= 0.30
     Davidson diagonalization with overlap
     ethr =  4.30E-09,  avg # of iterations =  1.0

     total cpu time spent up to now is       35.6 secs

     total energy              =     -53.34118965 Ry
     estimated scf accuracy    <       0.00000010 Ry

     iteration #  3     ecut=    60.00 Ry     beta= 0.30
     Davidson diagonalization with overlap
     ethr =  8.52E-10,  avg # of iterations =  2.0

     total cpu time spent up to now is       36.5 secs

     total energy              =     -53.34118969 Ry
     estimated scf accuracy    <          6.8E-09 Ry

     iteration #  4     ecut=    60.00 Ry     beta= 0.30
     Davidson diagonalization with overlap
     ethr =  5.63E-11,  avg # of iterations =  3.5

     total cpu time spent up to now is       37.8 secs

     total energy              =     -53.34118970 Ry
     estimated scf accuracy    <          4.0E-10 Ry

     iteration #  5     ecut=    60.00 Ry     beta= 0.30
     Davidson diagonalization with overlap
     ethr =  3.31E-12,  avg # of iterations =  4.0

     total cpu time spent up to now is       39.3 secs

     End of self-consistent calculation

     Number of k-points >= 100: set verbosity='high' to print the bands.

     the Fermi energy is     3.6058 ev

!    total energy              =     -53.34118971 Ry
     estimated scf accuracy    <          7.2E-11 Ry
     smearing contrib. (-TS)   =       0.00000000 Ry
     internal energy E=F+TS    =     -53.34118971 Ry

     The total energy is F=E-TS. E is the sum of the following terms:
     one-electron contribution =     -17.48772554 Ry
     hartree contribution      =       9.74270246 Ry
     xc contribution           =     -15.41985139 Ry
     ewald contribution        =     -30.17631524 Ry

     convergence has been achieved in   5 iterations

     Forces acting on atoms (cartesian axes, Ry/au):

     atom    1 type  1   force =    -0.00000020    0.00000009   -0.00000000
     atom    2 type  1   force =     0.00000020   -0.00000009    0.00000000
     atom    3 type  2   force =     0.00000000    0.00000000    0.00000000

     Total force =     0.000000     Total SCF correction =     0.000000
     SCF correction compared to forces is large: reduce conv_thr to get better values


     Computing stress (Cartesian axis) and pressure

          total   stress  (Ry/bohr**3)                   (kbar)     P=        1.53
   0.00001042  -0.00000000  -0.00000000            1.53       -0.00       -0.00
  -0.00000000   0.00001042  -0.00000000           -0.00        1.53       -0.00
  -0.00000000  -0.00000000   0.00001042           -0.00       -0.00        1.53

     Energy error            =      3.9E-05 Ry
     Gradient error          =      2.0E-07 Ry/Bohr
     Cell gradient error     =      1.5E+00 kbar

     number of scf cycles    =   4
     number of bfgs steps    =   3

     enthalpy           old  =     -53.3411505215 Ry
     enthalpy           new  =     -53.3411897099 Ry

     CASE: enthalpy          _new < enthalpy          _old

     new trust radius        =       0.0043508728 bohr
     new conv_thr            =            1.0E-10 Ry

     new unit-cell volume =    313.28718 a.u.^3 (    46.42437 Ang^3 )
     density =      1.64321 g/cm^3

CELL_PARAMETERS (angstrom)
   3.493689521   0.000000539   2.017083350
   1.164563011   3.293881765   2.017083350
  -0.000000004  -0.000000002   4.034165701

ATOMIC_POSITIONS (angstrom)
Li               1.1645632622        0.8234707100        2.0170831004
Li               3.4936892662        2.4704115919        6.0512493012
S                0.0000000000        0.0000000000        0.0000000000



     Writing config-only to output data dir ./tmp/li2s_mp-1153.save/ :
     XML data file
     NEW-OLD atomic charge density approx. for the potential
     New effective cutoffs (rho, wfc):  474.14   59.25

     total cpu time spent up to now is       39.9 secs

     Self-consistent Calculation

     iteration #  1     ecut=    60.00 Ry     beta= 0.30
     Davidson diagonalization with overlap
     ethr =  1.00E-06,  avg # of iterations =  3.0

     Threshold (ethr) on eigenvalues was too large:
     Diagonalizing with lowered threshold

     Davidson diagonalization with overlap
     ethr =  7.06E-10,  avg # of iterations =  6.6

     total cpu time spent up to now is       42.8 secs

     total energy              =     -53.34119576 Ry
     estimated scf accuracy    <       0.00000018 Ry

     iteration #  2     ecut=    60.00 Ry     beta= 0.30
     Davidson diagonalization with overlap
     ethr =  1.49E-09,  avg # of iterations =  1.0

     total cpu time spent up to now is       43.5 secs

     total energy              =     -53.34119577 Ry
     estimated scf accuracy    <       0.00000004 Ry

     iteration #  3     ecut=    60.00 Ry     beta= 0.30
     Davidson diagonalization with overlap
     ethr =  2.93E-10,  avg # of iterations =  2.3

     total cpu time spent up to now is       44.5 secs

     total energy              =     -53.34119579 Ry
     estimated scf accuracy    <          2.2E-09 Ry

     iteration #  4     ecut=    60.00 Ry     beta= 0.30
     Davidson diagonalization with overlap
     ethr =  1.87E-11,  avg # of iterations =  4.5

     total cpu time spent up to now is       46.3 secs

     End of self-consistent calculation

     Number of k-points >= 100: set verbosity='high' to print the bands.

     the Fermi energy is     3.5590 ev

!    total energy              =     -53.34119579 Ry
     estimated scf accuracy    <          7.4E-11 Ry
     smearing contrib. (-TS)   =       0.00000000 Ry
     internal energy E=F+TS    =     -53.34119579 Ry

     The total energy is F=E-TS. E is the sum of the following terms:
     one-electron contribution =     -17.54282109 Ry
     hartree contribution      =       9.75809508 Ry
     xc contribution           =     -15.41726377 Ry
     ewald contribution        =     -30.13920601 Ry

     convergence has been achieved in   4 iterations

     Forces acting on atoms (cartesian axes, Ry/au):

     atom    1 type  1   force =    -0.00000002    0.00000001   -0.00000000
     atom    2 type  1   force =     0.00000002   -0.00000001    0.00000000
     atom    3 type  2   force =     0.00000000    0.00000000    0.00000000

     Total force =     0.000000     Total SCF correction =     0.000000
     SCF correction compared to forces is large: reduce conv_thr to get better values


     Computing stress (Cartesian axis) and pressure

          total   stress  (Ry/bohr**3)                   (kbar)     P=        0.02
   0.00000016  -0.00000000  -0.00000000            0.02       -0.00       -0.00
  -0.00000000   0.00000016  -0.00000000           -0.00        0.02       -0.00
  -0.00000000  -0.00000000   0.00000016           -0.00       -0.00        0.02

     Energy error            =      6.1E-06 Ry
     Gradient error          =      1.7E-08 Ry/Bohr
     Cell gradient error     =      2.4E-02 kbar

     bfgs converged in   5 scf cycles and   4 bfgs steps
     (criteria: energy <  1.0E-04 Ry, force <  1.0E-03 Ry/Bohr, cell <  5.0E-01 kbar)

     End of BFGS Geometry Optimization

     Final enthalpy           =     -53.3411957919 Ry

     File ./tmp/li2s_mp-1153.bfgs deleted, as requested
Begin final coordinates
     new unit-cell volume =    313.28718 a.u.^3 (    46.42437 Ang^3 )
     density =      1.64321 g/cm^3

CELL_PARAMETERS (angstrom)
   3.493689521   0.000000539   2.017083350
   1.164563011   3.293881765   2.017083350
  -0.000000004  -0.000000002   4.034165701

ATOMIC_POSITIONS (angstrom)
Li               1.1645632622        0.8234707100        2.0170831004
Li               3.4936892662        2.4704115919        6.0512493012
S                0.0000000000        0.0000000000        0.0000000000
End final coordinates



     Writing config-only to output data dir ./tmp/li2s_mp-1153.save/ :
     XML data file

     Final scf calculation at the relaxed structure.
     The G-vectors are recalculated for the final unit cell
     Results may differ from those at the preceding step.
 
     G-vector sticks info
     --------------------
     sticks:   dense  smooth     PW     G-vecs:    dense   smooth      PW
     Sum        1921     955    295                55657    19603    3215
 
     Using Slab Decomposition
 


     bravais-lattice index     =            0
     lattice parameter (alat)  =       7.5769  a.u.
     unit-cell volume          =     313.2872 (a.u.)^3
     number of atoms/cell      =            3
     number of atomic types    =            2
     number of electrons       =        12.00
     number of Kohn-Sham states=           10
     kinetic-energy cutoff     =      60.0000  Ry
     charge density cutoff     =     480.0000  Ry
     scf convergence threshold =      1.0E-10
     mixing beta               =       0.3000
     number of iterations used =            8  plain     mixing
     press convergence thresh. =      5.0E-01
     Exchange-correlation=  SLA  PW   PBX  PBC
                           (   1   4   3   4   0   0   0)

     GPU acceleration is ACTIVE.  1 visible GPUs per MPI rank


     celldm(1)=   7.576921  celldm(2)=   0.000000  celldm(3)=   0.000000
     celldm(4)=   0.000000  celldm(5)=   0.000000  celldm(6)=   0.000000

     crystal axes: (cart. coord. in units of alat)
               a(1) = (   0.871346   0.000000   0.503072 )  
               a(2) = (   0.290448   0.821512   0.503072 )  
               a(3) = (  -0.000000  -0.000000   1.006143 )  

     reciprocal axes: (cart. coord. in units 2 pi/alat)
               b(1) = (  1.147650 -0.405756  0.000000 )  
               b(2) = ( -0.000000  1.217267  0.000000 )  
               b(3) = ( -0.573825 -0.405756  0.993894 )  


     PseudoPot. # 1 for Li read from file:
     /data/work/pseudo/li_pbe_v1.4.uspp.F.UPF
     MD5 check sum: e912e257baa3777c20ea3d68f190483c
     Pseudo is Ultrasoft, Zval =  3.0
     Generated by new atomic code, or converted to UPF format
     Using radial grid of  751 points,  5 beta functions with: 
                l(1) =   0
                l(2) =   0
                l(3) =   0
                l(4) =   1
                l(5) =   1
     Q(r) pseudized with 10 coefficients,  rinner =    1.150   1.150   1.150


     PseudoPot. # 2 for S  read from file:
     /data/work/pseudo/s_pbe_v1.4.uspp.F.UPF
     MD5 check sum: 88d86576ff6df21479756cfb9bdac1df
     Pseudo is Ultrasoft + core correction, Zval =  6.0
     Generated by new atomic code, or converted to UPF format
     Using radial grid of  907 points,  6 beta functions with: 
                l(1) =   0
                l(2) =   0
                l(3) =   1
                l(4) =   1
                l(5) =   2
                l(6) =   2
     Q(r) pseudized with  8 coefficients,  rinner =    1.300   1.300   1.300
                                                       1.300   1.300

     atomic species   valence    mass     pseudopotential
     Li                3.00     6.94000     Li( 1.00)
     S                 6.00    32.06000     S ( 1.00)

      4 Sym. Ops., with inversion, found



   Cartesian axes

     site n.     atom                  positions (alat units)
         1        Li     tau(   1) = (   0.2904486   0.2053782   0.5030717  )
         2        Li     tau(   2) = (   0.8713455   0.6161344   1.5092152  )
         3        S      tau(   3) = (   0.0000000   0.0000000   0.0000000  )

     number of k points=   100  Marzari-Vanderbilt smearing, width (Ry)=  0.0100

     Number of k-points >= 100: set verbosity='high' to print them.

     Dense  grid:    55657 G-vectors     FFT dimensions: (  54,  54,  54)

     Smooth grid:    19603 G-vectors     FFT dimensions: (  40,  40,  40)

     Estimated max dynamical RAM per process >     253.19 MB

     Initial potential from superposition of free atoms

     starting charge      11.0985, renormalised to      12.0000
     Starting wfcs are   14 randomized atomic wfcs

     total cpu time spent up to now is       47.3 secs

     Self-consistent Calculation

     iteration #  1     ecut=    60.00 Ry     beta= 0.30
     Davidson diagonalization with overlap
     c_bands:  1 eigenvalues not converged
     c_bands:  1 eigenvalues not converged
     c_bands:  1 eigenvalues not converged
     c_bands:  1 eigenvalues not converged
     c_bands:  1 eigenvalues not converged
     c_bands:  1 eigenvalues not converged
     c_bands:  1 eigenvalues not converged
     c_bands:  1 eigenvalues not converged
     c_bands:  1 eigenvalues not converged
     c_bands:  1 eigenvalues not converged
     c_bands:  2 eigenvalues not converged
     c_bands:  1 eigenvalues not converged
     c_bands:  1 eigenvalues not converged
     c_bands:  1 eigenvalues not converged
     c_bands:  1 eigenvalues not converged
     c_bands:  1 eigenvalues not converged
     c_bands:  1 eigenvalues not converged
     c_bands:  1 eigenvalues not converged
     c_bands:  1 eigenvalues not converged
     c_bands:  2 eigenvalues not converged
     c_bands:  2 eigenvalues not converged
     c_bands:  1 eigenvalues not converged
     c_bands:  1 eigenvalues not converged
     c_bands:  1 eigenvalues not converged
     c_bands:  1 eigenvalues not converged
     c_bands:  1 eigenvalues not converged
     c_bands:  1 eigenvalues not converged
     c_bands:  2 eigenvalues not converged
     c_bands:  1 eigenvalues not converged
     c_bands:  1 eigenvalues not converged
     c_bands:  1 eigenvalues not converged
     c_bands:  1 eigenvalues not converged
     c_bands:  1 eigenvalues not converged
     c_bands:  1 eigenvalues not converged
     c_bands:  1 eigenvalues not converged
     c_bands:  1 eigenvalues not converged
     c_bands:  1 eigenvalues not converged
     c_bands:  1 eigenvalues not converged
     c_bands:  1 eigenvalues not converged
     c_bands:  2 eigenvalues not converged
     c_bands:  2 eigenvalues not converged
     c_bands:  1 eigenvalues not converged
     c_bands:  1 eigenvalues not converged
     c_bands:  2 eigenvalues not converged
     c_bands:  2 eigenvalues not converged
     c_bands:  1 eigenvalues not converged
     c_bands:  2 eigenvalues not converged
     c_bands:  1 eigenvalues not converged
     c_bands:  1 eigenvalues not converged
     c_bands:  1 eigenvalues not converged
     c_bands:  1 eigenvalues not converged
     c_bands:  1 eigenvalues not converged
     c_bands:  1 eigenvalues not converged
     c_bands:  1 eigenvalues not converged
     c_bands:  1 eigenvalues not converged
     c_bands:  3 eigenvalues not converged
     ethr =  1.00E-06,  avg # of iterations = 19.2

     total cpu time spent up to now is       52.8 secs

     total energy              =     -53.36116596 Ry
     estimated scf accuracy    <       0.08422102 Ry

     iteration #  2     ecut=    60.00 Ry     beta= 0.30
     Davidson diagonalization with overlap
     ethr =  7.02E-04,  avg # of iterations =  1.0

     total cpu time spent up to now is       53.4 secs

     total energy              =     -53.33686396 Ry
     estimated scf accuracy    <       0.03645625 Ry

     iteration #  3     ecut=    60.00 Ry     beta= 0.30
     Davidson diagonalization with overlap
     ethr =  3.04E-04,  avg # of iterations =  2.0

     total cpu time spent up to now is       54.3 secs

     total energy              =     -53.34059689 Ry
     estimated scf accuracy    <       0.00087397 Ry

     iteration #  4     ecut=    60.00 Ry     beta= 0.30
     Davidson diagonalization with overlap
     c_bands:  1 eigenvalues not converged
     c_bands:  1 eigenvalues not converged
     ethr =  7.28E-06,  avg # of iterations =  4.7

     total cpu time spent up to now is       56.2 secs

     total energy              =     -53.34116405 Ry
     estimated scf accuracy    <       0.00009068 Ry

     iteration #  5     ecut=    60.00 Ry     beta= 0.30
     Davidson diagonalization with overlap
     c_bands:  1 eigenvalues not converged
     ethr =  7.56E-07,  avg # of iterations =  3.1

     total cpu time spent up to now is       57.4 secs

     total energy              =     -53.34119115 Ry
     estimated scf accuracy    <       0.00004397 Ry

     iteration #  6     ecut=    60.00 Ry     beta= 0.30
     Davidson diagonalization with overlap
     ethr =  3.66E-07,  avg # of iterations =  2.1

     total cpu time spent up to now is       58.4 secs

     total energy              =     -53.34119398 Ry
     estimated scf accuracy    <       0.00002355 Ry

     iteration #  7     ecut=    60.00 Ry     beta= 0.30
     Davidson diagonalization with overlap
     ethr =  1.96E-07,  avg # of iterations =  1.1

     total cpu time spent up to now is       59.1 secs

     total energy              =     -53.34119552 Ry
     estimated scf accuracy    <       0.00000130 Ry

     iteration #  8     ecut=    60.00 Ry     beta= 0.30
     Davidson diagonalization with overlap
     ethr =  1.08E-08,  avg # of iterations =  4.1

     total cpu time spent up to now is       60.6 secs

     total energy              =     -53.34119629 Ry
     estimated scf accuracy    <       0.00000010 Ry

     iteration #  9     ecut=    60.00 Ry     beta= 0.30
     Davidson diagonalization with overlap
     ethr =  8.40E-10,  avg # of iterations =  3.4

     total cpu time spent up to now is       62.0 secs

     total energy              =     -53.34119623 Ry
     estimated scf accuracy    <       0.00000014 Ry

     iteration # 10     ecut=    60.00 Ry     beta= 0.30
     Davidson diagonalization with overlap
     ethr =  8.40E-10,  avg # of iterations =  2.0

     total cpu time spent up to now is       62.8 secs

     total energy              =     -53.34119625 Ry
     estimated scf accuracy    <          2.7E-09 Ry

     iteration # 11     ecut=    60.00 Ry     beta= 0.30
     Davidson diagonalization with overlap
     ethr =  2.24E-11,  avg # of iterations =  5.0

     total cpu time spent up to now is       64.4 secs

     total energy              =     -53.34119625 Ry
     estimated scf accuracy    <          6.3E-09 Ry

     iteration # 12     ecut=    60.00 Ry     beta= 0.30
     Davidson diagonalization with overlap
     ethr =  2.24E-11,  avg # of iterations =  1.2

     total cpu time spent up to now is       65.1 secs

     total energy              =     -53.34119625 Ry
     estimated scf accuracy    <          2.1E-09 Ry

     iteration # 13     ecut=    60.00 Ry     beta= 0.30
     Davidson diagonalization with overlap
     ethr =  1.77E-11,  avg # of iterations =  1.9

     total cpu time spent up to now is       66.0 secs

     End of self-consistent calculation

     Number of k-points >= 100: set verbosity='high' to print the bands.

     the Fermi energy is     3.5598 ev

!    total energy              =     -53.34119625 Ry
     estimated scf accuracy    <          5.1E-11 Ry
     smearing contrib. (-TS)   =       0.00000000 Ry
     internal energy E=F+TS    =     -53.34119625 Ry

     The total energy is F=E-TS. E is the sum of the following terms:
     one-electron contribution =     -17.54283324 Ry
     hartree contribution      =       9.75811563 Ry
     xc contribution           =     -15.41727264 Ry
     ewald contribution        =     -30.13920601 Ry

     convergence has been achieved in  13 iterations

     Forces acting on atoms (cartesian axes, Ry/au):

     atom    1 type  1   force =    -0.00000003    0.00000012    0.00000000
     atom    2 type  1   force =     0.00000003   -0.00000012   -0.00000000
     atom    3 type  2   force =     0.00000000    0.00000000    0.00000000

     Total force =     0.000000     Total SCF correction =     0.000000
     SCF correction compared to forces is large: reduce conv_thr to get better values


     Computing stress (Cartesian axis) and pressure

          total   stress  (Ry/bohr**3)                   (kbar)     P=        0.03
   0.00000020  -0.00000000  -0.00000000            0.03       -0.00       -0.00
  -0.00000000   0.00000020  -0.00000000           -0.00        0.03       -0.00
  -0.00000000  -0.00000000   0.00000020           -0.00       -0.00        0.03


     Writing all to output data dir ./tmp/li2s_mp-1153.save/ :
     XML data file, charge density, pseudopotentials, collected wavefunctions
 
     init_run     :      1.88s CPU      2.02s WALL (       2 calls)
     electrons    :     59.89s CPU     60.36s WALL (       6 calls)
     update_pot   :      0.07s CPU      0.07s WALL (       4 calls)
     forces       :      0.72s CPU      0.72s WALL (       6 calls)
     stress       :      2.98s CPU      2.99s WALL (       6 calls)

     Called by init_run:
     wfcinit      :      0.66s CPU      0.72s WALL (       2 calls)
     potinit      :      0.42s CPU      0.45s WALL (       2 calls)
     hinit0       :      0.66s CPU      0.68s WALL (       2 calls)

     Called by electrons:
     c_bands      :     53.58s CPU     53.97s WALL (      48 calls)
     sum_band     :      5.29s CPU      5.33s WALL (      48 calls)
     v_of_rho     :      0.23s CPU      0.27s WALL (      49 calls)
     newd         :      0.51s CPU      0.54s WALL (      49 calls)
                                        0.54s GPU  (      49 calls)
     mix_rho      :      0.19s CPU      0.20s WALL (      48 calls)

     Called by c_bands:
     init_us_2    :      2.25s CPU      2.27s WALL (   11000 calls)
     cegterg      :     49.99s CPU     50.35s WALL (    4800 calls)

     Called by *egterg:
     cdiaghg      :     15.94s CPU     16.17s WALL (   19915 calls)
                                       16.10s GPU  (   19915 calls)
     h_psi        :     15.85s CPU     16.13s WALL (   21015 calls)
                                       16.07s GPU  (   21015 calls)
     s_psi        :      2.15s CPU      2.18s WALL (   21015 calls)
     g_psi        :      0.07s CPU      0.22s WALL (   16015 calls)
                                        0.17s GPU  (   16015 calls)

     Called by h_psi:
     h_psi:calbec :      0.52s CPU      1.85s WALL (   21015 calls)
                                        1.78s GPU  (   21015 calls)
     vloc_psi     :     10.38s CPU     10.61s WALL (   21015 calls)
                                       10.54s GPU  (   21015 calls)
     add_vuspsi   :      1.95s CPU      2.93s WALL (   21015 calls)
                                        2.85s GPU  (   21015 calls)

     General routines
     calbec       :      0.76s CPU      0.79s WALL (   36015 calls)
     fft          :      0.33s CPU      0.39s WALL (     784 calls)
                                        0.14s GPU  (     735 calls)
     ffts         :      0.23s CPU      0.23s WALL (      97 calls)
                                        0.00s GPU  (      48 calls)
     fftw         :      0.60s CPU      8.05s WALL (   46830 calls)
                                        7.89s GPU  (   46830 calls)
     interpolate  :      0.50s CPU      0.50s WALL (      49 calls)
 
     Parallel routines
 
     PWSCF        :   1m 6.06s CPU   1m 6.72s WALL

 
   This run was terminated on:  19:51: 8   6Aug2026            

=------------------------------------------------------------------------------=
   JOB DONE.
=------------------------------------------------------------------------------=
Warning: ieee_invalid is signaling
Warning: ieee_divide_by_zero is signaling
Warning: ieee_underflow is signaling
Warning: ieee_inexact is signaling
FORTRAN STOP
