
     Program PWSCF v.7.4.1 starts on 28Sep2026 at  2:49:43 

     This program is part of the open-source Quantum ESPRESSO suite
     for quantum simulation of materials; please cite
         "P. Giannozzi et al., J. Phys.:Condens. Matter 21 395502 (2009);
         "P. Giannozzi et al., J. Phys.:Condens. Matter 29 465901 (2017);
         "P. Giannozzi et al., J. Chem. Phys. 152 154105 (2020);
          URL http://www.quantum-espresso.org", 
     in publications or presentations arising from this work. More details at
     http://www.quantum-espresso.org/quote

     Parallel version (MPI & OpenMP), running on       1 processor cores
     Number of MPI processes:                 1
     Threads/MPI process:                     1

     MPI processes distributed on     1 nodes
     17224 MiB available memory on the printing compute node when the environment starts
 
     Reading input from pw.in

     Current dimensions of program PWSCF are:
     Max number of different atomic species (ntypx) = 10
     Max number of k-points (npk) =  40000
     Max angular momentum in pseudopotentials (lmaxx) =  4
     Presently no symmetry can be used with electric field

     file C.pbe-n-kjpaw_psl.1.0.0.UPF: wavefunction(s)  2S 2P renormalized
 
     Subspace diagonalization in iterative solution of the eigenvalue problem:
     a serial algorithm will be used

 
     G-vector sticks info
     --------------------
     sticks:   dense  smooth     PW     G-vecs:    dense   smooth      PW
     Sum       14929    5981   1597              5038009  1275059  175433
 
     Using Slab Decomposition
 


     bravais-lattice index     =            0
     lattice parameter (alat)  =      19.0014  a.u.
     unit-cell volume          =   25161.5541 (a.u.)^3
     number of atoms/cell      =          122
     number of atomic types    =            6
     number of electrons       =       534.00
     number of Kohn-Sham states=          320
     kinetic-energy cutoff     =      52.0000  Ry
     charge density cutoff     =     520.0000  Ry
     scf convergence threshold =      1.0E-08
     mixing beta               =       0.3000
     number of iterations used =            8  local-TF  mixing
     Exchange-correlation= PBE
                           (   1   4   3   4   0   0   0)

     GPU acceleration is ACTIVE.  1 visible GPUs per MPI rank


     celldm(1)=  19.001377  celldm(2)=   0.000000  celldm(3)=   0.000000
     celldm(4)=   0.000000  celldm(5)=   0.000000  celldm(6)=   0.000000

     crystal axes: (cart. coord. in units of alat)
               a(1) = (   1.000000   0.000000   0.000000 )  
               a(2) = (   0.000000   1.000000   0.000000 )  
               a(3) = (   0.000000   0.000000   3.667602 )  

     reciprocal axes: (cart. coord. in units 2 pi/alat)
               b(1) = (  1.000000  0.000000  0.000000 )  
               b(2) = (  0.000000  1.000000  0.000000 )  
               b(3) = (  0.000000  0.000000  0.272658 )  


     PseudoPot. # 1 for Li read from file:
     /data/work/pseudo/li_pbe_v1.4.uspp.F.UPF
     MD5 check sum: e912e257baa3777c20ea3d68f190483c
     Pseudo is Ultrasoft, Zval =  3.0
     Generated by new atomic code, or converted to UPF format
     Using radial grid of  751 points,  5 beta functions with: 
                l(1) =   0
                l(2) =   0
                l(3) =   0
                l(4) =   1
                l(5) =   1
     Q(r) pseudized with 10 coefficients,  rinner =    1.150   1.150   1.150


     PseudoPot. # 2 for P  read from file:
     /data/work/pseudo/P.pbe-n-rrkjus_psl.1.0.0.UPF
     MD5 check sum: 8b930f418f0a4573dca56cd030ffe088
     Pseudo is Ultrasoft + core correction, Zval =  5.0
     Generated using "atomic" code by A. Dal Corso  v.5.1
     Using radial grid of 1147 points,  6 beta functions with: 
                l(1) =   0
                l(2) =   0
                l(3) =   1
                l(4) =   1
                l(5) =   2
                l(6) =   2
     Q(r) pseudized with 0 coefficients 


     PseudoPot. # 3 for S  read from file:
     /data/work/pseudo/s_pbe_v1.4.uspp.F.UPF
     MD5 check sum: 88d86576ff6df21479756cfb9bdac1df
     Pseudo is Ultrasoft + core correction, Zval =  6.0
     Generated by new atomic code, or converted to UPF format
     Using radial grid of  907 points,  6 beta functions with: 
                l(1) =   0
                l(2) =   0
                l(3) =   1
                l(4) =   1
                l(5) =   2
                l(6) =   2
     Q(r) pseudized with  8 coefficients,  rinner =    1.300   1.300   1.300
                                                       1.300   1.300

     PseudoPot. # 4 for Cl read from file:
     /data/work/pseudo/cl_pbe_v1.4.uspp.F.UPF
     MD5 check sum: fc6f6913ecf08c9257cb748ef0700058
     Pseudo is Ultrasoft + core correction, Zval =  7.0
     Generated by new atomic code, or converted to UPF format
     Using radial grid of  909 points,  6 beta functions with: 
                l(1) =   0
                l(2) =   0
                l(3) =   1
                l(4) =   1
                l(5) =   2
                l(6) =   2
     Q(r) pseudized with  8 coefficients,  rinner =    1.300   1.300   1.300
                                                       1.300   1.300

     PseudoPot. # 5 for C  read from file:
     /data/work/pseudo/C.pbe-n-kjpaw_psl.1.0.0.UPF
     MD5 check sum: 5d2aebdfa2cae82b50a7e79e9516da0f
     Pseudo is Projector augmented-wave + core cor, Zval =  4.0
     Generated using "atomic" code by A. Dal Corso  v.5.1
     Shape of augmentation charge: PSQ
     Using radial grid of 1073 points,  4 beta functions with: 
                l(1) =   0
                l(2) =   0
                l(3) =   1
                l(4) =   1
     Q(r) pseudized with 0 coefficients 


     PseudoPot. # 6 for H  read from file:
     /data/work/pseudo/H.pbe-rrkjus_psl.1.0.0.UPF
     MD5 check sum: f52b6d4d1c606e5624b1dc7b2218f220
     Pseudo is Ultrasoft, Zval =  1.0
     Generated using "atomic" code by A. Dal Corso  v.5.1
     Using radial grid of  929 points,  2 beta functions with: 
                l(1) =   0
                l(2) =   0
     Q(r) pseudized with 0 coefficients 


     atomic species   valence    mass     pseudopotential
     Li                3.00     6.94100     Li( 1.00)
     P                 5.00    30.97400     P ( 1.00)
     S                 6.00    32.06000     S ( 1.00)
     Cl                7.00    35.45000     Cl( 1.00)
     C                 4.00    12.01100     C ( 1.00)
     H                 1.00     1.00800     H ( 1.00)

     No symmetry found



   Cartesian axes

     site n.     atom                  positions (alat units)
         1        P      tau(   1) = (   0.4635951   0.2323208   0.3088022  )
         2        P      tau(   2) = (  -0.0364106   0.7323232   0.3087915  )
         3        P      tau(   3) = (  -0.0152969   0.2331989   0.8047253  )
         4        P      tau(   4) = (   0.4846858   0.7332066   0.8047367  )
         5        S      tau(   5) = (   0.5848196   0.3468585   0.4258648  )
         6        S      tau(   6) = (   0.0848260   0.8468661   0.4258400  )
         7        S      tau(   7) = (   0.3339271   0.1168528   0.4177871  )
         8        S      tau(   8) = (   0.8339235   0.6168523   0.4177768  )
         9        S      tau(   9) = (   0.3627067   0.3546216   0.1789552  )
        10        S      tau(  10) = (   0.8627022   0.8546143   0.1789324  )
        11        S      tau(  11) = (   0.8620647   0.3503453   0.6869700  )
        12        S      tau(  12) = (   0.3620770   0.8503340   0.6869255  )
        13        S      tau(  13) = (   0.5688551   0.0973581   0.1889391  )
        14        S      tau(  14) = (   0.0688410   0.5973543   0.1889356  )
        15        S      tau(  15) = (   0.0895394   0.1031979   0.6851450  )
        16        S      tau(  16) = (   0.5895306   0.6031720   0.6851998  )
        17        Li     tau(  17) = (   0.3529737   0.1494441   0.0497375  )
        18        Li     tau(  18) = (   0.8529705   0.6494352   0.0497260  )
        19        Li     tau(  19) = (   0.7772028   0.2085136   0.5136441  )
        20        Li     tau(  20) = (   0.2771805   0.7085167   0.5136433  )
        21        Li     tau(  21) = (   0.2584211   0.5140343   0.3277597  )
        22        Li     tau(  22) = (   0.7584259   0.0140296   0.3277544  )
        23        Li     tau(  23) = (   0.6776495   1.0395111   0.7886453  )
        24        Li     tau(  24) = (   0.1775702   0.5395829   0.7886710  )
        25        Li     tau(  25) = (   0.3714957   0.9305884   0.2404712  )
        26        Li     tau(  26) = (   0.8714979   0.4305877   0.2404683  )
        27        Li     tau(  27) = (   0.4321433   0.4077248   0.6177265  )
        28        Li     tau(  28) = (   0.9321808   0.9077194   0.6177092  )
        29        Li     tau(  29) = (   0.6943539   0.2557918   0.0674048  )
        30        Li     tau(  30) = (   0.1943548   0.7558117   0.0674058  )
        31        Li     tau(  31) = (   0.0680017   0.0145682   0.2212104  )
        32        Li     tau(  32) = (   0.5680060   0.5145706   0.2212245  )
        33        Li     tau(  33) = (   0.4880322   0.0377006   0.5830036  )
        34        Li     tau(  34) = (  -0.0119870   0.5377430   0.5830335  )
        35        Li     tau(  35) = (   0.1439118   0.2601148   0.5027596  )
        36        Li     tau(  36) = (   0.6439028   0.7601001   0.5027820  )
        37        Cl     tau(  37) = (   0.9608592   0.7175740   0.7957810  )
        38        Cl     tau(  38) = (   0.4367340   0.7072180   0.3249158  )
        39        Cl     tau(  39) = (   0.9367358   0.2072229   0.3249118  )
        40        S      tau(  40) = (   0.2279615   0.9692079   0.0613823  )
        41        S      tau(  41) = (   0.7279589   0.4692179   0.0613837  )
        42        S      tau(  42) = (   0.7134713   0.9841488   0.5574398  )
        43        S      tau(  43) = (   0.2134529   0.4841597   0.5574431  )
        44        P      tau(  44) = (   0.4841755   0.2682925   1.2826612  )
        45        P      tau(  45) = (  -0.0153635   0.7680638   1.2827454  )
        46        P      tau(  46) = (  -0.0369321   0.2686269   1.7610744  )
        47        P      tau(  47) = (   0.4638001   0.7678125   1.7625677  )
        48        S      tau(  48) = (   0.5874596   0.3976960   1.4022252  )
        49        S      tau(  49) = (   0.0875457   0.8974522   1.4026659  )
        50        S      tau(  50) = (   0.0955060   0.3532222   0.9241804  )
        51        S      tau(  51) = (   0.5954895   0.8532593   0.9241698  )
        52        S      tau(  52) = (   0.3631472   0.1500425   1.3993556  )
        53        S      tau(  53) = (   0.8638765   0.6495275   1.3992513  )
        54        S      tau(  54) = (   0.8660882   0.1140262   0.9272192  )
        55        S      tau(  55) = (   0.3660496   0.6140808   0.9272431  )
        56        S      tau(  56) = (   0.3655452   0.3881784   1.1628520  )
        57        S      tau(  57) = (   0.8662614   0.8880562   1.1627401  )
        58        S      tau(  58) = (   0.8306161   0.3827537   1.6560785  )
        59        S      tau(  59) = (   0.3334070   0.8761085   1.6493821  )
        60        S      tau(  60) = (   0.5941574   0.1510428   1.1611892  )
        61        S      tau(  61) = (   0.0952699   0.6510757   1.1616274  )
        62        S      tau(  62) = (   0.0830779   0.1583580   1.6400182  )
        63        S      tau(  63) = (   0.5872275   0.6533451   1.6488401  )
        64        Li     tau(  64) = (   0.2737131   0.2207580   1.0223760  )
        65        Li     tau(  65) = (   0.7734609   0.7208088   1.0226320  )
        66        Li     tau(  66) = (   0.9270843   0.0941771   1.4586513  )
        67        Li     tau(  67) = (   0.4293912   0.5956256   1.4646993  )
        68        Li     tau(  68) = (   0.7849508   0.5316958   0.8267402  )
        69        Li     tau(  69) = (   0.2848661   0.0315984   0.8267048  )
        70        Li     tau(  70) = (   0.1769335   0.4648568   1.2944038  )
        71        Li     tau(  71) = (   0.6755590  -0.0369204   1.2923000  )
        72        Li     tau(  72) = (   0.7555733   0.9880082   1.7469075  )
        73        Li     tau(  73) = (   0.2593585   0.4877238   1.7493539  )
        74        Li     tau(  74) = (   0.2805791   0.9697182   1.2656273  )
        75        Li     tau(  75) = (   0.7810228   0.4694813   1.2655258  )
        76        Li     tau(  76) = (   0.2768877   0.2952569   1.5649781  )
        77        Li     tau(  77) = (   0.7743131   0.7937654   1.5641670  )
        78        Li     tau(  78) = (   0.7801958   0.2820247   1.0754431  )
        79        Li     tau(  79) = (   0.2801197   0.7822927   1.0743435  )
        80        Li     tau(  80) = (   0.0144713   0.0981506   1.1380944  )
        81        Li     tau(  81) = (   0.5145391   0.5969052   1.1398849  )
        82        Li     tau(  82) = (   0.6377138   0.2385342   1.5818278  )
        83        Li     tau(  83) = (   0.1359908   0.7365411   1.5816938  )
        84        Li     tau(  84) = (  -0.0114180   0.4588885   1.4961938  )
        85        Li     tau(  85) = (   0.4887832   0.9586240   1.4917717  )
        86        Li     tau(  86) = (   0.5138247   0.4040191   0.9514841  )
        87        Li     tau(  87) = (   0.0138855   0.9038210   0.9516380  )
        88        Cl     tau(  88) = (   0.9368527   0.7905388   1.7451087  )
        89        Cl     tau(  89) = (   0.4607402   0.2176445   0.7959013  )
        90        Cl     tau(  90) = (   0.4597107   0.7851524   1.2889518  )
        91        Cl     tau(  91) = (   0.9567996   0.2842796   1.2875870  )
        92        S      tau(  92) = (   0.2094277   1.0008611   1.0457570  )
        93        S      tau(  93) = (   0.7093636   0.5008054   1.0457678  )
        94        S      tau(  94) = (   0.7114929   1.0173214   1.5205179  )
        95        S      tau(  95) = (   0.2123017   0.5174120   1.5225033  )
        96        S      tau(  96) = (   0.0684592   0.4027043   1.8802950  )
        97        S      tau(  97) = (   0.5669239   0.9058841   1.8790936  )
        98        S      tau(  98) = (   0.8656116   0.1442044   1.8905206  )
        99        S      tau(  99) = (   0.3660007   0.6462040   1.8945211  )
       100        Li     tau( 100) = (   0.1855490   0.2368840   1.9976015  )
       101        Li     tau( 101) = (   0.6865380   0.7412380   1.9946052  )
       102        Li     tau( 102) = (   0.8708989   0.5686699   1.8293013  )
       103        Li     tau( 103) = (   0.3689872   0.0684910   1.8146787  )
       104        Li     tau( 104) = (   0.8511968   0.3492666   2.0152851  )
       105        Li     tau( 105) = (   0.3503033   0.8534480   2.0185157  )
       106        Li     tau( 106) = (   0.5693143   0.4840363   1.8486802  )
       107        Li     tau( 107) = (   0.0653148   0.9825822   1.8293880  )
       108        Cl     tau( 108) = (   0.4401201   0.2935044   1.7459105  )
       109        S      tau( 109) = (   0.2228733   1.0264506   1.9841609  )
       110        S      tau( 110) = (   0.7281363   0.5301468   2.0085688  )
       111        C      tau( 111) = (   0.2303667   1.1699286   2.3411346  )
       112        C      tau( 112) = (   0.3518203   1.1013758   2.3409521  )
       113        C      tau( 113) = (   0.3526859   0.9618440   2.3406267  )
       114        C      tau( 114) = (   0.2322371   0.8912952   2.3394898  )
       115        C      tau( 115) = (   0.1108990   0.9600114   2.3384366  )
       116        C      tau( 116) = (   0.1099563   1.0993206   2.3396634  )
       117        H      tau( 117) = (   0.2295354   1.2786526   2.3438190  )
       118        H      tau( 118) = (   0.4454655   1.1566750   2.3407281  )
       119        H      tau( 119) = (   0.4472905   0.9081399   2.3424491  )
       120        H      tau( 120) = (   0.2327710   0.7825387   2.3400692  )
       121        H      tau( 121) = (   0.0172549   0.9048446   2.3356913  )
       122        H      tau( 122) = (   0.0153046   1.1528460   2.3392941  )

     --------------------------------------------
     DFT-D3 Dispersion Correction (no 3-body):
     --------------------------------------------
       Reference C6 values for interpolation: 

         atom   Coordination number   C6
         H          0.912             6.05
         H          0.000            15.18
         Li         0.000          2326.89
         Li         0.987           170.64
         C          0.000            98.23
         C          0.987            86.49
         C          1.998            58.72
         C          2.999            51.56
         C          3.984            36.41
         P          0.000           383.38
         P          0.995           361.25
         P          2.010           351.11
         P          2.986           303.38
         S          0.000           268.01
         S          0.995           261.99
         S          1.990           251.62
         Cl         0.000           184.69
         Cl         0.997           180.80

       Values used:

         atom   Coordination number  R0_AB[au]  C6      C8
         P          6.107            3.309    303.38  16807.02
         P          6.107            3.309    303.38  16807.02
         P          5.029            3.309    303.38  16807.02
         P          5.028            3.309    303.38  16807.02
         S          4.126            3.128    251.62  12327.25
         S          4.126            3.128    251.62  12327.25
         S          4.208            3.128    251.62  12327.25
         S          4.208            3.128    251.62  12327.25
         S          4.063            3.128    251.62  12327.25
         S          4.063            3.128    251.62  12327.25
         S          4.267            3.128    251.62  12327.25
         S          4.268            3.128    251.62  12327.25
         S          4.897            3.128    251.62  12327.25
         S          4.897            3.128    251.62  12327.25
         S          4.182            3.128    251.62  12327.25
         S          4.182            3.128    251.62  12327.25
         Li         4.687            3.303    170.64  12899.87
         Li         4.687            3.303    170.64  12899.87
         Li         6.016            3.303    170.64  12899.87
         Li         6.016            3.303    170.64  12899.87
         Li         6.165            3.303    170.64  12899.87
         Li         6.165            3.303    170.64  12899.87
         Li         5.540            3.303    170.64  12899.87
         Li         5.544            3.303    170.64  12899.87
         Li         6.409            3.303    170.64  12899.87
         Li         6.408            3.303    170.64  12899.87
         Li         5.206            3.303    170.64  12899.87
         Li         5.206            3.303    170.64  12899.87
         Li         3.709            3.303    170.64  12899.87
         Li         3.709            3.303    170.64  12899.87
         Li         5.711            3.303    170.64  12899.87
         Li         5.711            3.303    170.64  12899.87
         Li         6.254            3.303    170.64  12899.87
         Li         6.257            3.303    170.64  12899.87
         Li         5.154            3.303    170.64  12899.87
         Li         5.154            3.303    170.64  12899.87
         Cl         4.497            2.933    180.80   7543.49
         Cl         4.431            2.933    180.80   7543.49
         Cl         4.431            2.933    180.80   7543.49
         S          4.020            3.128    251.62  12327.25
         S          4.020            3.128    251.62  12327.25
         S          5.965            3.128    251.62  12327.25
         S          5.965            3.128    251.62  12327.25
         P          5.134            3.309    303.38  16807.02
         P          5.134            3.309    303.38  16807.02
         P          6.377            3.309    303.38  16807.02
         P          6.337            3.309    303.38  16807.02
         S          4.250            3.128    251.62  12327.25
         S          4.248            3.128    251.62  12327.25
         S          3.404            3.128    251.62  12327.25
         S          3.400            3.128    251.62  12327.25
         S          4.329            3.128    251.62  12327.25
         S          4.334            3.128    251.62  12327.25
         S          5.086            3.128    251.62  12327.25
         S          5.078            3.128    251.62  12327.25
         S          5.122            3.128    251.62  12327.25
         S          5.127            3.128    251.62  12327.25
         S          4.299            3.128    251.62  12327.25
         S          4.326            3.128    251.62  12327.25
         S          3.433            3.128    251.62  12327.25
         S          3.429            3.128    251.62  12327.25
         S          4.270            3.128    251.62  12327.25
         S          4.232            3.128    251.62  12327.25
         Li         6.291            3.303    170.64  12899.87
         Li         6.274            3.303    170.64  12899.87
         Li         5.498            3.303    170.64  12899.87
         Li         5.474            3.303    170.64  12899.87
         Li         6.230            3.303    170.64  12899.87
         Li         6.237            3.303    170.64  12899.87
         Li         5.622            3.303    170.64  12899.87
         Li         5.723            3.303    170.64  12899.87
         Li         6.359            3.303    170.64  12899.87
         Li         6.291            3.303    170.64  12899.87
         Li         6.456            3.303    170.64  12899.87
         Li         6.441            3.303    170.64  12899.87
         Li         6.278            3.303    170.64  12899.87
         Li         6.215            3.303    170.64  12899.87
         Li         6.446            3.303    170.64  12899.87
         Li         6.395            3.303    170.64  12899.87
         Li         7.295            3.303    170.64  12899.87
         Li         7.239            3.303    170.64  12899.87
         Li         5.512            3.303    170.64  12899.87
         Li         5.586            3.303    170.64  12899.87
         Li         6.657            3.303    170.64  12899.87
         Li         6.720            3.303    170.64  12899.87
         Li         6.974            3.303    170.64  12899.87
         Li         6.983            3.303    170.64  12899.87
         Cl         4.625            2.933    180.80   7543.49
         Cl         4.498            2.933    180.80   7543.49
         Cl         4.878            2.933    180.80   7543.49
         Cl         4.832            2.933    180.80   7543.49
         S          6.025            3.128    251.62  12327.25
         S          6.024            3.128    251.62  12327.25
         S          5.994            3.128    251.62  12327.25
         S          5.997            3.128    251.62  12327.25
         S          4.933            3.128    251.62  12327.25
         S          4.918            3.128    251.62  12327.25
         S          4.111            3.128    251.62  12327.25
         S          4.105            3.128    251.62  12327.25
         Li         3.777            3.303    170.64  12899.87
         Li         4.013            3.303    170.64  12899.87
         Li         6.575            3.303    170.64  12899.87
         Li         6.512            3.303    170.64  12899.87
         Li         4.843            3.303    170.64  12899.87
         Li         4.676            3.303    170.64  12899.87
         Li         5.960            3.303    170.64  12899.87
         Li         5.993            3.303    170.64  12899.87
         Cl         4.621            2.933    180.80   7543.49
         S          4.062            3.128    251.62  12327.25
         S          4.025            3.128    251.62  12327.25
         C          3.141            2.750     50.60   1463.54
         C          3.130            2.750     50.68   1465.88
         C          3.148            2.750     50.55   1462.03
         C          3.146            2.750     50.57   1462.56
         C          3.130            2.750     50.69   1466.02
         C          3.134            2.750     50.66   1465.11
         H          1.004            2.062      6.18     74.68
         H          1.003            2.062      6.18     74.69
         H          1.004            2.062      6.18     74.68
         H          1.004            2.062      6.18     74.68
         H          1.003            2.062      6.18     74.69
         H          1.003            2.062      6.18     74.68

         Molecular C6 ( Ry / a.u.^6 ) =   2608434.16


     number of k points=    10  Gaussian smearing, width (Ry)=  0.0050
                       cart. coord. in units 2pi/alat
        k(    1) = (   0.0000000   0.0000000   0.0000000), wk =   0.1250000
        k(    2) = (   0.0000000   0.2500000   0.0000000), wk =   0.2500000
        k(    3) = (   0.0000000  -0.5000000   0.0000000), wk =   0.1250000
        k(    4) = (   0.2500000   0.0000000   0.0000000), wk =   0.2500000
        k(    5) = (   0.2500000   0.2500000   0.0000000), wk =   0.2500000
        k(    6) = (   0.2500000  -0.5000000   0.0000000), wk =   0.2500000
        k(    7) = (   0.2500000  -0.2500000   0.0000000), wk =   0.2500000
        k(    8) = (  -0.5000000   0.0000000   0.0000000), wk =   0.1250000
        k(    9) = (  -0.5000000   0.2500000   0.0000000), wk =   0.2500000
        k(   10) = (  -0.5000000  -0.5000000   0.0000000), wk =   0.1250000

     Dense  grid:  5038009 G-vectors     FFT dimensions: ( 144, 144, 512)

     Smooth grid:  1275059 G-vectors     FFT dimensions: (  90,  90, 320)

     Estimated max dynamical RAM per process >      33.55 GB

     Initial potential from superposition of free atoms

     starting charge     510.5582, renormalised to     534.0000

     negative rho (up, down):  1.271E-01 0.000E+00
 
     Adding external electric field

     Computed dipole along edir(3) : 
        Dipole              -34.0575 Ry au,        -86.5655 Debye
        Dipole field         -0.0170 Ry au, 
 
        Potential amp.        2.3064 Ry
        Total length         67.7995 bohr
 
     Starting wfcs are  522 randomized atomic wfcs
     Checking if some PAW data can be deallocated... 

     total cpu time spent up to now is      119.0 secs

     Self-consistent Calculation

     iteration #  1     ecut=    52.00 Ry     beta= 0.30
     Davidson diagonalization with overlap
     ethr =  1.00E-02,  avg # of iterations = 13.2

     negative rho (up, down):  6.505E-01 0.000E+00
 
     Adding external electric field

     Computed dipole along edir(3) : 
        Dipole               12.7772 Ry au,         32.4764 Debye
        Dipole field          0.0064 Ry au, 
 
        Potential amp.       -0.8653 Ry
        Total length         67.7995 bohr
 

     total cpu time spent up to now is      430.1 secs

     total energy              =   -2110.00535475 Ry
     estimated scf accuracy    <   16276.19300178 Ry

     iteration #  2     ecut=    52.00 Ry     beta= 0.30
     Davidson diagonalization with overlap
     ethr =  1.00E-02,  avg # of iterations = 14.7

     negative rho (up, down):  5.285E-01 0.000E+00
 
     Adding external electric field

     Computed dipole along edir(3) : 
        Dipole                7.9198 Ry au,         20.1301 Debye
        Dipole field          0.0040 Ry au, 
 
        Potential amp.       -0.5363 Ry
        Total length         67.7995 bohr
 

     total cpu time spent up to now is      929.4 secs

     total energy              =   -2271.94128505 Ry
     estimated scf accuracy    <     128.29316693 Ry

     iteration #  3     ecut=    52.00 Ry     beta= 0.30
     Davidson diagonalization with overlap
     ethr =  1.00E-02,  avg # of iterations =  3.3

     negative rho (up, down):  4.005E-01 0.000E+00
 
     Adding external electric field

     Computed dipole along edir(3) : 
        Dipole                3.2403 Ry au,          8.2361 Debye
        Dipole field          0.0016 Ry au, 
 
        Potential amp.       -0.2194 Ry
        Total length         67.7995 bohr
 

     total cpu time spent up to now is     1095.4 secs

     total energy              =   -2273.14858995 Ry
     estimated scf accuracy    <      12.26580629 Ry

     iteration #  4     ecut=    52.00 Ry     beta= 0.30
     Davidson diagonalization with overlap
     ethr =  2.30E-03,  avg # of iterations =  4.8

     negative rho (up, down):  1.596E-01 0.000E+00
 
     Adding external electric field

     Computed dipole along edir(3) : 
        Dipole               -9.4314 Ry au,        -23.9723 Debye
        Dipole field         -0.0047 Ry au, 
 
        Potential amp.        0.6387 Ry
        Total length         67.7995 bohr
 

     total cpu time spent up to now is     1266.8 secs

     total energy              =   -2272.21416877 Ry
     estimated scf accuracy    <       9.73512439 Ry

     iteration #  5     ecut=    52.00 Ry     beta= 0.30
     Davidson diagonalization with overlap
     ethr =  1.82E-03,  avg # of iterations = 11.2

     negative rho (up, down):  1.700E-01 0.000E+00
 
     Adding external electric field

     Computed dipole along edir(3) : 
        Dipole               -8.6445 Ry au,        -21.9721 Debye
        Dipole field         -0.0043 Ry au, 
 
        Potential amp.        0.5854 Ry
        Total length         67.7995 bohr
 

     total cpu time spent up to now is     1502.9 secs

     total energy              =   -2276.04559919 Ry
     estimated scf accuracy    <     434.17557639 Ry

     iteration #  6     ecut=    52.00 Ry     beta= 0.30
     Davidson diagonalization with overlap
     ethr =  1.82E-03,  avg # of iterations =  1.1

     negative rho (up, down):  1.774E-01 0.000E+00
 
     Adding external electric field

     Computed dipole along edir(3) : 
        Dipole               -8.2789 Ry au,        -21.0428 Debye
        Dipole field         -0.0041 Ry au, 
 
        Potential amp.        0.5607 Ry
        Total length         67.7995 bohr
 

     total cpu time spent up to now is     1653.4 secs

     total energy              =   -2276.26780601 Ry
     estimated scf accuracy    <     405.11019195 Ry

     iteration #  7     ecut=    52.00 Ry     beta= 0.30
     Davidson diagonalization with overlap
     ethr =  1.82E-03,  avg # of iterations =  1.0

     negative rho (up, down):  2.317E-01 0.000E+00
 
     Adding external electric field

     Computed dipole along edir(3) : 
        Dipole               -6.7127 Ry au,        -17.0619 Debye
        Dipole field         -0.0034 Ry au, 
 
        Potential amp.        0.4546 Ry
        Total length         67.7995 bohr
 

     total cpu time spent up to now is     1802.4 secs

     total energy              =   -2277.71248550 Ry
     estimated scf accuracy    <     407.23456009 Ry

     iteration #  8     ecut=    52.00 Ry     beta= 0.30
     Davidson diagonalization with overlap
     ethr =  1.82E-03,  avg # of iterations =  1.0

     negative rho (up, down):  2.509E-01 0.000E+00
 
     Adding external electric field

     Computed dipole along edir(3) : 
        Dipole               -4.8239 Ry au,        -12.2612 Debye
        Dipole field         -0.0024 Ry au, 
 
        Potential amp.        0.3267 Ry
        Total length         67.7995 bohr
 

     total cpu time spent up to now is     1951.5 secs

     total energy              =   -2274.71542679 Ry
     estimated scf accuracy    <     571.05744372 Ry

     iteration #  9     ecut=    52.00 Ry     beta= 0.30
     Davidson diagonalization with overlap
     ethr =  1.82E-03,  avg # of iterations =  1.0

     negative rho (up, down):  2.034E-01 0.000E+00
 
     Adding external electric field

     Computed dipole along edir(3) : 
        Dipole               -6.3239 Ry au,        -16.0736 Debye
        Dipole field         -0.0032 Ry au, 
 
        Potential amp.        0.4283 Ry
        Total length         67.7995 bohr
 

     total cpu time spent up to now is     2100.6 secs

     total energy              =   -2275.45492726 Ry
     estimated scf accuracy    <     372.58639795 Ry

     iteration # 10     ecut=    52.00 Ry     beta= 0.30
     Davidson diagonalization with overlap
     ethr =  1.82E-03,  avg # of iterations =  1.0

     negative rho (up, down):  1.726E-01 0.000E+00
 
     Adding external electric field

     Computed dipole along edir(3) : 
        Dipole               -8.6335 Ry au,        -21.9440 Debye
        Dipole field         -0.0043 Ry au, 
 
        Potential amp.        0.5847 Ry
        Total length         67.7995 bohr
 

     total cpu time spent up to now is     2249.7 secs

     total energy              =   -2275.32653956 Ry
     estimated scf accuracy    <     383.13817636 Ry

     iteration # 11     ecut=    52.00 Ry     beta= 0.30
     Davidson diagonalization with overlap
     ethr =  1.82E-03,  avg # of iterations =  1.8

     negative rho (up, down):  1.682E-01 0.000E+00
 
     Adding external electric field

     Computed dipole along edir(3) : 
        Dipole               -8.5661 Ry au,        -21.7728 Debye
        Dipole field         -0.0043 Ry au, 
 
        Potential amp.        0.5801 Ry
        Total length         67.7995 bohr
 

     total cpu time spent up to now is     2410.6 secs

     total energy              =   -2275.17294604 Ry
     estimated scf accuracy    <     548.45969883 Ry

     iteration # 12     ecut=    52.00 Ry     beta= 0.30
     Davidson diagonalization with overlap
     ethr =  1.82E-03,  avg # of iterations =  1.0

     negative rho (up, down):  1.308E-01 0.000E+00
 
     Adding external electric field

     Computed dipole along edir(3) : 
        Dipole               -6.6555 Ry au,        -16.9166 Debye
        Dipole field         -0.0033 Ry au, 
 
        Potential amp.        0.4507 Ry
        Total length         67.7995 bohr
 

     total cpu time spent up to now is     2559.7 secs

     total energy              =   -2270.63152219 Ry
     estimated scf accuracy    <     383.95600598 Ry

     iteration # 13     ecut=    52.00 Ry     beta= 0.30
     Davidson diagonalization with overlap
     ethr =  1.82E-03,  avg # of iterations =  2.1

     negative rho (up, down):  1.166E-01 0.000E+00
 
     Adding external electric field

     Computed dipole along edir(3) : 
        Dipole               -9.0259 Ry au,        -22.9416 Debye
        Dipole field         -0.0045 Ry au, 
 
        Potential amp.        0.6113 Ry
        Total length         67.7995 bohr
 

     total cpu time spent up to now is     2724.3 secs

     total energy              =   -2273.44686944 Ry
     estimated scf accuracy    <      25.54600233 Ry

     iteration # 14     ecut=    52.00 Ry     beta= 0.30
     Davidson diagonalization with overlap
     ethr =  1.82E-03,  avg # of iterations =  1.0

     negative rho (up, down):  1.158E-01 0.000E+00
 
     Adding external electric field

     Computed dipole along edir(3) : 
        Dipole               -9.9219 Ry au,        -25.2189 Debye
        Dipole field         -0.0050 Ry au, 
 
        Potential amp.        0.6719 Ry
        Total length         67.7995 bohr
 

     total cpu time spent up to now is     2873.3 secs

     total energy              =   -2273.47801247 Ry
     estimated scf accuracy    <      44.35165468 Ry

     iteration # 15     ecut=    52.00 Ry     beta= 0.30
     Davidson diagonalization with overlap
     ethr =  1.82E-03,  avg # of iterations =  1.0

     negative rho (up, down):  1.164E-01 0.000E+00
 
     Adding external electric field

     Computed dipole along edir(3) : 
        Dipole              -12.5581 Ry au,        -31.9196 Debye
        Dipole field         -0.0063 Ry au, 
 
        Potential amp.        0.8505 Ry
        Total length         67.7995 bohr
 

     total cpu time spent up to now is     3022.4 secs

     total energy              =   -2273.45693480 Ry
     estimated scf accuracy    <      60.10132265 Ry

     iteration # 16     ecut=    52.00 Ry     beta= 0.30
     Davidson diagonalization with overlap
     ethr =  1.82E-03,  avg # of iterations =  1.0

     negative rho (up, down):  1.437E-01 0.000E+00
 
     Adding external electric field

     Computed dipole along edir(3) : 
        Dipole              -15.7904 Ry au,        -40.1352 Debye
        Dipole field         -0.0079 Ry au, 
 
        Potential amp.        1.0694 Ry
        Total length         67.7995 bohr
 

     total cpu time spent up to now is     3171.5 secs

     total energy              =   -2272.74597865 Ry
     estimated scf accuracy    <      45.88517802 Ry

     iteration # 17     ecut=    52.00 Ry     beta= 0.30
     Davidson diagonalization with overlap
     ethr =  1.82E-03,  avg # of iterations =  1.3

     negative rho (up, down):  1.262E-01 0.000E+00
 
     Adding external electric field

     Computed dipole along edir(3) : 
        Dipole              -15.0574 Ry au,        -38.2722 Debye
        Dipole field         -0.0075 Ry au, 
 
        Potential amp.        1.0197 Ry
        Total length         67.7995 bohr
 

     total cpu time spent up to now is     3325.1 secs

     total energy              =   -2272.70600988 Ry
     estimated scf accuracy    <      14.47121080 Ry

     iteration # 18     ecut=    52.00 Ry     beta= 0.30
     Davidson diagonalization with overlap
     ethr =  1.82E-03,  avg # of iterations =  1.6

     negative rho (up, down):  1.171E-01 0.000E+00
 
     Adding external electric field

     Computed dipole along edir(3) : 
        Dipole              -12.3962 Ry au,        -31.5079 Debye
        Dipole field         -0.0062 Ry au, 
 
        Potential amp.        0.8395 Ry
        Total length         67.7995 bohr
 

     total cpu time spent up to now is     3477.9 secs

     total energy              =   -2272.63795910 Ry
     estimated scf accuracy    <       4.42213180 Ry

     iteration # 19     ecut=    52.00 Ry     beta= 0.30
     Davidson diagonalization with overlap
     ethr =  8.28E-04,  avg # of iterations =  1.3

     negative rho (up, down):  1.174E-01 0.000E+00
 
     Adding external electric field

     Computed dipole along edir(3) : 
        Dipole              -12.5626 Ry au,        -31.9309 Debye
        Dipole field         -0.0063 Ry au, 
 
        Potential amp.        0.8508 Ry
        Total length         67.7995 bohr
 

     total cpu time spent up to now is     3630.0 secs

     total energy              =   -2272.54516809 Ry
     estimated scf accuracy    <       6.52038465 Ry

     iteration # 20     ecut=    52.00 Ry     beta= 0.30
     Davidson diagonalization with overlap
     ethr =  8.28E-04,  avg # of iterations =  2.0

     negative rho (up, down):  1.175E-01 0.000E+00
 
     Adding external electric field

     Computed dipole along edir(3) : 
        Dipole              -13.0358 Ry au,        -33.1337 Debye
        Dipole field         -0.0065 Ry au, 
 
        Potential amp.        0.8828 Ry
        Total length         67.7995 bohr
 

     total cpu time spent up to now is     3784.2 secs

     total energy              =   -2272.39899751 Ry
     estimated scf accuracy    <       4.61231682 Ry

     iteration # 21     ecut=    52.00 Ry     beta= 0.30
     Davidson diagonalization with overlap
     ethr =  8.28E-04,  avg # of iterations =  1.1

     negative rho (up, down):  1.298E-01 0.000E+00
 
     Adding external electric field

     Computed dipole along edir(3) : 
        Dipole              -14.9096 Ry au,        -37.8965 Debye
        Dipole field         -0.0074 Ry au, 
 
        Potential amp.        1.0097 Ry
        Total length         67.7995 bohr
 

     total cpu time spent up to now is     3934.7 secs

     total energy              =   -2272.24419170 Ry
     estimated scf accuracy    <       3.56105805 Ry

     iteration # 22     ecut=    52.00 Ry     beta= 0.30
     Davidson diagonalization with overlap
     ethr =  6.67E-04,  avg # of iterations =  2.0

     negative rho (up, down):  1.449E-01 0.000E+00
 
     Adding external electric field

     Computed dipole along edir(3) : 
        Dipole              -13.6260 Ry au,        -34.6339 Debye
        Dipole field         -0.0068 Ry au, 
 
        Potential amp.        0.9228 Ry
        Total length         67.7995 bohr
 

     total cpu time spent up to now is     4098.9 secs

     total energy              =   -2272.14701742 Ry
     estimated scf accuracy    <       1.42020906 Ry

     iteration # 23     ecut=    52.00 Ry     beta= 0.30
     Davidson diagonalization with overlap
     c_bands:  1 eigenvalues not converged
     c_bands:  2 eigenvalues not converged
     c_bands:  2 eigenvalues not converged
     ethr =  2.66E-04,  avg # of iterations = 18.3

     negative rho (up, down):  1.158E-01 0.000E+00
 
     Adding external electric field

     Computed dipole along edir(3) : 
        Dipole              -10.1926 Ry au,        -25.9070 Debye
        Dipole field         -0.0051 Ry au, 
 
        Potential amp.        0.6903 Ry
        Total length         67.7995 bohr
 

     total cpu time spent up to now is     4337.3 secs

     total energy              =   -2272.07700148 Ry
     estimated scf accuracy    <       0.76137374 Ry

     iteration # 24     ecut=    52.00 Ry     beta= 0.30
     Davidson diagonalization with overlap
     ethr =  1.43E-04,  avg # of iterations =  3.5

     negative rho (up, down):  1.496E-01 0.000E+00
 
     Adding external electric field

     Computed dipole along edir(3) : 
        Dipole               -6.2111 Ry au,        -15.7871 Debye
        Dipole field         -0.0031 Ry au, 
 
        Potential amp.        0.4206 Ry
        Total length         67.7995 bohr
 

     total cpu time spent up to now is     4505.6 secs

     total energy              =   -2271.96816797 Ry
     estimated scf accuracy    <       0.53742905 Ry

     iteration # 25     ecut=    52.00 Ry     beta= 0.30
     Davidson diagonalization with overlap
     ethr =  1.01E-04,  avg # of iterations = 25.1

     negative rho (up, down):  1.645E-01 0.000E+00
 
     Adding external electric field

     Computed dipole along edir(3) : 
        Dipole               -5.7016 Ry au,        -14.4920 Debye
        Dipole field         -0.0028 Ry au, 
 
        Potential amp.        0.3861 Ry
        Total length         67.7995 bohr
 

     total cpu time spent up to now is     4924.1 secs

     total energy              =   -2272.05681395 Ry
     estimated scf accuracy    <       2.42184225 Ry

     iteration # 26     ecut=    52.00 Ry     beta= 0.30
     Davidson diagonalization with overlap
     ethr =  1.01E-04,  avg # of iterations =  1.3

     negative rho (up, down):  2.268E-01 0.000E+00
 
     Adding external electric field

     Computed dipole along edir(3) : 
        Dipole               -4.5226 Ry au,        -11.4953 Debye
        Dipole field         -0.0023 Ry au, 
 
        Potential amp.        0.3063 Ry
        Total length         67.7995 bohr
 

     total cpu time spent up to now is     5077.6 secs

     total energy              =   -2272.20499977 Ry
     estimated scf accuracy    <       9.19047846 Ry

     iteration # 27     ecut=    52.00 Ry     beta= 0.30
     Davidson diagonalization with overlap
     c_bands:  4 eigenvalues not converged
     c_bands:  1 eigenvalues not converged
     c_bands:  2 eigenvalues not converged
     c_bands:  5 eigenvalues not converged
     c_bands:  1 eigenvalues not converged
     c_bands:  2 eigenvalues not converged
     c_bands:  5 eigenvalues not converged
     c_bands:  2 eigenvalues not converged
     c_bands:  2 eigenvalues not converged
     ethr =  1.01E-04,  avg # of iterations = 19.8

     negative rho (up, down):  2.348E-01 0.000E+00
 
     Adding external electric field

     Computed dipole along edir(3) : 
        Dipole               -4.4791 Ry au,        -11.3847 Debye
        Dipole field         -0.0022 Ry au, 
 
        Potential amp.        0.3033 Ry
        Total length         67.7995 bohr
 

     total cpu time spent up to now is     5298.1 secs

     total energy              =   -2272.37008091 Ry
     estimated scf accuracy    <      58.55171757 Ry

     iteration # 28     ecut=    52.00 Ry     beta= 0.30
     Davidson diagonalization with overlap
     ethr =  1.01E-04,  avg # of iterations =  1.5

     negative rho (up, down):  2.061E-01 0.000E+00
 
     Adding external electric field

     Computed dipole along edir(3) : 
        Dipole               -4.9818 Ry au,        -12.6624 Debye
        Dipole field         -0.0025 Ry au, 
 
        Potential amp.        0.3374 Ry
        Total length         67.7995 bohr
 

     total cpu time spent up to now is     5454.7 secs

     total energy              =   -2272.20017049 Ry
     estimated scf accuracy    <      60.00217790 Ry

     iteration # 29     ecut=    52.00 Ry     beta= 0.30
     Davidson diagonalization with overlap
     ethr =  1.01E-04,  avg # of iterations =  1.1

     negative rho (up, down):  1.399E-01 0.000E+00
 
     Adding external electric field

     Computed dipole along edir(3) : 
        Dipole               -5.4762 Ry au,        -13.9191 Debye
        Dipole field         -0.0027 Ry au, 
 
        Potential amp.        0.3709 Ry
        Total length         67.7995 bohr
 

     total cpu time spent up to now is     5605.2 secs

     total energy              =   -2271.92483493 Ry
     estimated scf accuracy    <      38.56364124 Ry

     iteration # 30     ecut=    52.00 Ry     beta= 0.30
     Davidson diagonalization with overlap
     ethr =  1.01E-04,  avg # of iterations =  8.9

     negative rho (up, down):  1.293E-01 0.000E+00
 
     Adding external electric field

     Computed dipole along edir(3) : 
        Dipole               -4.8382 Ry au,        -12.2974 Debye
        Dipole field         -0.0024 Ry au, 
 
        Potential amp.        0.3277 Ry
        Total length         67.7995 bohr
 

     total cpu time spent up to now is     5787.5 secs

     total energy              =   -2272.00867315 Ry
     estimated scf accuracy    <       5.65682517 Ry

     iteration # 31     ecut=    52.00 Ry     beta= 0.30
     Davidson diagonalization with overlap
     ethr =  1.01E-04,  avg # of iterations =  1.4

     negative rho (up, down):  1.210E-01 0.000E+00
 
     Adding external electric field

     Computed dipole along edir(3) : 
        Dipole               -4.5306 Ry au,        -11.5156 Debye
        Dipole field         -0.0023 Ry au, 
 
        Potential amp.        0.3068 Ry
        Total length         67.7995 bohr
 

     total cpu time spent up to now is     5942.6 secs

     total energy              =   -2271.97209785 Ry
     estimated scf accuracy    <       5.84872145 Ry

     iteration # 32     ecut=    52.00 Ry     beta= 0.30
     Davidson diagonalization with overlap
     ethr =  1.01E-04,  avg # of iterations =  1.0

     negative rho (up, down):  1.269E-01 0.000E+00
 
     Adding external electric field

     Computed dipole along edir(3) : 
        Dipole               -3.4739 Ry au,         -8.8297 Debye
        Dipole field         -0.0017 Ry au, 
 
        Potential amp.        0.2353 Ry
        Total length         67.7995 bohr
 

     total cpu time spent up to now is     6091.7 secs

     total energy              =   -2271.98500720 Ry
     estimated scf accuracy    <       2.99449028 Ry

     iteration # 33     ecut=    52.00 Ry     beta= 0.30
     Davidson diagonalization with overlap
     ethr =  1.01E-04,  avg # of iterations =  1.0

     negative rho (up, down):  1.172E-01 0.000E+00
 
     Adding external electric field

     Computed dipole along edir(3) : 
        Dipole               -4.2060 Ry au,        -10.6905 Debye
        Dipole field         -0.0021 Ry au, 
 
        Potential amp.        0.2848 Ry
        Total length         67.7995 bohr
 

     total cpu time spent up to now is     6240.8 secs

     total energy              =   -2271.96052139 Ry
     estimated scf accuracy    <      10.90865752 Ry

     iteration # 34     ecut=    52.00 Ry     beta= 0.30
     Davidson diagonalization with overlap
     ethr =  1.01E-04,  avg # of iterations =  1.9

     negative rho (up, down):  1.161E-01 0.000E+00
 
     Adding external electric field

     Computed dipole along edir(3) : 
        Dipole               -4.3074 Ry au,        -10.9482 Debye
        Dipole field         -0.0022 Ry au, 
 
        Potential amp.        0.2917 Ry
        Total length         67.7995 bohr
 

     total cpu time spent up to now is     6403.3 secs

     total energy              =   -2271.95903993 Ry
     estimated scf accuracy    <       4.11474839 Ry

     iteration # 35     ecut=    52.00 Ry     beta= 0.30
     Davidson diagonalization with overlap
     ethr =  1.01E-04,  avg # of iterations =  1.0

     negative rho (up, down):  1.162E-01 0.000E+00
 
     Adding external electric field

     Computed dipole along edir(3) : 
        Dipole               -3.8840 Ry au,         -9.8721 Debye
        Dipole field         -0.0019 Ry au, 
 
        Potential amp.        0.2630 Ry
        Total length         67.7995 bohr
 

     total cpu time spent up to now is     6552.4 secs

     total energy              =   -2271.94070543 Ry
     estimated scf accuracy    <       2.83315314 Ry

     iteration # 36     ecut=    52.00 Ry     beta= 0.30
     Davidson diagonalization with overlap
     ethr =  1.01E-04,  avg # of iterations =  1.0

     negative rho (up, down):  1.162E-01 0.000E+00
 
     Adding external electric field

     Computed dipole along edir(3) : 
        Dipole               -3.2025 Ry au,         -8.1399 Debye
        Dipole field         -0.0016 Ry au, 
 
        Potential amp.        0.2169 Ry
        Total length         67.7995 bohr
 

     total cpu time spent up to now is     6701.5 secs

     total energy              =   -2271.90060418 Ry
     estimated scf accuracy    <       2.79172979 Ry

     iteration # 37     ecut=    52.00 Ry     beta= 0.30
     Davidson diagonalization with overlap
     ethr =  1.01E-04,  avg # of iterations =  2.0

     negative rho (up, down):  1.161E-01 0.000E+00
 
     Adding external electric field

     Computed dipole along edir(3) : 
        Dipole               -3.4897 Ry au,         -8.8700 Debye
        Dipole field         -0.0017 Ry au, 
 
        Potential amp.        0.2363 Ry
        Total length         67.7995 bohr
 

     total cpu time spent up to now is     6865.3 secs

     total energy              =   -2271.89626162 Ry
     estimated scf accuracy    <       2.18082820 Ry

     iteration # 38     ecut=    52.00 Ry     beta= 0.30
     Davidson diagonalization with overlap
     ethr =  1.01E-04,  avg # of iterations =  1.0

     negative rho (up, down):  1.161E-01 0.000E+00
 
     Adding external electric field

     Computed dipole along edir(3) : 
        Dipole               -2.7850 Ry au,         -7.0788 Debye
        Dipole field         -0.0014 Ry au, 
 
        Potential amp.        0.1886 Ry
        Total length         67.7995 bohr
 

     total cpu time spent up to now is     7014.3 secs

     total energy              =   -2271.84797359 Ry
     estimated scf accuracy    <       1.27876658 Ry

     iteration # 39     ecut=    52.00 Ry     beta= 0.30
     Davidson diagonalization with overlap
     ethr =  1.01E-04,  avg # of iterations =  4.6

     negative rho (up, down):  1.163E-01 0.000E+00
 
     Adding external electric field

     Computed dipole along edir(3) : 
        Dipole               -2.1265 Ry au,         -5.4051 Debye
        Dipole field         -0.0011 Ry au, 
 
        Potential amp.        0.1440 Ry
        Total length         67.7995 bohr
 

     total cpu time spent up to now is     7181.6 secs

     total energy              =   -2271.84582329 Ry
     estimated scf accuracy    <       0.20187487 Ry

     iteration # 40     ecut=    52.00 Ry     beta= 0.30
     Davidson diagonalization with overlap
     c_bands:  2 eigenvalues not converged
     c_bands:  1 eigenvalues not converged
     ethr =  3.78E-05,  avg # of iterations = 18.5

     negative rho (up, down):  1.196E-01 0.000E+00
 
     Adding external electric field

     Computed dipole along edir(3) : 
        Dipole               -1.5725 Ry au,         -3.9970 Debye
        Dipole field         -0.0008 Ry au, 
 
        Potential amp.        0.1065 Ry
        Total length         67.7995 bohr
 

     total cpu time spent up to now is     7409.3 secs

     total energy              =   -2271.82739243 Ry
     estimated scf accuracy    <       0.15445653 Ry

     iteration # 41     ecut=    52.00 Ry     beta= 0.30
     Davidson diagonalization with overlap
     ethr =  2.89E-05,  avg # of iterations =  2.9

     negative rho (up, down):  1.304E-01 0.000E+00
 
     Adding external electric field

     Computed dipole along edir(3) : 
        Dipole               -1.2714 Ry au,         -3.2316 Debye
        Dipole field         -0.0006 Ry au, 
 
        Potential amp.        0.0861 Ry
        Total length         67.7995 bohr
 

     total cpu time spent up to now is     7576.0 secs

     total energy              =   -2271.81783044 Ry
     estimated scf accuracy    <       0.11101853 Ry

     iteration # 42     ecut=    52.00 Ry     beta= 0.30
     Davidson diagonalization with overlap
     c_bands:  1 eigenvalues not converged
     ethr =  2.08E-05,  avg # of iterations = 13.2

     negative rho (up, down):  1.336E-01 0.000E+00
 
     Adding external electric field

     Computed dipole along edir(3) : 
        Dipole               -1.0901 Ry au,         -2.7707 Debye
        Dipole field         -0.0005 Ry au, 
 
        Potential amp.        0.0738 Ry
        Total length         67.7995 bohr
 

     total cpu time spent up to now is     7772.5 secs

     total energy              =   -2271.80221955 Ry
     estimated scf accuracy    <       0.08596933 Ry

     iteration # 43     ecut=    52.00 Ry     beta= 0.30
     Davidson diagonalization with overlap
     c_bands:  1 eigenvalues not converged
     c_bands:  1 eigenvalues not converged
     c_bands:  1 eigenvalues not converged
     ethr =  1.61E-05,  avg # of iterations = 13.4

     negative rho (up, down):  1.335E-01 0.000E+00
 
     Adding external electric field

     Computed dipole along edir(3) : 
        Dipole               -0.9223 Ry au,         -2.3444 Debye
        Dipole field         -0.0005 Ry au, 
 
        Potential amp.        0.0625 Ry
        Total length         67.7995 bohr
 

     total cpu time spent up to now is     7978.7 secs

     total energy              =   -2271.80159560 Ry
     estimated scf accuracy    <       0.05990522 Ry

     iteration # 44     ecut=    52.00 Ry     beta= 0.30
     Davidson diagonalization with overlap
     c_bands:  3 eigenvalues not converged
     c_bands:  1 eigenvalues not converged
     c_bands:  3 eigenvalues not converged
     ethr =  1.12E-05,  avg # of iterations =  9.8

     negative rho (up, down):  1.422E-01 0.000E+00
 
     Adding external electric field

     Computed dipole along edir(3) : 
        Dipole                0.4363 Ry au,          1.1089 Debye
        Dipole field          0.0002 Ry au, 
 
        Potential amp.       -0.0295 Ry
        Total length         67.7995 bohr
 

     total cpu time spent up to now is     8164.7 secs

     total energy              =   -2271.79339837 Ry
     estimated scf accuracy    <       0.05555905 Ry

     iteration # 45     ecut=    52.00 Ry     beta= 0.30
     Davidson diagonalization with overlap
     ethr =  1.04E-05,  avg # of iterations = 16.9

     negative rho (up, down):  1.575E-01 0.000E+00
 
     Adding external electric field

     Computed dipole along edir(3) : 
        Dipole                0.6580 Ry au,          1.6724 Debye
        Dipole field          0.0003 Ry au, 
 
        Potential amp.       -0.0446 Ry
        Total length         67.7995 bohr
 

     total cpu time spent up to now is     8397.8 secs

     total energy              =   -2271.79070506 Ry
     estimated scf accuracy    <       0.04840241 Ry

     iteration # 46     ecut=    52.00 Ry     beta= 0.30
     Davidson diagonalization with overlap
     c_bands:  1 eigenvalues not converged
     c_bands:  1 eigenvalues not converged
     c_bands:  1 eigenvalues not converged
     c_bands:  2 eigenvalues not converged
     ethr =  9.06E-06,  avg # of iterations = 18.3

     negative rho (up, down):  1.389E-01 0.000E+00
 
     Adding external electric field

     Computed dipole along edir(3) : 
        Dipole                0.6626 Ry au,          1.6842 Debye
        Dipole field          0.0003 Ry au, 
 
        Potential amp.       -0.0449 Ry
        Total length         67.7995 bohr
 

     total cpu time spent up to now is     8616.0 secs

     total energy              =   -2271.78693018 Ry
     estimated scf accuracy    <       0.03378346 Ry

     iteration # 47     ecut=    52.00 Ry     beta= 0.30
     Davidson diagonalization with overlap
     ethr =  6.33E-06,  avg # of iterations =  9.6

     negative rho (up, down):  1.597E-01 0.000E+00
 
     Adding external electric field

     Computed dipole along edir(3) : 
        Dipole                0.8090 Ry au,          2.0563 Debye
        Dipole field          0.0004 Ry au, 
 
        Potential amp.       -0.0548 Ry
        Total length         67.7995 bohr
 

     total cpu time spent up to now is     8803.6 secs

     total energy              =   -2271.78203042 Ry
     estimated scf accuracy    <       0.02460580 Ry

     iteration # 48     ecut=    52.00 Ry     beta= 0.30
     Davidson diagonalization with overlap
     c_bands:  1 eigenvalues not converged
     c_bands:  1 eigenvalues not converged
     c_bands:  1 eigenvalues not converged
     ethr =  4.61E-06,  avg # of iterations = 19.4

     negative rho (up, down):  1.390E-01 0.000E+00
 
     Adding external electric field

     Computed dipole along edir(3) : 
        Dipole                0.5618 Ry au,          1.4281 Debye
        Dipole field          0.0003 Ry au, 
 
        Potential amp.       -0.0380 Ry
        Total length         67.7995 bohr
 

     total cpu time spent up to now is     9055.9 secs

     total energy              =   -2271.78033234 Ry
     estimated scf accuracy    <       0.01196311 Ry

     iteration # 49     ecut=    52.00 Ry     beta= 0.30
     Davidson diagonalization with overlap
     c_bands:  1 eigenvalues not converged
     c_bands:  1 eigenvalues not converged
     c_bands:  1 eigenvalues not converged
     c_bands:  1 eigenvalues not converged
     c_bands:  3 eigenvalues not converged
     c_bands:  1 eigenvalues not converged
     c_bands:  2 eigenvalues not converged
     c_bands:  1 eigenvalues not converged
     ethr =  2.24E-06,  avg # of iterations = 20.0

     negative rho (up, down):  1.236E-01 0.000E+00
 
     Adding external electric field

     Computed dipole along edir(3) : 
        Dipole                0.4709 Ry au,          1.1969 Debye
        Dipole field          0.0002 Ry au, 
 
        Potential amp.       -0.0319 Ry
        Total length         67.7995 bohr
 

     total cpu time spent up to now is     9313.7 secs

     total energy              =   -2271.78090208 Ry
     estimated scf accuracy    <       0.00435892 Ry

     iteration # 50     ecut=    52.00 Ry     beta= 0.30
     Davidson diagonalization with overlap
     c_bands:  1 eigenvalues not converged
     c_bands:  1 eigenvalues not converged
     c_bands:  1 eigenvalues not converged
     c_bands:  1 eigenvalues not converged
     c_bands:  1 eigenvalues not converged
     c_bands:  1 eigenvalues not converged
     c_bands:  1 eigenvalues not converged
     c_bands:  2 eigenvalues not converged
     c_bands:  2 eigenvalues not converged
     ethr =  8.16E-07,  avg # of iterations = 19.6

     negative rho (up, down):  1.183E-01 0.000E+00
 
     Adding external electric field

     Computed dipole along edir(3) : 
        Dipole                0.3972 Ry au,          1.0096 Debye
        Dipole field          0.0002 Ry au, 
 
        Potential amp.       -0.0269 Ry
        Total length         67.7995 bohr
 

     total cpu time spent up to now is     9540.4 secs

     total energy              =   -2271.78036690 Ry
     estimated scf accuracy    <       0.00322626 Ry

     iteration # 51     ecut=    52.00 Ry     beta= 0.30
     Davidson diagonalization with overlap
     c_bands:  1 eigenvalues not converged
     c_bands:  1 eigenvalues not converged
     c_bands:  1 eigenvalues not converged
     c_bands:  1 eigenvalues not converged
     ethr =  6.04E-07,  avg # of iterations = 15.6

     negative rho (up, down):  1.203E-01 0.000E+00
 
     Adding external electric field

     Computed dipole along edir(3) : 
        Dipole                0.4410 Ry au,          1.1210 Debye
        Dipole field          0.0002 Ry au, 
 
        Potential amp.       -0.0299 Ry
        Total length         67.7995 bohr
 

     total cpu time spent up to now is     9745.4 secs

     total energy              =   -2271.78042800 Ry
     estimated scf accuracy    <       0.00209768 Ry

     iteration # 52     ecut=    52.00 Ry     beta= 0.30
     Davidson diagonalization with overlap
     ethr =  3.93E-07,  avg # of iterations =  7.9

     negative rho (up, down):  1.179E-01 0.000E+00
 
     Adding external electric field

     Computed dipole along edir(3) : 
        Dipole                0.5109 Ry au,          1.2986 Debye
        Dipole field          0.0003 Ry au, 
 
        Potential amp.       -0.0346 Ry
        Total length         67.7995 bohr
 

     total cpu time spent up to now is     9925.6 secs

     total energy              =   -2271.78037162 Ry
     estimated scf accuracy    <       0.00180173 Ry

     iteration # 53     ecut=    52.00 Ry     beta= 0.30
     Davidson diagonalization with overlap
     c_bands:  1 eigenvalues not converged
     c_bands:  2 eigenvalues not converged
     c_bands:  1 eigenvalues not converged
     c_bands:  2 eigenvalues not converged
     ethr =  3.37E-07,  avg # of iterations = 15.6

     negative rho (up, down):  1.172E-01 0.000E+00
 
     Adding external electric field

     Computed dipole along edir(3) : 
        Dipole                0.5050 Ry au,          1.2836 Debye
        Dipole field          0.0003 Ry au, 
 
        Potential amp.       -0.0342 Ry
        Total length         67.7995 bohr
 

     total cpu time spent up to now is    10130.1 secs

     total energy              =   -2271.78039371 Ry
     estimated scf accuracy    <       0.00144624 Ry

     iteration # 54     ecut=    52.00 Ry     beta= 0.30
     Davidson diagonalization with overlap
     ethr =  2.71E-07,  avg # of iterations =  2.8

     negative rho (up, down):  1.179E-01 0.000E+00
 
     Adding external electric field

     Computed dipole along edir(3) : 
        Dipole                0.5089 Ry au,          1.2936 Debye
        Dipole field          0.0003 Ry au, 
 
        Potential amp.       -0.0345 Ry
        Total length         67.7995 bohr
 

     total cpu time spent up to now is    10296.3 secs

     total energy              =   -2271.78033649 Ry
     estimated scf accuracy    <       0.00135731 Ry

     iteration # 55     ecut=    52.00 Ry     beta= 0.30
     Davidson diagonalization with overlap
     ethr =  2.54E-07,  avg # of iterations =  3.3

     negative rho (up, down):  1.185E-01 0.000E+00
 
     Adding external electric field

     Computed dipole along edir(3) : 
        Dipole                0.5213 Ry au,          1.3251 Debye
        Dipole field          0.0003 Ry au, 
 
        Potential amp.       -0.0353 Ry
        Total length         67.7995 bohr
 

     total cpu time spent up to now is    10464.3 secs

     total energy              =   -2271.78036509 Ry
     estimated scf accuracy    <       0.00120168 Ry

     iteration # 56     ecut=    52.00 Ry     beta= 0.30
     Davidson diagonalization with overlap
     ethr =  2.25E-07,  avg # of iterations =  3.4

     negative rho (up, down):  1.180E-01 0.000E+00
 
     Adding external electric field

     Computed dipole along edir(3) : 
        Dipole                0.4696 Ry au,          1.1935 Debye
        Dipole field          0.0002 Ry au, 
 
        Potential amp.       -0.0318 Ry
        Total length         67.7995 bohr
 

     total cpu time spent up to now is    10630.8 secs

     total energy              =   -2271.78026026 Ry
     estimated scf accuracy    <       0.00108882 Ry

     iteration # 57     ecut=    52.00 Ry     beta= 0.30
     Davidson diagonalization with overlap
     c_bands:  1 eigenvalues not converged
     c_bands:  1 eigenvalues not converged
     ethr =  2.04E-07,  avg # of iterations = 11.1

     negative rho (up, down):  1.174E-01 0.000E+00
 
     Adding external electric field

     Computed dipole along edir(3) : 
        Dipole                0.4568 Ry au,          1.1612 Debye
        Dipole field          0.0002 Ry au, 
 
        Potential amp.       -0.0309 Ry
        Total length         67.7995 bohr
 

     total cpu time spent up to now is    10825.0 secs

     total energy              =   -2271.78027811 Ry
     estimated scf accuracy    <       0.00076052 Ry

     iteration # 58     ecut=    52.00 Ry     beta= 0.30
     Davidson diagonalization with overlap
     c_bands:  1 eigenvalues not converged
     ethr =  1.42E-07,  avg # of iterations =  3.9

     negative rho (up, down):  1.159E-01 0.000E+00
 
     Adding external electric field

     Computed dipole along edir(3) : 
        Dipole                0.3228 Ry au,          0.8204 Debye
        Dipole field          0.0002 Ry au, 
 
        Potential amp.       -0.0219 Ry
        Total length         67.7995 bohr
 

     total cpu time spent up to now is    10988.9 secs

     total energy              =   -2271.78007142 Ry
     estimated scf accuracy    <       0.00067172 Ry

     iteration # 59     ecut=    52.00 Ry     beta= 0.30
     Davidson diagonalization with overlap
     c_bands:  1 eigenvalues not converged
     c_bands:  2 eigenvalues not converged
     c_bands:  1 eigenvalues not converged
     ethr =  1.26E-07,  avg # of iterations =  9.0

     negative rho (up, down):  1.159E-01 0.000E+00
 
     Adding external electric field

     Computed dipole along edir(3) : 
        Dipole                0.2960 Ry au,          0.7524 Debye
        Dipole field          0.0001 Ry au, 
 
        Potential amp.       -0.0200 Ry
        Total length         67.7995 bohr
 

     total cpu time spent up to now is    11177.5 secs

     total energy              =   -2271.78011296 Ry
     estimated scf accuracy    <       0.00039617 Ry

     iteration # 60     ecut=    52.00 Ry     beta= 0.30
     Davidson diagonalization with overlap
     c_bands:  3 eigenvalues not converged
     c_bands:  1 eigenvalues not converged
     c_bands:  1 eigenvalues not converged
     ethr =  7.42E-08,  avg # of iterations =  9.6

     negative rho (up, down):  1.159E-01 0.000E+00
 
     Adding external electric field

     Computed dipole along edir(3) : 
        Dipole                0.2897 Ry au,          0.7364 Debye
        Dipole field          0.0001 Ry au, 
 
        Potential amp.       -0.0196 Ry
        Total length         67.7995 bohr
 

     total cpu time spent up to now is    11361.5 secs

     total energy              =   -2271.78010660 Ry
     estimated scf accuracy    <       0.00032972 Ry

     iteration # 61     ecut=    52.00 Ry     beta= 0.30
     Davidson diagonalization with overlap
     c_bands:  3 eigenvalues not converged
     c_bands:  1 eigenvalues not converged
     c_bands:  1 eigenvalues not converged
     c_bands:  1 eigenvalues not converged
     c_bands:  1 eigenvalues not converged
     c_bands:  1 eigenvalues not converged
     ethr =  6.17E-08,  avg # of iterations = 19.2

     negative rho (up, down):  1.159E-01 0.000E+00
 
     Adding external electric field

     Computed dipole along edir(3) : 
        Dipole                0.2837 Ry au,          0.7211 Debye
        Dipole field          0.0001 Ry au, 
 
        Potential amp.       -0.0192 Ry
        Total length         67.7995 bohr
 

     total cpu time spent up to now is    11576.4 secs

     total energy              =   -2271.78008922 Ry
     estimated scf accuracy    <       0.00025000 Ry

     iteration # 62     ecut=    52.00 Ry     beta= 0.30
     Davidson diagonalization with overlap
     ethr =  4.68E-08,  avg # of iterations =  3.2

     negative rho (up, down):  1.160E-01 0.000E+00
 
     Adding external electric field

     Computed dipole along edir(3) : 
        Dipole                0.3118 Ry au,          0.7925 Debye
        Dipole field          0.0002 Ry au, 
 
        Potential amp.       -0.0211 Ry
        Total length         67.7995 bohr
 

     total cpu time spent up to now is    11741.3 secs

     total energy              =   -2271.78009490 Ry
     estimated scf accuracy    <       0.00019814 Ry

     iteration # 63     ecut=    52.00 Ry     beta= 0.30
     Davidson diagonalization with overlap
     c_bands:  1 eigenvalues not converged
     ethr =  3.71E-08,  avg # of iterations =  5.0

     negative rho (up, down):  1.167E-01 0.000E+00
 
     Adding external electric field

     Computed dipole along edir(3) : 
        Dipole                0.3272 Ry au,          0.8318 Debye
        Dipole field          0.0002 Ry au, 
 
        Potential amp.       -0.0222 Ry
        Total length         67.7995 bohr
 

     total cpu time spent up to now is    11913.2 secs

     total energy              =   -2271.78009324 Ry
     estimated scf accuracy    <       0.00014583 Ry

     iteration # 64     ecut=    52.00 Ry     beta= 0.30
     Davidson diagonalization with overlap
     c_bands:  1 eigenvalues not converged
     ethr =  2.73E-08,  avg # of iterations =  8.6

     negative rho (up, down):  1.170E-01 0.000E+00
 
     Adding external electric field

     Computed dipole along edir(3) : 
        Dipole                0.3040 Ry au,          0.7727 Debye
        Dipole field          0.0002 Ry au, 
 
        Potential amp.       -0.0206 Ry
        Total length         67.7995 bohr
 

     total cpu time spent up to now is    12094.7 secs

     total energy              =   -2271.78007149 Ry
     estimated scf accuracy    <       0.00008995 Ry

     iteration # 65     ecut=    52.00 Ry     beta= 0.30
     Davidson diagonalization with overlap
     c_bands:  1 eigenvalues not converged
     c_bands:  1 eigenvalues not converged
     c_bands:  1 eigenvalues not converged
     ethr =  1.68E-08,  avg # of iterations =  9.8

     negative rho (up, down):  1.168E-01 0.000E+00
 
     Adding external electric field

     Computed dipole along edir(3) : 
        Dipole                0.2921 Ry au,          0.7425 Debye
        Dipole field          0.0001 Ry au, 
 
        Potential amp.       -0.0198 Ry
        Total length         67.7995 bohr
 

     total cpu time spent up to now is    12297.8 secs

     total energy              =   -2271.78007833 Ry
     estimated scf accuracy    <       0.00002910 Ry

     iteration # 66     ecut=    52.00 Ry     beta= 0.30
     Davidson diagonalization with overlap
     c_bands:  1 eigenvalues not converged
     ethr =  5.45E-09,  avg # of iterations =  3.8

     negative rho (up, down):  1.159E-01 0.000E+00
 
     Adding external electric field

     Computed dipole along edir(3) : 
        Dipole                0.2696 Ry au,          0.6852 Debye
        Dipole field          0.0001 Ry au, 
 
        Potential amp.       -0.0183 Ry
        Total length         67.7995 bohr
 

     total cpu time spent up to now is    12470.1 secs

     total energy              =   -2271.78007166 Ry
     estimated scf accuracy    <       0.00001841 Ry

     iteration # 67     ecut=    52.00 Ry     beta= 0.30
     Davidson diagonalization with overlap
     c_bands:  1 eigenvalues not converged
     c_bands:  1 eigenvalues not converged
     ethr =  3.45E-09,  avg # of iterations =  6.4

     negative rho (up, down):  1.160E-01 0.000E+00
 
     Adding external electric field

     Computed dipole along edir(3) : 
        Dipole                0.2689 Ry au,          0.6835 Debye
        Dipole field          0.0001 Ry au, 
 
        Potential amp.       -0.0182 Ry
        Total length         67.7995 bohr
 

     total cpu time spent up to now is    12660.1 secs

     total energy              =   -2271.78007363 Ry
     estimated scf accuracy    <       0.00000716 Ry

     iteration # 68     ecut=    52.00 Ry     beta= 0.30
     Davidson diagonalization with overlap
     ethr =  1.34E-09,  avg # of iterations =  4.7

     negative rho (up, down):  1.163E-01 0.000E+00
 
     Adding external electric field

     Computed dipole along edir(3) : 
        Dipole                0.2755 Ry au,          0.7002 Debye
        Dipole field          0.0001 Ry au, 
 
        Potential amp.       -0.0187 Ry
        Total length         67.7995 bohr
 

     total cpu time spent up to now is    12847.5 secs

     total energy              =   -2271.78007355 Ry
     estimated scf accuracy    <       0.00000371 Ry

     iteration # 69     ecut=    52.00 Ry     beta= 0.30
     Davidson diagonalization with overlap
     ethr =  6.95E-10,  avg # of iterations =  2.8

     negative rho (up, down):  1.163E-01 0.000E+00
 
     Adding external electric field

     Computed dipole along edir(3) : 
        Dipole                0.2749 Ry au,          0.6987 Debye
        Dipole field          0.0001 Ry au, 
 
        Potential amp.       -0.0186 Ry
        Total length         67.7995 bohr
 

     total cpu time spent up to now is    13022.1 secs

     total energy              =   -2271.78007335 Ry
     estimated scf accuracy    <       0.00000179 Ry

     iteration # 70     ecut=    52.00 Ry     beta= 0.30
     Davidson diagonalization with overlap
     ethr =  3.34E-10,  avg # of iterations =  3.3

     negative rho (up, down):  1.162E-01 0.000E+00
 
     Adding external electric field

     Computed dipole along edir(3) : 
        Dipole                0.2738 Ry au,          0.6958 Debye
        Dipole field          0.0001 Ry au, 
 
        Potential amp.       -0.0185 Ry
        Total length         67.7995 bohr
 

     total cpu time spent up to now is    13196.5 secs

     total energy              =   -2271.78007324 Ry
     estimated scf accuracy    <       0.00000082 Ry

     iteration # 71     ecut=    52.00 Ry     beta= 0.30
     Davidson diagonalization with overlap
     ethr =  1.53E-10,  avg # of iterations =  2.0

     negative rho (up, down):  1.162E-01 0.000E+00
 
     Adding external electric field

     Computed dipole along edir(3) : 
        Dipole                0.2746 Ry au,          0.6979 Debye
        Dipole field          0.0001 Ry au, 
 
        Potential amp.       -0.0186 Ry
        Total length         67.7995 bohr
 

     total cpu time spent up to now is    13382.4 secs

     total energy              =   -2271.78007332 Ry
     estimated scf accuracy    <       0.00000042 Ry

     iteration # 72     ecut=    52.00 Ry     beta= 0.30
     Davidson diagonalization with overlap
     ethr =  7.82E-11,  avg # of iterations =  2.0

     negative rho (up, down):  1.162E-01 0.000E+00
 
     Adding external electric field

     Computed dipole along edir(3) : 
        Dipole                0.2742 Ry au,          0.6971 Debye
        Dipole field          0.0001 Ry au, 
 
        Potential amp.       -0.0186 Ry
        Total length         67.7995 bohr
 

     total cpu time spent up to now is    13546.7 secs

     total energy              =   -2271.78007328 Ry
     estimated scf accuracy    <       0.00000029 Ry

     iteration # 73     ecut=    52.00 Ry     beta= 0.30
     Davidson diagonalization with overlap
     ethr =  5.48E-11,  avg # of iterations =  2.0

     negative rho (up, down):  1.162E-01 0.000E+00
 
     Adding external electric field

     Computed dipole along edir(3) : 
        Dipole                0.2729 Ry au,          0.6937 Debye
        Dipole field          0.0001 Ry au, 
 
        Potential amp.       -0.0185 Ry
        Total length         67.7995 bohr
 

     total cpu time spent up to now is    13712.4 secs

     total energy              =   -2271.78007326 Ry
     estimated scf accuracy    <       0.00000021 Ry

     iteration # 74     ecut=    52.00 Ry     beta= 0.30
     Davidson diagonalization with overlap
     ethr =  3.87E-11,  avg # of iterations =  2.0

     negative rho (up, down):  1.162E-01 0.000E+00
 
     Adding external electric field

     Computed dipole along edir(3) : 
        Dipole                0.2723 Ry au,          0.6921 Debye
        Dipole field          0.0001 Ry au, 
 
        Potential amp.       -0.0184 Ry
        Total length         67.7995 bohr
 

     total cpu time spent up to now is    13876.8 secs

     total energy              =   -2271.78007326 Ry
     estimated scf accuracy    <       0.00000014 Ry

     iteration # 75     ecut=    52.00 Ry     beta= 0.30
     Davidson diagonalization with overlap
     ethr =  2.56E-11,  avg # of iterations =  2.0

     negative rho (up, down):  1.162E-01 0.000E+00
 
     Adding external electric field

     Computed dipole along edir(3) : 
        Dipole                0.2713 Ry au,          0.6895 Debye
        Dipole field          0.0001 Ry au, 
 
        Potential amp.       -0.0184 Ry
        Total length         67.7995 bohr
 

     total cpu time spent up to now is    14042.7 secs

     total energy              =   -2271.78007325 Ry
     estimated scf accuracy    <       0.00000009 Ry

     iteration # 76     ecut=    52.00 Ry     beta= 0.30
     Davidson diagonalization with overlap
     ethr =  1.68E-11,  avg # of iterations =  3.1

     negative rho (up, down):  1.162E-01 0.000E+00
 
     Adding external electric field

     Computed dipole along edir(3) : 
        Dipole                0.2706 Ry au,          0.6877 Debye
        Dipole field          0.0001 Ry au, 
 
        Potential amp.       -0.0183 Ry
        Total length         67.7995 bohr
 

     total cpu time spent up to now is    14215.3 secs

     total energy              =   -2271.78007326 Ry
     estimated scf accuracy    <       0.00000005 Ry

     iteration # 77     ecut=    52.00 Ry     beta= 0.30
     Davidson diagonalization with overlap
     ethr =  9.07E-12,  avg # of iterations =  2.0

     negative rho (up, down):  1.162E-01 0.000E+00
 
     Adding external electric field

     Computed dipole along edir(3) : 
        Dipole                0.2703 Ry au,          0.6871 Debye
        Dipole field          0.0001 Ry au, 
 
        Potential amp.       -0.0183 Ry
        Total length         67.7995 bohr
 

     total cpu time spent up to now is    14385.4 secs

     total energy              =   -2271.78007326 Ry
     estimated scf accuracy    <       0.00000003 Ry

     iteration # 78     ecut=    52.00 Ry     beta= 0.30
     Davidson diagonalization with overlap
     ethr =  5.45E-12,  avg # of iterations =  3.0

     negative rho (up, down):  1.162E-01 0.000E+00
 
     Adding external electric field

     Computed dipole along edir(3) : 
        Dipole                0.2703 Ry au,          0.6872 Debye
        Dipole field          0.0001 Ry au, 
 
        Potential amp.       -0.0183 Ry
        Total length         67.7995 bohr
 

     total cpu time spent up to now is    14554.0 secs

     total energy              =   -2271.78007325 Ry
     estimated scf accuracy    <       0.00000002 Ry

     iteration # 79     ecut=    52.00 Ry     beta= 0.30
     Davidson diagonalization with overlap
     ethr =  3.03E-12,  avg # of iterations =  2.2

     negative rho (up, down):  1.162E-01 0.000E+00
 
     Adding external electric field

     Computed dipole along edir(3) : 
        Dipole                0.2705 Ry au,          0.6875 Debye
        Dipole field          0.0001 Ry au, 
 
        Potential amp.       -0.0183 Ry
        Total length         67.7995 bohr
 

     total cpu time spent up to now is    14724.3 secs

     total energy              =   -2271.78007324 Ry
     estimated scf accuracy    <       0.00000001 Ry

     iteration # 80     ecut=    52.00 Ry     beta= 0.30
     Davidson diagonalization with overlap
     ethr =  2.03E-12,  avg # of iterations =  2.0

     negative rho (up, down):  1.162E-01 0.000E+00
 
     Adding external electric field

     Computed dipole along edir(3) : 
        Dipole                0.2689 Ry au,          0.6835 Debye
        Dipole field          0.0001 Ry au, 
 
        Potential amp.       -0.0182 Ry
        Total length         67.7995 bohr
 

     total cpu time spent up to now is    14889.9 secs

     End of self-consistent calculation

          k = 0.0000 0.0000 0.0000 (159335 PWs)   bands (ev):

   -45.5504 -45.5429 -45.5363 -45.4963 -45.4920 -45.4456 -45.4455 -45.4294
   -45.4156 -45.4078 -45.4076 -45.4072 -45.4063 -45.4044 -45.3996 -45.3932
   -45.3921 -45.3792 -45.3785 -45.3673 -45.3666 -45.3557 -45.3549 -45.3358
   -45.3273 -45.3092 -45.3087 -45.2923 -45.2919 -45.2866 -45.2439 -45.2431
   -45.2086 -45.1963 -45.1947 -45.1838 -45.1837 -45.1770 -45.1657 -45.1632
   -45.1519 -45.1492 -45.1489 -45.1481 -45.1192 -45.1191 -45.0209 -45.0208
   -45.0013 -45.0011 -44.9931 -44.9387 -16.8557 -15.8915 -15.8687 -15.6851
   -15.6666 -15.6633 -15.6464 -15.5260 -15.5079 -15.1860 -15.1558 -15.1437
   -15.1341 -14.9358 -14.9330 -14.8976 -14.8938 -14.1356 -14.1045 -13.0541
   -13.0157 -12.9388 -12.9186 -12.9044 -12.8732 -12.8704 -12.8575 -12.8188
   -12.7745 -12.7438 -12.7329 -12.7155 -12.7124 -12.6862 -12.6710 -12.6700
   -12.6212 -12.5948 -12.5901 -12.5872 -12.5808 -12.5156 -12.4973 -11.1333
   -11.1278 -11.0232 -11.0115 -10.9854 -10.9803 -10.5423 -10.5237 -10.2104
   -10.0185 -10.0061 -10.0049  -8.8755  -8.6911  -8.5719  -8.5110  -8.4239
    -8.3208  -8.2781  -8.2766  -8.2416  -6.9510  -6.5893  -5.9749  -5.9572
    -5.9181  -5.8580  -5.8236  -5.7647  -5.6804  -5.5565  -5.5488  -5.5080
    -5.4093  -5.3752  -5.3671  -5.3215  -5.3143  -5.2789  -5.2532  -5.1968
    -5.1576  -5.1181  -5.0972  -5.0937  -5.0632  -5.0077  -4.9891  -4.8780
    -4.7480  -4.0711  -4.0284  -3.9876  -3.9607  -3.9499  -3.9363  -3.8945
    -3.8466  -3.8346  -3.8178  -3.8053  -3.7889  -3.7419  -3.7146  -3.7026
    -3.6929  -3.6481  -3.6157  -3.6062  -3.5929  -3.5713  -3.5474  -3.5191
    -3.4860  -3.4162  -3.3740  -3.3708  -3.3323  -3.3004  -3.2595  -3.2099
    -3.1317  -3.1235  -3.0717  -3.0642  -3.0026  -2.9745  -2.8704  -2.8557
    -2.8059  -2.7663  -2.7469  -2.7455  -2.7195  -2.7095  -2.6584  -2.6528
    -2.6344  -2.6275  -2.6140  -2.5939  -2.5731  -2.5580  -2.5312  -2.5181
    -2.4964  -2.4845  -2.4558  -2.4422  -2.3917  -2.3891  -2.3689  -2.3071
    -2.2857  -2.2037  -2.1909  -2.1208  -2.0502  -2.0188  -2.0020  -1.9277
    -1.9129  -1.8487  -1.8314  -1.8025  -1.7922  -1.7506  -1.7384  -1.7260
    -1.7044  -1.6882  -1.6557  -1.6503  -1.6200  -1.6131  -1.5944  -1.5860
    -1.5596  -1.5400  -1.5274  -1.4964  -1.4802  -1.4411  -1.4306  -1.4278
    -1.3986  -1.3952  -1.3687  -1.3571  -1.3157  -1.2912  -1.2706  -1.2571
    -1.2368  -1.2108  -1.2031  -1.1364  -1.1213  -1.0966  -1.0865  -1.0295
    -0.9425  -0.8299  -0.8089  -0.6492  -0.5768  -0.4984  -0.4379  -0.4345
    -0.4058  -0.3563  -0.3183   1.3503   1.6821   2.1421   2.5862   2.6818
     2.7813   2.7909   2.8204   2.8506   2.8954   2.9557   2.9763   2.9915
     3.0044   3.0482   3.0546   3.0842   3.1681   3.1813   3.2142   3.2227
     3.2464   3.3063   3.3093   3.4015   3.4492   3.5728   3.5801   3.6431
     3.7616   3.7747   3.9360   3.9743   3.9937   4.0644   4.0920   4.1227
     4.1567   4.1871   4.2487   4.2805   4.3715   4.3810   4.4057   4.4970
     4.5267   4.5766   4.5975   4.6056   4.6404   4.6571   4.6951   4.7223

          k = 0.0000 0.2500 0.0000 (159326 PWs)   bands (ev):

   -45.5504 -45.5429 -45.5363 -45.4963 -45.4920 -45.4456 -45.4455 -45.4294
   -45.4156 -45.4078 -45.4076 -45.4072 -45.4063 -45.4044 -45.3996 -45.3932
   -45.3921 -45.3792 -45.3785 -45.3673 -45.3666 -45.3557 -45.3549 -45.3358
   -45.3273 -45.3092 -45.3087 -45.2923 -45.2919 -45.2866 -45.2439 -45.2431
   -45.2086 -45.1963 -45.1947 -45.1838 -45.1837 -45.1770 -45.1657 -45.1632
   -45.1519 -45.1492 -45.1489 -45.1481 -45.1192 -45.1191 -45.0209 -45.0208
   -45.0013 -45.0011 -44.9931 -44.9387 -16.8557 -15.8892 -15.8707 -15.6818
   -15.6658 -15.6634 -15.6492 -15.5235 -15.5107 -15.1863 -15.1561 -15.1442
   -15.1348 -14.9357 -14.9338 -14.8979 -14.8948 -14.1356 -14.1045 -13.0427
   -13.0148 -12.9357 -12.9248 -12.9058 -12.8769 -12.8589 -12.8420 -12.8212
   -12.7838 -12.7476 -12.7409 -12.7234 -12.7195 -12.6795 -12.6683 -12.6577
   -12.6184 -12.6075 -12.5950 -12.5828 -12.5769 -12.5164 -12.5028 -11.1326
   -11.1281 -11.0230 -11.0114 -10.9846 -10.9809 -10.5423 -10.5236 -10.2103
   -10.0184 -10.0058 -10.0050  -8.8073  -8.6432  -8.5716  -8.4868  -8.4753
    -8.3779  -8.3283  -8.2784  -8.2650  -6.9514  -6.5893  -5.9580  -5.9186
    -5.9160  -5.8484  -5.7727  -5.7234  -5.6723  -5.5717  -5.5574  -5.5291
    -5.3892  -5.3811  -5.3784  -5.3314  -5.3114  -5.2670  -5.2396  -5.2192
    -5.1437  -5.1432  -5.1300  -5.0996  -5.0789  -5.0309  -4.9887  -4.9182
    -4.7478  -4.1044  -4.0701  -3.9866  -3.9786  -3.9644  -3.9596  -3.8797
    -3.8495  -3.8464  -3.8234  -3.8086  -3.7999  -3.7460  -3.7413  -3.7123
    -3.6803  -3.6307  -3.6064  -3.5997  -3.5962  -3.5654  -3.5463  -3.4837
    -3.4706  -3.3879  -3.3674  -3.3165  -3.2949  -3.2533  -3.1881  -3.1580
    -3.1031  -3.0905  -3.0720  -3.0525  -2.9518  -2.9394  -2.8898  -2.8423
    -2.8267  -2.7705  -2.7633  -2.7543  -2.7347  -2.7009  -2.6727  -2.6578
    -2.6327  -2.6275  -2.6196  -2.5848  -2.5725  -2.5587  -2.5471  -2.5182
    -2.5045  -2.4980  -2.4715  -2.4408  -2.3954  -2.3876  -2.3747  -2.3229
    -2.2988  -2.2047  -2.1989  -2.1211  -2.0441  -2.0057  -1.9862  -1.9404
    -1.9043  -1.8498  -1.8369  -1.8066  -1.7956  -1.7758  -1.7418  -1.7251
    -1.7084  -1.6790  -1.6512  -1.6407  -1.6349  -1.6153  -1.5939  -1.5904
    -1.5541  -1.5302  -1.5132  -1.5073  -1.4792  -1.4497  -1.4422  -1.4369
    -1.4082  -1.3985  -1.3776  -1.3613  -1.3262  -1.2922  -1.2853  -1.2726
    -1.2539  -1.2398  -1.2154  -1.1849  -1.1524  -1.1020  -1.0928  -1.0613
    -0.9304  -0.8545  -0.8249  -0.6362  -0.5750  -0.4813  -0.4403  -0.4366
    -0.3971  -0.3618  -0.3164   1.5242   1.7958   2.2047   2.4589   2.5342
     2.6273   2.6392   2.7508   2.8556   2.8837   2.9776   3.0093   3.0608
     3.0875   3.1189   3.1427   3.1523   3.1973   3.2113   3.2808   3.3056
     3.3289   3.3795   3.4071   3.4387   3.4752   3.5413   3.5795   3.6795
     3.6983   3.7714   3.7932   3.8969   3.9116   3.9854   3.9998   4.0577
     4.0869   4.1358   4.2370   4.3064   4.3416   4.4105   4.4595   4.4738
     4.5200   4.5652   4.5944   4.6106   4.6331   4.6854   4.7321   4.7613

          k = 0.0000-0.5000 0.0000 (159404 PWs)   bands (ev):

   -45.5504 -45.5429 -45.5363 -45.4963 -45.4920 -45.4456 -45.4455 -45.4294
   -45.4156 -45.4078 -45.4076 -45.4072 -45.4063 -45.4044 -45.3996 -45.3932
   -45.3921 -45.3792 -45.3785 -45.3673 -45.3666 -45.3557 -45.3549 -45.3358
   -45.3273 -45.3092 -45.3087 -45.2923 -45.2919 -45.2866 -45.2439 -45.2431
   -45.2086 -45.1963 -45.1947 -45.1838 -45.1837 -45.1770 -45.1657 -45.1632
   -45.1519 -45.1492 -45.1489 -45.1481 -45.1192 -45.1191 -45.0209 -45.0208
   -45.0013 -45.0011 -44.9931 -44.9387 -16.8557 -15.8861 -15.8734 -15.6764
   -15.6703 -15.6561 -15.6561 -15.5173 -15.5172 -15.1866 -15.1564 -15.1447
   -15.1356 -14.9352 -14.9351 -14.8980 -14.8958 -14.1356 -14.1045 -13.0279
   -13.0161 -12.9360 -12.9329 -12.8924 -12.8896 -12.8346 -12.8343 -12.8194
   -12.8035 -12.7500 -12.7498 -12.7286 -12.7275 -12.6715 -12.6695 -12.6335
   -12.6332 -12.6083 -12.6070 -12.5762 -12.5745 -12.5134 -12.5127 -11.1318
   -11.1287 -11.0229 -11.0114 -10.9832 -10.9821 -10.5422 -10.5236 -10.2102
   -10.0183 -10.0054 -10.0053  -8.6412  -8.6350  -8.5713  -8.5214  -8.5153
    -8.4193  -8.4159  -8.2792  -8.2772  -6.9518  -6.5893  -5.9588  -5.9191
    -5.8505  -5.8416  -5.6952  -5.6948  -5.6101  -5.6014  -5.5868  -5.5770
    -5.4047  -5.4046  -5.3604  -5.3428  -5.2746  -5.2637  -5.2185  -5.2139
    -5.1880  -5.1845  -5.1185  -5.1183  -5.0751  -5.0730  -4.9753  -4.9735
    -4.7477  -4.1224  -4.1115  -4.0057  -3.9893  -3.9852  -3.9592  -3.8670
    -3.8603  -3.8581  -3.8449  -3.8042  -3.8007  -3.7679  -3.7672  -3.6934
    -3.6633  -3.6083  -3.6076  -3.5952  -3.5874  -3.5540  -3.5509  -3.4611
    -3.4609  -3.3687  -3.3662  -3.2667  -3.2603  -3.1902  -3.1877  -3.0888
    -3.0839  -3.0285  -3.0263  -2.9499  -2.9491  -2.8862  -2.8854  -2.8567
    -2.8507  -2.8101  -2.7983  -2.7465  -2.7440  -2.7143  -2.7127  -2.6494
    -2.6411  -2.6192  -2.6119  -2.6027  -2.5825  -2.5684  -2.5636  -2.5231
    -2.5199  -2.4791  -2.4736  -2.4319  -2.4309  -2.3815  -2.3808  -2.3081
    -2.3027  -2.2062  -2.2051  -2.1223  -2.0439  -2.0083  -1.9806  -1.9210
    -1.9047  -1.8426  -1.8379  -1.8147  -1.8095  -1.7858  -1.7821  -1.7206
    -1.7168  -1.6696  -1.6632  -1.6328  -1.6317  -1.6087  -1.6070  -1.5627
    -1.5576  -1.5409  -1.5297  -1.4902  -1.4886  -1.4609  -1.4559  -1.4240
    -1.4209  -1.3981  -1.3942  -1.3729  -1.3686  -1.3309  -1.3280  -1.2528
    -1.2483  -1.2261  -1.2237  -1.1793  -1.1760  -1.1286  -1.1265  -1.0906
    -0.8970  -0.8970  -0.8374  -0.6270  -0.5730  -0.4567  -0.4566  -0.4352
    -0.3776  -0.3775  -0.3144   1.9624   1.9664   2.1006   2.1058   2.3667
     2.3719   2.6748   2.6831   2.8940   2.9162   3.0420   3.0684   3.1211
     3.1383   3.1874   3.1987   3.2687   3.2807   3.3120   3.3175   3.3661
     3.3692   3.4268   3.4366   3.5352   3.5443   3.5578   3.5814   3.6807
     3.6876   3.7275   3.7405   3.8209   3.8227   3.9076   3.9091   3.9541
     3.9580   4.1516   4.1919   4.2732   4.2805   4.3169   4.3694   4.4704
     4.4833   4.5400   4.6091   4.6450   4.6711   4.6746   4.7286   4.7596

          k = 0.2500 0.0000 0.0000 (159326 PWs)   bands (ev):

   -45.5504 -45.5429 -45.5363 -45.4963 -45.4920 -45.4456 -45.4455 -45.4294
   -45.4156 -45.4078 -45.4076 -45.4072 -45.4063 -45.4044 -45.3996 -45.3932
   -45.3921 -45.3792 -45.3785 -45.3673 -45.3666 -45.3557 -45.3549 -45.3358
   -45.3273 -45.3092 -45.3087 -45.2923 -45.2919 -45.2866 -45.2439 -45.2431
   -45.2086 -45.1963 -45.1947 -45.1838 -45.1837 -45.1770 -45.1657 -45.1632
   -45.1519 -45.1492 -45.1489 -45.1481 -45.1192 -45.1191 -45.0209 -45.0208
   -45.0013 -45.0011 -44.9931 -44.9387 -16.8557 -15.8891 -15.8706 -15.6820
   -15.6660 -15.6634 -15.6491 -15.5235 -15.5106 -15.1863 -15.1562 -15.1440
   -15.1347 -14.9358 -14.9338 -14.8977 -14.8946 -14.1356 -14.1045 -13.0484
   -13.0207 -12.9333 -12.9183 -12.8945 -12.8768 -12.8629 -12.8516 -12.8269
   -12.7875 -12.7381 -12.7311 -12.7107 -12.7091 -12.6850 -12.6747 -12.6679
   -12.6183 -12.6089 -12.5997 -12.5808 -12.5805 -12.5148 -12.5040 -11.1326
   -11.1281 -11.0230 -11.0113 -10.9846 -10.9810 -10.5423 -10.5237 -10.2103
   -10.0184 -10.0058 -10.0050  -8.8068  -8.6430  -8.5717  -8.4875  -8.4731
    -8.3848  -8.3276  -8.2761  -8.2568  -6.9508  -6.5894  -5.9575  -5.9419
    -5.9186  -5.8649  -5.7897  -5.7075  -5.6866  -5.5588  -5.5367  -5.4889
    -5.4271  -5.3569  -5.3509  -5.3424  -5.3011  -5.2757  -5.2404  -5.2240
    -5.1649  -5.1445  -5.1316  -5.0918  -5.0890  -5.0337  -4.9807  -4.9035
    -4.7478  -4.0595  -4.0284  -3.9876  -3.9611  -3.9492  -3.9377  -3.9096
    -3.8732  -3.8309  -3.8189  -3.8072  -3.7946  -3.7438  -3.7097  -3.7048
    -3.6995  -3.6647  -3.6284  -3.6213  -3.6081  -3.5755  -3.5546  -3.5221
    -3.4947  -3.4149  -3.4049  -3.3658  -3.3332  -3.2634  -3.2071  -3.1874
    -3.0991  -3.0748  -3.0376  -3.0172  -2.9943  -2.9603  -2.8784  -2.8243
    -2.8088  -2.7642  -2.7483  -2.7276  -2.7227  -2.7057  -2.6842  -2.6555
    -2.6488  -2.6386  -2.6037  -2.5943  -2.5717  -2.5557  -2.5318  -2.5254
    -2.4856  -2.4760  -2.4576  -2.4406  -2.4052  -2.3935  -2.3616  -2.2735
    -2.2703  -2.1994  -2.1777  -2.1216  -2.0549  -2.0243  -1.9797  -1.9347
    -1.8994  -1.8438  -1.8387  -1.7924  -1.7801  -1.7752  -1.7437  -1.7279
    -1.7183  -1.6812  -1.6551  -1.6509  -1.6349  -1.6173  -1.5987  -1.5970
    -1.5526  -1.5304  -1.5215  -1.4974  -1.4847  -1.4740  -1.4547  -1.4235
    -1.4162  -1.3850  -1.3756  -1.3421  -1.3318  -1.3054  -1.2927  -1.2726
    -1.2457  -1.2225  -1.2044  -1.1703  -1.1358  -1.1219  -1.0883  -1.0718
    -0.9282  -0.8509  -0.8222  -0.6358  -0.5778  -0.4814  -0.4396  -0.4386
    -0.4035  -0.3649  -0.3190   1.5445   1.8000   2.1959   2.4779   2.5521
     2.6310   2.6475   2.8199   2.8440   2.8935   2.9383   2.9824   3.0124
     3.0475   3.0900   3.0998   3.1478   3.1546   3.1908   3.2602   3.2882
     3.2927   3.3973   3.4093   3.4424   3.4999   3.5943   3.5966   3.7383
     3.7531   3.8094   3.8623   3.8886   3.9411   3.9674   4.0113   4.0484
     4.1108   4.1278   4.2433   4.2671   4.3100   4.4174   4.4336   4.4802
     4.4911   4.5327   4.5751   4.6218   4.6413   4.6586   4.6962   4.7071

          k = 0.2500 0.2500 0.0000 (159273 PWs)   bands (ev):

   -45.5504 -45.5429 -45.5363 -45.4963 -45.4920 -45.4456 -45.4455 -45.4294
   -45.4156 -45.4078 -45.4076 -45.4072 -45.4063 -45.4044 -45.3996 -45.3932
   -45.3921 -45.3792 -45.3785 -45.3673 -45.3666 -45.3557 -45.3549 -45.3358
   -45.3273 -45.3092 -45.3087 -45.2923 -45.2919 -45.2866 -45.2439 -45.2431
   -45.2086 -45.1963 -45.1947 -45.1838 -45.1837 -45.1770 -45.1657 -45.1632
   -45.1519 -45.1492 -45.1489 -45.1481 -45.1192 -45.1191 -45.0209 -45.0208
   -45.0013 -45.0011 -44.9931 -44.9387 -16.8557 -15.8880 -15.8713 -15.6794
   -15.6676 -15.6605 -15.6516 -15.5218 -15.5126 -15.1867 -15.1565 -15.1445
   -15.1354 -14.9360 -14.9343 -14.8982 -14.8953 -14.1356 -14.1045 -13.0408
   -13.0181 -12.9295 -12.9251 -12.8971 -12.8799 -12.8521 -12.8397 -12.8286
   -12.7871 -12.7475 -12.7437 -12.7223 -12.7107 -12.6859 -12.6659 -12.6540
   -12.6197 -12.6178 -12.5973 -12.5798 -12.5748 -12.5150 -12.5093 -11.1322
   -11.1284 -11.0230 -11.0114 -10.9841 -10.9814 -10.5422 -10.5237 -10.2104
   -10.0186 -10.0056 -10.0052  -8.7528  -8.6066  -8.5712  -8.4861  -8.4659
    -8.4203  -8.3685  -8.3044  -8.2888  -6.9512  -6.5893  -5.9583  -5.9191
    -5.8861  -5.8392  -5.7305  -5.6762  -5.6732  -5.5585  -5.5460  -5.5234
    -5.4094  -5.3851  -5.3537  -5.3354  -5.3007  -5.2670  -5.2554  -5.2400
    -5.1676  -5.1479  -5.1448  -5.1021  -5.1000  -5.0767  -4.9896  -4.9376
    -4.7478  -4.0857  -4.0734  -3.9907  -3.9864  -3.9728  -3.9602  -3.8829
    -3.8721  -3.8463  -3.8244  -3.8115  -3.7877  -3.7669  -3.7430  -3.7219
    -3.6921  -3.6452  -3.6181  -3.6123  -3.5744  -3.5684  -3.5301  -3.5071
    -3.4797  -3.4029  -3.3582  -3.2896  -3.2699  -3.1973  -3.1791  -3.1377
    -3.0988  -3.0666  -3.0406  -3.0165  -2.9411  -2.9244  -2.8563  -2.8257
    -2.8237  -2.7831  -2.7789  -2.7677  -2.7301  -2.7173  -2.6824  -2.6679
    -2.6609  -2.6290  -2.6244  -2.6032  -2.5741  -2.5577  -2.5418  -2.5381
    -2.5024  -2.4929  -2.4670  -2.4486  -2.4245  -2.3931  -2.3611  -2.3020
    -2.2972  -2.2054  -2.1860  -2.1205  -2.0498  -2.0224  -1.9800  -1.9616
    -1.8822  -1.8606  -1.8230  -1.7959  -1.7915  -1.7786  -1.7485  -1.7331
    -1.7086  -1.7000  -1.6710  -1.6548  -1.6499  -1.6154  -1.6111  -1.5824
    -1.5548  -1.5285  -1.5101  -1.4912  -1.4659  -1.4566  -1.4543  -1.4169
    -1.4015  -1.3945  -1.3722  -1.3438  -1.3224  -1.3080  -1.2867  -1.2682
    -1.2663  -1.2471  -1.1942  -1.1475  -1.1400  -1.1057  -1.0970  -1.0719
    -0.8994  -0.8886  -0.8145  -0.6477  -0.5786  -0.4585  -0.4539  -0.4380
    -0.3882  -0.3744  -0.3141   1.6602   1.8511   2.1865   2.3356   2.4258
     2.4517   2.5715   2.5808   2.8401   2.9029   2.9318   3.0267   3.0349
     3.0859   3.1406   3.2062   3.2277   3.2433   3.2572   3.2704   3.3256
     3.3540   3.3671   3.4284   3.4952   3.5246   3.6268   3.6456   3.7178
     3.7268   3.7586   3.7731   3.8098   3.9485   3.9674   4.0160   4.0265
     4.0408   4.1637   4.1988   4.2439   4.3074   4.3942   4.4237   4.4542
     4.5330   4.5384   4.5714   4.5803   4.6515   4.6862   4.7508   4.7630

          k = 0.2500-0.5000 0.0000 (159304 PWs)   bands (ev):

   -45.5504 -45.5429 -45.5363 -45.4963 -45.4920 -45.4456 -45.4455 -45.4294
   -45.4156 -45.4078 -45.4076 -45.4072 -45.4063 -45.4044 -45.3996 -45.3932
   -45.3921 -45.3792 -45.3785 -45.3673 -45.3666 -45.3557 -45.3549 -45.3358
   -45.3273 -45.3092 -45.3087 -45.2923 -45.2919 -45.2866 -45.2439 -45.2431
   -45.2086 -45.1963 -45.1947 -45.1838 -45.1837 -45.1770 -45.1657 -45.1632
   -45.1519 -45.1492 -45.1489 -45.1481 -45.1192 -45.1191 -45.0209 -45.0208
   -45.0013 -45.0011 -44.9931 -44.9387 -16.8557 -15.8858 -15.8730 -15.6762
   -15.6700 -15.6567 -15.6549 -15.5174 -15.5172 -15.1870 -15.1568 -15.1451
   -15.1361 -14.9358 -14.9354 -14.8985 -14.8962 -14.1356 -14.1045 -13.0287
   -13.0166 -12.9340 -12.9284 -12.8926 -12.8885 -12.8387 -12.8330 -12.8202
   -12.8005 -12.7535 -12.7498 -12.7334 -12.7124 -12.6794 -12.6657 -12.6365
   -12.6316 -12.6131 -12.6041 -12.5780 -12.5695 -12.5165 -12.5142 -11.1319
   -11.1287 -11.0229 -11.0114 -10.9833 -10.9822 -10.5422 -10.5236 -10.2103
   -10.0185 -10.0056 -10.0053  -8.6219  -8.6004  -8.5710  -8.5109  -8.5066
    -8.4396  -8.4164  -8.3191  -8.3143  -6.9517  -6.5893  -5.9591  -5.9195
    -5.8187  -5.8010  -5.6767  -5.6631  -5.6077  -5.5893  -5.5765  -5.5518
    -5.4191  -5.3735  -5.3668  -5.3476  -5.2937  -5.2866  -5.2238  -5.2176
    -5.1962  -5.1930  -5.1497  -5.1317  -5.1102  -5.0879  -4.9937  -4.9835
    -4.7477  -4.1258  -4.0936  -4.0249  -3.9977  -3.9854  -3.9595  -3.8801
    -3.8683  -3.8610  -3.8451  -3.8045  -3.7850  -3.7821  -3.7712  -3.7161
    -3.6772  -3.6271  -3.6220  -3.5984  -3.5632  -3.5547  -3.5077  -3.4812
    -3.4672  -3.3824  -3.3312  -3.2236  -3.2140  -3.1663  -3.1593  -3.0793
    -3.0506  -3.0244  -2.9978  -2.9537  -2.9361  -2.8824  -2.8748  -2.8697
    -2.8518  -2.8381  -2.8108  -2.7525  -2.7387  -2.7172  -2.7150  -2.6715
    -2.6551  -2.6444  -2.6286  -2.6260  -2.5978  -2.5753  -2.5588  -2.5300
    -2.5140  -2.4979  -2.4949  -2.4434  -2.4412  -2.3964  -2.3924  -2.3320
    -2.2785  -2.2218  -2.1736  -2.1215  -2.0459  -2.0075  -1.9770  -1.9404
    -1.9191  -1.8747  -1.8283  -1.8064  -1.8040  -1.7927  -1.7901  -1.7511
    -1.6978  -1.6785  -1.6587  -1.6468  -1.6390  -1.6120  -1.5988  -1.5724
    -1.5405  -1.5354  -1.5166  -1.5050  -1.4755  -1.4554  -1.4446  -1.4196
    -1.4153  -1.3987  -1.3775  -1.3506  -1.3394  -1.3037  -1.2809  -1.2762
    -1.2492  -1.1923  -1.1869  -1.1567  -1.1504  -1.1046  -1.0886  -1.0730
    -0.9252  -0.8644  -0.8287  -0.6363  -0.5756  -0.4816  -0.4358  -0.4356
    -0.4090  -0.3508  -0.3121   1.9808   1.9979   2.0592   2.0706   2.2262
     2.2541   2.5075   2.5184   2.8609   2.8902   2.9496   3.0000   3.0543
     3.1295   3.1878   3.1964   3.2435   3.2602   3.2792   3.3616   3.3939
     3.4210   3.4890   3.5176   3.5555   3.6010   3.6351   3.6475   3.6761
     3.6966   3.7256   3.7351   3.8240   3.8335   3.8900   3.9158   3.9515
     3.9546   4.1456   4.2571   4.2905   4.3173   4.3816   4.4063   4.4489
     4.4574   4.5182   4.5327   4.6052   4.6234   4.7573   4.7924   4.8106

          k = 0.2500-0.2500 0.0000 (159273 PWs)   bands (ev):

   -45.5504 -45.5429 -45.5363 -45.4963 -45.4920 -45.4456 -45.4455 -45.4294
   -45.4156 -45.4078 -45.4076 -45.4072 -45.4063 -45.4044 -45.3996 -45.3932
   -45.3921 -45.3792 -45.3785 -45.3673 -45.3666 -45.3557 -45.3549 -45.3358
   -45.3273 -45.3092 -45.3087 -45.2923 -45.2919 -45.2866 -45.2439 -45.2431
   -45.2086 -45.1963 -45.1947 -45.1838 -45.1837 -45.1770 -45.1657 -45.1632
   -45.1519 -45.1492 -45.1489 -45.1481 -45.1192 -45.1191 -45.0209 -45.0208
   -45.0013 -45.0011 -44.9931 -44.9387 -16.8557 -15.8872 -15.8721 -15.6798
   -15.6673 -15.6617 -15.6503 -15.5217 -15.5127 -15.1867 -15.1565 -15.1446
   -15.1353 -14.9357 -14.9346 -14.8981 -14.8954 -14.1356 -14.1045 -13.0379
   -13.0189 -12.9332 -12.9219 -12.9007 -12.8799 -12.8558 -12.8347 -12.8268
   -12.7962 -12.7420 -12.7397 -12.7245 -12.7084 -12.6778 -12.6748 -12.6543
   -12.6203 -12.6127 -12.6018 -12.5782 -12.5768 -12.5177 -12.5069 -11.1323
   -11.1284 -11.0229 -11.0114 -10.9841 -10.9814 -10.5422 -10.5237 -10.2102
   -10.0183 -10.0059 -10.0052  -8.7458  -8.6046  -8.5715  -8.5133  -8.4751
    -8.4128  -8.3421  -8.3066  -8.2921  -6.9512  -6.5893  -5.9583  -5.9191
    -5.8769  -5.8414  -5.7459  -5.6853  -5.6634  -5.5668  -5.5443  -5.5213
    -5.3954  -5.3674  -5.3574  -5.3550  -5.3049  -5.2645  -5.2396  -5.2318
    -5.1747  -5.1645  -5.1499  -5.1095  -5.1082  -5.0492  -4.9843  -4.9445
    -4.7477  -4.1034  -4.0573  -3.9960  -3.9864  -3.9738  -3.9603  -3.8952
    -3.8602  -3.8349  -3.8320  -3.7988  -3.7923  -3.7585  -3.7479  -3.7334
    -3.6882  -3.6397  -3.6284  -3.6163  -3.5893  -3.5545  -3.5270  -3.4872
    -3.4820  -3.4083  -3.3542  -3.3001  -3.2898  -3.2018  -3.1733  -3.1343
    -3.0741  -3.0451  -3.0362  -3.0231  -2.9520  -2.9293  -2.8785  -2.8436
    -2.8140  -2.8070  -2.7832  -2.7367  -2.7327  -2.6992  -2.6783  -2.6531
    -2.6449  -2.6293  -2.6216  -2.6135  -2.5848  -2.5764  -2.5554  -2.5298
    -2.5068  -2.5029  -2.4779  -2.4321  -2.4165  -2.3966  -2.3648  -2.3218
    -2.2627  -2.2129  -2.1739  -2.1214  -2.0425  -1.9896  -1.9654  -1.9387
    -1.8971  -1.8850  -1.8284  -1.8247  -1.8006  -1.7663  -1.7600  -1.7453
    -1.7245  -1.6839  -1.6627  -1.6325  -1.6107  -1.6072  -1.5938  -1.5780
    -1.5570  -1.5514  -1.5467  -1.4912  -1.4869  -1.4586  -1.4442  -1.4398
    -1.4170  -1.4121  -1.3812  -1.3467  -1.3387  -1.3089  -1.2967  -1.2704
    -1.2181  -1.2096  -1.2003  -1.1506  -1.1430  -1.1259  -1.0879  -1.0437
    -0.9398  -0.8398  -0.8348  -0.6262  -0.5751  -0.4960  -0.4362  -0.4310
    -0.4170  -0.3487  -0.3172   1.6590   1.8484   2.1703   2.3712   2.4281
     2.4634   2.5553   2.5863   2.8350   2.8885   2.9824   2.9963   3.0271
     3.0769   3.1179   3.1649   3.2053   3.2427   3.2763   3.2932   3.3272
     3.4292   3.4369   3.4803   3.4924   3.5270   3.5448   3.6099   3.6638
     3.7367   3.7564   3.7789   3.8316   3.9085   3.9554   3.9683   4.0442
     4.0847   4.1256   4.1667   4.2404   4.3080   4.3907   4.4442   4.4593
     4.5212   4.5393   4.5568   4.6053   4.6700   4.7214   4.7335   4.7767

          k =-0.5000 0.0000 0.0000 (159404 PWs)   bands (ev):

   -45.5504 -45.5429 -45.5363 -45.4963 -45.4920 -45.4456 -45.4455 -45.4294
   -45.4156 -45.4078 -45.4076 -45.4072 -45.4063 -45.4044 -45.3996 -45.3932
   -45.3921 -45.3792 -45.3785 -45.3673 -45.3666 -45.3557 -45.3549 -45.3358
   -45.3273 -45.3092 -45.3087 -45.2923 -45.2919 -45.2866 -45.2439 -45.2431
   -45.2086 -45.1963 -45.1947 -45.1838 -45.1837 -45.1770 -45.1657 -45.1632
   -45.1519 -45.1492 -45.1489 -45.1481 -45.1192 -45.1191 -45.0209 -45.0208
   -45.0013 -45.0011 -44.9931 -44.9387 -16.8557 -15.8860 -15.8732 -15.6769
   -15.6707 -15.6561 -15.6560 -15.5171 -15.5171 -15.1867 -15.1567 -15.1442
   -15.1353 -14.9352 -14.9352 -14.8977 -14.8954 -14.1356 -14.1045 -13.0389
   -13.0297 -12.9234 -12.9221 -12.8838 -12.8830 -12.8463 -12.8451 -12.8299
   -12.8139 -12.7323 -12.7305 -12.7066 -12.7048 -12.6825 -12.6810 -12.6434
   -12.6427 -12.6123 -12.6101 -12.5795 -12.5792 -12.5122 -12.5116 -11.1318
   -11.1287 -11.0227 -11.0112 -10.9832 -10.9822 -10.5423 -10.5237 -10.2102
   -10.0183 -10.0054 -10.0053  -8.6414  -8.6327  -8.5715  -8.5247  -8.5156
    -8.4198  -8.4156  -8.2722  -8.2699  -6.9506  -6.5894  -5.9578  -5.9190
    -5.8941  -5.8890  -5.7244  -5.7210  -5.6042  -5.6018  -5.5102  -5.4939
    -5.4149  -5.3892  -5.3377  -5.3375  -5.2773  -5.2685  -5.2220  -5.2165
    -5.1929  -5.1878  -5.1556  -5.1541  -5.0691  -5.0680  -4.9510  -4.9490
    -4.7477  -4.0475  -4.0320  -3.9876  -3.9615  -3.9518  -3.9402  -3.9117
    -3.9009  -3.8361  -3.8316  -3.8008  -3.7976  -3.7374  -3.7199  -3.7050
    -3.7006  -3.6642  -3.6638  -3.6231  -3.6060  -3.5773  -3.5743  -3.5131
    -3.5124  -3.4169  -3.4158  -3.3563  -3.3383  -3.2218  -3.2193  -3.1044
    -3.1039  -3.0248  -3.0215  -2.9709  -2.9607  -2.9318  -2.9273  -2.7924
    -2.7815  -2.7761  -2.7605  -2.7233  -2.7130  -2.6952  -2.6895  -2.6682
    -2.6601  -2.6155  -2.5965  -2.5935  -2.5870  -2.5450  -2.5403  -2.5130
    -2.5105  -2.4621  -2.4580  -2.4205  -2.4185  -2.3801  -2.3795  -2.2532
    -2.2508  -2.1863  -2.1861  -2.1214  -2.0408  -1.9711  -1.9564  -1.9410
    -1.9269  -1.8426  -1.8345  -1.8091  -1.8044  -1.7700  -1.7584  -1.7300
    -1.7196  -1.7036  -1.6997  -1.6431  -1.6399  -1.6170  -1.6132  -1.5557
    -1.5471  -1.5380  -1.5286  -1.4879  -1.4873  -1.4616  -1.4571  -1.4377
    -1.4254  -1.4031  -1.3938  -1.3467  -1.3441  -1.3272  -1.3265  -1.2784
    -1.2754  -1.2343  -1.2327  -1.1587  -1.1536  -1.1218  -1.1177  -1.0807
    -0.8921  -0.8920  -0.8333  -0.6253  -0.5772  -0.4557  -0.4556  -0.4390
    -0.3864  -0.3863  -0.3198   2.0043   2.0094   2.1214   2.1340   2.3596
     2.3730   2.7077   2.7128   2.8616   2.8945   2.9513   2.9812   3.0654
     3.0879   3.1127   3.1236   3.2040   3.2316   3.2544   3.2849   3.2914
     3.3203   3.5223   3.5246   3.6143   3.6256   3.6496   3.6723   3.7029
     3.7175   3.8118   3.8192   3.8455   3.8509   3.9061   3.9176   4.0114
     4.0121   4.1514   4.1873   4.2362   4.2578   4.3117   4.3711   4.4219
     4.4338   4.5291   4.5342   4.5888   4.5973   4.6371   4.6565   4.7040

          k =-0.5000 0.2500 0.0000 (159304 PWs)   bands (ev):

   -45.5504 -45.5429 -45.5363 -45.4963 -45.4920 -45.4456 -45.4455 -45.4294
   -45.4156 -45.4078 -45.4076 -45.4072 -45.4063 -45.4044 -45.3996 -45.3932
   -45.3921 -45.3792 -45.3785 -45.3673 -45.3666 -45.3557 -45.3549 -45.3358
   -45.3273 -45.3092 -45.3087 -45.2923 -45.2919 -45.2866 -45.2439 -45.2431
   -45.2086 -45.1963 -45.1947 -45.1838 -45.1837 -45.1770 -45.1657 -45.1632
   -45.1519 -45.1492 -45.1489 -45.1481 -45.1192 -45.1191 -45.0209 -45.0208
   -45.0013 -45.0011 -44.9931 -44.9387 -16.8557 -15.8858 -15.8729 -15.6764
   -15.6702 -15.6567 -15.6549 -15.5173 -15.5172 -15.1871 -15.1569 -15.1449
   -15.1359 -14.9358 -14.9354 -14.8983 -14.8960 -14.1356 -14.1045 -13.0344
   -13.0238 -12.9271 -12.9219 -12.8892 -12.8860 -12.8434 -12.8399 -12.8250
   -12.8074 -12.7440 -12.7409 -12.7183 -12.7017 -12.6872 -12.6706 -12.6409
   -12.6385 -12.6139 -12.6054 -12.5775 -12.5737 -12.5167 -12.5127 -11.1318
   -11.1287 -11.0229 -11.0113 -10.9833 -10.9822 -10.5422 -10.5237 -10.2103
   -10.0185 -10.0056 -10.0053  -8.6214  -8.5991  -8.5711  -8.5142  -8.5074
    -8.4398  -8.4158  -8.3150  -8.3102  -6.9510  -6.5894  -5.9586  -5.9195
    -5.8454  -5.8349  -5.6913  -5.6759  -5.5964  -5.5778  -5.5397  -5.5193
    -5.4050  -5.3813  -5.3648  -5.3333  -5.2906  -5.2674  -5.2470  -5.2245
    -5.2032  -5.1947  -5.1623  -5.1493  -5.1095  -5.0874  -4.9796  -4.9701
    -4.7477  -4.0905  -4.0555  -4.0083  -3.9868  -3.9857  -3.9606  -3.8997
    -3.8696  -3.8424  -3.8266  -3.8086  -3.7868  -3.7779  -3.7546  -3.7339
    -3.6973  -3.6497  -3.6307  -3.6157  -3.5757  -3.5634  -3.5278  -3.5035
    -3.4822  -3.4046  -3.3449  -3.2902  -3.2728  -3.1737  -3.1700  -3.1052
    -3.0507  -3.0338  -2.9803  -2.9730  -2.9448  -2.9106  -2.8908  -2.8354
    -2.8165  -2.7910  -2.7841  -2.7386  -2.7337  -2.7157  -2.6966  -2.6674
    -2.6616  -2.6483  -2.6345  -2.6080  -2.5963  -2.5602  -2.5536  -2.5518
    -2.5114  -2.4870  -2.4781  -2.4498  -2.4311  -2.3910  -2.3751  -2.3023
    -2.2629  -2.2054  -2.1746  -2.1207  -2.0444  -1.9937  -1.9757  -1.9495
    -1.9229  -1.8469  -1.8442  -1.8148  -1.8105  -1.7752  -1.7720  -1.7391
    -1.7045  -1.7000  -1.6713  -1.6471  -1.6402  -1.6212  -1.5966  -1.5845
    -1.5357  -1.5273  -1.5165  -1.4934  -1.4860  -1.4563  -1.4538  -1.4370
    -1.4353  -1.3921  -1.3693  -1.3415  -1.3330  -1.2927  -1.2749  -1.2714
    -1.2564  -1.1955  -1.1911  -1.1447  -1.1395  -1.1090  -1.0844  -1.0744
    -0.9236  -0.8611  -0.8266  -0.6355  -0.5779  -0.4809  -0.4376  -0.4358
    -0.4135  -0.3553  -0.3149   2.0099   2.0297   2.0722   2.0872   2.2119
     2.2412   2.4921   2.5058   2.8617   2.8821   2.9500   3.0070   3.0278
     3.0708   3.1449   3.1590   3.2102   3.2374   3.2536   3.3991   3.4090
     3.4212   3.5337   3.5359   3.5706   3.5909   3.6332   3.6453   3.6789
     3.6929   3.7624   3.7737   3.8262   3.8314   3.8929   3.9383   3.9904
     4.0208   4.1219   4.2251   4.2990   4.3166   4.3479   4.4067   4.4356
     4.4567   4.5165   4.5831   4.6223   4.6256   4.7281   4.7353   4.8097

          k =-0.5000-0.5000 0.0000 (159300 PWs)   bands (ev):

   -45.5504 -45.5429 -45.5363 -45.4963 -45.4920 -45.4456 -45.4455 -45.4294
   -45.4156 -45.4078 -45.4076 -45.4072 -45.4063 -45.4044 -45.3996 -45.3932
   -45.3921 -45.3792 -45.3785 -45.3673 -45.3666 -45.3557 -45.3549 -45.3358
   -45.3273 -45.3092 -45.3087 -45.2923 -45.2919 -45.2866 -45.2439 -45.2431
   -45.2086 -45.1963 -45.1947 -45.1838 -45.1837 -45.1770 -45.1657 -45.1632
   -45.1519 -45.1492 -45.1489 -45.1481 -45.1192 -45.1191 -45.0209 -45.0208
   -45.0013 -45.0011 -44.9931 -44.9387 -16.8557 -15.8856 -15.8726 -15.6760
   -15.6697 -15.6568 -15.6542 -15.5175 -15.5173 -15.1874 -15.1572 -15.1456
   -15.1365 -14.9363 -14.9357 -14.8990 -14.8966 -14.1356 -14.1045 -13.0295
   -13.0171 -12.9312 -12.9245 -12.8928 -12.8876 -12.8411 -12.8334 -12.8207
   -12.7972 -12.7569 -12.7529 -12.7279 -12.7032 -12.6865 -12.6647 -12.6377
   -12.6322 -12.6160 -12.6027 -12.5776 -12.5666 -12.5195 -12.5159 -11.1319
   -11.1288 -11.0230 -11.0115 -10.9834 -10.9823 -10.5421 -10.5236 -10.2104
   -10.0186 -10.0057 -10.0054  -8.5978  -8.5704  -8.5465  -8.5100  -8.4976
    -8.4528  -8.4045  -8.3732  -8.3712  -6.9515  -6.5894  -5.9593  -5.9200
    -5.7843  -5.7481  -5.6639  -5.6295  -5.5951  -5.5891  -5.5550  -5.5324
    -5.4190  -5.3877  -5.3517  -5.3400  -5.3201  -5.2985  -5.2530  -5.2205
    -5.2053  -5.1914  -5.1687  -5.1515  -5.1503  -5.1079  -5.0136  -4.9958
    -4.7476  -4.1246  -4.0808  -4.0430  -4.0094  -3.9855  -3.9598  -3.8911
    -3.8694  -3.8651  -3.8382  -3.8174  -3.7922  -3.7833  -3.7708  -3.7275
    -3.6836  -3.6409  -3.6257  -3.5941  -3.5617  -3.5460  -3.5078  -3.4893
    -3.4517  -3.3830  -3.3126  -3.1826  -3.1637  -3.1454  -3.1053  -3.0694
    -3.0088  -2.9965  -2.9910  -2.9648  -2.9342  -2.9075  -2.8887  -2.8787
    -2.8536  -2.8352  -2.8248  -2.7618  -2.7429  -2.7178  -2.7117  -2.6918
    -2.6825  -2.6798  -2.6405  -2.6205  -2.5914  -2.5910  -2.5657  -2.5438
    -2.5337  -2.5295  -2.4797  -2.4504  -2.4418  -2.4328  -2.4115  -2.3335
    -2.2699  -2.2150  -2.1693  -2.1209  -2.0484  -2.0140  -1.9814  -1.9435
    -1.9149  -1.8783  -1.8439  -1.8176  -1.8163  -1.7961  -1.7815  -1.7250
    -1.7018  -1.6866  -1.6840  -1.6473  -1.6318  -1.6009  -1.5893  -1.5724
    -1.5572  -1.5378  -1.5151  -1.4827  -1.4768  -1.4647  -1.4570  -1.4379
    -1.4077  -1.3944  -1.3414  -1.3311  -1.3090  -1.2759  -1.2627  -1.2487
    -1.2169  -1.1741  -1.1550  -1.1403  -1.1244  -1.0979  -1.0675  -1.0361
    -0.9377  -0.8467  -0.8183  -0.6466  -0.5791  -0.4943  -0.4363  -0.4285
    -0.4238  -0.3410  -0.3100   2.0162   2.0252   2.0540   2.0643   2.1392
     2.1717   2.2775   2.2868   2.8245   2.8793   2.9307   2.9517   3.0093
     3.1109   3.1344   3.1612   3.2085   3.2281   3.2372   3.4153   3.4664
     3.5119   3.5417   3.5643   3.6247   3.6396   3.6473   3.6795   3.7106
     3.7409   3.7572   3.7679   3.8133   3.8283   3.8563   3.8754   3.9210
     3.9550   4.0814   4.1314   4.2837   4.3466   4.4406   4.4517   4.4638
     4.4995   4.5963   4.6071   4.6422   4.6497   4.7655   4.8619   4.8802

     the Fermi energy is     0.7050 ev

!    total energy              =   -2271.78007324 Ry
     estimated scf accuracy    <          5.2E-09 Ry
     smearing contrib. (-TS)   =      -0.00000000 Ry
     internal energy E=F+TS    =   -2271.78007324 Ry

     The total energy is F=E-TS. E is the sum of the following terms:
     one-electron contribution =  -18985.40619598 Ry
     hartree contribution      =    9540.22973951 Ry
     xc contribution           =    -678.16394961 Ry
     ewald contribution        =    7890.32039677 Ry
     DFT-D3 Dispersion         =      -1.75574967 Ry
     electric field correction =       0.00003611 Ry
     one-center paw contrib.   =     -37.00435037 Ry

     convergence has been achieved in  80 iterations

     negative rho (up, down):  1.162E-01 0.000E+00

     Forces acting on atoms (cartesian axes, Ry/au):

     atom    1 type  2   force =     0.00022243    0.00013568    0.00193228
     atom    2 type  2   force =     0.00021517    0.00011782    0.00192248
     atom    3 type  2   force =    -0.00039493   -0.00062260   -0.00199577
     atom    4 type  2   force =    -0.00039232   -0.00088581   -0.00190100
     atom    5 type  3   force =     0.00024670    0.00002676    0.00060642
     atom    6 type  3   force =     0.00022871    0.00002998    0.00060353
     atom    7 type  3   force =    -0.00005186   -0.00032341    0.00071613
     atom    8 type  3   force =    -0.00006157   -0.00030232    0.00073161
     atom    9 type  3   force =     0.00023872   -0.00017718    0.00281014
     atom   10 type  3   force =     0.00024024   -0.00015620    0.00283800
     atom   11 type  3   force =    -0.00009986   -0.00022884    0.00002125
     atom   12 type  3   force =    -0.00009340   -0.00013960    0.00007400
     atom   13 type  3   force =     0.00006931    0.00028131    0.00313975
     atom   14 type  3   force =     0.00010953    0.00028814    0.00311643
     atom   15 type  3   force =     0.00005811    0.00067763    0.00030143
     atom   16 type  3   force =     0.00007268    0.00074956    0.00026932
     atom   17 type  1   force =     0.00009492    0.00015521    0.00221424
     atom   18 type  1   force =     0.00011206    0.00017379    0.00221735
     atom   19 type  1   force =    -0.00027966    0.00023689    0.00045062
     atom   20 type  1   force =    -0.00028825    0.00020381    0.00043026
     atom   21 type  1   force =    -0.00034530    0.00009253    0.00109188
     atom   22 type  1   force =    -0.00033711    0.00008790    0.00108265
     atom   23 type  1   force =     0.00005634    0.00021607    0.00018541
     atom   24 type  1   force =     0.00008646    0.00020058    0.00016531
     atom   25 type  1   force =    -0.00012931    0.00000829    0.00196700
     atom   26 type  1   force =    -0.00012980    0.00001266    0.00196753
     atom   27 type  1   force =     0.00009122   -0.00006871    0.00016907
     atom   28 type  1   force =     0.00009927   -0.00005444    0.00015951
     atom   29 type  1   force =    -0.00022704   -0.00010907    0.00245891
     atom   30 type  1   force =    -0.00024856   -0.00018617    0.00246725
     atom   31 type  1   force =     0.00019061   -0.00004859    0.00182426
     atom   32 type  1   force =     0.00019246   -0.00004906    0.00182414
     atom   33 type  1   force =    -0.00038412    0.00024374    0.00014784
     atom   34 type  1   force =    -0.00036893    0.00022265    0.00014136
     atom   35 type  1   force =     0.00024859   -0.00018680    0.00041225
     atom   36 type  1   force =     0.00025232   -0.00021082    0.00041320
     atom   37 type  4   force =    -0.00033755   -0.00006319   -0.00126601
     atom   38 type  4   force =    -0.00018786   -0.00002960    0.00175052
     atom   39 type  4   force =    -0.00018963   -0.00004050    0.00174496
     atom   40 type  3   force =    -0.00009058   -0.00003111    0.00376754
     atom   41 type  3   force =    -0.00012297   -0.00012042    0.00376604
     atom   42 type  3   force =     0.00028272   -0.00003164    0.00028730
     atom   43 type  3   force =     0.00027544   -0.00002325    0.00028798
     atom   44 type  2   force =     0.00040725   -0.00059220   -0.00100840
     atom   45 type  2   force =     0.00047562   -0.00055916   -0.00102199
     atom   46 type  2   force =    -0.00017030   -0.00083913   -0.00206679
     atom   47 type  2   force =     0.00009683   -0.00064688   -0.00208942
     atom   48 type  3   force =     0.00253151    0.00365558    0.00381460
     atom   49 type  3   force =     0.00250044    0.00369952    0.00389328
     atom   50 type  3   force =    -0.00022848   -0.00013095    0.00000588
     atom   51 type  3   force =    -0.00017120    0.00011365   -0.00005125
     atom   52 type  3   force =    -0.00303604   -0.00268070    0.00287055
     atom   53 type  3   force =    -0.00313535   -0.00267180    0.00278539
     atom   54 type  3   force =     0.00054024    0.00126942   -0.00246887
     atom   55 type  3   force =     0.00085044    0.00121909   -0.00241323
     atom   56 type  3   force =    -0.00300135    0.00330007   -0.00267409
     atom   57 type  3   force =    -0.00309191    0.00332931   -0.00259910
     atom   58 type  3   force =    -0.00307503    0.00305226   -0.00219168
     atom   59 type  3   force =    -0.00298049    0.00277776   -0.00246314
     atom   60 type  3   force =     0.00274042   -0.00372209   -0.00306497
     atom   61 type  3   force =     0.00275164   -0.00373291   -0.00309773
     atom   62 type  3   force =     0.00232733   -0.00284461   -0.00225935
     atom   63 type  3   force =     0.00231836   -0.00288284   -0.00203692
     atom   64 type  1   force =     0.00009817   -0.00016795   -0.00352038
     atom   65 type  1   force =    -0.00013748   -0.00037861   -0.00347453
     atom   66 type  1   force =     0.00047984   -0.00036030   -0.00078931
     atom   67 type  1   force =     0.00033608   -0.00044984   -0.00095868
     atom   68 type  1   force =     0.00053733    0.00049122   -0.00244208
     atom   69 type  1   force =     0.00060807    0.00058839   -0.00259762
     atom   70 type  1   force =     0.00014197    0.00049253   -0.00170733
     atom   71 type  1   force =     0.00006607    0.00043824   -0.00169631
     atom   72 type  1   force =    -0.00010677   -0.00013991   -0.00125793
     atom   73 type  1   force =    -0.00019662   -0.00015300   -0.00122706
     atom   74 type  1   force =    -0.00013968    0.00044378   -0.00029510
     atom   75 type  1   force =    -0.00013325    0.00044756   -0.00031336
     atom   76 type  1   force =    -0.00019467   -0.00023370   -0.00177907
     atom   77 type  1   force =     0.00004930   -0.00028745   -0.00166918
     atom   78 type  1   force =     0.00019495   -0.00011169   -0.00068132
     atom   79 type  1   force =     0.00021239   -0.00012600   -0.00063427
     atom   80 type  1   force =    -0.00053574    0.00001485   -0.00081436
     atom   81 type  1   force =    -0.00052716    0.00004373   -0.00085072
     atom   82 type  1   force =    -0.00020428    0.00040263   -0.00165644
     atom   83 type  1   force =    -0.00011614    0.00034790   -0.00172728
     atom   84 type  1   force =    -0.00005677    0.00018277   -0.00109312
     atom   85 type  1   force =    -0.00014002    0.00021837   -0.00087677
     atom   86 type  1   force =     0.00030375   -0.00203061   -0.00211203
     atom   87 type  1   force =     0.00021907   -0.00203829   -0.00229361
     atom   88 type  4   force =    -0.00010527   -0.00029436    0.00080405
     atom   89 type  4   force =    -0.00041328   -0.00008884   -0.00135463
     atom   90 type  4   force =    -0.00037606   -0.00004580    0.00029751
     atom   91 type  4   force =    -0.00037405   -0.00004024    0.00036595
     atom   92 type  3   force =     0.00047665    0.00000616    0.00037666
     atom   93 type  3   force =     0.00044452    0.00001143    0.00040044
     atom   94 type  3   force =    -0.00022861   -0.00007671    0.00098501
     atom   95 type  3   force =    -0.00017296   -0.00006681    0.00087007
     atom   96 type  3   force =     0.00132364    0.00301335    0.00237235
     atom   97 type  3   force =     0.00199205    0.00205960    0.00247320
     atom   98 type  3   force =    -0.00263392   -0.00210527    0.00181744
     atom   99 type  3   force =    -0.00178829   -0.00258068    0.00175813
     atom  100 type  1   force =     0.00082245   -0.00010906    0.00134939
     atom  101 type  1   force =     0.00038685    0.00066888   -0.00103638
     atom  102 type  1   force =     0.00028047   -0.00003036   -0.00172168
     atom  103 type  1   force =     0.00008067    0.00006384   -0.00073226
     atom  104 type  1   force =     0.00065692   -0.00004117   -0.00101663
     atom  105 type  1   force =    -0.00023769    0.00102123    0.00118747
     atom  106 type  1   force =    -0.00021165    0.00027015   -0.00202445
     atom  107 type  1   force =    -0.00007772    0.00016738   -0.00087541
     atom  108 type  4   force =     0.00008550   -0.00000639    0.00077411
     atom  109 type  3   force =     0.00014522   -0.00022172    0.00012104
     atom  110 type  3   force =     0.00024728   -0.00015235   -0.00011211
     atom  111 type  5   force =    -0.00018487   -0.00777041    0.00037351
     atom  112 type  5   force =    -0.00665062   -0.00390971   -0.00028535
     atom  113 type  5   force =    -0.00703404    0.00446912   -0.00017342
     atom  114 type  5   force =     0.00041469    0.00740545    0.00032697
     atom  115 type  5   force =     0.00634087    0.00343329   -0.00043848
     atom  116 type  5   force =     0.00778774   -0.00419568   -0.00024328
     atom  117 type  6   force =     0.00031142   -0.00260902   -0.00060880
     atom  118 type  6   force =    -0.00362973   -0.00235195    0.00057436
     atom  119 type  6   force =    -0.00273514    0.00153727    0.00002689
     atom  120 type  6   force =     0.00008415    0.00314289   -0.00029732
     atom  121 type  6   force =     0.00367046    0.00199007    0.00054386
     atom  122 type  6   force =     0.00297057   -0.00138328    0.00041248

     Total force =     0.033145     Total SCF correction =     0.000148

     Writing all to output data dir ./tmp/V4_s_outer_A_G4_k1_bound.save/ :
     XML data file, charge density, pseudopotentials, collected wavefunctions
 
     init_run     :    111.81s CPU    117.91s WALL (       1 calls)
     electrons    :  14387.01s CPU  14771.34s WALL (       1 calls)
     forces       :     60.27s CPU     62.03s WALL (       1 calls)
     force_dftd3  :      0.07s CPU      0.07s WALL (       1 calls)

     Called by init_run:
     wfcinit      :     93.69s CPU     97.42s WALL (       1 calls)
     potinit      :      8.25s CPU      8.66s WALL (       1 calls)
     hinit0       :      5.82s CPU      6.11s WALL (       1 calls)

     Called by electrons:
     c_bands      :  12558.43s CPU  12816.08s WALL (      80 calls)
     sum_band     :   1520.39s CPU   1619.20s WALL (      80 calls)
     v_of_rho     :     49.23s CPU     57.46s WALL (      81 calls)
     newd         :    156.76s CPU    156.82s WALL (      81 calls)
                                      156.82s GPU  (      81 calls)
     PAW_pot      :      4.17s CPU      4.17s WALL (      81 calls)
     mix_rho      :     70.54s CPU     84.17s WALL (      80 calls)
     energy_dftd3 :      0.03s CPU      0.03s WALL (       1 calls)

     Called by c_bands:
     init_us_2    :     43.47s CPU     43.53s WALL (    1620 calls)
     cegterg      :  12284.97s CPU  12288.02s WALL (     810 calls)

     Called by *egterg:
     cdiaghg      :    187.57s CPU    188.37s WALL (    5778 calls)
                                      188.34s GPU  (    5778 calls)
     h_psi        :   5983.55s CPU   5985.51s WALL (    5788 calls)
                                     5983.54s GPU  (    5788 calls)
     s_psi        :     26.29s CPU     26.32s WALL (    5788 calls)
     g_psi        :      0.03s CPU     11.01s WALL (    4968 calls)
                                       10.99s GPU  (    4968 calls)

     Called by h_psi:
     h_psi:calbec :      0.27s CPU   2366.16s WALL (    5788 calls)
                                     2366.12s GPU  (    5788 calls)
     vloc_psi     :   1326.45s CPU   1326.89s WALL (    5788 calls)
                                     1326.86s GPU  (    5788 calls)
     add_vuspsi   :     18.76s CPU   2285.07s WALL (    5788 calls)
                                     2285.03s GPU  (    5788 calls)

     General routines
     calbec       :      0.30s CPU      0.32s WALL (    6628 calls)
     fft          :     19.43s CPU     23.14s WALL (    1062 calls)
                                        3.67s GPU  (     981 calls)
     ffts         :      4.19s CPU     14.51s WALL (    9554 calls)
                                       10.38s GPU  (    9473 calls)
     fftw         :      1.11s CPU   1418.14s WALL (   94478 calls)
                                     1417.78s GPU  (   94478 calls)
     interpolate  :     26.39s CPU     32.31s WALL (      81 calls)
     davcio       :      0.72s CPU    360.89s WALL (    3936 calls)
 
     Parallel routines
 
     PWSCF        :      4h 2m CPU      4h 9m WALL

 
   This run was terminated on:   6:59: 3  28Sep2026            

=------------------------------------------------------------------------------=
   JOB DONE.
=------------------------------------------------------------------------------=
