
     Program PWSCF v.7.4.1 starts on 26Sep2026 at 21: 9:14 

     This program is part of the open-source Quantum ESPRESSO suite
     for quantum simulation of materials; please cite
         "P. Giannozzi et al., J. Phys.:Condens. Matter 21 395502 (2009);
         "P. Giannozzi et al., J. Phys.:Condens. Matter 29 465901 (2017);
         "P. Giannozzi et al., J. Chem. Phys. 152 154105 (2020);
          URL http://www.quantum-espresso.org", 
     in publications or presentations arising from this work. More details at
     http://www.quantum-espresso.org/quote

     Parallel version (MPI & OpenMP), running on      16 processor cores
     Number of MPI processes:                 1
     Threads/MPI process:                    16

     MPI processes distributed on     1 nodes
     83474 MiB available memory on the printing compute node when the environment starts
 
     Reading input from pw.in

     Current dimensions of program PWSCF are:
     Max number of different atomic species (ntypx) = 10
     Max number of k-points (npk) =  40000
     Max angular momentum in pseudopotentials (lmaxx) =  4
     Presently no symmetry can be used with electric field

     file C.pbe-n-kjpaw_psl.1.0.0.UPF: wavefunction(s)  2S 2P renormalized
 
     Subspace diagonalization in iterative solution of the eigenvalue problem:
     a serial algorithm will be used

 
     G-vector sticks info
     --------------------
     sticks:   dense  smooth     PW     G-vecs:    dense   smooth      PW
     Sum        3193    1273    367               699497   177041   27695
 
     Using Slab Decomposition
 


     bravais-lattice index     =            0
     lattice parameter (alat)  =       9.4208  a.u.
     unit-cell volume          =    3493.1685 (a.u.)^3
     number of atoms/cell      =           20
     number of atomic types    =            2
     number of electrons       =       260.00
     number of Kohn-Sham states=          156
     kinetic-energy cutoff     =      52.0000  Ry
     charge density cutoff     =     520.0000  Ry
     scf convergence threshold =      1.0E-08
     mixing beta               =       0.3000
     number of iterations used =            8  local-TF  mixing
     Exchange-correlation= SLA  PW   PBX  PBC
                           (   1   4   3   4   0   0   0)

     GPU acceleration is ACTIVE.  1 visible GPUs per MPI rank


     celldm(1)=   9.420781  celldm(2)=   0.000000  celldm(3)=   0.000000
     celldm(4)=   0.000000  celldm(5)=   0.000000  celldm(6)=   0.000000

     crystal axes: (cart. coord. in units of alat)
               a(1) = (   1.000000  -0.000000   0.000000 )  
               a(2) = (   0.500000   0.866025   0.000000 )  
               a(3) = (   0.000000   0.000000   4.824231 )  

     reciprocal axes: (cart. coord. in units 2 pi/alat)
               b(1) = (  1.000000 -0.577350  0.000000 )  
               b(2) = (  0.000000  1.154701 -0.000000 )  
               b(3) = ( -0.000000  0.000000  0.207287 )  


     PseudoPot. # 1 for Ag read from file:
     /home/ubuntu/wad4l/pseudo_kgy/Ag_ONCV_PBE-1.0.oncvpsp.upf
     MD5 check sum: 94f47bd0669c641108e45594df92fabc
     Pseudo is Norm-conserving, Zval = 19.0
     Generated using ONCVPSP code by D. R. Hamann
     Using radial grid of 1398 points,  6 beta functions with: 
                l(1) =   0
                l(2) =   0
                l(3) =   1
                l(4) =   1
                l(5) =   2
                l(6) =   2

     PseudoPot. # 2 for C  read from file:
     /home/ubuntu/wad4l/pseudo_kgy/C.pbe-n-kjpaw_psl.1.0.0.UPF
     MD5 check sum: 5d2aebdfa2cae82b50a7e79e9516da0f
     Pseudo is Projector augmented-wave + core cor, Zval =  4.0
     Generated using "atomic" code by A. Dal Corso  v.5.1
     Shape of augmentation charge: PSQ
     Using radial grid of 1073 points,  4 beta functions with: 
                l(1) =   0
                l(2) =   0
                l(3) =   1
                l(4) =   1
     Q(r) pseudized with 0 coefficients 


     atomic species   valence    mass     pseudopotential
     Ag               19.00   107.86820     Ag( 1.00)
     C                 4.00    12.01100     C ( 1.00)

     No symmetry found



   Cartesian axes

     site n.     atom                  positions (alat units)
         1        Ag     tau(   1) = (   0.3337695   0.5765948   0.5717001  )
         2        Ag     tau(   2) = (   0.8337695   0.8652699   0.5717001  )
         3        Ag     tau(   3) = (   0.1685356   0.2893158   1.0413784  )
         4        Ag     tau(   4) = (   0.5004501   0.2909658   0.1002956  )
         5        Ag     tau(   5) = (   0.8337695   0.2879196   0.5717001  )
         6        Ag     tau(   6) = (   0.6683049   0.5779837   1.0409227  )
         7        Ag     tau(   7) = (   0.5010920   0.2905461   1.5136328  )
         8        Ag     tau(   8) = (   1.0004501   0.5796409   0.1002956  )
         9        Ag     tau(   9) = (   1.0004220   0.5796223   1.5118887  )
        10        Ag     tau(  10) = (   0.6685713   0.0008154   1.0411862  )
        11        Ag     tau(  11) = (   1.0004501   0.0022906   0.1002956  )
        12        Ag     tau(  12) = (   1.0013794   0.0016713   1.5133380  )
        13        C      tau(  13) = (   0.8337834   0.6758659   2.1770842  )
        14        C      tau(  14) = (   1.0837834   0.8202035   2.1772745  )
        15        C      tau(  15) = (   1.0837834   1.1088786   2.1764767  )
        16        C      tau(  16) = (   1.3337834   1.2532162   2.1773095  )
        17        C      tau(  17) = (   1.3337834   0.6758659   2.1772362  )
        18        C      tau(  18) = (   1.5837834   0.8202035   2.1765335  )
        19        C      tau(  19) = (   1.5837834   1.1088786   2.1773200  )
        20        C      tau(  20) = (   1.8337834   1.2532162   2.1769990  )

     --------------------------------------------
     DFT-D3 Dispersion Correction (no 3-body):
     --------------------------------------------
       Reference C6 values for interpolation: 

         atom   Coordination number   C6
         C          0.000            98.23
         C          0.987            86.49
         C          1.998            58.72
         C          2.999            51.56
         C          3.984            36.41
         Ag         0.000           853.49
         Ag         0.968           537.23

       Values used:

         atom   Coordination number  R0_AB[au]  C6      C8
         Ag         9.087            3.147    537.23  47741.54
         Ag         9.086            3.147    537.23  47741.54
         Ag         9.081            3.147    537.23  47741.54
         Ag         6.766            3.147    537.23  47741.54
         Ag         9.086            3.147    537.23  47741.54
         Ag         9.086            3.147    537.23  47741.54
         Ag         6.821            3.147    537.23  47741.54
         Ag         6.766            3.147    537.23  47741.54
         Ag         6.839            3.147    537.23  47741.54
         Ag         9.082            3.147    537.23  47741.54
         Ag         6.766            3.147    537.23  47741.54
         Ag         6.824            3.147    537.23  47741.54
         C          3.294            2.750     48.68   1408.02
         C          3.292            2.750     48.72   1408.97
         C          3.298            2.750     48.60   1405.59
         C          3.292            2.750     48.72   1408.98
         C          3.292            2.750     48.72   1408.93
         C          3.298            2.750     48.60   1405.64
         C          3.292            2.750     48.72   1408.94
         C          3.294            2.750     48.68   1407.89

         Molecular C6 ( Ry / a.u.^6 ) =    111465.54


     number of k points=    20  Marzari-Vanderbilt smearing, width (Ry)=  0.0100
                       cart. coord. in units 2pi/alat
        k(    1) = (   0.0000000   0.0000000   0.0000000), wk =   0.0555556
        k(    2) = (   0.0000000   0.1924501   0.0000000), wk =   0.1111111
        k(    3) = (   0.0000000   0.3849002   0.0000000), wk =   0.1111111
        k(    4) = (   0.0000000  -0.5773503   0.0000000), wk =   0.0555556
        k(    5) = (   0.1666667  -0.0962250   0.0000000), wk =   0.1111111
        k(    6) = (   0.1666667   0.0962250   0.0000000), wk =   0.1111111
        k(    7) = (   0.1666667   0.2886751   0.0000000), wk =   0.1111111
        k(    8) = (   0.1666667  -0.6735753   0.0000000), wk =   0.1111111
        k(    9) = (   0.1666667  -0.4811252   0.0000000), wk =   0.1111111
        k(   10) = (   0.1666667  -0.2886751   0.0000000), wk =   0.1111111
        k(   11) = (   0.3333333  -0.1924501   0.0000000), wk =   0.1111111
        k(   12) = (   0.3333333  -0.0000000   0.0000000), wk =   0.1111111
        k(   13) = (   0.3333333   0.1924501   0.0000000), wk =   0.1111111
        k(   14) = (   0.3333333  -0.7698004   0.0000000), wk =   0.1111111
        k(   15) = (   0.3333333  -0.5773503   0.0000000), wk =   0.1111111
        k(   16) = (   0.3333333  -0.3849002   0.0000000), wk =   0.1111111
        k(   17) = (  -0.5000000   0.2886751   0.0000000), wk =   0.0555556
        k(   18) = (  -0.5000000   0.4811252   0.0000000), wk =   0.1111111
        k(   19) = (  -0.5000000   0.6735753   0.0000000), wk =   0.1111111
        k(   20) = (  -0.5000000  -0.2886751   0.0000000), wk =   0.0555556

     Dense  grid:   699497 G-vectors     FFT dimensions: (  72,  72, 360)

     Smooth grid:   177041 G-vectors     FFT dimensions: (  45,  45, 216)

     Estimated max dynamical RAM per process >       1.34 GB

     Check: negative core charge=   -0.000001

     Initial potential from superposition of free atoms

     starting charge     259.9962, renormalised to     260.0000

     negative rho (up, down):  1.045E-04 0.000E+00
 
     Adding external electric field

     Computed dipole along edir(3) : 
        Dipole               -0.0110 Ry au,         -0.0280 Debye
        Dipole field         -0.0000 Ry au, 
 
        Potential amp.        0.0035 Ry
        Total length         43.5583 bohr
 
     Starting wfcs are  152 randomized atomic wfcs +    4 random wfcs
     Checking if some PAW data can be deallocated... 

     total cpu time spent up to now is        4.0 secs

     Self-consistent Calculation

     iteration #  1     ecut=    52.00 Ry     beta= 0.30
     Davidson diagonalization with overlap
     ethr =  1.00E-02,  avg # of iterations =  5.1

     Threshold (ethr) on eigenvalues was too large:
     Diagonalizing with lowered threshold

     Davidson diagonalization with overlap
     ethr =  5.65E-04,  avg # of iterations =  2.2

     negative rho (up, down):  4.211E-08 0.000E+00
 
     Adding external electric field

     Computed dipole along edir(3) : 
        Dipole               -0.1093 Ry au,         -0.2779 Debye
        Dipole field         -0.0004 Ry au, 
 
        Potential amp.        0.0343 Ry
        Total length         43.5583 bohr
 

     total cpu time spent up to now is       13.8 secs

     total energy              =   -3596.11293873 Ry
     estimated scf accuracy    <       1.48242966 Ry

     iteration #  2     ecut=    52.00 Ry     beta= 0.30
     Davidson diagonalization with overlap
     ethr =  5.70E-04,  avg # of iterations =  1.7
 
     Adding external electric field

     Computed dipole along edir(3) : 
        Dipole               -0.3366 Ry au,         -0.8554 Debye
        Dipole field         -0.0012 Ry au, 
 
        Potential amp.        0.1055 Ry
        Total length         43.5583 bohr
 

     total cpu time spent up to now is       18.8 secs

     total energy              =   -3595.89208298 Ry
     estimated scf accuracy    <       0.83314128 Ry

     iteration #  3     ecut=    52.00 Ry     beta= 0.30
     Davidson diagonalization with overlap
     ethr =  3.20E-04,  avg # of iterations =  6.2
 
     Adding external electric field

     Computed dipole along edir(3) : 
        Dipole               -0.6354 Ry au,         -1.6150 Debye
        Dipole field         -0.0023 Ry au, 
 
        Potential amp.        0.1991 Ry
        Total length         43.5583 bohr
 

     total cpu time spent up to now is       24.4 secs

     total energy              =   -3595.84398052 Ry
     estimated scf accuracy    <       0.30577491 Ry

     iteration #  4     ecut=    52.00 Ry     beta= 0.30
     Davidson diagonalization with overlap
     ethr =  1.18E-04,  avg # of iterations =  7.9
 
     Adding external electric field

     Computed dipole along edir(3) : 
        Dipole               -0.6000 Ry au,         -1.5250 Debye
        Dipole field         -0.0022 Ry au, 
 
        Potential amp.        0.1880 Ry
        Total length         43.5583 bohr
 

     total cpu time spent up to now is       30.5 secs

     total energy              =   -3595.86901104 Ry
     estimated scf accuracy    <       0.55613468 Ry

     iteration #  5     ecut=    52.00 Ry     beta= 0.30
     Davidson diagonalization with overlap
     ethr =  1.18E-04,  avg # of iterations =  1.0

     negative rho (up, down):  3.715E-08 0.000E+00
 
     Adding external electric field

     Computed dipole along edir(3) : 
        Dipole               -0.9755 Ry au,         -2.4794 Debye
        Dipole field         -0.0035 Ry au, 
 
        Potential amp.        0.3057 Ry
        Total length         43.5583 bohr
 

     total cpu time spent up to now is       35.4 secs

     total energy              =   -3595.86137812 Ry
     estimated scf accuracy    <       0.54986792 Ry

     iteration #  6     ecut=    52.00 Ry     beta= 0.30
     Davidson diagonalization with overlap
     ethr =  1.18E-04,  avg # of iterations =  2.3

     negative rho (up, down):  7.964E-08 0.000E+00
 
     Adding external electric field

     Computed dipole along edir(3) : 
        Dipole               -1.0951 Ry au,         -2.7834 Debye
        Dipole field         -0.0039 Ry au, 
 
        Potential amp.        0.3432 Ry
        Total length         43.5583 bohr
 

     total cpu time spent up to now is       40.5 secs

     total energy              =   -3595.85385167 Ry
     estimated scf accuracy    <       0.45400559 Ry

     iteration #  7     ecut=    52.00 Ry     beta= 0.30
     Davidson diagonalization with overlap
     ethr =  1.18E-04,  avg # of iterations =  4.8
 
     Adding external electric field

     Computed dipole along edir(3) : 
        Dipole               -0.8990 Ry au,         -2.2851 Debye
        Dipole field         -0.0032 Ry au, 
 
        Potential amp.        0.2818 Ry
        Total length         43.5583 bohr
 

     total cpu time spent up to now is       45.8 secs

     total energy              =   -3595.85202631 Ry
     estimated scf accuracy    <       0.14980150 Ry

     iteration #  8     ecut=    52.00 Ry     beta= 0.30
     Davidson diagonalization with overlap
     ethr =  5.76E-05,  avg # of iterations =  2.1
 
     Adding external electric field

     Computed dipole along edir(3) : 
        Dipole               -0.6895 Ry au,         -1.7524 Debye
        Dipole field         -0.0025 Ry au, 
 
        Potential amp.        0.2161 Ry
        Total length         43.5583 bohr
 

     total cpu time spent up to now is       50.9 secs

     total energy              =   -3595.84412300 Ry
     estimated scf accuracy    <       0.13047082 Ry

     iteration #  9     ecut=    52.00 Ry     beta= 0.30
     Davidson diagonalization with overlap
     ethr =  5.02E-05,  avg # of iterations =  3.8

     negative rho (up, down):  1.160E-07 0.000E+00
 
     Adding external electric field

     Computed dipole along edir(3) : 
        Dipole               -0.3440 Ry au,         -0.8743 Debye
        Dipole field         -0.0012 Ry au, 
 
        Potential amp.        0.1078 Ry
        Total length         43.5583 bohr
 

     total cpu time spent up to now is       56.2 secs

     total energy              =   -3595.82976024 Ry
     estimated scf accuracy    <       0.09318636 Ry

     iteration # 10     ecut=    52.00 Ry     beta= 0.30
     Davidson diagonalization with overlap
     ethr =  3.58E-05,  avg # of iterations =  7.7

     negative rho (up, down):  2.725E-04 0.000E+00
 
     Adding external electric field

     Computed dipole along edir(3) : 
        Dipole               -0.0641 Ry au,         -0.1630 Debye
        Dipole field         -0.0002 Ry au, 
 
        Potential amp.        0.0201 Ry
        Total length         43.5583 bohr
 

     total cpu time spent up to now is       62.1 secs

     total energy              =   -3595.84008064 Ry
     estimated scf accuracy    <       0.02063585 Ry

     iteration # 11     ecut=    52.00 Ry     beta= 0.30
     Davidson diagonalization with overlap
     c_bands:  1 eigenvalues not converged
     ethr =  7.94E-06,  avg # of iterations = 11.9

     negative rho (up, down):  2.765E-03 0.000E+00
 
     Adding external electric field

     Computed dipole along edir(3) : 
        Dipole                0.0693 Ry au,          0.1762 Debye
        Dipole field          0.0002 Ry au, 
 
        Potential amp.       -0.0217 Ry
        Total length         43.5583 bohr
 

     total cpu time spent up to now is       68.9 secs

     total energy              =   -3595.84068642 Ry
     estimated scf accuracy    <       0.03349540 Ry

     iteration # 12     ecut=    52.00 Ry     beta= 0.30
     Davidson diagonalization with overlap
     ethr =  7.94E-06,  avg # of iterations =  8.7

     negative rho (up, down):  1.120E-03 0.000E+00
 
     Adding external electric field

     Computed dipole along edir(3) : 
        Dipole                0.1004 Ry au,          0.2551 Debye
        Dipole field          0.0004 Ry au, 
 
        Potential amp.       -0.0315 Ry
        Total length         43.5583 bohr
 

     total cpu time spent up to now is       75.0 secs

     total energy              =   -3595.83978549 Ry
     estimated scf accuracy    <       0.04110004 Ry

     iteration # 13     ecut=    52.00 Ry     beta= 0.30
     Davidson diagonalization with overlap
     ethr =  7.94E-06,  avg # of iterations =  2.9

     negative rho (up, down):  2.477E-03 0.000E+00
 
     Adding external electric field

     Computed dipole along edir(3) : 
        Dipole                0.2081 Ry au,          0.5290 Debye
        Dipole field          0.0007 Ry au, 
 
        Potential amp.       -0.0652 Ry
        Total length         43.5583 bohr
 

     total cpu time spent up to now is       80.3 secs

     total energy              =   -3595.83976812 Ry
     estimated scf accuracy    <       0.03880975 Ry

     iteration # 14     ecut=    52.00 Ry     beta= 0.30
     Davidson diagonalization with overlap
     ethr =  7.94E-06,  avg # of iterations =  6.2

     negative rho (up, down):  4.216E-07 0.000E+00
 
     Adding external electric field

     Computed dipole along edir(3) : 
        Dipole                0.0334 Ry au,          0.0849 Debye
        Dipole field          0.0001 Ry au, 
 
        Potential amp.       -0.0105 Ry
        Total length         43.5583 bohr
 

     total cpu time spent up to now is       85.8 secs

     total energy              =   -3595.83637908 Ry
     estimated scf accuracy    <       0.03495977 Ry

     iteration # 15     ecut=    52.00 Ry     beta= 0.30
     Davidson diagonalization with overlap
     ethr =  7.94E-06,  avg # of iterations =  8.4

     negative rho (up, down):  2.995E-03 0.000E+00
 
     Adding external electric field

     Computed dipole along edir(3) : 
        Dipole                0.2325 Ry au,          0.5909 Debye
        Dipole field          0.0008 Ry au, 
 
        Potential amp.       -0.0729 Ry
        Total length         43.5583 bohr
 

     total cpu time spent up to now is       91.8 secs

     total energy              =   -3595.84042310 Ry
     estimated scf accuracy    <       0.01304374 Ry

     iteration # 16     ecut=    52.00 Ry     beta= 0.30
     Davidson diagonalization with overlap
     c_bands:  1 eigenvalues not converged
     c_bands:  1 eigenvalues not converged
     ethr =  5.02E-06,  avg # of iterations = 10.7

     negative rho (up, down):  2.226E-03 0.000E+00
 
     Adding external electric field

     Computed dipole along edir(3) : 
        Dipole                0.2089 Ry au,          0.5310 Debye
        Dipole field          0.0008 Ry au, 
 
        Potential amp.       -0.0655 Ry
        Total length         43.5583 bohr
 

     total cpu time spent up to now is       98.2 secs

     total energy              =   -3595.83944254 Ry
     estimated scf accuracy    <       0.04442334 Ry

     iteration # 17     ecut=    52.00 Ry     beta= 0.30
     Davidson diagonalization with overlap
     ethr =  5.02E-06,  avg # of iterations =  5.8

     negative rho (up, down):  9.164E-04 0.000E+00
 
     Adding external electric field

     Computed dipole along edir(3) : 
        Dipole                0.1749 Ry au,          0.4445 Debye
        Dipole field          0.0006 Ry au, 
 
        Potential amp.       -0.0548 Ry
        Total length         43.5583 bohr
 

     total cpu time spent up to now is      103.9 secs

     total energy              =   -3595.83763240 Ry
     estimated scf accuracy    <       0.02808527 Ry

     iteration # 18     ecut=    52.00 Ry     beta= 0.30
     Davidson diagonalization with overlap
     ethr =  5.02E-06,  avg # of iterations =  6.5

     negative rho (up, down):  1.136E-03 0.000E+00
 
     Adding external electric field

     Computed dipole along edir(3) : 
        Dipole                0.0566 Ry au,          0.1438 Debye
        Dipole field          0.0002 Ry au, 
 
        Potential amp.       -0.0177 Ry
        Total length         43.5583 bohr
 

     total cpu time spent up to now is      109.5 secs

     total energy              =   -3595.83473761 Ry
     estimated scf accuracy    <       0.01877806 Ry

     iteration # 19     ecut=    52.00 Ry     beta= 0.30
     Davidson diagonalization with overlap
     ethr =  5.02E-06,  avg # of iterations =  9.2

     negative rho (up, down):  1.948E-03 0.000E+00
 
     Adding external electric field

     Computed dipole along edir(3) : 
        Dipole                0.1096 Ry au,          0.2785 Debye
        Dipole field          0.0004 Ry au, 
 
        Potential amp.       -0.0343 Ry
        Total length         43.5583 bohr
 

     total cpu time spent up to now is      115.8 secs

     total energy              =   -3595.83563356 Ry
     estimated scf accuracy    <       0.00594181 Ry

     iteration # 20     ecut=    52.00 Ry     beta= 0.30
     Davidson diagonalization with overlap
     ethr =  2.29E-06,  avg # of iterations =  6.0

     negative rho (up, down):  1.652E-03 0.000E+00
 
     Adding external electric field

     Computed dipole along edir(3) : 
        Dipole                0.1150 Ry au,          0.2922 Debye
        Dipole field          0.0004 Ry au, 
 
        Potential amp.       -0.0360 Ry
        Total length         43.5583 bohr
 

     total cpu time spent up to now is      121.3 secs

     total energy              =   -3595.83577409 Ry
     estimated scf accuracy    <       0.00468875 Ry

     iteration # 21     ecut=    52.00 Ry     beta= 0.30
     Davidson diagonalization with overlap
     ethr =  1.80E-06,  avg # of iterations =  1.0

     negative rho (up, down):  2.090E-03 0.000E+00
 
     Adding external electric field

     Computed dipole along edir(3) : 
        Dipole                0.0542 Ry au,          0.1378 Debye
        Dipole field          0.0002 Ry au, 
 
        Potential amp.       -0.0170 Ry
        Total length         43.5583 bohr
 

     total cpu time spent up to now is      126.1 secs

     total energy              =   -3595.83497760 Ry
     estimated scf accuracy    <       0.00543489 Ry

     iteration # 22     ecut=    52.00 Ry     beta= 0.30
     Davidson diagonalization with overlap
     c_bands:  1 eigenvalues not converged
     c_bands:  1 eigenvalues not converged
     ethr =  1.80E-06,  avg # of iterations =  8.0

     negative rho (up, down):  2.963E-03 0.000E+00
 
     Adding external electric field

     Computed dipole along edir(3) : 
        Dipole                0.0707 Ry au,          0.1797 Debye
        Dipole field          0.0003 Ry au, 
 
        Potential amp.       -0.0222 Ry
        Total length         43.5583 bohr
 

     total cpu time spent up to now is      132.0 secs

     total energy              =   -3595.83518054 Ry
     estimated scf accuracy    <       0.00221031 Ry

     iteration # 23     ecut=    52.00 Ry     beta= 0.30
     Davidson diagonalization with overlap
     ethr =  8.50E-07,  avg # of iterations =  3.4

     negative rho (up, down):  3.773E-03 0.000E+00
 
     Adding external electric field

     Computed dipole along edir(3) : 
        Dipole                0.0798 Ry au,          0.2029 Debye
        Dipole field          0.0003 Ry au, 
 
        Potential amp.       -0.0250 Ry
        Total length         43.5583 bohr
 

     total cpu time spent up to now is      137.3 secs

     total energy              =   -3595.83519785 Ry
     estimated scf accuracy    <       0.00209378 Ry

     iteration # 24     ecut=    52.00 Ry     beta= 0.30
     Davidson diagonalization with overlap
     ethr =  8.05E-07,  avg # of iterations =  4.2

     negative rho (up, down):  4.323E-03 0.000E+00
 
     Adding external electric field

     Computed dipole along edir(3) : 
        Dipole                0.0597 Ry au,          0.1518 Debye
        Dipole field          0.0002 Ry au, 
 
        Potential amp.       -0.0187 Ry
        Total length         43.5583 bohr
 

     total cpu time spent up to now is      142.7 secs

     total energy              =   -3595.83495908 Ry
     estimated scf accuracy    <       0.00190672 Ry

     iteration # 25     ecut=    52.00 Ry     beta= 0.30
     Davidson diagonalization with overlap
     c_bands:  1 eigenvalues not converged
     c_bands:  1 eigenvalues not converged
     ethr =  7.33E-07,  avg # of iterations = 10.8

     negative rho (up, down):  3.791E-03 0.000E+00
 
     Adding external electric field

     Computed dipole along edir(3) : 
        Dipole                0.0372 Ry au,          0.0946 Debye
        Dipole field          0.0001 Ry au, 
 
        Potential amp.       -0.0117 Ry
        Total length         43.5583 bohr
 

     total cpu time spent up to now is      148.9 secs

     total energy              =   -3595.83487307 Ry
     estimated scf accuracy    <       0.00155326 Ry

     iteration # 26     ecut=    52.00 Ry     beta= 0.30
     Davidson diagonalization with overlap
     c_bands:  1 eigenvalues not converged
     ethr =  5.97E-07,  avg # of iterations =  4.7

     negative rho (up, down):  3.331E-03 0.000E+00
 
     Adding external electric field

     Computed dipole along edir(3) : 
        Dipole                0.0040 Ry au,          0.0103 Debye
        Dipole field          0.0000 Ry au, 
 
        Potential amp.       -0.0013 Ry
        Total length         43.5583 bohr
 

     total cpu time spent up to now is      154.3 secs

     total energy              =   -3595.83469476 Ry
     estimated scf accuracy    <       0.00112632 Ry

     iteration # 27     ecut=    52.00 Ry     beta= 0.30
     Davidson diagonalization with overlap
     ethr =  4.33E-07,  avg # of iterations =  5.4

     negative rho (up, down):  6.973E-04 0.000E+00
 
     Adding external electric field

     Computed dipole along edir(3) : 
        Dipole                0.0467 Ry au,          0.1187 Debye
        Dipole field          0.0002 Ry au, 
 
        Potential amp.       -0.0146 Ry
        Total length         43.5583 bohr
 

     total cpu time spent up to now is      159.8 secs

     total energy              =   -3595.83474204 Ry
     estimated scf accuracy    <       0.00012280 Ry

     iteration # 28     ecut=    52.00 Ry     beta= 0.30
     Davidson diagonalization with overlap
     ethr =  4.72E-08,  avg # of iterations =  5.6

     negative rho (up, down):  8.932E-04 0.000E+00
 
     Adding external electric field

     Computed dipole along edir(3) : 
        Dipole               -0.0165 Ry au,         -0.0419 Debye
        Dipole field         -0.0001 Ry au, 
 
        Potential amp.        0.0052 Ry
        Total length         43.5583 bohr
 

     total cpu time spent up to now is      165.8 secs

     total energy              =   -3595.83452188 Ry
     estimated scf accuracy    <       0.00237566 Ry

     iteration # 29     ecut=    52.00 Ry     beta= 0.30
     Davidson diagonalization with overlap
     c_bands:  1 eigenvalues not converged
     c_bands:  1 eigenvalues not converged
     c_bands:  1 eigenvalues not converged
     c_bands:  1 eigenvalues not converged
     c_bands:  1 eigenvalues not converged
     c_bands:  1 eigenvalues not converged
     ethr =  4.72E-08,  avg # of iterations = 10.8

     negative rho (up, down):  3.728E-04 0.000E+00
 
     Adding external electric field

     Computed dipole along edir(3) : 
        Dipole                0.0351 Ry au,          0.0893 Debye
        Dipole field          0.0001 Ry au, 
 
        Potential amp.       -0.0110 Ry
        Total length         43.5583 bohr
 

     total cpu time spent up to now is      172.7 secs

     total energy              =   -3595.83430936 Ry
     estimated scf accuracy    <       0.00460483 Ry

     iteration # 30     ecut=    52.00 Ry     beta= 0.30
     Davidson diagonalization with overlap
     ethr =  4.72E-08,  avg # of iterations =  8.5

     negative rho (up, down):  3.969E-04 0.000E+00
 
     Adding external electric field

     Computed dipole along edir(3) : 
        Dipole                0.0236 Ry au,          0.0600 Debye
        Dipole field          0.0001 Ry au, 
 
        Potential amp.       -0.0074 Ry
        Total length         43.5583 bohr
 

     total cpu time spent up to now is      179.0 secs

     total energy              =   -3595.83472737 Ry
     estimated scf accuracy    <       0.00159853 Ry

     iteration # 31     ecut=    52.00 Ry     beta= 0.30
     Davidson diagonalization with overlap
     ethr =  4.72E-08,  avg # of iterations =  2.0

     negative rho (up, down):  2.486E-04 0.000E+00
 
     Adding external electric field

     Computed dipole along edir(3) : 
        Dipole                0.0130 Ry au,          0.0331 Debye
        Dipole field          0.0000 Ry au, 
 
        Potential amp.       -0.0041 Ry
        Total length         43.5583 bohr
 

     total cpu time spent up to now is      184.0 secs

     total energy              =   -3595.83470408 Ry
     estimated scf accuracy    <       0.00035009 Ry

     iteration # 32     ecut=    52.00 Ry     beta= 0.30
     Davidson diagonalization with overlap
     ethr =  4.72E-08,  avg # of iterations =  6.8

     negative rho (up, down):  2.205E-04 0.000E+00
 
     Adding external electric field

     Computed dipole along edir(3) : 
        Dipole                0.0158 Ry au,          0.0401 Debye
        Dipole field          0.0001 Ry au, 
 
        Potential amp.       -0.0049 Ry
        Total length         43.5583 bohr
 

     total cpu time spent up to now is      189.8 secs

     total energy              =   -3595.83473843 Ry
     estimated scf accuracy    <       0.00028246 Ry

     iteration # 33     ecut=    52.00 Ry     beta= 0.30
     Davidson diagonalization with overlap
     ethr =  4.72E-08,  avg # of iterations =  1.0

     negative rho (up, down):  1.454E-04 0.000E+00
 
     Adding external electric field

     Computed dipole along edir(3) : 
        Dipole                0.0186 Ry au,          0.0473 Debye
        Dipole field          0.0001 Ry au, 
 
        Potential amp.       -0.0058 Ry
        Total length         43.5583 bohr
 

     total cpu time spent up to now is      194.6 secs

     total energy              =   -3595.83473120 Ry
     estimated scf accuracy    <       0.00013567 Ry

     iteration # 34     ecut=    52.00 Ry     beta= 0.30
     Davidson diagonalization with overlap
     ethr =  4.72E-08,  avg # of iterations =  1.0

     negative rho (up, down):  1.517E-04 0.000E+00
 
     Adding external electric field

     Computed dipole along edir(3) : 
        Dipole                0.0204 Ry au,          0.0518 Debye
        Dipole field          0.0001 Ry au, 
 
        Potential amp.       -0.0064 Ry
        Total length         43.5583 bohr
 

     total cpu time spent up to now is      199.6 secs

     total energy              =   -3595.83473420 Ry
     estimated scf accuracy    <       0.00000223 Ry

     iteration # 35     ecut=    52.00 Ry     beta= 0.30
     Davidson diagonalization with overlap
     ethr =  8.57E-10,  avg # of iterations =  2.0

     negative rho (up, down):  1.299E-04 0.000E+00
 
     Adding external electric field

     Computed dipole along edir(3) : 
        Dipole                0.0175 Ry au,          0.0445 Debye
        Dipole field          0.0001 Ry au, 
 
        Potential amp.       -0.0055 Ry
        Total length         43.5583 bohr
 

     total cpu time spent up to now is      204.5 secs

     total energy              =   -3595.83473299 Ry
     estimated scf accuracy    <       0.00001145 Ry

     iteration # 36     ecut=    52.00 Ry     beta= 0.30
     Davidson diagonalization with overlap
     ethr =  8.57E-10,  avg # of iterations =  2.0

     negative rho (up, down):  1.276E-04 0.000E+00
 
     Adding external electric field

     Computed dipole along edir(3) : 
        Dipole                0.0196 Ry au,          0.0499 Debye
        Dipole field          0.0001 Ry au, 
 
        Potential amp.       -0.0062 Ry
        Total length         43.5583 bohr
 

     total cpu time spent up to now is      209.7 secs

     total energy              =   -3595.83473288 Ry
     estimated scf accuracy    <       0.00004308 Ry

     iteration # 37     ecut=    52.00 Ry     beta= 0.30
     Davidson diagonalization with overlap
     ethr =  8.57E-10,  avg # of iterations =  2.0

     negative rho (up, down):  1.195E-04 0.000E+00
 
     Adding external electric field

     Computed dipole along edir(3) : 
        Dipole                0.0191 Ry au,          0.0486 Debye
        Dipole field          0.0001 Ry au, 
 
        Potential amp.       -0.0060 Ry
        Total length         43.5583 bohr
 

     total cpu time spent up to now is      214.7 secs

     total energy              =   -3595.83473463 Ry
     estimated scf accuracy    <       0.00000064 Ry

     iteration # 38     ecut=    52.00 Ry     beta= 0.30
     Davidson diagonalization with overlap
     ethr =  2.47E-10,  avg # of iterations =  1.0

     negative rho (up, down):  1.204E-04 0.000E+00
 
     Adding external electric field

     Computed dipole along edir(3) : 
        Dipole                0.0194 Ry au,          0.0493 Debye
        Dipole field          0.0001 Ry au, 
 
        Potential amp.       -0.0061 Ry
        Total length         43.5583 bohr
 

     total cpu time spent up to now is      219.6 secs

     total energy              =   -3595.83473466 Ry
     estimated scf accuracy    <       0.00000015 Ry

     iteration # 39     ecut=    52.00 Ry     beta= 0.30
     Davidson diagonalization with overlap
     ethr =  5.82E-11,  avg # of iterations =  1.5

     negative rho (up, down):  1.198E-04 0.000E+00
 
     Adding external electric field

     Computed dipole along edir(3) : 
        Dipole                0.0193 Ry au,          0.0492 Debye
        Dipole field          0.0001 Ry au, 
 
        Potential amp.       -0.0061 Ry
        Total length         43.5583 bohr
 

     total cpu time spent up to now is      224.6 secs

     total energy              =   -3595.83473467 Ry
     estimated scf accuracy    <       0.00000018 Ry

     iteration # 40     ecut=    52.00 Ry     beta= 0.30
     Davidson diagonalization with overlap
     ethr =  5.82E-11,  avg # of iterations =  1.0

     negative rho (up, down):  1.219E-04 0.000E+00
 
     Adding external electric field

     Computed dipole along edir(3) : 
        Dipole                0.0195 Ry au,          0.0495 Debye
        Dipole field          0.0001 Ry au, 
 
        Potential amp.       -0.0061 Ry
        Total length         43.5583 bohr
 

     total cpu time spent up to now is      229.2 secs

     End of self-consistent calculation

          k = 0.0000 0.0000 0.0000 ( 22161 PWs)   bands (ev):

   -86.0382 -86.0285 -86.0211 -86.0204 -86.0185 -86.0184 -85.8657 -85.8530
   -85.8503 -85.8204 -85.8070 -85.8069 -49.5480 -49.5219 -49.5217 -49.5213
   -49.5208 -49.5193 -49.5193 -49.4943 -49.4942 -49.4697 -49.4691 -49.4670
   -49.4669 -49.4636 -49.4208 -49.4203 -49.4071 -49.4069 -49.3495 -49.3489
   -49.3453 -49.3446 -49.3030 -49.3029 -49.3007 -49.3007 -49.2880 -49.2778
   -49.2747 -49.2585 -49.2583 -49.2407 -49.2289 -49.2288 -49.2129 -49.2126
   -13.2707  -8.1767  -8.1705  -8.1683  -7.0433  -7.0406  -7.0395  -1.6338
    -1.3322  -0.4725  -0.3354  -0.3333  -0.3299  -0.2161  -0.0550   0.4201
     0.4211   0.4355   0.4366   0.4378   0.4393   0.7772   0.7793   0.7853
     0.7868   0.9741   0.9768   0.9917   0.9918   1.2197   1.2787   1.2798
     1.3259   1.3281   1.3806   1.3827   1.3994   1.3999   1.4153   1.5262
     1.5270   1.5937   1.5956   1.6508   1.6555   1.6863   1.6904   1.7315
     1.7315   1.7520   1.7522   2.1688   2.1709   2.2859   2.2928   2.2957
     2.2967   2.3300   2.3301   2.4279   2.4398   2.6748   2.7016   2.7282
     2.7671   2.7703   2.8780   2.8897   2.9460   2.9494   2.9524   2.9550
     2.9627   2.9635   3.0223   3.0248   3.6996   3.7024   3.7088   5.2070
     6.4582   7.5389   7.5742   7.5870   9.4965   9.4999   9.6907   9.6926
     9.6984   9.7010   9.7813  10.1428  10.4759  10.4775  10.4851  10.4902
    10.8818  10.8890  11.3361  11.9947  12.1468  12.1494  12.1529  12.1570
    12.4238  12.4371  13.0639  13.0695

          k = 0.0000 0.1925 0.0000 ( 22089 PWs)   bands (ev):

   -86.0369 -86.0276 -86.0220 -86.0213 -86.0188 -86.0186 -85.8647 -85.8535
   -85.8508 -85.8194 -85.8076 -85.8074 -49.5448 -49.5387 -49.5336 -49.5322
   -49.5278 -49.5025 -49.4967 -49.4868 -49.4813 -49.4716 -49.4658 -49.4654
   -49.4626 -49.4608 -49.4300 -49.4245 -49.4179 -49.4098 -49.3656 -49.3603
   -49.3254 -49.3226 -49.3206 -49.3153 -49.2871 -49.2798 -49.2781 -49.2772
   -49.2752 -49.2695 -49.2614 -49.2397 -49.2294 -49.2292 -49.2240 -49.2157
   -13.1098  -9.3727  -8.5360  -8.5313  -6.4196  -6.4159  -5.6015  -1.4311
    -1.0917  -0.8117  -0.8092  -0.2546  -0.1749  -0.0373   0.1314   0.1390
     0.2665   0.3224   0.3328   0.4069   0.5419   0.6318   0.7094   0.7314
     0.7701   0.8198   0.9186   0.9417   0.9446   1.1119   1.1907   1.2123
     1.2831   1.3294   1.4092   1.4259   1.4301   1.4525   1.4895   1.5008
     1.5142   1.5493   1.5726   1.6476   1.6493   1.7193   1.7310   1.7963
     1.9116   2.0093   2.0488   2.0791   2.0953   2.2002   2.2150   2.2912
     2.3029   2.3160   2.3887   2.3955   2.4042   2.5181   2.5602   2.5778
     2.6222   2.7108   2.7301   2.7597   2.8079   2.9004   2.9689   3.0145
     3.0196   3.0757   3.1025   3.1731   3.4427   3.6017   3.6219   5.5580
     6.9490   6.9720   7.7888   7.8362   7.8471   8.1003   8.4604   8.6355
     9.0250   9.2958   9.4925  10.0011  10.3486  10.7888  10.9823  11.3204
    11.4326  11.5451  11.5767  12.1682  12.3628  12.4459  12.4546  12.5840
    13.1532  13.3885  13.5718  13.8346

          k = 0.0000 0.3849 0.0000 ( 22133 PWs)   bands (ev):

   -86.0335 -86.0253 -86.0247 -86.0226 -86.0200 -86.0190 -85.8621 -85.8548
   -85.8520 -85.8166 -85.8097 -85.8081 -49.5520 -49.5448 -49.5367 -49.5306
   -49.5239 -49.4970 -49.4889 -49.4771 -49.4749 -49.4646 -49.4617 -49.4592
   -49.4506 -49.4496 -49.4465 -49.4460 -49.4310 -49.4188 -49.3778 -49.3548
   -49.3333 -49.3098 -49.3038 -49.3008 -49.2973 -49.2849 -49.2789 -49.2763
   -49.2702 -49.2580 -49.2544 -49.2527 -49.2370 -49.2312 -49.2300 -49.2246
   -12.6287 -10.7367  -8.9334  -8.9285  -5.2928  -5.2889  -3.5442  -1.9335
    -1.9303  -0.8476  -0.4518  -0.1095  -0.0102  -0.0039   0.2280   0.2720
     0.2853   0.2917   0.3075   0.3782   0.4596   0.4690   0.5155   0.6135
     0.6874   0.6964   0.8211   0.8281   0.8603   0.9649   0.9969   1.0075
     1.1193   1.1865   1.2442   1.2845   1.3160   1.3575   1.3929   1.4353
     1.4674   1.5401   1.6606   1.6692   1.6921   1.7907   1.7926   1.8014
     1.8416   1.8553   1.8696   1.9972   2.0001   2.0525   2.0768   2.2428
     2.2455   2.3237   2.3885   2.4428   2.4666   2.4930   2.5545   2.6516
     2.7043   2.7858   2.8488   2.8586   2.9323   2.9711   3.0005   3.0505
     3.0782   3.1050   3.1783   3.1989   3.4265   3.4820   4.1843   4.7221
     5.4468   6.3890   6.7975   6.9677   7.4398   7.9332   8.2004   8.2608
     8.4049   8.4475   9.1334  10.2901  10.6565  10.7353  10.9340  10.9695
    11.6014  11.7449  12.1689  12.7223  12.9518  13.1804  13.3973  13.4370
    13.5174  13.6567  14.0861  14.4755

          k = 0.0000-0.5774 0.0000 ( 22116 PWs)   bands (ev):

   -86.0293 -86.0288 -86.0232 -86.0224 -86.0223 -86.0192 -85.8600 -85.8563
   -85.8526 -85.8130 -85.8129 -85.8085 -49.5567 -49.5495 -49.5284 -49.5281
   -49.5031 -49.5030 -49.4907 -49.4832 -49.4831 -49.4671 -49.4572 -49.4551
   -49.4551 -49.4455 -49.4450 -49.4365 -49.4334 -49.4330 -49.3821 -49.3378
   -49.3326 -49.3300 -49.2907 -49.2861 -49.2859 -49.2859 -49.2837 -49.2833
   -49.2794 -49.2769 -49.2452 -49.2390 -49.2390 -49.2340 -49.2339 -49.2303
   -11.8341 -11.8328  -9.0760  -9.0710  -4.4647  -4.4608  -2.7984  -2.7949
    -1.3798  -1.3782  -0.2632  -0.1723  -0.1062   0.0650   0.0694   0.1334
     0.1928   0.1933   0.2796   0.4107   0.4122   0.5623   0.5841   0.5861
     0.6232   0.6236   0.7184   0.7187   0.8517   0.8547   0.9989   0.9993
     1.1017   1.1286   1.1316   1.1732   1.1970   1.1992   1.3674   1.3712
     1.4000   1.4319   1.4339   1.4789   1.4810   1.7185   1.7220   1.7876
     1.7897   1.9591   2.0051   2.0251   2.0281   2.2322   2.2350   2.2898
     2.3451   2.3459   2.5754   2.6197   2.6204   2.7089   2.7112   2.7448
     2.8144   2.8151   2.9736   2.9791   2.9798   3.0115   3.1120   3.1625
     3.1634   3.1925   3.3090   3.3376   3.3565   3.4090   3.6496   3.6505
     5.2623   5.2626   6.1840   7.0125   7.5251   7.5406   7.5423   7.7332
     8.6989   8.7108   9.8048   9.8135  10.1700  10.7627  11.4996  11.7274
    11.7283  12.0238  12.0254  12.7191  12.9722  12.9750  13.2562  13.2581
    13.6575  13.6598  13.8395  13.8439

          k = 0.1667-0.0962 0.0000 ( 22089 PWs)   bands (ev):

   -86.0369 -86.0276 -86.0220 -86.0213 -86.0188 -86.0186 -85.8647 -85.8535
   -85.8508 -85.8194 -85.8076 -85.8074 -49.5449 -49.5393 -49.5333 -49.5321
   -49.5272 -49.5036 -49.4965 -49.4859 -49.4815 -49.4717 -49.4658 -49.4653
   -49.4633 -49.4603 -49.4297 -49.4248 -49.4181 -49.4097 -49.3656 -49.3603
   -49.3254 -49.3226 -49.3205 -49.3153 -49.2871 -49.2798 -49.2781 -49.2773
   -49.2752 -49.2695 -49.2614 -49.2397 -49.2294 -49.2292 -49.2241 -49.2156
   -13.1098  -9.3727  -8.5368  -8.5305  -6.4197  -6.4158  -5.6015  -1.4311
    -1.0917  -0.8127  -0.8083  -0.2552  -0.1745  -0.0372   0.1316   0.1382
     0.2688   0.3233   0.3312   0.4076   0.5392   0.6320   0.7136   0.7331
     0.7659   0.8205   0.9175   0.9391   0.9470   1.1114   1.1913   1.2135
     1.2842   1.3281   1.4107   1.4260   1.4266   1.4528   1.4870   1.5026
     1.5116   1.5499   1.5731   1.6477   1.6535   1.7192   1.7297   1.7973
     1.9137   2.0031   2.0449   2.0791   2.0981   2.1969   2.2204   2.2872
     2.3039   2.3121   2.3883   2.4004   2.4056   2.5219   2.5629   2.5776
     2.6220   2.7159   2.7277   2.7566   2.8068   2.9001   2.9694   3.0140
     3.0201   3.0744   3.1025   3.1754   3.4398   3.6007   3.6228   5.5582
     6.9489   6.9721   7.7915   7.8332   7.8482   8.1048   8.4523   8.6352
     9.0281   9.2946   9.4888  10.0011  10.3486  10.7977  10.9853  11.3152
    11.4301  11.5451  11.5786  12.1682  12.3593  12.4523  12.4595  12.5838
    13.1532  13.3830  13.5625  13.8347

          k = 0.1667 0.0962 0.0000 ( 22089 PWs)   bands (ev):

   -86.0369 -86.0276 -86.0220 -86.0213 -86.0188 -86.0186 -85.8647 -85.8535
   -85.8508 -85.8194 -85.8076 -85.8074 -49.5448 -49.5389 -49.5335 -49.5323
   -49.5276 -49.5028 -49.4966 -49.4866 -49.4813 -49.4716 -49.4658 -49.4653
   -49.4627 -49.4608 -49.4299 -49.4245 -49.4179 -49.4099 -49.3656 -49.3603
   -49.3253 -49.3227 -49.3207 -49.3152 -49.2871 -49.2800 -49.2781 -49.2771
   -49.2752 -49.2696 -49.2613 -49.2397 -49.2294 -49.2292 -49.2238 -49.2159
   -13.1098  -9.3727  -8.5360  -8.5313  -6.4196  -6.4159  -5.6015  -1.4311
    -1.0917  -0.8117  -0.8092  -0.2548  -0.1749  -0.0373   0.1313   0.1386
     0.2672   0.3229   0.3326   0.4071   0.5412   0.6322   0.7101   0.7319
     0.7686   0.8198   0.9180   0.9413   0.9458   1.1120   1.1908   1.2129
     1.2827   1.3292   1.4094   1.4254   1.4297   1.4528   1.4896   1.5033
     1.5137   1.5488   1.5721   1.6470   1.6488   1.7193   1.7304   1.7984
     1.9107   2.0085   2.0483   2.0773   2.0962   2.2009   2.2172   2.2904
     2.3039   2.3145   2.3885   2.3948   2.4040   2.5184   2.5609   2.5789
     2.6222   2.7099   2.7292   2.7590   2.8083   2.9020   2.9685   3.0134
     3.0212   3.0766   3.1019   3.1737   3.4419   3.6015   3.6221   5.5577
     6.9491   6.9720   7.7874   7.8401   7.8450   8.1013   8.4586   8.6358
     9.0242   9.2959   9.4898  10.0011  10.3486  10.7931  10.9837  11.3192
    11.4320  11.5451  11.5757  12.1682  12.3642  12.4480  12.4543  12.5839
    13.1532  13.3861  13.5723  13.8342

          k = 0.1667 0.2887 0.0000 ( 22089 PWs)   bands (ev):

   -86.0346 -86.0260 -86.0233 -86.0228 -86.0192 -86.0192 -85.8629 -85.8543
   -85.8518 -85.8174 -85.8085 -85.8084 -49.5408 -49.5406 -49.5391 -49.5354
   -49.5351 -49.4928 -49.4924 -49.4761 -49.4760 -49.4727 -49.4601 -49.4599
   -49.4525 -49.4523 -49.4447 -49.4388 -49.4297 -49.4143 -49.3678 -49.3667
   -49.3225 -49.3224 -49.3072 -49.3064 -49.2905 -49.2853 -49.2786 -49.2760
   -49.2664 -49.2612 -49.2610 -49.2446 -49.2377 -49.2303 -49.2301 -49.2210
   -12.7888  -9.9715  -9.9685  -7.7542  -6.6632  -4.5278  -4.5268  -2.1146
    -1.0395  -0.6571  -0.4916  -0.4879   0.0603   0.0781   0.0794   0.1870
     0.1878   0.2221   0.2225   0.2476   0.4126   0.5202   0.5221   0.7013
     0.7026   0.7312   0.7319   0.9009   0.9414   0.9422   1.0784   1.1176
     1.2804   1.3181   1.3227   1.3981   1.4588   1.4726   1.4737   1.5558
     1.5740   1.5754   1.6270   1.6535   1.7081   1.7106   1.7158   1.8540
     1.9367   1.9652   2.0620   2.0635   2.0888   2.1436   2.1589   2.2014
     2.2472   2.2526   2.3299   2.3809   2.3831   2.4474   2.4989   2.5167
     2.5973   2.6014   2.6947   2.6992   2.7210   2.7673   2.9836   2.9923
     3.0454   3.0914   3.0990   3.2229   3.2273   3.9532   4.2644   5.8062
     5.8112   6.1301   6.5907   6.5986   7.3686   7.8293   8.0071   8.0116
     9.5150   9.5816   9.8145   9.8614  10.4389  10.7614  10.8682  10.8747
    11.6594  11.6696  11.9611  12.5272  12.5324  12.5432  13.6008  13.6108
    13.9543  13.9601  14.2597  14.2931

          k = 0.1667-0.6736 0.0000 ( 22149 PWs)   bands (ev):

   -86.0307 -86.0265 -86.0241 -86.0234 -86.0209 -86.0196 -85.8603 -85.8556
   -85.8530 -85.8143 -85.8109 -85.8092 -49.5474 -49.5419 -49.5310 -49.5302
   -49.5235 -49.4966 -49.4929 -49.4927 -49.4719 -49.4658 -49.4614 -49.4556
   -49.4535 -49.4518 -49.4396 -49.4370 -49.4369 -49.4235 -49.3735 -49.3519
   -49.3288 -49.3225 -49.3069 -49.2909 -49.2900 -49.2840 -49.2792 -49.2771
   -49.2769 -49.2760 -49.2453 -49.2443 -49.2351 -49.2323 -49.2309 -49.2306
   -12.1506 -11.2043 -10.2754  -7.6907  -5.8441  -3.4935  -3.4248  -2.4447
    -1.3626  -0.4068  -0.2961  -0.1500  -0.0866  -0.0802  -0.0124   0.1225
     0.1300   0.1649   0.2201   0.2215   0.2332   0.3889   0.3901   0.4881
     0.5724   0.6273   0.6609   0.7261   0.7559   0.8540   0.9235   0.9952
     1.0702   1.0860   1.1469   1.2520   1.3332   1.3761   1.4367   1.4430
     1.4891   1.5241   1.5796   1.6951   1.7627   1.7979   1.8736   1.9260
     1.9809   1.9920   2.0203   2.0411   2.1550   2.1881   2.2078   2.2146
     2.3039   2.3367   2.4057   2.5021   2.5370   2.5406   2.6510   2.6567
     2.6878   2.7563   2.8641   2.9131   2.9272   2.9447   2.9836   3.0078
     3.0503   3.0859   3.1227   3.1337   3.2225   3.8172   4.4673   4.6368
     4.7748   4.9408   5.6928   6.0956   7.0581   7.1442   7.2371   8.3665
     9.0037   9.1965  10.2711  10.5977  10.8160  11.3020  11.3045  11.5956
    11.7314  12.0575  12.5736  12.7852  12.7998  13.1411  13.2463  13.3083
    13.8232  13.8795  13.9438  14.1921

          k = 0.1667-0.4811 0.0000 ( 22149 PWs)   bands (ev):

   -86.0307 -86.0265 -86.0241 -86.0234 -86.0209 -86.0196 -85.8603 -85.8556
   -85.8530 -85.8143 -85.8109 -85.8092 -49.5474 -49.5418 -49.5311 -49.5303
   -49.5236 -49.4963 -49.4930 -49.4927 -49.4720 -49.4657 -49.4613 -49.4557
   -49.4535 -49.4519 -49.4398 -49.4371 -49.4369 -49.4234 -49.3735 -49.3520
   -49.3288 -49.3224 -49.3068 -49.2910 -49.2899 -49.2840 -49.2792 -49.2772
   -49.2770 -49.2761 -49.2453 -49.2445 -49.2351 -49.2322 -49.2309 -49.2304
   -12.1506 -11.2043 -10.2754  -7.6907  -5.8441  -3.4935  -3.4248  -2.4447
    -1.3626  -0.4068  -0.2964  -0.1501  -0.0868  -0.0806  -0.0121   0.1235
     0.1299   0.1646   0.2193   0.2205   0.2336   0.3899   0.3924   0.4883
     0.5744   0.6269   0.6588   0.7270   0.7543   0.8532   0.9231   0.9953
     1.0710   1.0869   1.1492   1.2502   1.3322   1.3759   1.4356   1.4388
     1.4849   1.5264   1.5794   1.6976   1.7648   1.8007   1.8755   1.9234
     1.9782   1.9954   2.0213   2.0423   2.1533   2.1864   2.2065   2.2145
     2.3013   2.3384   2.4065   2.5040   2.5377   2.5414   2.6535   2.6570
     2.6850   2.7548   2.8620   2.9128   2.9273   2.9455   2.9841   3.0099
     3.0503   3.0857   3.1232   3.1346   3.2214   3.8174   4.4662   4.6368
     4.7725   4.9408   5.6928   6.0975   7.0601   7.1441   7.2361   8.3658
     9.0036   9.1964  10.2715  10.5977  10.8156  11.3021  11.3045  11.5955
    11.7314  12.0572  12.5733  12.7850  12.8017  13.1391  13.2464  13.3088
    13.8230  13.8798  13.9448  14.1921

          k = 0.1667-0.2887 0.0000 ( 22089 PWs)   bands (ev):

   -86.0346 -86.0260 -86.0233 -86.0228 -86.0193 -86.0191 -85.8629 -85.8543
   -85.8518 -85.8174 -85.8085 -85.8084 -49.5412 -49.5406 -49.5392 -49.5352
   -49.5350 -49.4934 -49.4923 -49.4758 -49.4755 -49.4724 -49.4606 -49.4603
   -49.4524 -49.4521 -49.4445 -49.4390 -49.4299 -49.4142 -49.3675 -49.3670
   -49.3225 -49.3224 -49.3072 -49.3064 -49.2904 -49.2853 -49.2786 -49.2760
   -49.2666 -49.2613 -49.2611 -49.2449 -49.2377 -49.2302 -49.2301 -49.2207
   -12.7888  -9.9707  -9.9692  -7.7542  -6.6632  -4.5276  -4.5271  -2.1147
    -1.0395  -0.6572  -0.4905  -0.4888   0.0585   0.0781   0.0792   0.1868
     0.1876   0.2223   0.2227   0.2489   0.4152   0.5217   0.5236   0.7009
     0.7025   0.7291   0.7300   0.9008   0.9414   0.9444   1.0776   1.1171
     1.2803   1.3174   1.3199   1.3968   1.4583   1.4688   1.4755   1.5555
     1.5705   1.5753   1.6291   1.6533   1.7076   1.7144   1.7210   1.8539
     1.9365   1.9651   2.0544   2.0685   2.0891   2.1416   2.1634   2.2015
     2.2403   2.2561   2.3285   2.3803   2.3829   2.4509   2.5067   2.5139
     2.5987   2.6008   2.6884   2.7015   2.7257   2.7655   2.9875   2.9891
     3.0449   3.0928   3.0963   3.2238   3.2265   3.9505   4.2644   5.8070
     5.8107   6.1312   6.5908   6.5975   7.3686   7.8290   8.0090   8.0114
     9.5297   9.5637   9.8272   9.8507  10.4389  10.7613  10.8696  10.8743
    11.6621  11.6659  11.9610  12.5306  12.5332  12.5454  13.5942  13.6088
    13.9540  13.9601  14.2602  14.2895

          k = 0.3333-0.1925 0.0000 ( 22133 PWs)   bands (ev):

   -86.0335 -86.0253 -86.0248 -86.0225 -86.0200 -86.0191 -85.8621 -85.8549
   -85.8520 -85.8166 -85.8097 -85.8081 -49.5525 -49.5448 -49.5367 -49.5304
   -49.5233 -49.4980 -49.4878 -49.4766 -49.4751 -49.4646 -49.4618 -49.4596
   -49.4508 -49.4493 -49.4465 -49.4459 -49.4313 -49.4187 -49.3778 -49.3548
   -49.3332 -49.3098 -49.3037 -49.3005 -49.2976 -49.2849 -49.2789 -49.2762
   -49.2702 -49.2579 -49.2545 -49.2528 -49.2370 -49.2312 -49.2299 -49.2244
   -12.6287 -10.7367  -8.9340  -8.9280  -5.2928  -5.2888  -3.5443  -1.9343
    -1.9295  -0.8475  -0.4521  -0.1094  -0.0097  -0.0038   0.2260   0.2735
     0.2858   0.2941   0.3065   0.3807   0.4570   0.4677   0.5164   0.6125
     0.6875   0.6976   0.8189   0.8274   0.8587   0.9650   1.0021   1.0049
     1.1215   1.1887   1.2424   1.2853   1.3137   1.3583   1.3932   1.4385
     1.4611   1.5420   1.6562   1.6708   1.6914   1.7902   1.7931   1.8002
     1.8418   1.8542   1.8616   2.0031   2.0051   2.0543   2.0765   2.2420
     2.2482   2.3234   2.3910   2.4437   2.4678   2.4916   2.5539   2.6478
     2.7006   2.7870   2.8522   2.8595   2.9297   2.9722   3.0019   3.0506
     3.0767   3.1073   3.1802   3.1971   3.4269   3.4818   4.1818   4.7221
     5.4475   6.3894   6.8028   6.9665   7.4252   7.9403   8.2012   8.2606
     8.3898   8.4607   9.1330  10.2981  10.6563  10.7357  10.9311  10.9695
    11.6004  11.7556  12.1689  12.7225  12.9383  13.1806  13.3966  13.4370
    13.5200  13.6547  14.0862  14.4757

          k = 0.3333-0.0000 0.0000 ( 22089 PWs)   bands (ev):

   -86.0346 -86.0260 -86.0233 -86.0228 -86.0193 -86.0191 -85.8629 -85.8543
   -85.8518 -85.8174 -85.8085 -85.8084 -49.5412 -49.5407 -49.5393 -49.5352
   -49.5348 -49.4933 -49.4925 -49.4756 -49.4754 -49.4723 -49.4607 -49.4603
   -49.4524 -49.4521 -49.4445 -49.4389 -49.4300 -49.4142 -49.3675 -49.3670
   -49.3225 -49.3223 -49.3073 -49.3064 -49.2905 -49.2853 -49.2786 -49.2760
   -49.2665 -49.2613 -49.2610 -49.2447 -49.2377 -49.2303 -49.2301 -49.2209
   -12.7888  -9.9708  -9.9692  -7.7542  -6.6632  -4.5276  -4.5271  -2.1147
    -1.0395  -0.6574  -0.4905  -0.4888   0.0579   0.0780   0.0791   0.1866
     0.1881   0.2224   0.2230   0.2493   0.4150   0.5218   0.5241   0.7002
     0.7014   0.7294   0.7309   0.9017   0.9421   0.9447   1.0775   1.1171
     1.2802   1.3147   1.3201   1.3971   1.4588   1.4710   1.4763   1.5549
     1.5711   1.5746   1.6277   1.6533   1.7076   1.7152   1.7181   1.8539
     1.9364   1.9653   2.0556   2.0688   2.0897   2.1472   2.1534   2.2020
     2.2455   2.2517   2.3286   2.3788   2.3851   2.4505   2.5055   2.5142
     2.5991   2.6031   2.6908   2.6986   2.7264   2.7645   2.9849   2.9910
     3.0464   3.0925   3.0962   3.2253   3.2265   3.9497   4.2644   5.8071
     5.8108   6.1308   6.5906   6.5972   7.3687   7.8286   8.0070   8.0129
     9.5300   9.5629   9.8262   9.8500  10.4389  10.7614  10.8717  10.8755
    11.6616  11.6662  11.9611  12.5321  12.5346  12.5458  13.5937  13.6092
    13.9570  13.9573  14.2601  14.2902

          k = 0.3333 0.1925 0.0000 ( 22133 PWs)   bands (ev):

   -86.0335 -86.0253 -86.0247 -86.0226 -86.0200 -86.0190 -85.8621 -85.8548
   -85.8520 -85.8166 -85.8097 -85.8081 -49.5521 -49.5448 -49.5367 -49.5306
   -49.5237 -49.4972 -49.4887 -49.4770 -49.4749 -49.4647 -49.4615 -49.4593
   -49.4507 -49.4496 -49.4465 -49.4458 -49.4311 -49.4188 -49.3778 -49.3549
   -49.3334 -49.3097 -49.3037 -49.3009 -49.2975 -49.2849 -49.2789 -49.2762
   -49.2701 -49.2582 -49.2542 -49.2525 -49.2370 -49.2311 -49.2300 -49.2247
   -12.6287 -10.7367  -8.9334  -8.9285  -5.2928  -5.2889  -3.5442  -1.9335
    -1.9303  -0.8475  -0.4520  -0.1094  -0.0100  -0.0040   0.2275   0.2725
     0.2853   0.2927   0.3073   0.3788   0.4589   0.4690   0.5152   0.6136
     0.6878   0.6961   0.8220   0.8269   0.8603   0.9650   0.9979   1.0069
     1.1200   1.1860   1.2430   1.2844   1.3160   1.3575   1.3927   1.4357
     1.4660   1.5422   1.6583   1.6683   1.6937   1.7898   1.7935   1.8018
     1.8409   1.8564   1.8684   1.9978   1.9991   2.0522   2.0779   2.2429
     2.2457   2.3237   2.3892   2.4432   2.4668   2.4916   2.5543   2.6521
     2.7031   2.7866   2.8500   2.8588   2.9315   2.9713   3.0018   3.0497
     3.0775   3.1055   3.1799   3.1985   3.4267   3.4819   4.1835   4.7221
     5.4471   6.3886   6.7996   6.9674   7.4375   7.9335   8.2006   8.2548
     8.4020   8.4511   9.1330  10.2951  10.6564  10.7355  10.9334  10.9695
    11.6005  11.7491  12.1690  12.7223  12.9531  13.1803  13.4000  13.4368
    13.5142  13.6576  14.0863  14.4755

          k = 0.3333-0.7698 0.0000 ( 22149 PWs)   bands (ev):

   -86.0307 -86.0265 -86.0241 -86.0234 -86.0208 -86.0196 -85.8603 -85.8556
   -85.8530 -85.8143 -85.8109 -85.8092 -49.5476 -49.5419 -49.5311 -49.5301
   -49.5234 -49.4965 -49.4930 -49.4926 -49.4719 -49.4659 -49.4614 -49.4556
   -49.4535 -49.4518 -49.4396 -49.4371 -49.4368 -49.4235 -49.3734 -49.3520
   -49.3289 -49.3226 -49.3068 -49.2910 -49.2899 -49.2840 -49.2792 -49.2771
   -49.2768 -49.2759 -49.2451 -49.2445 -49.2351 -49.2323 -49.2309 -49.2307
   -12.1506 -11.2043 -10.2754  -7.6907  -5.8441  -3.4935  -3.4248  -2.4447
    -1.3626  -0.4068  -0.2961  -0.1497  -0.0863  -0.0801  -0.0127   0.1222
     0.1299   0.1647   0.2206   0.2216   0.2329   0.3891   0.3903   0.4884
     0.5725   0.6274   0.6605   0.7259   0.7558   0.8539   0.9232   0.9953
     1.0706   1.0870   1.1468   1.2501   1.3336   1.3760   1.4377   1.4417
     1.4887   1.5246   1.5784   1.6953   1.7620   1.7983   1.8738   1.9256
     1.9809   1.9921   2.0203   2.0412   2.1559   2.1876   2.2082   2.2151
     2.3044   2.3368   2.4052   2.5021   2.5374   2.5407   2.6513   2.6563
     2.6876   2.7559   2.8644   2.9130   2.9268   2.9442   2.9839   3.0091
     3.0498   3.0872   3.1231   3.1333   3.2218   3.8170   4.4679   4.6370
     4.7744   4.9414   5.6914   6.0952   7.0579   7.1439   7.2371   8.3660
     9.0020   9.1964  10.2711  10.6011  10.8146  11.3014  11.3047  11.5957
    11.7314  12.0616  12.5734  12.7853  12.8008  13.1399  13.2480  13.3083
    13.8229  13.8805  13.9420  14.1931

          k = 0.3333-0.5774 0.0000 ( 22161 PWs)   bands (ev):

   -86.0276 -86.0270 -86.0268 -86.0214 -86.0212 -86.0211 -85.8593 -85.8552
   -85.8544 -85.8115 -85.8114 -85.8114 -49.5316 -49.5312 -49.5310 -49.5253
   -49.5251 -49.5249 -49.4918 -49.4917 -49.4914 -49.4594 -49.4591 -49.4589
   -49.4483 -49.4482 -49.4479 -49.4291 -49.4290 -49.4289 -49.3533 -49.3529
   -49.3509 -49.3074 -49.3072 -49.3071 -49.2836 -49.2835 -49.2832 -49.2813
   -49.2789 -49.2779 -49.2372 -49.2371 -49.2369 -49.2329 -49.2327 -49.2327
   -11.3626 -11.3618 -11.3595  -6.5077  -6.5077  -4.3301  -1.7300  -1.7276
    -1.7267  -0.3285  -0.3279  -0.3265  -0.0487  -0.0479  -0.0469  -0.0127
    -0.0119  -0.0112   0.1654   0.1668   0.1679   0.3231   0.3251   0.3259
     0.4804   0.4832   0.4839   0.6218   0.6280   0.6360   0.8110   0.8162
     0.8197   1.2091   1.2115   1.2134   1.4118   1.4121   1.4171   1.5119
     1.5127   1.5152   1.6315   1.6354   1.6365   2.0051   2.0082   2.0099
     2.0668   2.0710   2.0722   2.3762   2.3774   2.3802   2.4468   2.4469
     2.4480   2.6380   2.6400   2.6407   2.6945   2.6950   2.6964   2.7523
     2.7537   2.7546   2.8436   2.8452   2.8495   2.8923   2.8934   2.8941
     3.0953   3.0963   3.0970   3.1384   3.1397   3.1410   3.9247   3.9273
     3.9292   5.7298   5.7310   5.7343   5.9684   5.9686   8.0691   8.0773
     8.0783  10.5161  10.5223  10.5234  12.1587  12.1602  12.1641  12.3436
    12.3438  12.3446  12.5659  12.5677  12.5687  12.9702  12.9920  12.9939
    13.6953  13.7336  13.7350  13.9926

          k = 0.3333-0.3849 0.0000 ( 22149 PWs)   bands (ev):

   -86.0307 -86.0265 -86.0240 -86.0233 -86.0208 -86.0197 -85.8603 -85.8556
   -85.8530 -85.8143 -85.8109 -85.8092 -49.5480 -49.5418 -49.5311 -49.5301
   -49.5232 -49.4961 -49.4933 -49.4920 -49.4721 -49.4662 -49.4613 -49.4555
   -49.4535 -49.4520 -49.4399 -49.4370 -49.4368 -49.4234 -49.3735 -49.3520
   -49.3287 -49.3224 -49.3069 -49.2909 -49.2900 -49.2840 -49.2792 -49.2772
   -49.2771 -49.2761 -49.2454 -49.2444 -49.2351 -49.2323 -49.2308 -49.2303
   -12.1506 -11.2043 -10.2754  -7.6907  -5.8440  -3.4935  -3.4248  -2.4447
    -1.3626  -0.4069  -0.2964  -0.1499  -0.0857  -0.0806  -0.0123   0.1221
     0.1301   0.1643   0.2193   0.2222   0.2323   0.3882   0.3936   0.4905
     0.5740   0.6261   0.6598   0.7251   0.7539   0.8530   0.9223   0.9952
     1.0718   1.0905   1.1463   1.2522   1.3341   1.3766   1.4379   1.4396
     1.4813   1.5230   1.5765   1.6979   1.7603   1.8030   1.8750   1.9225
     1.9839   1.9913   2.0236   2.0399   2.1559   2.1867   2.2056   2.2175
     2.3054   2.3385   2.4036   2.5048   2.5376   2.5416   2.6516   2.6566
     2.6849   2.7544   2.8635   2.9124   2.9255   2.9444   2.9843   3.0093
     3.0511   3.0867   3.1236   3.1357   3.2210   3.8172   4.4679   4.6371
     4.7719   4.9421   5.6881   6.0950   7.0602   7.1479   7.2361   8.3663
     9.0005   9.1964  10.2713  10.6022  10.8143  11.3005  11.3044  11.5954
    11.7318  12.0681  12.5734  12.7850  12.8009  13.1399  13.2349  13.3089
    13.8233  13.8783  13.9421  14.1927

          k =-0.5000 0.2887 0.0000 ( 22116 PWs)   bands (ev):

   -86.0293 -86.0289 -86.0231 -86.0224 -86.0223 -86.0193 -85.8600 -85.8564
   -85.8526 -85.8130 -85.8129 -85.8085 -49.5572 -49.5495 -49.5285 -49.5281
   -49.5026 -49.5023 -49.4896 -49.4836 -49.4835 -49.4680 -49.4570 -49.4553
   -49.4550 -49.4456 -49.4453 -49.4365 -49.4331 -49.4330 -49.3822 -49.3377
   -49.3329 -49.3295 -49.2907 -49.2864 -49.2860 -49.2859 -49.2837 -49.2830
   -49.2795 -49.2769 -49.2453 -49.2390 -49.2389 -49.2340 -49.2339 -49.2303
   -11.8347 -11.8322  -9.0764  -9.0705  -4.4644  -4.4610  -2.7994  -2.7940
    -1.3807  -1.3773  -0.2631  -0.1711  -0.1060   0.0627   0.0718   0.1324
     0.1912   0.1935   0.2779   0.4144   0.4156   0.5606   0.5824   0.5835
     0.6205   0.6218   0.7219   0.7226   0.8522   0.8542   0.9985   0.9993
     1.1069   1.1236   1.1281   1.1744   1.1958   1.1996   1.3695   1.3744
     1.4018   1.4310   1.4337   1.4748   1.4810   1.7175   1.7186   1.7868
     1.7882   1.9567   1.9955   2.0319   2.0349   2.2336   2.2363   2.2969
     2.3473   2.3479   2.5768   2.6164   2.6168   2.7049   2.7086   2.7419
     2.8165   2.8177   2.9739   2.9794   2.9813   3.0121   3.1097   3.1621
     3.1644   3.1946   3.3090   3.3389   3.3560   3.4084   3.6498   3.6514
     5.2606   5.2611   6.1888   6.9955   7.5346   7.5399   7.5438   7.7326
     8.6972   8.7124   9.8037   9.8132  10.1779  10.7595  11.5115  11.7270
    11.7287  12.0237  12.0253  12.7043  12.9695  12.9774  13.2551  13.2594
    13.6573  13.6606  13.8395  13.8443

          k =-0.5000 0.4811 0.0000 ( 22149 PWs)   bands (ev):

   -86.0308 -86.0265 -86.0240 -86.0233 -86.0208 -86.0197 -85.8603 -85.8556
   -85.8530 -85.8143 -85.8109 -85.8092 -49.5480 -49.5418 -49.5312 -49.5301
   -49.5233 -49.4959 -49.4933 -49.4921 -49.4721 -49.4662 -49.4612 -49.4555
   -49.4535 -49.4520 -49.4400 -49.4369 -49.4369 -49.4234 -49.3735 -49.3520
   -49.3287 -49.3225 -49.3070 -49.2910 -49.2900 -49.2840 -49.2792 -49.2771
   -49.2770 -49.2760 -49.2454 -49.2442 -49.2351 -49.2323 -49.2308 -49.2304
   -12.1506 -11.2043 -10.2754  -7.6907  -5.8440  -3.4935  -3.4248  -2.4447
    -1.3626  -0.4069  -0.2962  -0.1499  -0.0857  -0.0815  -0.0121   0.1226
     0.1301   0.1643   0.2186   0.2220   0.2324   0.3883   0.3946   0.4905
     0.5745   0.6262   0.6601   0.7247   0.7529   0.8531   0.9224   0.9951
     1.0722   1.0910   1.1478   1.2518   1.3336   1.3763   1.4358   1.4389
     1.4809   1.5244   1.5762   1.6998   1.7610   1.8020   1.8742   1.9219
     1.9844   1.9910   2.0236   2.0399   2.1556   2.1872   2.2045   2.2171
     2.3056   2.3395   2.4039   2.5050   2.5376   2.5418   2.6516   2.6569
     2.6846   2.7536   2.8638   2.9128   2.9256   2.9440   2.9830   3.0095
     3.0520   3.0870   3.1227   3.1368   3.2223   3.8173   4.4673   4.6371
     4.7714   4.9420   5.6882   6.0951   7.0600   7.1479   7.2360   8.3665
     9.0004   9.1958  10.2712  10.6022  10.8154  11.3008  11.3041  11.5955
    11.7320  12.0679  12.5736  12.7852  12.7999  13.1412  13.2348  13.3087
    13.8235  13.8782  13.9435  14.1919

          k =-0.5000 0.6736 0.0000 ( 22149 PWs)   bands (ev):

   -86.0307 -86.0265 -86.0241 -86.0233 -86.0209 -86.0196 -85.8603 -85.8556
   -85.8530 -85.8143 -85.8109 -85.8092 -49.5475 -49.5418 -49.5312 -49.5302
   -49.5235 -49.4961 -49.4930 -49.4927 -49.4720 -49.4658 -49.4612 -49.4556
   -49.4535 -49.4519 -49.4399 -49.4371 -49.4368 -49.4235 -49.3734 -49.3520
   -49.3289 -49.3225 -49.3067 -49.2911 -49.2899 -49.2840 -49.2792 -49.2771
   -49.2769 -49.2760 -49.2451 -49.2446 -49.2351 -49.2322 -49.2309 -49.2306
   -12.1506 -11.2043 -10.2754  -7.6907  -5.8441  -3.4935  -3.4248  -2.4447
    -1.3626  -0.4069  -0.2962  -0.1499  -0.0865  -0.0815  -0.0122   0.1237
     0.1299   0.1644   0.2187   0.2208   0.2334   0.3900   0.3937   0.4886
     0.5749   0.6270   0.6588   0.7266   0.7532   0.8533   0.9230   0.9952
     1.0718   1.0885   1.1505   1.2479   1.3320   1.3756   1.4350   1.4364
     1.4841   1.5283   1.5781   1.6996   1.7649   1.8000   1.8749   1.9223
     1.9789   1.9952   2.0212   2.0425   2.1537   2.1862   2.2059   2.2146
     2.3021   2.3394   2.4062   2.5042   2.5382   2.5416   2.6538   2.6571
     2.6844   2.7535   2.8625   2.9131   2.9270   2.9447   2.9831   3.0114
     3.0507   3.0873   3.1228   3.1352   3.2221   3.8173   4.4662   4.6369
     4.7716   4.9413   5.6915   6.0972   7.0597   7.1437   7.2360   8.3655
     9.0019   9.1956  10.2715  10.6011  10.8153  11.3018  11.3044  11.5956
    11.7316  12.0613  12.5733  12.7853  12.8017  13.1392  13.2479  13.3086
    13.8228  13.8810  13.9443  14.1922

          k =-0.5000-0.2887 0.0000 ( 22116 PWs)   bands (ev):

   -86.0293 -86.0288 -86.0232 -86.0224 -86.0222 -86.0192 -85.8600 -85.8563
   -85.8526 -85.8130 -85.8129 -85.8085 -49.5568 -49.5495 -49.5286 -49.5279
   -49.5031 -49.5027 -49.4905 -49.4833 -49.4831 -49.4673 -49.4572 -49.4553
   -49.4549 -49.4454 -49.4451 -49.4365 -49.4334 -49.4331 -49.3821 -49.3379
   -49.3327 -49.3300 -49.2908 -49.2860 -49.2858 -49.2857 -49.2837 -49.2833
   -49.2794 -49.2769 -49.2450 -49.2392 -49.2391 -49.2340 -49.2339 -49.2304
   -11.8341 -11.8328  -9.0760  -9.0710  -4.4647  -4.4608  -2.7984  -2.7949
    -1.3797  -1.3782  -0.2630  -0.1719  -0.1064   0.0650   0.0695   0.1331
     0.1913   0.1942   0.2798   0.4119   0.4133   0.5622   0.5842   0.5846
     0.6221   0.6234   0.7188   0.7202   0.8520   0.8541   0.9988   0.9993
     1.1054   1.1265   1.1304   1.1688   1.1988   1.1997   1.3676   1.3714
     1.4006   1.4307   1.4322   1.4787   1.4820   1.7190   1.7205   1.7893
     1.7903   1.9589   2.0042   2.0253   2.0274   2.2327   2.2355   2.2893
     2.3459   2.3464   2.5758   2.6190   2.6193   2.7090   2.7106   2.7469
     2.8149   2.8155   2.9733   2.9809   2.9813   3.0096   3.1114   3.1624
     3.1634   3.1928   3.3085   3.3375   3.3569   3.4091   3.6499   3.6506
     5.2617   5.2620   6.1866   7.0101   7.5241   7.5401   7.5420   7.7293
     8.6990   8.7107   9.8045   9.8126  10.1750  10.7623  11.5039  11.7274
    11.7282  12.0244  12.0251  12.7209  12.9720  12.9751  13.2559  13.2588
    13.6580  13.6590  13.8407  13.8425

     the Fermi energy is     6.0846 ev

!    total energy              =   -3595.83473467 Ry
     estimated scf accuracy    <          6.5E-10 Ry
     smearing contrib. (-TS)   =      -0.00084604 Ry
     internal energy E=F+TS    =   -3595.83388862 Ry

     The total energy is F=E-TS. E is the sum of the following terms:
     one-electron contribution =  -24420.46390595 Ry
     hartree contribution      =   12240.32523712 Ry
     xc contribution           =    -362.17264054 Ry
     ewald contribution        =    8996.30893949 Ry
     DFT-D3 Dispersion         =      -0.50438919 Ry
     electric field correction =       0.00000136 Ry
     one-center paw contrib.   =     -49.32713092 Ry

     convergence has been achieved in  40 iterations

     negative rho (up, down):  1.219E-04 0.000E+00

     Forces acting on atoms (cartesian axes, Ry/au):

     atom    1 type  1   force =     0.00007286    0.00050005    0.00211622
     atom    2 type  1   force =     0.00017804    0.00060742    0.00215405
     atom    3 type  1   force =    -0.00020220   -0.00010799   -0.00033877
     atom    4 type  1   force =    -0.00000379   -0.00034349   -0.00087278
     atom    5 type  1   force =     0.00023366    0.00048576    0.00211756
     atom    6 type  1   force =    -0.00031544   -0.00002894   -0.00014225
     atom    7 type  1   force =    -0.00000316   -0.00001904    0.00059215
     atom    8 type  1   force =     0.00002531   -0.00035466   -0.00088335
     atom    9 type  1   force =     0.00067140   -0.00049792    0.00077451
     atom   10 type  1   force =    -0.00025490    0.00002617   -0.00021257
     atom   11 type  1   force =    -0.00001127   -0.00033025   -0.00087475
     atom   12 type  1   force =    -0.00036620    0.00012036    0.00060961
     atom   13 type  2   force =     0.00082359   -0.00048357   -0.00073335
     atom   14 type  2   force =     0.00016127   -0.00076340   -0.00082091
     atom   15 type  2   force =     0.00011582   -0.00006768   -0.00014367
     atom   16 type  2   force =     0.00073099    0.00022085   -0.00086511
     atom   17 type  2   force =    -0.00065214   -0.00006875   -0.00073081
     atom   18 type  2   force =    -0.00034477    0.00018790   -0.00024684
     atom   19 type  2   force =    -0.00027909    0.00059077   -0.00091465
     atom   20 type  2   force =    -0.00058000    0.00032641   -0.00058432

     Total force =     0.005207     Total SCF correction =     0.000221

     Writing all to output data dir ./tmp/V2_hollow_fcc_dft_bound.save/ :
     XML data file, charge density, pseudopotentials, collected wavefunctions
 
     init_run     :      3.63s CPU      3.73s WALL (       1 calls)
     electrons    :    206.86s CPU    225.27s WALL (       1 calls)
     forces       :      0.71s CPU      0.83s WALL (       1 calls)
     force_dftd3  :      0.02s CPU      0.02s WALL (       1 calls)

     Called by init_run:
     wfcinit      :      1.05s CPU      1.61s WALL (       1 calls)
     potinit      :      1.71s CPU      1.23s WALL (       1 calls)
     hinit0       :      0.58s CPU      0.49s WALL (       1 calls)

     Called by electrons:
     c_bands      :    113.55s CPU    139.99s WALL (      41 calls)
     sum_band     :     22.64s CPU     33.15s WALL (      41 calls)
     v_of_rho     :     10.70s CPU      8.84s WALL (      41 calls)
     newd         :      0.60s CPU      0.60s WALL (      41 calls)
                                        0.60s GPU  (      41 calls)
     PAW_pot      :     49.29s CPU     31.05s WALL (      41 calls)
     mix_rho      :      7.29s CPU      7.76s WALL (      41 calls)
     energy_dftd3 :      0.00s CPU      0.00s WALL (       1 calls)

     Called by c_bands:
     init_us_2    :      1.56s CPU      1.96s WALL (    1680 calls)
     cegterg      :    100.32s CPU    100.88s WALL (     820 calls)

     Called by *egterg:
     cdiaghg      :     19.28s CPU     19.74s WALL (    4871 calls)
                                       19.70s GPU  (    4871 calls)
     h_psi        :     63.02s CPU     63.49s WALL (    4911 calls)
                                       63.31s GPU  (    4911 calls)
     s_psi        :      1.91s CPU      1.87s WALL (    4911 calls)
     g_psi        :      0.02s CPU      0.50s WALL (    4071 calls)
                                        0.48s GPU  (    4071 calls)

     Called by h_psi:
     h_psi:calbec :      0.18s CPU      2.78s WALL (    4911 calls)
                                        2.75s GPU  (    4911 calls)
     vloc_psi     :     54.96s CPU     55.29s WALL (    4911 calls)
                                       55.27s GPU  (    4911 calls)
     add_vuspsi   :      2.01s CPU      4.69s WALL (    4911 calls)
                                        4.66s GPU  (    4911 calls)

     General routines
     calbec       :      0.21s CPU      0.22s WALL (    5811 calls)
     fft          :      1.90s CPU      2.07s WALL (     543 calls)
                                        0.16s GPU  (     502 calls)
     ffts         :      0.41s CPU      0.73s WALL (    4525 calls)
                                        0.35s GPU  (    4484 calls)
     fftw         :      0.63s CPU     46.83s WALL (   48606 calls)
                                       46.56s GPU  (   48606 calls)
     interpolate  :      2.46s CPU      3.04s WALL (      41 calls)
     davcio       :      2.65s CPU     37.06s WALL (    3226 calls)
 
     Parallel routines
 
     PWSCF        :   3m33.46s CPU   3m52.27s WALL

 
   This run was terminated on:  21:13: 7  26Sep2026            

=------------------------------------------------------------------------------=
   JOB DONE.
=------------------------------------------------------------------------------=
