204
Lattice="20.110191271466373 0.0 0.0 0.0 20.110191271466373 0.0 0.0 0.0 10.055095635733187" Properties=species:S:1:pos:R:3:spacegroup_kinds:I:1:atom_id:I:1:forces_eV_A:R:3 spacegroup="P 1" unit_cell=conventional occupancy="_JSON {\"0\": {\"P\": 1.0}, \"1\": {\"P\": 1.0}, \"2\": {\"P\": 1.0}, \"3\": {\"P\": 1.0}, \"4\": {\"S\": 1.0}, \"5\": {\"S\": 1.0}, \"6\": {\"S\": 1.0}, \"7\": {\"S\": 1.0}, \"8\": {\"S\": 1.0}, \"9\": {\"S\": 1.0}, \"10\": {\"S\": 1.0}, \"11\": {\"S\": 1.0}, \"12\": {\"S\": 1.0}, \"13\": {\"S\": 1.0}, \"14\": {\"S\": 1.0}, \"15\": {\"S\": 1.0}, \"16\": {\"S\": 1.0}, \"17\": {\"S\": 1.0}, \"18\": {\"S\": 1.0}, \"19\": {\"S\": 1.0}, \"20\": {\"Li\": 1.0}, \"21\": {\"Li\": 1.0}, \"22\": {\"Li\": 1.0}, \"23\": {\"Li\": 1.0}, \"24\": {\"Li\": 1.0}, \"25\": {\"Li\": 1.0}, \"26\": {\"Li\": 1.0}, \"27\": {\"Li\": 1.0}, \"28\": {\"Li\": 1.0}, \"29\": {\"Li\": 1.0}, \"30\": {\"Li\": 1.0}, \"31\": {\"Li\": 1.0}, \"32\": {\"Li\": 1.0}, \"33\": {\"Li\": 1.0}, \"34\": {\"Li\": 1.0}, \"35\": {\"Li\": 1.0}, \"36\": {\"Li\": 1.0}, \"37\": {\"Li\": 1.0}, \"38\": {\"Li\": 1.0}, \"39\": {\"Li\": 1.0}, \"40\": {\"Li\": 1.0}, \"41\": {\"Li\": 1.0}, \"42\": {\"Li\": 1.0}, \"43\": {\"Li\": 1.0}, \"44\": {\"Cl\": 1.0}, \"45\": {\"Cl\": 1.0}, \"46\": {\"Cl\": 1.0}, \"47\": {\"Cl\": 1.0}, \"48\": {\"S\": 1.0}, \"49\": {\"S\": 1.0}, \"50\": {\"S\": 1.0}, \"51\": {\"S\": 1.0}}" charge=0 spin=0 energy_eV=-855.5298878669645 stress_voigt_eV_A3="_JSON [0.0004462968825105906, 0.00031515596374435967, 0.0010279375793960965, -0.000827841840647304, 0.0008057278719329155, 0.0003579027057357005]" stress_units="eV/A^3 (ASE voigt xx yy zz yz xz xy, tension positive)" P_mean_GPa=-0.09556398351538226 structure=P2_Al2S3_A run_id=20260913T194803-ff4f1d run_tag=W3_f005 code_id=6a77043f4edff20388353ad332a155838e66b279 model=uma-s-1p1 inference_mode=None relax_steps=3000 direction=down point_index=3 fraction=1.0 point_id=down:03:f1.0000 prev_point_id=down:02:f1.0100 V_target_A3=4066.479695346664 continuation=T V_actual_A3=4066.479695346664 final_fmax_eV_A=0.004524009767919779 fmax_target_eV_A=0.005 optimizer_returned=True n_steps=446 converged=T hit_step_limit=F pbc="T T T"
P        4.70124993       5.06140931       5.06734397        0        0      -0.00117682       0.00010060      -0.00122240
P       -0.24664205      10.18502691       5.05422907        1        1      -0.00011550      -0.00018917      -0.00020404
P       -0.36466966       4.88787187      10.02148420        2        2       0.00049897      -0.00023456      -0.00120813
P        4.78063353       0.06252604      10.06502612        3        3       0.00032010       0.00051859      -0.00118071
S        5.85868352       6.26561767       6.29709644        4        4      -0.00016579      -0.00045150      -0.00057618
S        0.77747765       1.18516631       6.24966002        5        5       0.00205258       0.00008016      -0.00078339
S        0.63920458       6.18661361       1.22588376        6        6      -0.00062689      -0.00001837      -0.00057455
S        5.92525042       1.25274038       1.23530969        7        7       0.00037429       0.00054221      -0.00073320
S        3.42617909       3.96160837       6.26292957        8        8      -0.00051874      -0.00015651      -0.00222493
S        8.57548336       8.73575942       6.18465639        9        9      -0.00004061      -0.00014168       0.00029033
S        8.56840564       3.89049434       1.15255548       10       10      -0.00012042       0.00043764       0.00028154
S        3.50257211       8.71294896       1.15630701       11       11       0.00037807       0.00054415      -0.00107343
S        3.59271850       6.30195973       3.83152329       12       12       0.00070999       0.00025902      -0.00098296
S        8.49578798       0.85491475       3.63275326       13       13       0.00037322      -0.00045660       0.00041810
S        8.71783612       6.12305656       8.70775554       14       14       0.00029007       0.00045757       0.00009353
S        3.61386508       1.18007609       8.78977250       15       15       0.00080584       0.00009883      -0.00080971
S        5.92610868       3.81505198       4.03419797       16       16       0.00033062      -0.00067458      -0.00112152
S        0.92480366       8.94829879       3.87971569       17       17      -0.00076234      -0.00032441      -0.00040378
S        0.83638959       3.76133004       8.83847043       18       18      -0.00003914      -0.00023558       0.00014114
S        6.00039464       8.85048087       8.91538234       19       19       0.00152006      -0.00184241      -0.00161875
Li       2.45315258       4.85941893       2.18084985       20       20      -0.00086697       0.00074817      -0.00034494
Li       7.71752015       9.76793713       2.19111543       21       21       0.00013221       0.00058078      -0.00009657
Li       7.60074614       4.58268609       7.05740710       22       22       0.00000340       0.00096921      -0.00044687
Li       1.45579442       9.84138948       7.82574308       23       23      -0.00055281       0.00003464      -0.00055510
Li       7.92071746       7.79119306       0.17941597       24       24       0.00052777       0.00055506       0.00014925
Li       2.60754155       2.82550431       0.20077048       25       25       0.00066264      -0.00024447      -0.00069705
Li       1.81578716       7.09721723       5.25830122       26       26       0.00045544      -0.00001720      -0.00072912
Li       6.81276456       2.97833798       9.72122650       28       27       0.00079954       0.00036238      -0.00087415
Li       4.38197006       7.90137619       7.32185411       29       28      -0.00007301      -0.00108463       0.00017698
Li       4.55531688       2.97501205       2.26385225       30       29      -0.00005630       0.00059289      -0.00121550
Li       6.87573996       7.75492530       4.70735256       31       30      -0.00066986       0.00071321       0.00000981
Li       2.72796537       5.31902875       8.25944240       32       31      -0.00003940      -0.00070423      -0.00180323
Li       7.79559031       0.33333319       7.95084333       33       32       0.00115271       0.00057506       0.00031046
Li       9.62480211       7.11765006       3.03332607       34       33       0.00039448       0.00038160      -0.00005707
Li       2.96463297       0.29674159       3.11298292       35       34      -0.00027643      -0.00031948      -0.00038079
Li       1.76699995       2.94184288       4.78606851       36       35       0.00001666       0.00159367      -0.00314457
Li       5.08020923       6.75750644       1.85465607       37       36       0.00030214       0.00056536      -0.00094843
Li       5.08876795       2.18441128       6.94872362       38       37       0.00115986       0.00111851      -0.00096204
Li       1.55794272       7.91968034       9.86838871       39       38      -0.00030704      -0.00014938      -0.00071111
Li      -0.17335992       6.99496095       7.14665020       40       39      -0.00005717      -0.00028847      -0.00051247
Li       7.71118892       5.16166381       3.06310533       42       40      -0.00003326       0.00055212       0.00042342
Li       0.07152626       1.94099474       1.82441499       43       41      -0.00020834       0.00051026       0.00005274
Cl       9.18828513      10.19184250      10.20076787       44       42      -0.00000811      -0.00006079       0.00004477
Cl       4.21113082       4.79554280       0.41854542       45       43       0.00009354      -0.00020442      -0.00047295
Cl       4.40705601      -0.42924818       5.30386702       46       44       0.00093846      -0.00048783      -0.00079225
Cl       9.72309766       5.14470030       4.56152539       47       45       0.00018630       0.00015230       0.00033698
S        2.24797921       2.50922904       2.53415464       48       46       0.00025639      -0.00005540      -0.00158886
S        7.32279765       7.47029145       2.45544879       49       47       0.00028101       0.00044937       0.00009867
S        7.22425574       2.45631888       7.58073966       50       48       0.00139715       0.00066035      -0.00095591
S        2.08577785       7.55892862       7.59748437       51       49      -0.00004712      -0.00020790      -0.00072357
P        5.00508221      14.92334207       5.30788743        0       50       0.00205888      -0.00202489       0.00087727
P       -0.21428759      20.03988074       4.95008877        1       51       0.00092668       0.00120877       0.00112273
P       -0.16977032      15.12510537       9.96569632        2       52       0.00018394      -0.00000633      -0.00039575
P        4.79230242       9.88242561      10.14877443        3       53      -0.00290364       0.00146340       0.00314547
S        6.04130305      16.08839637       6.62525316        4       54      -0.00050144      -0.00057918      -0.00081377
S        0.81601002      11.49755212       6.19374519        5       55      -0.00031202      -0.00007600      -0.00063200
S        0.97019643      16.38885788       1.09884744        6       56      -0.00052999       0.00132831       0.00088347
S        5.75620821      11.14232596       1.39712273        7       57      -0.00068066      -0.00084839      -0.00082858
S        3.69280554      13.69551732       6.50548915        8       58      -0.00019979      -0.00039690      -0.00037250
S        8.52980594      18.85791129       6.20471742        9       59       0.00011562      -0.00024019       0.00056939
S        8.47139794      13.78142023       1.22637956       10       60       0.00000539      -0.00022559       0.00012118
S        3.57123452      18.98097826       1.18955517       11       61       0.00013667       0.00013031      -0.00054650
S        3.82371714      15.97505431       4.06060268       12       62      -0.00102959       0.00045933      -0.00168252
S        8.85369693      11.15972049       3.84428832       13       63       0.00042418      -0.00021995       0.00027636
S        8.70784628      15.95589192       8.70721328       14       64      -0.00052761      -0.00034105       0.00018757
S        3.55534509      11.19742916       8.97771224       15       65       0.00015153      -0.00024016      -0.00032894
S        6.30690000      13.73767329       4.27660211       16       66      -0.00080922      -0.00031945       0.00045168
S        1.02051609      18.87865445       3.79749528       17       67       0.00054771      -0.00034331      -0.00008708
S        1.00005672      13.88435920       8.87388519       18       68      -0.00069506       0.00163002       0.00134142
S        6.07556194      18.90890555       9.07817088       19       69       0.00028859       0.00033057      -0.00043568
Li       2.66333468      14.92694904       2.14910480       20       70      -0.00079793       0.00002635      -0.00065882
Li       9.44842901      17.33715370       2.73832047       21       71      -0.00035509      -0.00162988       0.00160957
Li       8.01986985      14.58597878       6.34043217       22       72      -0.00000488      -0.00085498       0.00061720
Li       4.70106791      18.05891583       7.25676774       23       73       0.00028902       0.00024652      -0.00038394
Li       3.93645775      12.76716470       0.95194991       25       74      -0.00034680      -0.00020205      -0.00007558
Li       2.77090644      17.81665483       5.20815113       26       75       0.00057950       0.00044069      -0.00095758
Li       7.04372497      11.66025244       5.32948773       27       76       0.00014232      -0.00124097       0.00029861
Li       7.53320104      11.94062826      10.01613442       28       77      -0.00040825      -0.00018627       0.00010904
Li       1.86275940      18.18955439       9.72138158       29       78       0.00001057      -0.00046289      -0.00031923
Li       2.49490011      12.45947281       4.75106694       30       79       0.00011565      -0.00049359      -0.00043044
Li       6.74905988      19.01809759       4.37143338       31       80       0.00011589      -0.00049679       0.00038927
Li       2.88921751      15.41336608       8.40232162       32       81       0.00017608      -0.00006369      -0.00022741
Li       8.79952079      10.57149974       7.85143638       33       82       0.00093256       0.00042829       0.00006214
Li       7.14379237      15.31718333       2.62961480       34       83      -0.00090295      -0.00067256       0.00021003
Li       2.36544967      10.34498967       2.55944121       35       84      -0.00150481      -0.00021575      -0.00098616
Li      -0.14257493      13.36861199       3.33996884       36       85       0.00012567      -0.00010612       0.00016732
Li       7.76195289      19.61804513       1.49355667       37       86       0.00005862      -0.00035569       0.00051084
Li       6.53649720      14.78797787       8.81154162       38       87      -0.00073024      -0.00033787      -0.00061602
Li       2.58250174      19.90528067       7.09303768       39       88       0.00123174      -0.00070525       0.00001827
Li       0.14545596      17.04087370       6.84701746       40       89      -0.00056953       0.00157508      -0.00130757
Al       4.96648787      11.94852253       7.32611207       41       90      -0.00034792      -0.00033215      -0.00027962
Li       5.47702490      17.41151475       1.00634639       42       91       0.00016833       0.00000503      -0.00027746
Li       0.53410310      12.26353580       0.62407226       43       92      -0.00108771       0.00105168      -0.00013956
Cl       9.95646511      19.97125720      10.07124955       44       93      -0.00033679       0.00003244       0.00013365
Cl       4.60033078      15.00618654       0.22404886       45       94      -0.00017184      -0.00016162      -0.00010795
Cl       4.90485930      10.44930392       5.67108311       46       95       0.00020221      -0.00099875       0.00008554
Cl      10.09709729      14.98517320       5.19188743       47       96       0.00013449      -0.00009687       0.00078515
S        2.07650712      12.65700041       2.46187400       48       97      -0.00052976       0.00015048      -0.00021058
S        7.20199609      17.58441725       2.54619607       49       98      -0.00017755      -0.00041252       0.00022472
S        7.07322123      12.50014048       7.71079724       50       99      -0.00008484      -0.00056251       0.00004850
S        2.36262234      17.57583147       7.52145270       51      100       0.00001865      -0.00033421      -0.00077434
P       15.01487669       4.83422052       5.10124805        0      101      -0.00068778       0.00096320       0.00118721
P        9.89367434       9.89543674       5.11316101        1      102       0.00054087       0.00045184      -0.00026268
P        9.84514196       5.01830697      10.03656059        2      103       0.00039929       0.00011978       0.00040978
P       14.80448502      -0.07130460      10.10138595        3      104       0.00059593      -0.00001181      -0.00019932
S       15.99727358       6.07414359       6.39395953        4      105      -0.00069560      -0.00080969      -0.00061198
S       10.81228217       1.26085875       6.04869980        5      106       0.00049478      -0.00077033       0.00036485
S       10.96316476       6.28849864       1.18183578        6      107       0.00036583      -0.00024558       0.00016124
S       15.76708820       1.14412765       1.34967573        7      108       0.00011924       0.00017290       0.00018134
S       13.66453622       3.61550407       6.26893687        8      109      -0.00004992      -0.00062161      -0.00013380
S       18.70458165       9.03516226       6.32413660        9      110      -0.00044541       0.00011791      -0.00035651
S       18.55249424       3.75124306       1.19752772       10      111      -0.00068837      -0.00032467      -0.00021160
S       13.93788648       8.77278403       1.37505627       11      112       0.00020041       0.00016270      -0.00011422
S       13.75676427       5.92575540       3.90254613       12      113       0.00020037      -0.00112478      -0.00019847
S       18.77894629       1.16218053       3.72358669       13      114       0.00104576       0.00068944       0.00011688
S       18.48070661       6.01478164       8.81068913       14      115      -0.00000163      -0.00046588      -0.00056237
S       13.54337436       1.25238982       8.92642656       15      116      -0.00053541      -0.00006194       0.00077906
S       16.30692497       3.70446010       4.04675111       16      117       0.00113303      -0.00152442      -0.00037296
S       11.19756679       8.73955422       4.02492776       17      118       0.00041717      -0.00008487       0.00023769
S       11.08815094       3.73037021       9.04027362       18      119      -0.00014020      -0.00021520       0.00034854
S       16.14060738       9.04520629       8.85572568       19      120      -0.00050734       0.00068496      -0.00052403
Li      11.68885092       4.72869725       3.00832263       20      121      -0.00011812      -0.00049311       0.00011115
Li      19.15232232       9.19875590       2.27580635       21      122      -0.00095313       0.00026473      -0.00025330
Li      17.81154112       4.36579683       6.01548904       22      123      -0.00007876       0.00004657       0.00022955
Li      17.56587216       7.70575802       0.22722999       24      124      -0.00059636       0.00014391      -0.00046453
Li      13.06595889       3.24133513       0.61626216       25      125      -0.00029229      -0.00031442       0.00034099
Li      13.10149849       7.73246694       5.47125323       26      126       0.00013194      -0.00159086      -0.00000121
Li      16.93319504       1.57291145       5.15936578       27      127       0.00129517      -0.00178475       0.00043174
Li      17.52012862       1.94871766       9.94421663       28      128      -0.00081554       0.00030172       0.00048454
Li      12.82026110       7.22577938       9.88168227       29      129      -0.00004231      -0.00011173      -0.00003414
Li      12.77219415       1.81312951       4.59638934       30      130       0.00030451      -0.00072817       0.00030146
Li      17.67076191       7.31584248       4.88420661       31      131      -0.00037254      -0.00051597      -0.00011694
Li      12.83088403       5.18576368       8.04340385       32      132       0.00005045      -0.00053547      -0.00000357
Li      18.95503385       0.63187254       7.76542709       33      133      -0.00001876       0.00125809       0.00209671
Li      18.82578448       5.70858175       2.76139224       34      134       0.00073652      -0.00000593      -0.00050424
Li      11.66495926       0.07050576       2.06135237       35      135      -0.00153148      -0.00001633       0.00144553
Li       9.97378446       2.73536070       4.05659718       36      136       0.00000589      -0.00018819       0.00131283
Li      16.15151812       9.58635403       3.03056493       37      137      -0.00186670      -0.00099946      -0.00074401
Li      16.36192640       4.78337087       8.56023554       38      138       0.00015489      -0.00011476       0.00021177
Li      12.18368207       9.65979599       7.88419093       39      139       0.00112216      -0.00028157      -0.00105182
Li      10.19535162       6.93361997       6.95770951       40      140       0.00026758      -0.00038373      -0.00031861
Al      14.91311146       1.90620825       7.23128894       41      141      -0.00034008      -0.00034537       0.00054665
Li      15.26803197       6.60658981       2.02041401       42      142      -0.00003557      -0.00096045      -0.00023481
Li      10.24780974       2.19947668       0.77921231       43      143      -0.00041022      -0.00002656       0.00043886
Cl      20.03969424       9.95491237       9.98226097       44      144      -0.00024998       0.00072481      -0.00057898
Cl      14.51530553       5.15135617      -0.02160476       45      145      -0.00008644      -0.00060228      -0.00015965
Cl      14.76816176       0.41035381       5.53728774       46      146      -0.00004653      -0.00110619       0.00134906
Cl      19.64981696       5.58382125       5.10194369       47      147      -0.00005988      -0.00039590      -0.00017685
S       11.90480713       2.40504204       2.52379673       48      148      -0.00022892      -0.00030409       0.00052706
S       17.37865603       7.59915924       2.55357938       49      149      -0.00028226      -0.00051318      -0.00023762
S       17.02767632       2.46049999       7.57140861       50      150      -0.00038416      -0.00014983       0.00069445
S       12.35378881       7.41190660       7.61005864       51      151       0.00011610      -0.00052024       0.00000074
P       14.82905968      15.14624792       5.05738728        0      152       0.00037643      -0.00014512       0.00057236
P        9.70248344      20.01885584       4.97192116        1      153       0.00018234      -0.00071841       0.00079059
P        9.77097502      14.86175024      10.07964699        2      154      -0.00070109      -0.00064598       0.00026103
P       14.96623158      10.08701157      10.18144937        3      155      -0.00004004       0.00007045      -0.00059534
S       15.97234609      16.19443093       6.39335233        4      156      -0.00016918       0.00037680       0.00030194
S       10.82338409      11.13503053       6.45967512        5      157       0.00041095      -0.00008119      -0.00008744
S       10.87936956      16.16950725       1.18183625        6      158      -0.00033258       0.00009631       0.00026342
S       16.02047825      11.34400244       1.33066566        7      159       0.00036939       0.00018591      -0.00009500
S       13.58383278      13.87794404       6.09986817        8      160       0.00028217       0.00023224       0.00057702
S       18.63010855      18.91518339       6.11787180        9      161       0.00026996       0.00176456       0.00025001
S       18.75148036      13.94094985       1.15459144       10      162      -0.00041009       0.00115303       0.00066504
S       13.47683873      18.79600188       0.98653252       11      163      -0.00013987       0.00014669       0.00203242
S       13.69164964      16.45151465       3.91622774       12      164       0.00047045       0.00014556      -0.00013603
S       18.64755941      11.21017003       3.73099794       13      165      -0.00024908       0.00029190      -0.00050746
S       18.74810251      16.24668839       8.71881567       14      166      -0.00041121       0.00073277      -0.00012259
S       13.62875872      11.19580209       9.06132751       15      167      -0.00053172       0.00036618       0.00026550
S       15.96424201      13.97658163       3.80310829       16      168       0.00017746       0.00004609       0.00040719
S       11.03325508      18.70776276       4.00716386       17      169      -0.00001912      -0.00097190       0.00054799
S       11.03596824      13.55273001       9.14598043       18      170      -0.00019048      -0.00007980       0.00025287
S       15.91051435      18.96345613       8.79855929       19      171      -0.00107675       0.00008422       0.00085760
Li      11.97845562      14.91087490       2.99002771       20      172       0.00060498       0.00017797      -0.00048337
Li      17.66992254      19.85423004       2.13404969       21      173       0.00008195       0.00032641       0.00035702
Li      18.16644564      14.58731995       6.87124224       22      174      -0.00109622       0.00082396      -0.00015040
Li      11.55372844      19.91542247       7.95460942       23      175       0.00038127      -0.00031175       0.00043334
Li      17.81516578      18.01619642       0.07024222       24      176       0.00074348       0.00071964      -0.00058137
Li      13.23974840      13.17819722       0.53347007       25      177      -0.00005887       0.00018258       0.00019857
Li      12.99081677      18.11809166       5.55975282       26      178      -0.00054510      -0.00081248       0.00034700
Li      16.89970926      12.11534003       5.22261154       27      179       0.00013482      -0.00058551       0.00026966
Li      16.88765579      13.02131382       9.82547781       28      180       0.00038974       0.00081279       0.00040989
Li      14.01408998      17.26052885       8.98369462       29      181      -0.00155591      -0.00093608       0.00235333
Li      14.06955837      12.42742026       4.06296974       30      182      -0.00021812       0.00017546       0.00088593
Li      17.55978425      17.08048673       4.74758215       31      183       0.00145594      -0.00054326       0.00088407
Li      11.76638169      15.15540767       7.27953369       32      184       0.00022723      -0.00036655       0.00087167
Li      18.16205094      10.55778016       8.23623340       33      185      -0.00028010       0.00067391      -0.00063558
Li      19.64394841      17.02786985       2.93396982       34      186       0.00020100       0.00207031       0.00060014
Li      12.52484582      10.27155164       2.66963509       35      187       0.00021103       0.00014216       0.00007970
Li      10.75407363      12.73529439       4.52732263       36      188      -0.00041974       0.00025096      -0.00027485
Li      15.08292592      17.80615205       2.48727440       37      189       0.00144354       0.00179647       0.00173074
Li      15.35057288      14.15052152       7.76891953       38      190       0.00004205       0.00098312       0.00075139
Li      10.43710058      17.66963472       9.34591222       39      191      -0.00081897      -0.00004946       0.00034951
Li      10.28767562      17.24594068       6.05819709       40      192      -0.00053837      -0.00084253       0.00166903
Li      15.36374001      10.92389780       7.32250767       41      193      -0.00067940       0.00180225       0.00029651
Li      16.73135630      15.32473107       1.82445294       42      194       0.00049314       0.00108532      -0.00013801
Li      10.36875340      12.14492659       1.19306091       43      195       0.00009844      -0.00009030       0.00016927
Cl      19.19531330      20.26082652      10.11561382       44      196       0.00257704       0.00040377       0.00296844
Cl      15.00745988      14.88635095      -0.02639170       45      197      -0.00017963       0.00049845       0.00075773
Cl      14.95783579      10.38214691       4.97996597       46      198       0.00004910       0.00027044       0.00028767
Cl      19.52577123      15.43856421       4.92649622       47      199      -0.00103791       0.00092071       0.00115778
S       12.20421012      12.58103843       2.63767818       48      200       0.00015466       0.00014783       0.00018608
S       17.37574407      17.54550487       2.39553881       49      201       0.00084820       0.00050723       0.00021380
S       17.10424489      12.56800543       7.53135857       50      202      -0.00015982       0.00081085       0.00032699
S       12.06789319      17.55412665       7.61344857       51      203      -0.00019943      -0.00027532       0.00085720
