204
Lattice="19.90704413719925 0.0 0.0 0.0 19.90704413719925 0.0 0.0 0.0 9.953522068599625" Properties=species:S:1:pos:R:3:spacegroup_kinds:I:1:atom_id:I:1:forces_eV_A:R:3 spacegroup="P 1" unit_cell=conventional occupancy="_JSON {\"0\": {\"P\": 1.0}, \"1\": {\"P\": 1.0}, \"2\": {\"P\": 1.0}, \"3\": {\"P\": 1.0}, \"4\": {\"S\": 1.0}, \"5\": {\"S\": 1.0}, \"6\": {\"S\": 1.0}, \"7\": {\"S\": 1.0}, \"8\": {\"S\": 1.0}, \"9\": {\"S\": 1.0}, \"10\": {\"S\": 1.0}, \"11\": {\"S\": 1.0}, \"12\": {\"S\": 1.0}, \"13\": {\"S\": 1.0}, \"14\": {\"S\": 1.0}, \"15\": {\"S\": 1.0}, \"16\": {\"S\": 1.0}, \"17\": {\"S\": 1.0}, \"18\": {\"S\": 1.0}, \"19\": {\"S\": 1.0}, \"20\": {\"Li\": 1.0}, \"21\": {\"Li\": 1.0}, \"22\": {\"Li\": 1.0}, \"23\": {\"Li\": 1.0}, \"24\": {\"Li\": 1.0}, \"25\": {\"Li\": 1.0}, \"26\": {\"Li\": 1.0}, \"27\": {\"Li\": 1.0}, \"28\": {\"Li\": 1.0}, \"29\": {\"Li\": 1.0}, \"30\": {\"Li\": 1.0}, \"31\": {\"Li\": 1.0}, \"32\": {\"Li\": 1.0}, \"33\": {\"Li\": 1.0}, \"34\": {\"Li\": 1.0}, \"35\": {\"Li\": 1.0}, \"36\": {\"Li\": 1.0}, \"37\": {\"Li\": 1.0}, \"38\": {\"Li\": 1.0}, \"39\": {\"Li\": 1.0}, \"40\": {\"Li\": 1.0}, \"41\": {\"Li\": 1.0}, \"42\": {\"Li\": 1.0}, \"43\": {\"Li\": 1.0}, \"44\": {\"Cl\": 1.0}, \"45\": {\"Cl\": 1.0}, \"46\": {\"Cl\": 1.0}, \"47\": {\"Cl\": 1.0}, \"48\": {\"S\": 1.0}, \"49\": {\"S\": 1.0}, \"50\": {\"S\": 1.0}, \"51\": {\"S\": 1.0}}" charge=0 spin=0 energy_eV=-854.8460095813524 stress_voigt_eV_A3="_JSON [-0.002526705850934685, -0.0028746135564935564, -0.00179329976112737, -0.0004810971583763636, 0.0005038007827691069, -0.00023018414490564852]" stress_units="eV/A^3 (ASE voigt xx yy zz yz xz xy, tension positive)" P_mean_GPa=0.3842350209139778 structure=P2_Al2S3_A run_id=20260913T194803-ff4f1d run_tag=W3_f005 code_id=6a77043f4edff20388353ad332a155838e66b279 model=uma-s-1p1 inference_mode=None relax_steps=3000 direction=up point_index=0 fraction=0.97 point_id=up:00:f0.9700 prev_point_id=None V_target_A3=3944.485304486264 continuation=T V_actual_A3=3944.485304486262 final_fmax_eV_A=0.00498943030834198 fmax_target_eV_A=0.005 optimizer_returned=True n_steps=935 converged=T hit_step_limit=F pbc="T T T"
P        4.71944143       4.98955474       4.98515902        0        0       0.00008962      -0.00008344       0.00060437
P       -0.21574350      10.02727607       5.00586232        1        1      -0.00009441      -0.00007281       0.00002027
P       -0.24985499       4.85073600       9.93239133        2        2      -0.00058388      -0.00021268       0.00081280
P        4.78870096      -0.03263372      10.00332952        3        3      -0.00001056       0.00007928       0.00037754
S        5.84118498       6.16325924       6.25301333        4        4      -0.00023934      -0.00019543       0.00041068
S        0.56138986       1.25944678       6.06685964        5        5       0.00121782      -0.00050209       0.00104672
S        0.70592206       6.16606226       1.24964355        6        6      -0.00045629       0.00031781       0.00072968
S        5.91392868       1.26904674       1.16707646        7        7      -0.00008344       0.00015638       0.00018998
S        3.44970314       3.83278794       6.11809390        8        8      -0.00017684      -0.00007668       0.00043190
S        8.42838416       8.71712698       6.09781464        9        9      -0.00017412       0.00021753      -0.00004566
S        8.42188465       4.00143596       1.20426608       10       10       0.00000638       0.00002686       0.00062949
S        3.49954674       8.68043489       1.11092691       11       11      -0.00038547      -0.00026217       0.00044885
S        3.57223777       6.23263054       3.76967694       12       12      -0.00006178       0.00005090       0.00030208
S        8.56287054       1.02811407       3.56219090       13       13       0.00028711       0.00067941       0.00008596
S        8.62146186       6.06913404       8.54479697       14       14      -0.00037733      -0.00040607       0.00049573
S        3.59231897       0.97623982       8.63994456       15       15      -0.00013545      -0.00020557       0.00034089
S        5.98986990       3.86021516       3.87589587       16       16      -0.00013280      -0.00010715       0.00055539
S        0.93612153       8.79349032       3.82514660       17       17       0.00009125      -0.00022196       0.00031361
S        0.97985590       3.78088955       8.73507677       18       18      -0.00022298       0.00008382       0.00068947
S        5.98758711       8.88861399       8.73327466       19       19      -0.00098505       0.00067879       0.00104711
Li       2.58754223       4.82915066       2.03375758       20       20      -0.00047395      -0.00007254       0.00061527
Li       7.84551572       9.66177000       2.16012379       21       21      -0.00001263      -0.00003658      -0.00010945
Li       7.73156658       4.42106691       6.75014578       22       22      -0.00024944      -0.00031762      -0.00003856
Li       1.53101968       9.79494248       7.77024071       23       23      -0.00016108      -0.00022395       0.00023480
Li       7.81549306       7.74785517       0.10279168       24       24      -0.00076464      -0.00046993       0.00015857
Li       2.68919527       2.69151389       0.16355658       25       25       0.00004733       0.00002729       0.00043470
Li       1.81205658       6.93273547       5.19321939       26       26      -0.00013377      -0.00045331       0.00034352
Li       6.58242581       3.09505129       9.53592632       28       27      -0.00005673       0.00017506       0.00034336
Li       4.42701534       7.92537692       7.09700947       29       28      -0.00017416      -0.00019335       0.00030664
Li       4.51818181       2.79851109       2.34872822       30       29      -0.00006200       0.00015329       0.00035456
Li       7.51101463       6.94821903       4.68516592       31       30      -0.00033998      -0.00022506       0.00034775
Li       2.90636608       5.27157149       8.07493400       32       31      -0.00032281      -0.00014016       0.00036898
Li       7.75081963       0.32477286       8.05950065       33       32       0.00044861       0.00002587       0.00055954
Li       9.06147053       5.98511529       2.67203972       34       33       0.00041717       0.00043975       0.00053665
Li       2.88429293       0.33823893       3.20008513       35       34       0.00003307      -0.00021128       0.00050992
Li       1.55566721       3.13286087       4.69412887       36       35      -0.00030147       0.00007886       0.00046881
Li       5.00874712       7.86203003       2.79251289       37       36      -0.00003558      -0.00000541       0.00025492
Li       5.08462685       1.98353097       6.66892462       38       37      -0.00014294      -0.00015550       0.00048024
Li       1.63370639       7.80026305       9.73734355       39       38      -0.00011698      -0.00032002       0.00031670
Li      -0.06977916       6.85507956       7.06318143       40       39      -0.00023639      -0.00006980       0.00001753
Li       6.29906160       5.30188554       1.85443938       42       40       0.00004628      -0.00012649       0.00067473
Li       0.10080293       1.85606062       1.77800806       43       41       0.00002197       0.00048410       0.00032155
Cl       9.20080311      10.13977313      10.04887401       44       42       0.00011068       0.00010296      -0.00018249
Cl       4.43139586       4.58324986       0.34417887       45       43      -0.00015287       0.00010167       0.00053749
Cl       4.61638863      -0.36659589       5.06241245       46       44      -0.00004675      -0.00020425       0.00029726
Cl       9.45471189       5.20776697       4.89024733       47       45      -0.00050777      -0.00001918       0.00062122
S        2.22111149       2.51618226       2.49643528       48       46       0.00009045      -0.00011266       0.00047016
S        7.21578985       7.43623558       2.38439880       49       47      -0.00004642       0.00003197       0.00034782
S        7.14032795       2.39190541       7.48535052       50       48      -0.00012841      -0.00020262       0.00045842
S        2.15980180       7.51502743       7.48631848       51       49      -0.00025993      -0.00014074       0.00032611
P        4.91800587      14.82650920       5.13670034        0       50      -0.00017070       0.00017485      -0.00038306
P       -0.28247871      19.78997372       4.82711560        1       51       0.00037779       0.00033088       0.00033971
P       -0.22832533      14.97581248       9.81701234        2       52      -0.00010084       0.00004207       0.00014875
P        4.79612848       9.86841037      10.02011840        3       53       0.00108227      -0.00087468      -0.00152774
S        5.87633426      16.00015360       6.51247482        4       54       0.00022752      -0.00022974      -0.00023154
S        0.88642929      11.39329752       6.05911708        5       55       0.00008496      -0.00012099       0.00017919
S        0.76390681      16.27146335       1.18049515        6       56       0.00046684      -0.00051832      -0.00008819
S        5.79881614      11.04641457       1.41043311        7       57       0.00009231       0.00037483       0.00034765
S        3.59786604      13.58095810       6.30566932        8       58       0.00008388      -0.00033015      -0.00037305
S        8.57082714      18.76601019       6.20826081        9       59      -0.00007880       0.00034127      -0.00026838
S        8.41150235      13.76775483       1.18308987       10       60       0.00032576      -0.00005812      -0.00026070
S        3.63443162      18.75679903       1.34383020       11       61       0.00035964      -0.00009778       0.00037566
S        3.72921394      15.92746109       3.94286679       12       62       0.00052182      -0.00028325       0.00003751
S        8.81176107      11.13443359       3.77457498       13       63      -0.00014262      -0.00000617      -0.00013096
S        8.56739445      15.79299998       8.47484622       14       64      -0.00016218      -0.00000574      -0.00028971
S        3.53173787      11.20699221       8.92311762       15       65      -0.00024762      -0.00003437       0.00000590
S        6.21992021      13.64465464       4.11150810       16       66       0.00031228      -0.00038458      -0.00028276
S        1.02484345      18.66636228       3.71382875       17       67       0.00011902      -0.00009547       0.00041061
S        1.04568493      13.83568164       8.74264589       18       68      -0.00004660      -0.00078946      -0.00021651
S        6.02114421      18.57751632       9.01385781       19       69       0.00018094       0.00000376       0.00019324
Li       2.45609536      14.80333137       2.20771567       20       70      -0.00003408      -0.00040540       0.00061513
Li       9.28385727      18.13159122       2.06330377       21       71       0.00051881      -0.00100027      -0.00070601
Li       7.86709123      14.46237903       6.29543479       22       72       0.00007482      -0.00027797      -0.00029225
Li       4.28739881      18.73020392       7.33199952       23       73       0.00011106       0.00016636       0.00014016
Li       4.04922320      12.74624742       1.11937021       25       74      -0.00034683      -0.00009597      -0.00031650
Li       2.79848116      17.80255064       5.20742397       26       75       0.00028064      -0.00019256       0.00018202
Li       6.97086833      11.56141387       5.20953508       27       76      -0.00007407      -0.00033091      -0.00003555
Li       7.51144405      11.88738863       9.90023134       28       77      -0.00007332       0.00001402      -0.00011477
Li       2.18213799      17.65000026       9.78557714       29       78       0.00283552      -0.00259102       0.00020697
Li       2.87524783      11.82416547       4.62601693       30       79      -0.00000573      -0.00063524      -0.00007504
Li       6.60186125      17.82141110       4.96154037       31       80      -0.00037012       0.00026617      -0.00019438
Li       2.94169014      15.31553492       8.11633799       32       81      -0.00034591      -0.00098347      -0.00086272
Li       8.67323851      10.50039305       7.73032639       33       82      -0.00000675       0.00009824      -0.00011190
Li       7.87438484      15.26319588       3.08541866       34       83       0.00010780      -0.00024302      -0.00014803
Li       1.92746731      10.21507028       2.13434263       35       84      -0.00044062      -0.00026013      -0.00007230
Li       0.22241177      12.90979720       3.98620579       36       85       0.00016398      -0.00005635       0.00046107
Li       6.61759233      19.64421853       2.89630672       37       86       0.00124669       0.00007701      -0.00072493
Li       6.40186976      14.72235681       8.73118124       38       87      -0.00024531      -0.00000040      -0.00045514
Li       1.42784148      19.76019746       7.90406239       39       88       0.00003935      -0.00097259       0.00151658
Li       0.12639806      16.77110646       6.73361981       40       89       0.00019315       0.00018641      -0.00003567
Al       4.89315250      11.91974845       7.23112499       41       90       0.00012167      -0.00033897      -0.00007521
Li       5.51667398      17.09052640       1.19240130       42       91       0.00041694       0.00010503       0.00004568
Li       0.59480699      12.29711193       0.65725351       43       92      -0.00039184      -0.00022831       0.00033439
Cl      10.01436469      19.73919080       9.99694403       44       93      -0.00018860      -0.00016820      -0.00045789
Cl       4.47566989      14.93655515       0.15958786       45       94      -0.00021855      -0.00000469      -0.00035280
Cl       4.77834189      10.38280306       5.57083930       46       95      -0.00003078      -0.00030471      -0.00000263
Cl       9.84123086      14.86323317       4.91943501       47       96       0.00019301      -0.00022196      -0.00021405
S        2.13056022      12.49841401       2.50096130       48       97      -0.00007141      -0.00034247       0.00006502
S        7.20046374      17.41042072       2.75051585       49       98       0.00048453      -0.00012632       0.00002027
S        6.99971904      12.44308453       7.59642116       50       99      -0.00011262      -0.00007687      -0.00011346
S        2.23157855      17.51521672       7.48562228       51      100       0.00044723      -0.00061881       0.00016143
P       14.94109957       4.87434900       5.07697657        0      101       0.00100729      -0.00090657      -0.00069605
P        9.80682345       9.80972726       5.03337793        1      102      -0.00055291      -0.00029808       0.00017285
P        9.73888608       4.98791016       9.87793652        2      103      -0.00041177      -0.00012667       0.00012942
P       14.75781186      -0.05005302       9.93128839        3      104       0.00045704       0.00086569       0.00043868
S       15.89900658       6.05465620       6.43890576        4      105      -0.00047196       0.00118626       0.00100350
S       10.80965459       1.34560080       6.01946643        5      106       0.00057645      -0.00016690      -0.00027858
S       10.84752099       6.26901659       1.12791812        6      107       0.00011119      -0.00003481       0.00001220
S       15.68922153       1.28048498       1.19608048        7      108      -0.00082356      -0.00057695      -0.00009370
S       13.58231059       3.60222169       6.15576416        8      109      -0.00012146       0.00023460       0.00015269
S       18.58904682       8.90238120       6.34350367        9      110      -0.00012608       0.00005259       0.00015347
S       18.46432294       3.71034877       1.20249781       10      111      -0.00026189       0.00043043       0.00029851
S       13.77996454       8.66399196       1.38993355       11      112      -0.00047656       0.00022171      -0.00037241
S       13.69494041       6.03135145       3.93325245       12      113      -0.00054513       0.00056363       0.00001476
S       18.41199594       0.84700924       3.44576779       13      114       0.00080221       0.00087863       0.00110728
S       18.35703277       5.93372944       8.70881400       14      115      -0.00025417       0.00025573       0.00022602
S       13.42829479       1.18750244       8.73712808       15      116       0.00004288      -0.00011897      -0.00023000
S       16.25481999       3.81149338       3.97888310       16      117      -0.00063049       0.00172055       0.00133335
S       11.04614232       8.61788929       3.95736512       17      118      -0.00043505      -0.00037101      -0.00023537
S       10.91125049       3.60620686       8.94319829       18      119      -0.00045120      -0.00033522       0.00014268
S       15.97090732       8.93886019       8.77793365       19      120      -0.00000938       0.00030698       0.00003440
Li      11.97674408       4.77314690       2.72844334       20      121       0.00137440      -0.00028583      -0.00149138
Li      18.92963896       9.08639177       2.26436703       21      122       0.00020976      -0.00046659       0.00036272
Li      17.77976213       4.43163708       6.10151363       22      123      -0.00000789       0.00122843       0.00095953
Li      17.36784427       7.56603815       0.23146279       24      124      -0.00010571       0.00031367       0.00029583
Li      12.95586529       3.08473009       0.49111559       25      125      -0.00017898      -0.00052069      -0.00055690
Li      13.00837555       7.94400192       5.43246741       26      126      -0.00104249      -0.00021124      -0.00005411
Li      16.95123322       1.75899901       5.07718491       27      127       0.00043348       0.00103273       0.00046027
Li      17.60805724       1.90237762       9.83857923       28      128      -0.00046008       0.00009724       0.00056004
Li      12.77868955       7.08879407       9.75233793       29      129       0.00018757      -0.00047930      -0.00020871
Li      12.71355123       1.78722654       4.52630351       30      130       0.00067188       0.00015535      -0.00020946
Li      17.14773735       7.54714088       4.90287366       31      131      -0.00367648       0.00333994       0.00047196
Li      12.55160527       5.08737121       7.86501346       32      132      -0.00156645      -0.00031109      -0.00071724
Li      17.98215452       0.10502125       7.84517554       33      133       0.00084348       0.00096197      -0.00005919
Li      18.69288088       5.63625317       2.85280000       34      134      -0.00094759       0.00004640       0.00128383
Li      11.80246934       0.14916277       1.99346684       35      135       0.00043937      -0.00017935      -0.00034028
Li       9.96872497       2.89864735       4.15394918       36      136       0.00068589       0.00041461       0.00014507
Li      15.78492984       9.38176475       2.88075081       37      137      -0.00046617       0.00045932      -0.00111434
Li      16.23969821       4.66993983       8.56867179       38      138      -0.00032296       0.00036207       0.00069964
Li      11.85216753       9.52536050       7.96323734       39      139      -0.00076195      -0.00026075       0.00027698
Li      10.10331783       6.86893595       6.74012086       40      140      -0.00081617      -0.00000882       0.00037840
Al      14.81821913       1.88322655       7.09063130       41      141       0.00041749       0.00031852       0.00007824
Li      15.15443142       6.42163322       2.00076293       42      142      -0.00003102      -0.00006934       0.00030060
Li       9.97741922       2.13000942       1.00889699       43      143      -0.00052003      -0.00042070       0.00098284
Cl      19.98322893       9.91403902      10.01046007       44      144      -0.00005321      -0.00015537       0.00032901
Cl      14.37157492       5.06782625       0.03518753       45      145      -0.00029888      -0.00004257       0.00072426
Cl      14.74305370       0.42883604       5.34818712       46      146       0.00058404       0.00058993      -0.00001234
Cl      19.74417319       5.29979414       5.07737375       47      147       0.00062947      -0.00069398       0.00054716
S       11.85460692       2.47921262       2.49794810       48      148       0.00034574      -0.00021289      -0.00018695
S       17.20313333       7.49494112       2.55523651       49      149      -0.00045750       0.00047496       0.00037094
S       16.92052786       2.42595896       7.48622992       50      150       0.00002178       0.00072276       0.00046905
S       12.24250445       7.33780585       7.51906306       51      151      -0.00057407      -0.00016800       0.00001290
P       14.58512013      14.89392442       4.99621958        0      152       0.00028407       0.00006332      -0.00056868
P        9.69296189      19.92686571       4.91337423        1      153       0.00007834       0.00031239      -0.00037156
P        9.68848326      14.79991766       9.88237210        2      154       0.00010991       0.00014868      -0.00060048
P       14.78156633       9.98614170      10.08798755        3      155      -0.00049453       0.00035643      -0.00030924
S       15.70062062      15.98720795       6.31972603        4      156      -0.00011293      -0.00000182      -0.00036228
S       10.72578095      11.03744813       6.41345769        5      157       0.00007777      -0.00017096      -0.00026168
S       10.76304942      16.19608859       1.01715873        6      158       0.00028275      -0.00001000      -0.00064335
S       15.81789722      11.25546366       1.33769672        7      159      -0.00106775       0.00070128      -0.00035668
S       13.33942281      13.61574717       6.03330559        8      160       0.00020324      -0.00030211      -0.00096520
S       18.44137834      18.56687209       5.99653851        9      161       0.00009598       0.00020482       0.00039630
S       18.57664376      13.74356457       1.10614032       10      162      -0.00014048       0.00005494      -0.00010571
S       13.59659716      18.61852543       1.08083225       11      163      -0.00023208      -0.00073420      -0.00063700
S       13.52646468      16.19160277       3.79509803       12      164       0.00024515      -0.00001881      -0.00070602
S       18.46121465      11.05813008       3.71861715       13      165       0.00026826      -0.00005314      -0.00000820
S       18.47454432      16.07820135       8.57511660       14      166       0.00048738       0.00006152       0.00000649
S       13.42230487      11.06422013       8.97477667       15      167      -0.00039785      -0.00002926      -0.00075865
S       15.77238052      13.75501344       3.76364819       16      168       0.00056550       0.00033715      -0.00056556
S       11.00015862      18.63217372       3.90034605       17      169      -0.00019914      -0.00005755      -0.00052701
S       10.96150126      13.47965030       8.98904599       18      170       0.00010952       0.00021326      -0.00066997
S       15.90086893      18.83984990       8.60666367       19      171       0.00079075       0.00031743      -0.00037980
Li      11.67393523      14.82460264       2.91047616       20      172       0.00029462      -0.00015208      -0.00066026
Li      19.23515349      18.39014326       1.79415121       21      173       0.00131014      -0.00037813      -0.00033541
Li      17.83234494      14.44116604       6.80610985       22      174      -0.00010223       0.00041597      -0.00015768
Li      11.48379917      19.71008354       7.84183656       23      175       0.00022338      -0.00020328      -0.00037241
Li      16.77870410      17.05823030       0.04505222       24      176       0.00152983       0.00139050      -0.00004040
Li      13.07805864      13.02910086       0.51442711       25      177       0.00054894      -0.00012885      -0.00039239
Li      13.04908928      17.91615993       5.46923875       26      178      -0.00089527       0.00001043      -0.00113228
Li      16.73779801      11.96544729       5.19969920       27      179       0.00026032       0.00039160      -0.00027799
Li      16.67025532      12.97834212       9.79260266       28      180      -0.00030928       0.00061048      -0.00029336
Li      12.98106387      16.77709682       9.48445099       29      181       0.00011923      -0.00050229      -0.00101221
Li      13.91881379      12.17171865       3.98015833       30      182       0.00084012      -0.00022086      -0.00182914
Li      17.31667220      16.86178734       4.67719226       31      183       0.00007965       0.00049325       0.00001650
Li      11.61538810      15.00581049       7.11993364       32      184      -0.00014890      -0.00024660      -0.00132121
Li      17.92898454      10.46616915       8.20843008       33      185      -0.00008832       0.00034607      -0.00016012
Li      18.79613045      15.57508234       2.67337440       34      186       0.00011196      -0.00009532      -0.00001867
Li      12.19478862      10.14649798       2.51191045       35      187      -0.00110097      -0.00026872      -0.00054764
Li      10.72758005      12.62189066       4.52925696       36      188       0.00018435      -0.00030093      -0.00050272
Li      16.45716356      19.40592770       2.64840166       37      189       0.00098926       0.00052986      -0.00016278
Li      15.05845390      14.01340141       7.70635043       38      190      -0.00024685       0.00007238      -0.00048371
Li      10.10219857      17.59040719       8.91854942       39      191      -0.00001019      -0.00004553      -0.00070424
Li      10.24737400      17.12727807       5.74694526       40      192      -0.00053588      -0.00000058      -0.00047801
Li      15.11898402      10.78486667       7.25070184       41      193       0.00003225       0.00019733      -0.00039874
Li      15.36903705      15.68863550       2.23787818       42      194       0.00044217       0.00060497      -0.00068382
Li      10.22424362      12.10052177       1.19518241       43      195       0.00068006       0.00031931      -0.00186811
Cl      19.45877751      20.09157579       9.80449085       44      196      -0.00032814       0.00036333       0.00051700
Cl      14.69263671      14.88673130      -0.00021704       45      197       0.00006512      -0.00017333      -0.00040342
Cl      14.80112290      10.09558413       4.95930939       46      198       0.00081459      -0.00034556      -0.00041392
Cl      19.29982382      15.03503050       4.94360414       47      199       0.00028097       0.00014857      -0.00001623
S       12.07371926      12.48574186       2.58017159       48      200      -0.00008930      -0.00021238      -0.00067242
S       17.17403322      17.23572057       2.34821810       49      201       0.00067637       0.00040957      -0.00006120
S       16.83301559      12.43362224       7.50484308       50      202      -0.00004471       0.00025703      -0.00025084
S       11.93619304      17.35237948       7.44156258       51      203      -0.00014392      -0.00023338      -0.00079620
