
     Program PWSCF v.7.4.1 starts on 30Sep2026 at 18:52:43 

     This program is part of the open-source Quantum ESPRESSO suite
     for quantum simulation of materials; please cite
         "P. Giannozzi et al., J. Phys.:Condens. Matter 21 395502 (2009);
         "P. Giannozzi et al., J. Phys.:Condens. Matter 29 465901 (2017);
         "P. Giannozzi et al., J. Chem. Phys. 152 154105 (2020);
          URL http://www.quantum-espresso.org", 
     in publications or presentations arising from this work. More details at
     http://www.quantum-espresso.org/quote

     Parallel version (MPI & OpenMP), running on      16 processor cores
     Number of MPI processes:                 1
     Threads/MPI process:                    16

     MPI processes distributed on     1 nodes
     97994 MiB available memory on the printing compute node when the environment starts
 
     Reading input from pw.in

     Current dimensions of program PWSCF are:
     Max number of different atomic species (ntypx) = 10
     Max number of k-points (npk) =  40000
     Max angular momentum in pseudopotentials (lmaxx) =  4
     Presently no symmetry can be used with electric field

     file C.pbe-n-kjpaw_psl.1.0.0.UPF: wavefunction(s)  2S 2P renormalized
 
     Subspace diagonalization in iterative solution of the eigenvalue problem:
     a serial algorithm will be used

 
     G-vector sticks info
     --------------------
     sticks:   dense  smooth     PW     G-vecs:    dense   smooth      PW
     Sum         769     313    109               258823    65799   13421
 
     Using Slab Decomposition
 


     bravais-lattice index     =            0
     lattice parameter (alat)  =       4.6601  a.u.
     unit-cell volume          =    1293.6859 (a.u.)^3
     number of atoms/cell      =           12
     number of atomic types    =            1
     number of electrons       =        48.00
     number of Kohn-Sham states=           29
     kinetic-energy cutoff     =      52.0000  Ry
     charge density cutoff     =     520.0000  Ry
     scf convergence threshold =      1.0E-08
     mixing beta               =       0.3000
     number of iterations used =            8  local-TF  mixing
     Exchange-correlation= SLA  PW   PBX  PBC
                           (   1   4   3   4   0   0   0)

     GPU acceleration is ACTIVE.  1 visible GPUs per MPI rank


     celldm(1)=   4.660140  celldm(2)=   0.000000  celldm(3)=   0.000000
     celldm(4)=   0.000000  celldm(5)=   0.000000  celldm(6)=   0.000000

     crystal axes: (cart. coord. in units of alat)
               a(1) = (   1.000000   0.000000   0.000000 )  
               a(2) = (   0.500000   0.866025   0.000000 )  
               a(3) = (   0.000000   0.000000  14.760507 )  

     reciprocal axes: (cart. coord. in units 2 pi/alat)
               b(1) = (  1.000000 -0.577350  0.000000 )  
               b(2) = (  0.000000  1.154701  0.000000 )  
               b(3) = (  0.000000  0.000000  0.067748 )  


     PseudoPot. # 1 for C  read from file:
     /home/ubuntu/wad4l/pseudo_kgy/C.pbe-n-kjpaw_psl.1.0.0.UPF
     MD5 check sum: 5d2aebdfa2cae82b50a7e79e9516da0f
     Pseudo is Projector augmented-wave + core cor, Zval =  4.0
     Generated using "atomic" code by A. Dal Corso  v.5.1
     Shape of augmentation charge: PSQ
     Using radial grid of 1073 points,  4 beta functions with: 
                l(1) =   0
                l(2) =   0
                l(3) =   1
                l(4) =   1
     Q(r) pseudized with 0 coefficients 


     atomic species   valence    mass     pseudopotential
     C                 4.00    12.01100     C ( 1.00)

     No symmetry found



   Cartesian axes

     site n.     atom                  positions (alat units)
         1        C      tau(   1) = (   0.0000000   0.0000000   0.2027542  )
         2        C      tau(   2) = (   0.5000000   0.2886751   0.2027542  )
         3        C      tau(   3) = (   0.5000000   0.2886751   1.5612074  )
         4        C      tau(   4) = (   1.0000000   0.5773503   1.5612074  )
         5        C      tau(   5) = (   0.0000000   0.0000000   2.9196607  )
         6        C      tau(   6) = (   0.5000000   0.2886751   2.9196607  )
         7        C      tau(   7) = (   0.5000000   0.2886751   7.7857618  )
         8        C      tau(   8) = (   1.0000000   0.5773503   7.7857618  )
         9        C      tau(   9) = (   0.0000000   0.0000000   9.1442150  )
        10        C      tau(  10) = (   0.5000000   0.2886751   9.1442150  )
        11        C      tau(  11) = (   0.5000000   0.2886751  10.5026682  )
        12        C      tau(  12) = (   1.0000000   0.5773503  10.5026682  )

     --------------------------------------------
     DFT-D3 Dispersion Correction (no 3-body):
     --------------------------------------------
       Reference C6 values for interpolation: 

         atom   Coordination number   C6
         C          0.000            98.23
         C          0.987            86.49
         C          1.998            58.72
         C          2.999            51.56
         C          3.984            36.41

       Values used:

         atom   Coordination number  R0_AB[au]  C6      C8
         C          3.314            2.750     48.28   1396.45
         C          3.314            2.750     48.28   1396.32
         C          3.321            2.750     48.14   1392.41
         C          3.321            2.750     48.15   1392.66
         C          3.314            2.750     48.29   1396.50
         C          3.314            2.750     48.28   1396.37
         C          3.314            2.750     48.28   1396.37
         C          3.314            2.750     48.29   1396.50
         C          3.321            2.750     48.15   1392.66
         C          3.321            2.750     48.14   1392.41
         C          3.314            2.750     48.28   1396.32
         C          3.314            2.750     48.28   1396.45

         Molecular C6 ( Ry / a.u.^6 ) =      6946.23


     number of k points=   164  Marzari-Vanderbilt smearing, width (Ry)=  0.0100

     Number of k-points >= 100: set verbosity='high' to print them.

     Dense  grid:   258823 G-vectors     FFT dimensions: (  36,  36, 500)

     Smooth grid:    65799 G-vectors     FFT dimensions: (  24,  24, 320)

     Estimated max dynamical RAM per process >     472.87 MB

     Check: negative core charge=   -0.000003

     Initial potential from superposition of free atoms

     starting charge      47.9995, renormalised to      48.0000

     negative rho (up, down):  5.130E-05 0.000E+00
 
     Adding external electric field

     Computed dipole along edir(3) : 
        Dipole                0.0000 Ry au,          0.0000 Debye
        Dipole field          0.0000 Ry au, 
 
        Potential amp.       -0.0000 Ry
        Total length         66.8965 bohr
 
     Starting wfcs are   48 randomized atomic wfcs
     Checking if some PAW data can be deallocated... 

     total cpu time spent up to now is        4.0 secs

     Self-consistent Calculation

     iteration #  1     ecut=    52.00 Ry     beta= 0.30
     Davidson diagonalization with overlap
     ethr =  1.00E-02,  avg # of iterations =  2.1

     negative rho (up, down):  4.289E-08 0.000E+00
 
     Adding external electric field

     Computed dipole along edir(3) : 
        Dipole               -0.0000 Ry au,         -0.0001 Debye
        Dipole field         -0.0000 Ry au, 
 
        Potential amp.        0.0000 Ry
        Total length         66.8965 bohr
 

     total cpu time spent up to now is        9.3 secs

     total energy              =    -221.74985090 Ry
     estimated scf accuracy    <       1.07835730 Ry

     iteration #  2     ecut=    52.00 Ry     beta= 0.30
     Davidson diagonalization with overlap
     ethr =  2.25E-03,  avg # of iterations =  1.0

     negative rho (up, down):  1.543E-08 0.000E+00
 
     Adding external electric field

     Computed dipole along edir(3) : 
        Dipole               -0.0001 Ry au,         -0.0003 Debye
        Dipole field         -0.0000 Ry au, 
 
        Potential amp.        0.0002 Ry
        Total length         66.8965 bohr
 

     total cpu time spent up to now is       13.7 secs

     total energy              =    -221.31039582 Ry
     estimated scf accuracy    <       0.74051917 Ry

     iteration #  3     ecut=    52.00 Ry     beta= 0.30
     Davidson diagonalization with overlap
     ethr =  1.54E-03,  avg # of iterations =  2.8
 
     Adding external electric field

     Computed dipole along edir(3) : 
        Dipole               -0.0001 Ry au,         -0.0002 Debye
        Dipole field         -0.0000 Ry au, 
 
        Potential amp.        0.0001 Ry
        Total length         66.8965 bohr
 

     total cpu time spent up to now is       19.2 secs

     total energy              =    -221.43672469 Ry
     estimated scf accuracy    <       0.05999926 Ry

     iteration #  4     ecut=    52.00 Ry     beta= 0.30
     Davidson diagonalization with overlap
     ethr =  1.25E-04,  avg # of iterations =  3.5
 
     Adding external electric field

     Computed dipole along edir(3) : 
        Dipole               -0.0000 Ry au,         -0.0001 Debye
        Dipole field         -0.0000 Ry au, 
 
        Potential amp.        0.0000 Ry
        Total length         66.8965 bohr
 

     total cpu time spent up to now is       24.9 secs

     total energy              =    -221.43414323 Ry
     estimated scf accuracy    <       0.03063685 Ry

     iteration #  5     ecut=    52.00 Ry     beta= 0.30
     Davidson diagonalization with overlap
     ethr =  6.38E-05,  avg # of iterations =  2.9
 
     Adding external electric field

     Computed dipole along edir(3) : 
        Dipole                0.0001 Ry au,          0.0002 Debye
        Dipole field          0.0000 Ry au, 
 
        Potential amp.       -0.0001 Ry
        Total length         66.8965 bohr
 

     total cpu time spent up to now is       30.0 secs

     total energy              =    -221.43495245 Ry
     estimated scf accuracy    <       0.01050358 Ry

     iteration #  6     ecut=    52.00 Ry     beta= 0.30
     Davidson diagonalization with overlap
     c_bands:  1 eigenvalues not converged
     c_bands:  1 eigenvalues not converged
     c_bands:  1 eigenvalues not converged
     c_bands:  1 eigenvalues not converged
     ethr =  2.19E-05,  avg # of iterations =  2.0

     negative rho (up, down):  1.003E-02 0.000E+00
 
     Adding external electric field

     Computed dipole along edir(3) : 
        Dipole                0.0005 Ry au,          0.0013 Debye
        Dipole field          0.0000 Ry au, 
 
        Potential amp.       -0.0007 Ry
        Total length         66.8965 bohr
 

     total cpu time spent up to now is       34.7 secs

     total energy              =    -221.43270789 Ry
     estimated scf accuracy    <       0.00889885 Ry

     iteration #  7     ecut=    52.00 Ry     beta= 0.30
     Davidson diagonalization with overlap
     c_bands:  1 eigenvalues not converged
     c_bands:  1 eigenvalues not converged
     ethr =  1.85E-05,  avg # of iterations =  4.2

     negative rho (up, down):  5.708E-05 0.000E+00
 
     Adding external electric field

     Computed dipole along edir(3) : 
        Dipole                0.0004 Ry au,          0.0011 Debye
        Dipole field          0.0000 Ry au, 
 
        Potential amp.       -0.0006 Ry
        Total length         66.8965 bohr
 

     total cpu time spent up to now is       41.0 secs

     total energy              =    -221.43139756 Ry
     estimated scf accuracy    <       0.00368419 Ry

     iteration #  8     ecut=    52.00 Ry     beta= 0.30
     Davidson diagonalization with overlap
     ethr =  7.68E-06,  avg # of iterations =  3.1

     negative rho (up, down):  3.057E-03 0.000E+00
 
     Adding external electric field

     Computed dipole along edir(3) : 
        Dipole                0.0005 Ry au,          0.0012 Debye
        Dipole field          0.0000 Ry au, 
 
        Potential amp.       -0.0006 Ry
        Total length         66.8965 bohr
 

     total cpu time spent up to now is       46.7 secs

     total energy              =    -221.43239953 Ry
     estimated scf accuracy    <       0.00144308 Ry

     iteration #  9     ecut=    52.00 Ry     beta= 0.30
     Davidson diagonalization with overlap
     c_bands:  2 eigenvalues not converged
     c_bands:  2 eigenvalues not converged
     c_bands:  2 eigenvalues not converged
     ethr =  3.01E-06,  avg # of iterations =  3.1

     negative rho (up, down):  2.286E-03 0.000E+00
 
     Adding external electric field

     Computed dipole along edir(3) : 
        Dipole                0.0000 Ry au,          0.0001 Debye
        Dipole field          0.0000 Ry au, 
 
        Potential amp.       -0.0000 Ry
        Total length         66.8965 bohr
 

     total cpu time spent up to now is       51.8 secs

     total energy              =    -221.43124901 Ry
     estimated scf accuracy    <       0.00084839 Ry

     iteration # 10     ecut=    52.00 Ry     beta= 0.30
     Davidson diagonalization with overlap
     c_bands:  1 eigenvalues not converged
     ethr =  1.77E-06,  avg # of iterations =  5.1

     negative rho (up, down):  2.246E-03 0.000E+00
 
     Adding external electric field

     Computed dipole along edir(3) : 
        Dipole                0.0000 Ry au,          0.0000 Debye
        Dipole field          0.0000 Ry au, 
 
        Potential amp.       -0.0000 Ry
        Total length         66.8965 bohr
 

     total cpu time spent up to now is       58.2 secs

     total energy              =    -221.43134732 Ry
     estimated scf accuracy    <       0.00015016 Ry

     iteration # 11     ecut=    52.00 Ry     beta= 0.30
     Davidson diagonalization with overlap
     ethr =  3.13E-07,  avg # of iterations =  3.1

     negative rho (up, down):  1.359E-03 0.000E+00
 
     Adding external electric field

     Computed dipole along edir(3) : 
        Dipole               -0.0001 Ry au,         -0.0003 Debye
        Dipole field         -0.0000 Ry au, 
 
        Potential amp.        0.0002 Ry
        Total length         66.8965 bohr
 

     total cpu time spent up to now is       63.8 secs

     total energy              =    -221.43132855 Ry
     estimated scf accuracy    <       0.00010360 Ry

     iteration # 12     ecut=    52.00 Ry     beta= 0.30
     Davidson diagonalization with overlap
     c_bands:  2 eigenvalues not converged
     c_bands:  1 eigenvalues not converged
     c_bands:  1 eigenvalues not converged
     ethr =  2.16E-07,  avg # of iterations =  3.4

     negative rho (up, down):  1.631E-03 0.000E+00
 
     Adding external electric field

     Computed dipole along edir(3) : 
        Dipole               -0.0003 Ry au,         -0.0007 Debye
        Dipole field         -0.0000 Ry au, 
 
        Potential amp.        0.0004 Ry
        Total length         66.8965 bohr
 

     total cpu time spent up to now is       69.1 secs

     total energy              =    -221.43135786 Ry
     estimated scf accuracy    <       0.00004724 Ry

     iteration # 13     ecut=    52.00 Ry     beta= 0.30
     Davidson diagonalization with overlap
     ethr =  9.84E-08,  avg # of iterations =  2.9

     negative rho (up, down):  2.365E-04 0.000E+00
 
     Adding external electric field

     Computed dipole along edir(3) : 
        Dipole               -0.0004 Ry au,         -0.0009 Debye
        Dipole field         -0.0000 Ry au, 
 
        Potential amp.        0.0005 Ry
        Total length         66.8965 bohr
 

     total cpu time spent up to now is       74.2 secs

     total energy              =    -221.43131049 Ry
     estimated scf accuracy    <       0.00004026 Ry

     iteration # 14     ecut=    52.00 Ry     beta= 0.30
     Davidson diagonalization with overlap
     c_bands:  1 eigenvalues not converged
     c_bands:  1 eigenvalues not converged
     c_bands:  1 eigenvalues not converged
     c_bands:  1 eigenvalues not converged
     c_bands:  1 eigenvalues not converged
     ethr =  8.39E-08,  avg # of iterations =  4.5

     negative rho (up, down):  3.669E-04 0.000E+00
 
     Adding external electric field

     Computed dipole along edir(3) : 
        Dipole               -0.0002 Ry au,         -0.0006 Debye
        Dipole field         -0.0000 Ry au, 
 
        Potential amp.        0.0003 Ry
        Total length         66.8965 bohr
 

     total cpu time spent up to now is       80.6 secs

     total energy              =    -221.43131860 Ry
     estimated scf accuracy    <       0.00001446 Ry

     iteration # 15     ecut=    52.00 Ry     beta= 0.30
     Davidson diagonalization with overlap
     ethr =  3.01E-08,  avg # of iterations =  3.3

     negative rho (up, down):  1.225E-04 0.000E+00
 
     Adding external electric field

     Computed dipole along edir(3) : 
        Dipole                0.0000 Ry au,          0.0001 Debye
        Dipole field          0.0000 Ry au, 
 
        Potential amp.       -0.0000 Ry
        Total length         66.8965 bohr
 

     total cpu time spent up to now is       85.9 secs

     total energy              =    -221.43130541 Ry
     estimated scf accuracy    <       0.00000997 Ry

     iteration # 16     ecut=    52.00 Ry     beta= 0.30
     Davidson diagonalization with overlap
     ethr =  2.08E-08,  avg # of iterations =  3.0

     negative rho (up, down):  1.268E-04 0.000E+00
 
     Adding external electric field

     Computed dipole along edir(3) : 
        Dipole                0.0000 Ry au,          0.0001 Debye
        Dipole field          0.0000 Ry au, 
 
        Potential amp.       -0.0001 Ry
        Total length         66.8965 bohr
 

     total cpu time spent up to now is       91.4 secs

     total energy              =    -221.43130710 Ry
     estimated scf accuracy    <       0.00000410 Ry

     iteration # 17     ecut=    52.00 Ry     beta= 0.30
     Davidson diagonalization with overlap
     ethr =  8.53E-09,  avg # of iterations =  1.1

     negative rho (up, down):  3.854E-04 0.000E+00
 
     Adding external electric field

     Computed dipole along edir(3) : 
        Dipole                0.0001 Ry au,          0.0003 Debye
        Dipole field          0.0000 Ry au, 
 
        Potential amp.       -0.0002 Ry
        Total length         66.8965 bohr
 

     total cpu time spent up to now is       95.9 secs

     total energy              =    -221.43131086 Ry
     estimated scf accuracy    <       0.00000353 Ry

     iteration # 18     ecut=    52.00 Ry     beta= 0.30
     Davidson diagonalization with overlap
     ethr =  7.35E-09,  avg # of iterations =  2.2

     negative rho (up, down):  5.594E-04 0.000E+00
 
     Adding external electric field

     Computed dipole along edir(3) : 
        Dipole                0.0001 Ry au,          0.0002 Debye
        Dipole field          0.0000 Ry au, 
 
        Potential amp.       -0.0001 Ry
        Total length         66.8965 bohr
 

     total cpu time spent up to now is      101.2 secs

     total energy              =    -221.43130871 Ry
     estimated scf accuracy    <       0.00000613 Ry

     iteration # 19     ecut=    52.00 Ry     beta= 0.30
     Davidson diagonalization with overlap
     ethr =  7.35E-09,  avg # of iterations =  1.5

     negative rho (up, down):  5.617E-04 0.000E+00
 
     Adding external electric field

     Computed dipole along edir(3) : 
        Dipole                0.0001 Ry au,          0.0002 Debye
        Dipole field          0.0000 Ry au, 
 
        Potential amp.       -0.0001 Ry
        Total length         66.8965 bohr
 

     total cpu time spent up to now is      105.8 secs

     total energy              =    -221.43130837 Ry
     estimated scf accuracy    <       0.00000260 Ry

     iteration # 20     ecut=    52.00 Ry     beta= 0.30
     Davidson diagonalization with overlap
     ethr =  5.41E-09,  avg # of iterations =  1.6

     negative rho (up, down):  1.164E-04 0.000E+00
 
     Adding external electric field

     Computed dipole along edir(3) : 
        Dipole                0.0001 Ry au,          0.0002 Debye
        Dipole field          0.0000 Ry au, 
 
        Potential amp.       -0.0001 Ry
        Total length         66.8965 bohr
 

     total cpu time spent up to now is      110.4 secs

     total energy              =    -221.43130600 Ry
     estimated scf accuracy    <       0.00000178 Ry

     iteration # 21     ecut=    52.00 Ry     beta= 0.30
     Davidson diagonalization with overlap
     ethr =  3.70E-09,  avg # of iterations =  1.4

     negative rho (up, down):  5.180E-05 0.000E+00
 
     Adding external electric field

     Computed dipole along edir(3) : 
        Dipole                0.0000 Ry au,          0.0001 Debye
        Dipole field          0.0000 Ry au, 
 
        Potential amp.       -0.0000 Ry
        Total length         66.8965 bohr
 

     total cpu time spent up to now is      114.8 secs

     total energy              =    -221.43130611 Ry
     estimated scf accuracy    <       0.00000089 Ry

     iteration # 22     ecut=    52.00 Ry     beta= 0.30
     Davidson diagonalization with overlap
     ethr =  1.85E-09,  avg # of iterations =  1.6

     negative rho (up, down):  5.189E-05 0.000E+00
 
     Adding external electric field

     Computed dipole along edir(3) : 
        Dipole                0.0000 Ry au,          0.0000 Debye
        Dipole field          0.0000 Ry au, 
 
        Potential amp.       -0.0000 Ry
        Total length         66.8965 bohr
 

     total cpu time spent up to now is      119.3 secs

     total energy              =    -221.43130628 Ry
     estimated scf accuracy    <       0.00000038 Ry

     iteration # 23     ecut=    52.00 Ry     beta= 0.30
     Davidson diagonalization with overlap
     ethr =  8.00E-10,  avg # of iterations =  1.8

     negative rho (up, down):  8.401E-05 0.000E+00
 
     Adding external electric field

     Computed dipole along edir(3) : 
        Dipole                0.0000 Ry au,          0.0000 Debye
        Dipole field          0.0000 Ry au, 
 
        Potential amp.       -0.0000 Ry
        Total length         66.8965 bohr
 

     total cpu time spent up to now is      124.1 secs

     total energy              =    -221.43130626 Ry
     estimated scf accuracy    <       0.00000032 Ry

     iteration # 24     ecut=    52.00 Ry     beta= 0.30
     Davidson diagonalization with overlap
     ethr =  6.70E-10,  avg # of iterations =  2.6

     negative rho (up, down):  7.734E-05 0.000E+00
 
     Adding external electric field

     Computed dipole along edir(3) : 
        Dipole               -0.0000 Ry au,         -0.0000 Debye
        Dipole field         -0.0000 Ry au, 
 
        Potential amp.        0.0000 Ry
        Total length         66.8965 bohr
 

     total cpu time spent up to now is      129.5 secs

     total energy              =    -221.43130609 Ry
     estimated scf accuracy    <       0.00000048 Ry

     iteration # 25     ecut=    52.00 Ry     beta= 0.30
     Davidson diagonalization with overlap
     ethr =  6.70E-10,  avg # of iterations =  2.5

     negative rho (up, down):  8.423E-05 0.000E+00
 
     Adding external electric field

     Computed dipole along edir(3) : 
        Dipole               -0.0000 Ry au,         -0.0000 Debye
        Dipole field         -0.0000 Ry au, 
 
        Potential amp.        0.0000 Ry
        Total length         66.8965 bohr
 

     total cpu time spent up to now is      135.0 secs

     total energy              =    -221.43130621 Ry
     estimated scf accuracy    <       0.00000007 Ry

     iteration # 26     ecut=    52.00 Ry     beta= 0.30
     Davidson diagonalization with overlap
     ethr =  1.48E-10,  avg # of iterations =  2.0

     negative rho (up, down):  1.151E-04 0.000E+00
 
     Adding external electric field

     Computed dipole along edir(3) : 
        Dipole               -0.0000 Ry au,         -0.0000 Debye
        Dipole field         -0.0000 Ry au, 
 
        Potential amp.        0.0000 Ry
        Total length         66.8965 bohr
 

     total cpu time spent up to now is      139.6 secs

     total energy              =    -221.43130620 Ry
     estimated scf accuracy    <       0.00000004 Ry

     iteration # 27     ecut=    52.00 Ry     beta= 0.30
     Davidson diagonalization with overlap
     ethr =  8.47E-11,  avg # of iterations =  2.1

     negative rho (up, down):  1.036E-04 0.000E+00
 
     Adding external electric field

     Computed dipole along edir(3) : 
        Dipole                0.0002 Ry au,          0.0006 Debye
        Dipole field          0.0000 Ry au, 
 
        Potential amp.       -0.0003 Ry
        Total length         66.8965 bohr
 

     total cpu time spent up to now is      144.4 secs

     End of self-consistent calculation

     Number of k-points >= 100: set verbosity='high' to print the bands.

     the Fermi energy is     1.9819 ev

!    total energy              =    -221.43130623 Ry
     total all-electron energy =      -914.600480 Ry
     estimated scf accuracy    <          5.9E-09 Ry
     smearing contrib. (-TS)   =      -0.00016035 Ry
     internal energy E=F+TS    =    -221.43114588 Ry

     The total energy is F=E-TS. E is the sum of the following terms:
     one-electron contribution =   -1028.22812288 Ry
     hartree contribution      =     530.38503830 Ry
     xc contribution           =     -55.67146077 Ry
     ewald contribution        =     406.20279699 Ry
     DFT-D3 Dispersion         =      -0.11645411 Ry
     electric field correction =       0.00000000 Ry
     one-center paw contrib.   =     -74.00294342 Ry

     convergence has been achieved in  27 iterations

     negative rho (up, down):  1.036E-04 0.000E+00

     Forces acting on atoms (cartesian axes, Ry/au):

     atom    1 type  1   force =    -0.00000002    0.00000002   -0.00059118
     atom    2 type  1   force =    -0.00000002    0.00000004    0.00000721
     atom    3 type  1   force =    -0.00000005   -0.00000003   -0.00000742
     atom    4 type  1   force =     0.00000004   -0.00000001   -0.00000499
     atom    5 type  1   force =     0.00000002    0.00000001    0.00058307
     atom    6 type  1   force =     0.00000006   -0.00000001   -0.00002170
     atom    7 type  1   force =    -0.00000002   -0.00000003    0.00001684
     atom    8 type  1   force =    -0.00000001    0.00000001   -0.00058131
     atom    9 type  1   force =    -0.00000004    0.00000001    0.00000827
     atom   10 type  1   force =    -0.00000004   -0.00000007    0.00000590
     atom   11 type  1   force =     0.00000003   -0.00000001   -0.00000854
     atom   12 type  1   force =     0.00000003    0.00000005    0.00059386

     Total force =     0.001175     Total SCF correction =     0.000170
     SCF correction compared to forces is large: reduce conv_thr to get better values

     Writing all to output data dir ./tmp/CC_S33_AB_G3_c2_far_ii.save/ :
     XML data file, charge density, pseudopotentials, collected wavefunctions
 
     init_run     :      4.15s CPU      3.83s WALL (       1 calls)
     electrons    :    146.97s CPU    140.41s WALL (       1 calls)
     forces       :      0.69s CPU      0.73s WALL (       1 calls)
     force_dftd3  :      0.05s CPU      0.03s WALL (       1 calls)

     Called by init_run:
     wfcinit      :      1.44s CPU      1.78s WALL (       1 calls)
     potinit      :      2.15s CPU      1.49s WALL (       1 calls)
     hinit0       :      0.33s CPU      0.28s WALL (       1 calls)

     Called by electrons:
     c_bands      :     76.32s CPU     85.79s WALL (      27 calls)
     sum_band     :     13.35s CPU     16.62s WALL (      27 calls)
     v_of_rho     :      4.87s CPU      3.49s WALL (      28 calls)
     newd         :      0.19s CPU      0.19s WALL (      28 calls)
                                        0.19s GPU  (      28 calls)
     PAW_pot      :     50.83s CPU     32.20s WALL (      28 calls)
     mix_rho      :      2.39s CPU      2.47s WALL (      27 calls)
     energy_dftd3 :      0.00s CPU      0.00s WALL (       1 calls)

     Called by c_bands:
     init_us_2    :      2.99s CPU      3.90s WALL (    9184 calls)
     cegterg      :     63.53s CPU     65.75s WALL (    4428 calls)

     Called by *egterg:
     cdiaghg      :     15.39s CPU     15.77s WALL (   15974 calls)
                                       15.66s GPU  (   15974 calls)
     h_psi        :     35.44s CPU     37.42s WALL (   16138 calls)
                                       37.31s GPU  (   16138 calls)
     s_psi        :      4.91s CPU      5.05s WALL (   16138 calls)
     g_psi        :      0.06s CPU      0.39s WALL (   11546 calls)
                                        0.33s GPU  (   11546 calls)

     Called by h_psi:
     h_psi:calbec :      0.50s CPU      1.47s WALL (   16138 calls)
                                        1.38s GPU  (   16138 calls)
     vloc_psi     :     28.52s CPU     30.25s WALL (   16138 calls)
                                       30.16s GPU  (   16138 calls)
     add_vuspsi   :      3.92s CPU      4.79s WALL (   16138 calls)
                                        4.69s GPU  (   16138 calls)

     General routines
     calbec       :      0.56s CPU      0.62s WALL (   21222 calls)
     fft          :      0.38s CPU      0.45s WALL (     373 calls)
                                        0.05s GPU  (     345 calls)
     ffts         :      0.14s CPU      0.21s WALL (    2907 calls)
                                        0.10s GPU  (    2879 calls)
     fftw         :      0.79s CPU     22.33s WALL (   62532 calls)
                                       21.99s GPU  (   62532 calls)
     interpolate  :      0.55s CPU      0.57s WALL (      28 calls)
     davcio       :      8.14s CPU     12.93s WALL (   14222 calls)
 
     Parallel routines
 
     PWSCF        :   2m41.27s CPU   2m31.35s WALL

 
   This run was terminated on:  18:55:15  30Sep2026            

=------------------------------------------------------------------------------=
   JOB DONE.
=------------------------------------------------------------------------------=
