39
PATH ILLUSTRATION ONLY - Li=endpoint sites, S=CI-NEB saddle, O=interpolated trail markers (NOT atoms). hop 2.46 A
C     -0.00119111    -0.01941275     9.00801917
C      1.22895449     0.69077751     9.00882455
C      1.23078242     2.10941726     9.01123333
C      2.46000000     2.81915380     9.01105821
C      2.46000000     4.23870616     9.00930125
C      3.68772602     4.94958271     9.00677296
C      3.68773653     6.36994597     9.00645040
C      4.91332881     7.08395215     9.00503290
C      2.46000000    -0.01390475     9.00652573
C      3.69104551     0.69077751     9.00882455
C      3.68921758     2.10941726     9.01123333
C      4.91864492     2.81705739     9.00754773
C      4.91329505     4.23553979     9.00373376
C      6.14312057     4.94559979     8.98654015
C      6.14316389     6.37370107     8.98734163
C      7.38000000     7.08778743     8.98776973
C      4.92119111    -0.01941275     9.00801917
C      6.15075796     0.68828493     9.01130465
C      6.14894221     2.10692378     9.00803639
C      7.38000000     2.81134292     9.00457376
C      7.38000000     4.23150669     8.98632525
C      8.61687943     4.94559979     8.98654015
C      8.61683611     6.37370107     8.98734163
C      9.84667119     7.08395215     9.00503290
C      7.38000000    -0.02150232     9.01094961
C      8.60924204     0.68828493     9.01130465
C      8.61105779     2.10692378     9.00803639
C      9.84135508     2.81705739     9.00754773
C      9.84670495     4.23553979     9.00373376
C     11.07227398     4.94958271     9.00677296
C     11.07226347     6.36994597     9.00645040
C     12.30000000     7.08095887     9.00756982
Li     7.38000000     5.65673078    10.67425139
Li     9.84000000     5.65673078    10.67425139
S      8.60679291     5.65652712    10.90929403
O      7.85695853     5.65660310    10.82161337
O      8.25164713     5.65654416    10.88963404
O      8.96285175     5.65654413    10.88966278
O      9.35944207     5.65660309    10.82161658
