site_screen DFT handoff (freeze<= 17.396
   1.00000000000000     
    18.2724449377000013    0.0000000000000000    0.0000000000000000
    -3.6263933057000002   10.9259057104000004    0.0000000000000000
     0.0000000000000000    0.0000000000000000   36.6550999999999974
   Li   Ni   O    S    C    H 
    48    48   102     2    11    16
Selective dynamics
Direct
  0.9581555226999967  0.2290777612999975  0.3293233051080122   F   F   F
  0.2914888558999991  0.1457444281999969  0.3293233051080122   F   F   F
  0.6248221889999996  0.0624110942000016  0.3293233051080122   F   F   F
  0.0407776122000030  0.1453888063999997  0.3849606092629827   F   F   F
  0.3741109453999982  0.0620554723999973  0.3849606092629827   F   F   F
  0.7074442791000024  0.2287221395000003  0.3849606092629827   F   F   F
  0.1228053136999989  0.0614023778000004  0.4418143284132086   F   F   F
  0.4559912116000007  0.2279949127999998  0.4417376160292577   F   F   F
  0.7891160757000009  0.1445604072999984  0.4418040922305266   F   F   F
  0.2029456718999967  0.2267630496999971  0.4989494558622667   T   T   T
  0.5364301146000017  0.1419052370999978  0.4983607566014783   T   T   T
  0.8699579168999989  0.0595591228000032  0.4981589481600963   T   T   T
  0.9581555225000002  0.4790777615000010  0.3293233051080122   F   F   F
  0.2914888554999990  0.3957444274999986  0.3293233051080122   F   F   F
  0.6248221888000032  0.3124110943999980  0.3293233051080122   F   F   F
  0.0407776118999976  0.3953888057000015  0.3849606092629827   F   F   F
  0.3741109457999983  0.3120554726000009  0.3849606092629827   F   F   F
  0.7074442788999988  0.4787221396999968  0.3849606092629827   F   F   F
  0.1228053135000025  0.3114023779999968  0.4418143284132086   F   F   F
  0.4559912113999971  0.4779949130000034  0.4417376160292577   F   F   F
  0.7891160759999991  0.3945604066000001  0.4418040922305266   F   F   F
  0.2030111294999983  0.4760495841999983  0.4987585247323167   T   T   T
  0.5373141625999978  0.3903111716999987  0.4986439008847583   T   T   T
  0.8699577539000032  0.3103314425000008  0.4980396351401311   T   T   T
  0.9581555222000020  0.7290777608000027  0.3293233051080122   F   F   F
  0.2914888558999991  0.6457444277000022  0.3293233051080122   F   F   F
  0.6248221892000032  0.5624110946000016  0.3293233051080122   F   F   F
  0.0407776122999977  0.6453888058999979  0.3849606092629827   F   F   F
  0.3741109456000018  0.5620554727999973  0.3849606092629827   F   F   F
  0.7074442786000006  0.7287221389999985  0.3849606092629827   F   F   F
  0.1228053132999989  0.5614023782000004  0.4418143284132086   F   F   F
  0.4559912117999971  0.7279949133000017  0.4417376160292577   F   F   F
  0.7891160758000026  0.6445604068999984  0.4418040922305266   F   F   F
  0.2031987968000024  0.7264474516000021  0.4983040444459661   T   T   T
  0.5381487834999987  0.6470006329000029  0.4990017735697592   T   T   T
  0.8700265298000005  0.5602973586000033  0.4983591740057847   T   T   T
  0.9581555226000020  0.9790777609999992  0.3293233051080122   F   F   F
  0.2914888557999973  0.8957444278999986  0.3293233051080122   F   F   F
  0.6248221891000014  0.8124110947999981  0.3293233051080122   F   F   F
  0.0407776121000012  0.8953888061000015  0.3849606092629827   F   F   F
  0.3741109453999982  0.8120554730000009  0.3849606092629827   F   F   F
  0.7074442790000006  0.9787221392000021  0.3849606092629827   F   F   F
  0.1228053135999971  0.8114023775000021  0.4418143284132086   F   F   F
  0.4559912117000025  0.9779949134999981  0.4417376160292577   F   F   F
  0.7891160755999991  0.8945604071000020  0.4418040922305266   F   F   F
  0.2032700028999983  0.9770280600000021  0.4984533448060517   T   T   T
  0.5365821681999989  0.8943820154999997  0.4983032734568553   T   T   T
  0.8699658706999998  0.8100649990999997  0.4981763124627321   T   T   T
  0.4581555226000020  0.2290777612999975  0.3293233051080122   F   F   F
  0.7914888558999991  0.1457444281999969  0.3293233051080122   F   F   F
  0.1248221888999979  0.0624110942000016  0.3293233051080122   F   F   F
  0.5407776122999977  0.1453888063999997  0.3849606092629827   F   F   F
  0.8741109453999982  0.0620554723999973  0.3849606092629827   F   F   F
  0.2074442790000006  0.2287221395000003  0.3849606092629827   F   F   F
  0.6243433249000034  0.0621716531000018  0.4427766763695899   F   F   F
  0.9577526387000006  0.2288761267000012  0.4428342820270927   F   F   F
  0.2911494255000022  0.1455744184999972  0.4426638429933547   F   F   F
  0.7085616795000007  0.2293394522000014  0.4990749235035778   T   T   T
  0.0422310323999966  0.1460739028999996  0.4987358940267512   T   T   T
  0.3754584347000005  0.0623560864000012  0.4988052890727417   T   T   T
  0.4581555225000002  0.4790777615000010  0.3293233051080122   F   F   F
  0.7914888556000008  0.3957444274999986  0.3293233051080122   F   F   F
  0.1248221892999979  0.3124110943999980  0.3293233051080122   F   F   F
  0.5407776119999994  0.3953888057000015  0.3849606092629827   F   F   F
  0.8741109453000036  0.3120554726000009  0.3849606092629827   F   F   F
  0.2074442787999971  0.4787221396999968  0.3849606092629827   F   F   F
  0.6243433248000017  0.3121716534000001  0.4427766763695899   F   F   F
  0.9577526384999970  0.4788761268999977  0.4428342820270927   F   F   F
  0.2911494254000004  0.3955744187000008  0.4426638429933547   F   F   F
  0.7088059765999972  0.4792992021999964  0.4991698238499040   T   T   T
  0.0422706550000029  0.3961552804000021  0.4987394667963727   T   T   T
  0.3739106486000026  0.3108160294000015  0.5004690504554929   T   T   T
  0.4581555221000002  0.7290777608000027  0.3293233051080122   F   F   F
  0.7914888560000009  0.6457444277000022  0.3293233051080122   F   F   F
  0.1248221892000032  0.5624110946000016  0.3293233051080122   F   F   F
  0.5407776123999994  0.6453888058999979  0.3849606092629827   F   F   F
  0.8741109456999965  0.5620554727999973  0.3849606092629827   F   F   F
  0.2074442791000024  0.7287221389999985  0.3849606092629827   F   F   F
  0.6243433245999981  0.5621716535999965  0.4427766763695899   F   F   F
  0.9577526387000006  0.7288761263000012  0.4428342820270927   F   F   F
  0.2911494258000005  0.6455744188999972  0.4426638429933547   F   F   F
  0.7088167377999994  0.7291998907000021  0.4989873728571084   T   T   T
  0.0423652484000030  0.6461804391000001  0.4987537180003727   T   T   T
  0.3743787022999996  0.5630106010000020  0.4996847379921476   T   T   T
  0.4581555225000002  0.9790777609999992  0.3293233051080122   F   F   F
  0.7914888557999973  0.8957444278999986  0.3293233051080122   F   F   F
  0.1248221889999996  0.8124110947999981  0.3293233051080122   F   F   F
  0.5407776122000030  0.8953888061000015  0.3849606092629827   F   F   F
  0.8741109455000000  0.8120554730000009  0.3849606092629827   F   F   F
  0.2074442788999988  0.9787221392000021  0.3849606092629827   F   F   F
  0.6243433249999981  0.8121716538000001  0.4427766763695899   F   F   F
  0.9577526385999988  0.9788761264999977  0.4428342820270927   F   F   F
  0.2911494254000004  0.8955744181999989  0.4426638429933547   F   F   F
  0.7086395938000010  0.9793167974999974  0.4989587113639757   T   T   T
  0.0423338733000023  0.8961388976999984  0.4987533846398406   T   T   T
  0.3755296584999996  0.8129554349999992  0.4987104342972373   T   T   T
  0.7140137493000012  0.2320068750000033  0.3273759995414238   F   F   F
  0.2022972954000011  0.2261486475999988  0.3312706109222603   F   F   F
  0.0473470828000018  0.1486735408999991  0.3273759995414238   F   F   F
  0.5356306286999981  0.1428153144999982  0.3312706109222603   F   F   F
  0.3806804160999988  0.0653402077999985  0.3273759995414238   F   F   F
  0.8689639625999988  0.0594819813999976  0.3312706109222603   F   F   F
  0.7966358388000003  0.1483179191999966  0.3830133037789523   F   F   F
  0.2849193855999985  0.1424596927000010  0.3869079151597887   F   F   F
  0.1299691724999974  0.0649845861000031  0.3830133037789523   F   F   F
  0.6182527189999973  0.0591263596000005  0.3869079151597887   F   F   F
  0.4633025055999980  0.2316512531999990  0.3830133037789523   F   F   F
  0.9515860519000015  0.2257930258000016  0.3869079151597887   F   F   F
  0.8810689915000012  0.0655199431000000  0.4424475194169162   F   F   F
  0.3670671296000023  0.0585276019000034  0.4422352987837854   F   F   F
  0.2143744381999966  0.2321922654999966  0.4425879173666729   F   F   F
  0.7000772865999991  0.2250341211999967  0.4424287504264584   F   F   F
  0.5477439774999979  0.1488765126999994  0.4424278261311301   F   F   F
  0.0339334728000011  0.1419812911999969  0.4421788708680694   F   F   F
  0.9674006062000018  0.2339815643000023  0.4997922630270821   T   T   T
  0.4478243128000017  0.2234339407999997  0.5005705615442508   T   T   T
  0.2999581970999969  0.1485855545999968  0.4989230074438638   T   T   T
  0.7813732044999995  0.1407506225000006  0.5013358880603462   T   T   T
  0.6338535758000035  0.0671991018000000  0.5002746681606922   T   T   T
  0.1148536801999995  0.0574021235999993  0.5005429377781780   T   T   T
  0.7140137494999976  0.4820068742999979  0.3273759995414238   F   F   F
  0.2022972958000011  0.4761486478000023  0.3312706109222603   F   F   F
  0.0473470827000000  0.3986735411999973  0.3273759995414238   F   F   F
  0.5356306290999981  0.3928153147000017  0.3312706109222603   F   F   F
  0.3806804159999970  0.3153402080999967  0.3273759995414238   F   F   F
  0.8689639621999987  0.3094819806999993  0.3312706109222603   F   F   F
  0.7966358392000004  0.3983179194000002  0.3830133037789523   F   F   F
  0.2849193854999967  0.3924596928999975  0.3869079151597887   F   F   F
  0.1299691723000009  0.3149845862999996  0.3830133037789523   F   F   F
  0.6182527185999973  0.3091263589000022  0.3869079151597887   F   F   F
  0.4633025059000033  0.4816512525000007  0.3830133037789523   F   F   F
  0.9515860517999997  0.4757930259999981  0.3869079151597887   F   F   F
  0.8810689911000011  0.3155199424000017  0.4424475194169162   F   F   F
  0.3670671300000024  0.3085276020999999  0.4422352987837854   F   F   F
  0.2143744380000001  0.4821922658000020  0.4425879173666729   F   F   F
  0.7000772864000027  0.4750341214000002  0.4424287504264584   F   F   F
  0.5477439774000032  0.3988765129000029  0.4424278261311301   F   F   F
  0.0339334729999976  0.3919812904999986  0.4421788708680694   F   F   F
  0.9674661756000020  0.4840108655999984  0.4997840052128453   T   T   T
  0.4462594008999972  0.4734629052000017  0.5078189913806526   T   T   T
  0.2997195375999979  0.4004226996000000  0.4995479832321550   T   T   T
  0.7814871148000009  0.3902663790999981  0.5009187733783023   T   T   T
  0.6337949838000014  0.3172156369999968  0.5003322077735106   T   T   T
  0.1147484184999996  0.3072940037000009  0.5004521728195996   T   T   T
  0.7140137493000012  0.7320068745000015  0.3273759995414238   F   F   F
  0.2022972956999993  0.7261486479999988  0.3312706109222603   F   F   F
  0.0473470825000035  0.6486735414000009  0.3273759995414238   F   F   F
  0.5356306290000035  0.6428153148999982  0.3312706109222603   F   F   F
  0.3806804158000006  0.5653402083000003  0.3273759995414238   F   F   F
  0.8689639620999969  0.5594819809000029  0.3312706109222603   F   F   F
  0.7966358389999968  0.6483179195999966  0.3830133037789523   F   F   F
  0.2849193853000003  0.6424596931000011  0.3869079151597887   F   F   F
  0.1299691727000010  0.5649845865000032  0.3830133037789523   F   F   F
  0.6182527185000026  0.5591263590999986  0.3869079151597887   F   F   F
  0.4633025056999998  0.7316512526999972  0.3830133037789523   F   F   F
  0.9515860521999997  0.7257930262000016  0.3869079151597887   F   F   F
  0.8810689909999994  0.5655199425999982  0.4424475194169162   F   F   F
  0.3670671297999988  0.5585276023999981  0.4422352987837854   F   F   F
  0.2143744381999966  0.7321922650999966  0.4425879173666729   F   F   F
  0.7000772868000027  0.7250341216999985  0.4424287504264584   F   F   F
  0.5477439777000015  0.6488765130999994  0.4424278261311301   F   F   F
  0.0339334729000029  0.6419812907000022  0.4421788708680694   F   F   F
  0.9675060259000006  0.7339584874999971  0.4997862314139567   T   T   T
  0.4477369526999979  0.7235309172000015  0.5007285949100577   T   T   T
  0.3001723073999969  0.6511815265999985  0.4994241265031860   T   T   T
  0.7815827475999981  0.6407594001999968  0.5009568300576461   T   T   T
  0.6339308912000021  0.5671318720999992  0.5003315584717356   T   T   T
  0.1149070824999967  0.5573386053000036  0.5005796762056747   T   T   T
  0.7140137491999994  0.9820068746999979  0.3273759995414238   F   F   F
  0.2022972955000029  0.9761486482000024  0.3312706109222603   F   F   F
  0.0473470828999965  0.8986735415999973  0.3273759995414238   F   F   F
  0.5356306286000034  0.8928153141999999  0.3312706109222603   F   F   F
  0.3806804159999970  0.8153402076000020  0.3273759995414238   F   F   F
  0.8689639624999970  0.8094819810999994  0.3312706109222603   F   F   F
  0.7966358393999968  0.8983179198000002  0.3830133037789523   F   F   F
  0.2849193855999985  0.8924596924000028  0.3869079151597887   F   F   F
  0.1299691724000027  0.8149845857999978  0.3830133037789523   F   F   F
  0.6182527189000027  0.8091263593000022  0.3869079151597887   F   F   F
  0.4633025055000033  0.9816512529000008  0.3830133037789523   F   F   F
  0.9515860520000032  0.9757930264999999  0.3869079151597887   F   F   F
  0.8810689913999994  0.8155199428000017  0.4424475194169162   F   F   F
  0.3670671300000024  0.8085276016999998  0.4422352987837854   F   F   F
  0.2143744381000019  0.9821922653000001  0.4425879173666729   F   F   F
  0.7000772864999973  0.9750341210000002  0.4424287504264584   F   F   F
  0.5477439774000032  0.8988765124000011  0.4424278261311301   F   F   F
  0.0339334726999994  0.8919812908999987  0.4421788708680694   F   F   F
  0.9674183814000017  0.9838767104999988  0.4997831450634180   T   T   T
  0.4483734245999997  0.9741070490999988  0.5006055110689829   T   T   T
  0.3009018547000011  0.9005954280000026  0.4997395170198260   T   T   T
  0.7814841833000017  0.8907635456000023  0.5007550106363396   T   T   T
  0.6337451540999979  0.8169105368999965  0.5000000755904779   T   T   T
  0.1149758478999985  0.8074403911000019  0.5005906048668436   T   T   T
  0.3149493988999978  0.4377631398999995  0.6220506529863741   T   T   T
  0.3562440050000006  0.2842445094999988  0.5856823037275092   T   T   T
  0.4327014460000029  0.5032160614999981  0.5839267796161494   T   T   T
  0.5701044095999990  0.6188611561999977  0.6486772124674118   T   T   T
  0.7334176139000022  0.4499083242999973  0.6152269411434546   T   T   T
  0.6169903728999984  0.4044952745000003  0.6729558230783539   T   T   T
  0.3753225283000035  0.3951991170999989  0.6073660535451992   T   T   T
  0.6480964192000016  0.1054676179999987  0.6385562140224508   T   T   T
  0.3989566735999972  0.2506011549999982  0.6627656945091402   T   T   T
  0.4362573722999983  0.3778904238999985  0.6456405087074515   T   T   T
  0.4482751532000009  0.4784875293999988  0.6749127657198031   T   T   T
  0.4950548386999998  0.6081991595000034  0.6632238973214299   T   T   T
  0.6276131532000022  0.6185328135999981  0.6749855255772204   T   T   T
  0.6692191945000019  0.5274753181000023  0.6644635504682128   T   T   T
  0.6920061587999982  0.5354772991000019  0.6242428415009371   T   T   T
  0.6954758912999992  0.3358907012000003  0.6280819249899636   T   T   T
  0.7073667072000021  0.2298381192999983  0.6160366906334502   T   T   T
  0.6070911495000004  0.1914673405999991  0.6648784875745477   T   T   T
  0.6383774016000032  0.3138795090000031  0.6566037250335555   T   T   T
  0.4378630385999998  0.2385391736999978  0.6844144179425982   T   T   T
  0.3910913206999993  0.1781221777999988  0.6423017331665051   T   T   T
  0.3428067444000007  0.2438624211999993  0.6750912233209121   T   T   T
  0.4916397432999986  0.3833936839000032  0.6328904285824493   T   T   T
  0.4359388847000005  0.4794441722999991  0.5573063110233392   T   T   T
  0.4774404712999996  0.4494517736000034  0.6979364434991524   T   T   T
  0.3917059764999991  0.4806650825000034  0.6847305902631504   T   T   T
  0.4653232622999965  0.6388301606000013  0.6409651571375576   T   T   T
  0.4996282715000007  0.6701779993000017  0.6867846793480012   T   T   T
  0.6041688139000030  0.5953139558999965  0.7028108516761904   T   T   T
  0.6711544794000019  0.7105872341999984  0.6761438394973069   T   T   T
  0.7213897856999978  0.5441177590000024  0.6816589535721818   T   T   T
  0.6403447674000020  0.5185668887000006  0.6068660595570279   T   T   T
  0.7319041458000015  0.6265262543000034  0.6177784864495734   T   T   T
  0.7471674402999966  0.2197875227999972  0.5950313519526773   T   T   T
  0.5608356036999993  0.1492095568999972  0.6841009502343169   T   T   T
 
  0.00000000E+00  0.00000000E+00  0.00000000E+00
  0.00000000E+00  0.00000000E+00  0.00000000E+00
  0.00000000E+00  0.00000000E+00  0.00000000E+00
  0.00000000E+00  0.00000000E+00  0.00000000E+00
  0.00000000E+00  0.00000000E+00  0.00000000E+00
  0.00000000E+00  0.00000000E+00  0.00000000E+00
  0.00000000E+00  0.00000000E+00  0.00000000E+00
  0.00000000E+00  0.00000000E+00  0.00000000E+00
  0.00000000E+00  0.00000000E+00  0.00000000E+00
  0.00000000E+00  0.00000000E+00  0.00000000E+00
  0.00000000E+00  0.00000000E+00  0.00000000E+00
  0.00000000E+00  0.00000000E+00  0.00000000E+00
  0.00000000E+00  0.00000000E+00  0.00000000E+00
  0.00000000E+00  0.00000000E+00  0.00000000E+00
  0.00000000E+00  0.00000000E+00  0.00000000E+00
  0.00000000E+00  0.00000000E+00  0.00000000E+00
  0.00000000E+00  0.00000000E+00  0.00000000E+00
  0.00000000E+00  0.00000000E+00  0.00000000E+00
  0.00000000E+00  0.00000000E+00  0.00000000E+00
  0.00000000E+00  0.00000000E+00  0.00000000E+00
  0.00000000E+00  0.00000000E+00  0.00000000E+00
  0.00000000E+00  0.00000000E+00  0.00000000E+00
  0.00000000E+00  0.00000000E+00  0.00000000E+00
  0.00000000E+00  0.00000000E+00  0.00000000E+00
  0.00000000E+00  0.00000000E+00  0.00000000E+00
  0.00000000E+00  0.00000000E+00  0.00000000E+00
  0.00000000E+00  0.00000000E+00  0.00000000E+00
  0.00000000E+00  0.00000000E+00  0.00000000E+00
  0.00000000E+00  0.00000000E+00  0.00000000E+00
  0.00000000E+00  0.00000000E+00  0.00000000E+00
  0.00000000E+00  0.00000000E+00  0.00000000E+00
  0.00000000E+00  0.00000000E+00  0.00000000E+00
  0.00000000E+00  0.00000000E+00  0.00000000E+00
  0.00000000E+00  0.00000000E+00  0.00000000E+00
  0.00000000E+00  0.00000000E+00  0.00000000E+00
  0.00000000E+00  0.00000000E+00  0.00000000E+00
  0.00000000E+00  0.00000000E+00  0.00000000E+00
  0.00000000E+00  0.00000000E+00  0.00000000E+00
  0.00000000E+00  0.00000000E+00  0.00000000E+00
  0.00000000E+00  0.00000000E+00  0.00000000E+00
  0.00000000E+00  0.00000000E+00  0.00000000E+00
  0.00000000E+00  0.00000000E+00  0.00000000E+00
  0.00000000E+00  0.00000000E+00  0.00000000E+00
  0.00000000E+00  0.00000000E+00  0.00000000E+00
  0.00000000E+00  0.00000000E+00  0.00000000E+00
  0.00000000E+00  0.00000000E+00  0.00000000E+00
  0.00000000E+00  0.00000000E+00  0.00000000E+00
  0.00000000E+00  0.00000000E+00  0.00000000E+00
  0.00000000E+00  0.00000000E+00  0.00000000E+00
  0.00000000E+00  0.00000000E+00  0.00000000E+00
  0.00000000E+00  0.00000000E+00  0.00000000E+00
  0.00000000E+00  0.00000000E+00  0.00000000E+00
  0.00000000E+00  0.00000000E+00  0.00000000E+00
  0.00000000E+00  0.00000000E+00  0.00000000E+00
  0.00000000E+00  0.00000000E+00  0.00000000E+00
  0.00000000E+00  0.00000000E+00  0.00000000E+00
  0.00000000E+00  0.00000000E+00  0.00000000E+00
  0.00000000E+00  0.00000000E+00  0.00000000E+00
  0.00000000E+00  0.00000000E+00  0.00000000E+00
  0.00000000E+00  0.00000000E+00  0.00000000E+00
  0.00000000E+00  0.00000000E+00  0.00000000E+00
  0.00000000E+00  0.00000000E+00  0.00000000E+00
  0.00000000E+00  0.00000000E+00  0.00000000E+00
  0.00000000E+00  0.00000000E+00  0.00000000E+00
  0.00000000E+00  0.00000000E+00  0.00000000E+00
  0.00000000E+00  0.00000000E+00  0.00000000E+00
  0.00000000E+00  0.00000000E+00  0.00000000E+00
  0.00000000E+00  0.00000000E+00  0.00000000E+00
  0.00000000E+00  0.00000000E+00  0.00000000E+00
  0.00000000E+00  0.00000000E+00  0.00000000E+00
  0.00000000E+00  0.00000000E+00  0.00000000E+00
  0.00000000E+00  0.00000000E+00  0.00000000E+00
  0.00000000E+00  0.00000000E+00  0.00000000E+00
  0.00000000E+00  0.00000000E+00  0.00000000E+00
  0.00000000E+00  0.00000000E+00  0.00000000E+00
  0.00000000E+00  0.00000000E+00  0.00000000E+00
  0.00000000E+00  0.00000000E+00  0.00000000E+00
  0.00000000E+00  0.00000000E+00  0.00000000E+00
  0.00000000E+00  0.00000000E+00  0.00000000E+00
  0.00000000E+00  0.00000000E+00  0.00000000E+00
  0.00000000E+00  0.00000000E+00  0.00000000E+00
  0.00000000E+00  0.00000000E+00  0.00000000E+00
  0.00000000E+00  0.00000000E+00  0.00000000E+00
  0.00000000E+00  0.00000000E+00  0.00000000E+00
  0.00000000E+00  0.00000000E+00  0.00000000E+00
  0.00000000E+00  0.00000000E+00  0.00000000E+00
  0.00000000E+00  0.00000000E+00  0.00000000E+00
  0.00000000E+00  0.00000000E+00  0.00000000E+00
  0.00000000E+00  0.00000000E+00  0.00000000E+00
  0.00000000E+00  0.00000000E+00  0.00000000E+00
  0.00000000E+00  0.00000000E+00  0.00000000E+00
  0.00000000E+00  0.00000000E+00  0.00000000E+00
  0.00000000E+00  0.00000000E+00  0.00000000E+00
  0.00000000E+00  0.00000000E+00  0.00000000E+00
  0.00000000E+00  0.00000000E+00  0.00000000E+00
  0.00000000E+00  0.00000000E+00  0.00000000E+00
  0.00000000E+00  0.00000000E+00  0.00000000E+00
  0.00000000E+00  0.00000000E+00  0.00000000E+00
  0.00000000E+00  0.00000000E+00  0.00000000E+00
  0.00000000E+00  0.00000000E+00  0.00000000E+00
  0.00000000E+00  0.00000000E+00  0.00000000E+00
  0.00000000E+00  0.00000000E+00  0.00000000E+00
  0.00000000E+00  0.00000000E+00  0.00000000E+00
  0.00000000E+00  0.00000000E+00  0.00000000E+00
  0.00000000E+00  0.00000000E+00  0.00000000E+00
  0.00000000E+00  0.00000000E+00  0.00000000E+00
  0.00000000E+00  0.00000000E+00  0.00000000E+00
  0.00000000E+00  0.00000000E+00  0.00000000E+00
  0.00000000E+00  0.00000000E+00  0.00000000E+00
  0.00000000E+00  0.00000000E+00  0.00000000E+00
  0.00000000E+00  0.00000000E+00  0.00000000E+00
  0.00000000E+00  0.00000000E+00  0.00000000E+00
  0.00000000E+00  0.00000000E+00  0.00000000E+00
  0.00000000E+00  0.00000000E+00  0.00000000E+00
  0.00000000E+00  0.00000000E+00  0.00000000E+00
  0.00000000E+00  0.00000000E+00  0.00000000E+00
  0.00000000E+00  0.00000000E+00  0.00000000E+00
  0.00000000E+00  0.00000000E+00  0.00000000E+00
  0.00000000E+00  0.00000000E+00  0.00000000E+00
  0.00000000E+00  0.00000000E+00  0.00000000E+00
  0.00000000E+00  0.00000000E+00  0.00000000E+00
  0.00000000E+00  0.00000000E+00  0.00000000E+00
  0.00000000E+00  0.00000000E+00  0.00000000E+00
  0.00000000E+00  0.00000000E+00  0.00000000E+00
  0.00000000E+00  0.00000000E+00  0.00000000E+00
  0.00000000E+00  0.00000000E+00  0.00000000E+00
  0.00000000E+00  0.00000000E+00  0.00000000E+00
  0.00000000E+00  0.00000000E+00  0.00000000E+00
  0.00000000E+00  0.00000000E+00  0.00000000E+00
  0.00000000E+00  0.00000000E+00  0.00000000E+00
  0.00000000E+00  0.00000000E+00  0.00000000E+00
  0.00000000E+00  0.00000000E+00  0.00000000E+00
  0.00000000E+00  0.00000000E+00  0.00000000E+00
  0.00000000E+00  0.00000000E+00  0.00000000E+00
  0.00000000E+00  0.00000000E+00  0.00000000E+00
  0.00000000E+00  0.00000000E+00  0.00000000E+00
  0.00000000E+00  0.00000000E+00  0.00000000E+00
  0.00000000E+00  0.00000000E+00  0.00000000E+00
  0.00000000E+00  0.00000000E+00  0.00000000E+00
  0.00000000E+00  0.00000000E+00  0.00000000E+00
  0.00000000E+00  0.00000000E+00  0.00000000E+00
  0.00000000E+00  0.00000000E+00  0.00000000E+00
  0.00000000E+00  0.00000000E+00  0.00000000E+00
  0.00000000E+00  0.00000000E+00  0.00000000E+00
  0.00000000E+00  0.00000000E+00  0.00000000E+00
  0.00000000E+00  0.00000000E+00  0.00000000E+00
  0.00000000E+00  0.00000000E+00  0.00000000E+00
  0.00000000E+00  0.00000000E+00  0.00000000E+00
  0.00000000E+00  0.00000000E+00  0.00000000E+00
  0.00000000E+00  0.00000000E+00  0.00000000E+00
  0.00000000E+00  0.00000000E+00  0.00000000E+00
  0.00000000E+00  0.00000000E+00  0.00000000E+00
  0.00000000E+00  0.00000000E+00  0.00000000E+00
  0.00000000E+00  0.00000000E+00  0.00000000E+00
  0.00000000E+00  0.00000000E+00  0.00000000E+00
  0.00000000E+00  0.00000000E+00  0.00000000E+00
  0.00000000E+00  0.00000000E+00  0.00000000E+00
  0.00000000E+00  0.00000000E+00  0.00000000E+00
  0.00000000E+00  0.00000000E+00  0.00000000E+00
  0.00000000E+00  0.00000000E+00  0.00000000E+00
  0.00000000E+00  0.00000000E+00  0.00000000E+00
  0.00000000E+00  0.00000000E+00  0.00000000E+00
  0.00000000E+00  0.00000000E+00  0.00000000E+00
  0.00000000E+00  0.00000000E+00  0.00000000E+00
  0.00000000E+00  0.00000000E+00  0.00000000E+00
  0.00000000E+00  0.00000000E+00  0.00000000E+00
  0.00000000E+00  0.00000000E+00  0.00000000E+00
  0.00000000E+00  0.00000000E+00  0.00000000E+00
  0.00000000E+00  0.00000000E+00  0.00000000E+00
  0.00000000E+00  0.00000000E+00  0.00000000E+00
  0.00000000E+00  0.00000000E+00  0.00000000E+00
  0.00000000E+00  0.00000000E+00  0.00000000E+00
  0.00000000E+00  0.00000000E+00  0.00000000E+00
  0.00000000E+00  0.00000000E+00  0.00000000E+00
  0.00000000E+00  0.00000000E+00  0.00000000E+00
  0.00000000E+00  0.00000000E+00  0.00000000E+00
  0.00000000E+00  0.00000000E+00  0.00000000E+00
  0.00000000E+00  0.00000000E+00  0.00000000E+00
  0.00000000E+00  0.00000000E+00  0.00000000E+00
  0.00000000E+00  0.00000000E+00  0.00000000E+00
  0.00000000E+00  0.00000000E+00  0.00000000E+00
  0.00000000E+00  0.00000000E+00  0.00000000E+00
  0.00000000E+00  0.00000000E+00  0.00000000E+00
  0.00000000E+00  0.00000000E+00  0.00000000E+00
  0.00000000E+00  0.00000000E+00  0.00000000E+00
  0.00000000E+00  0.00000000E+00  0.00000000E+00
  0.00000000E+00  0.00000000E+00  0.00000000E+00
  0.00000000E+00  0.00000000E+00  0.00000000E+00
  0.00000000E+00  0.00000000E+00  0.00000000E+00
  0.00000000E+00  0.00000000E+00  0.00000000E+00
  0.00000000E+00  0.00000000E+00  0.00000000E+00
  0.00000000E+00  0.00000000E+00  0.00000000E+00
  0.00000000E+00  0.00000000E+00  0.00000000E+00
  0.00000000E+00  0.00000000E+00  0.00000000E+00
  0.00000000E+00  0.00000000E+00  0.00000000E+00
  0.00000000E+00  0.00000000E+00  0.00000000E+00
  0.00000000E+00  0.00000000E+00  0.00000000E+00
  0.00000000E+00  0.00000000E+00  0.00000000E+00
  0.00000000E+00  0.00000000E+00  0.00000000E+00
  0.00000000E+00  0.00000000E+00  0.00000000E+00
  0.00000000E+00  0.00000000E+00  0.00000000E+00
  0.00000000E+00  0.00000000E+00  0.00000000E+00
  0.00000000E+00  0.00000000E+00  0.00000000E+00
  0.00000000E+00  0.00000000E+00  0.00000000E+00
  0.00000000E+00  0.00000000E+00  0.00000000E+00
  0.00000000E+00  0.00000000E+00  0.00000000E+00
  0.00000000E+00  0.00000000E+00  0.00000000E+00
  0.00000000E+00  0.00000000E+00  0.00000000E+00
  0.00000000E+00  0.00000000E+00  0.00000000E+00
  0.00000000E+00  0.00000000E+00  0.00000000E+00
  0.00000000E+00  0.00000000E+00  0.00000000E+00
  0.00000000E+00  0.00000000E+00  0.00000000E+00
  0.00000000E+00  0.00000000E+00  0.00000000E+00
  0.00000000E+00  0.00000000E+00  0.00000000E+00
  0.00000000E+00  0.00000000E+00  0.00000000E+00
  0.00000000E+00  0.00000000E+00  0.00000000E+00
  0.00000000E+00  0.00000000E+00  0.00000000E+00
  0.00000000E+00  0.00000000E+00  0.00000000E+00
  0.00000000E+00  0.00000000E+00  0.00000000E+00
  0.00000000E+00  0.00000000E+00  0.00000000E+00
  0.00000000E+00  0.00000000E+00  0.00000000E+00
  0.00000000E+00  0.00000000E+00  0.00000000E+00
  0.00000000E+00  0.00000000E+00  0.00000000E+00
  0.00000000E+00  0.00000000E+00  0.00000000E+00
  0.00000000E+00  0.00000000E+00  0.00000000E+00
  0.00000000E+00  0.00000000E+00  0.00000000E+00
  0.00000000E+00  0.00000000E+00  0.00000000E+00
