 running on   64 total cores
 distrk:  each k-point on   16 cores,    4 groups
 distr:  one band on    4 cores,    4 groups
 using from now: INCAR     
 vasp.5.4.4.18Apr17-6-g9f103f2a35 (build Aug 19 2022 11:57:46) complex          
  
 POSCAR found type information on POSCAR  Li Ni O  S  C  H 
 POSCAR found :  6 types and     227 ions
 scaLAPACK will be used

 ----------------------------------------------------------------------------- 
|                                                                             |
|           W    W    AA    RRRRR   N    N  II  N    N   GGGG   !!!           |
|           W    W   A  A   R    R  NN   N  II  NN   N  G    G  !!!           |
|           W    W  A    A  R    R  N N  N  II  N N  N  G       !!!           |
|           W WW W  AAAAAA  RRRRR   N  N N  II  N  N N  G  GGG   !            |
|           WW  WW  A    A  R   R   N   NN  II  N   NN  G    G                |
|           W    W  A    A  R    R  N    N  II  N    N   GGGG   !!!           |
|                                                                             |
|      You have enabled k-point parallelism (KPAR>1).                         |
|      This developmental code was originally  written by Paul Kent at ORNL,  |
|      and carefully double checked in Vienna.                                |
|      GW as well as linear response parallelism added by Martijn Marsman     |
|      and Georg Kresse.                                                      |
|      Carefully verify results versus KPAR=1.                                |
|      Report problems to Paul Kent and Vienna.                               |
|                                                                             |
 ----------------------------------------------------------------------------- 


 ----------------------------------------------------------------------------- 
|                                                                             |
|  ADVICE TO THIS USER RUNNING 'VASP/VAMP'   (HEAR YOUR MASTER'S VOICE ...):  |
|                                                                             |
|      You have a (more or less) 'large supercell' and for larger cells       |
|      it might be more efficient to use real space projection opertators     |
|      So try LREAL= Auto  in the INCAR   file.                               |
|      Mind:          For very  accurate calculation you might also keep the  |
|      reciprocal projection scheme          (i.e. LREAL=.FALSE.)             |
|                                                                             |
 ----------------------------------------------------------------------------- 

 LDA part: xc-table for Pade appr. of Perdew
 POSCAR found type information on POSCAR  Li Ni O  S  C  H 
 POSCAR found :  6 types and     227 ions


 VERY BAD NEWS! internal error in subroutine IBZKPT:


 VERY BAD NEWS! internal error in subroutine IBZKPT:
 Reciprocal lattice and k-lattice belong to different class of lattices. Often results are still useful...      96
 Reciprocal lattice and k-lattice belong to different class of lattices. Often results are still useful...      96


 VERY BAD NEWS! internal error in subroutine IBZKPT:
 Reciprocal lattice and k-lattice belong to different class of lattices. Often results are still useful...      96


 VERY BAD NEWS! internal error in subroutine IBZKPT:
 Reciprocal lattice and k-lattice belong to different class of lattices. Often results are still useful...      96


 VERY BAD NEWS! internal error in subroutine IBZKPT:
 Reciprocal lattice and k-lattice belong to different class of lattices. Often results are still useful...      96



 VERY BAD NEWS! internal error in subroutine IBZKPT:
 Reciprocal lattice and k-lattice belong to different class of lattices. Often results are still useful...      96

 VERY BAD NEWS! internal error in subroutine IBZKPT:
 Reciprocal lattice and k-lattice belong to different class of lattices. Often results are still useful...      96



 VERY BAD NEWS! internal error in subroutine IBZKPT:
 Reciprocal lattice and k-lattice belong to different class of lattices. Often results are still useful...      96

 VERY BAD NEWS! internal error in subroutine IBZKPT:
 Reciprocal lattice and k-lattice belong to different class of lattices. Often results are still useful...      96



 VERY BAD NEWS! internal error in subroutine IBZKPT:
 Reciprocal lattice and k-lattice belong to different class of lattices. Often results are still useful...      96



 VERY BAD NEWS! internal error in subroutine IBZKPT:
 Reciprocal lattice and k-lattice belong to different class of lattices. Often results are still useful...      96
 VERY BAD NEWS! internal error in subroutine IBZKPT:
 Reciprocal lattice and k-lattice belong to different class of lattices. Often results are still useful...      96


 VERY BAD NEWS! internal error in subroutine IBZKPT:
 Reciprocal lattice and k-lattice belong to different class of lattices. Often results are still useful...      96


 VERY BAD NEWS! internal error in subroutine IBZKPT:
 Reciprocal lattice and k-lattice belong to different class of lattices. Often results are still useful...      96




 VERY BAD NEWS! internal error in subroutine IBZKPT:
 Reciprocal lattice and k-lattice belong to different class of lattices. Often results are still useful...      96
 VERY BAD NEWS! internal error in subroutine IBZKPT:
 Reciprocal lattice and k-lattice belong to different class of lattices. Often results are still useful...      96



 VERY BAD NEWS! internal error in subroutine IBZKPT:
 Reciprocal lattice and k-lattice belong to different class of lattices. Often results are still useful...      96


 VERY BAD NEWS! internal error in subroutine IBZKPT:
 Reciprocal lattice and k-lattice belong to different class of lattices. Often results are still useful...      96


 VERY BAD NEWS! internal error in subroutine IBZKPT:
 Reciprocal lattice and k-lattice belong to different class of lattices. Often results are still useful...      96

 VERY BAD NEWS! internal error in subroutine IBZKPT:
 Reciprocal lattice and k-lattice belong to different class of lattices. Often results are still useful...      96


 VERY BAD NEWS! internal error in subroutine IBZKPT:
 Reciprocal lattice and k-lattice belong to different class of lattices. Often results are still useful...      96


 VERY BAD NEWS! internal error in subroutine IBZKPT:
 Reciprocal lattice and k-lattice belong to different class of lattices. Often results are still useful...      96


 VERY BAD NEWS! internal error in subroutine IBZKPT:
 Reciprocal lattice and k-lattice belong to different class of lattices. Often results are still useful...      96


 VERY BAD NEWS! internal error in subroutine IBZKPT:


 VERY BAD NEWS! internal error in subroutine IBZKPT:
 Reciprocal lattice and k-lattice belong to different class of lattices. Often results are still useful...      96


 VERY BAD NEWS! internal error in subroutine IBZKPT:
 Reciprocal lattice and k-lattice belong to different class of lattices. Often results are still useful...      96
 Reciprocal lattice and k-lattice belong to different class of lattices. Often results are still useful...      96


 VERY BAD NEWS! internal error in subroutine IBZKPT:
 Reciprocal lattice and k-lattice belong to different class of lattices. Often results are still useful...      96



 VERY BAD NEWS! internal error in subroutine IBZKPT:
 Reciprocal lattice and k-lattice belong to different class of lattices. Often results are still useful...      96



 VERY BAD NEWS! internal error in subroutine IBZKPT:
 Reciprocal lattice and k-lattice belong to different class of lattices. Often results are still useful...      96
 VERY BAD NEWS! internal error in subroutine IBZKPT:


 VERY BAD NEWS! internal error in subroutine IBZKPT:
 Reciprocal lattice and k-lattice belong to different class of lattices. Often results are still useful...      96
 Reciprocal lattice and k-lattice belong to different class of lattices. Often results are still useful...      96


 VERY BAD NEWS! internal error in subroutine IBZKPT:


 VERY BAD NEWS! internal error in subroutine IBZKPT:
 Reciprocal lattice and k-lattice belong to different class of lattices. Often results are still useful...      96
 Reciprocal lattice and k-lattice belong to different class of lattices. Often results are still useful...      96


 VERY BAD NEWS! internal error in subroutine IBZKPT:
 Reciprocal lattice and k-lattice belong to different class of lattices. Often results are still useful...      96


 VERY BAD NEWS! internal error in subroutine IBZKPT:
 Reciprocal lattice and k-lattice belong to different class of lattices. Often results are still useful...      96


 VERY BAD NEWS! internal error in subroutine IBZKPT:
 Reciprocal lattice and k-lattice belong to different class of lattices. Often results are still useful...      96


 VERY BAD NEWS! internal error in subroutine IBZKPT:
 Reciprocal lattice and k-lattice belong to different class of lattices. Often results are still useful...      96


 VERY BAD NEWS! internal error in subroutine IBZKPT:
 Reciprocal lattice and k-lattice belong to different class of lattices. Often results are still useful...      96



 VERY BAD NEWS! internal error in subroutine IBZKPT:
 Reciprocal lattice and k-lattice belong to different class of lattices. Often results are still useful...      96


 VERY BAD NEWS! internal error in subroutine IBZKPT:
 Reciprocal lattice and k-lattice belong to different class of lattices. Often results are still useful...      96


 VERY BAD NEWS! internal error in subroutine IBZKPT:
 Reciprocal lattice and k-lattice belong to different class of lattices. Often results are still useful...      96



 VERY BAD NEWS! internal error in subroutine IBZKPT:
 Reciprocal lattice and k-lattice belong to different class of lattices. Often results are still useful...      96
 VERY BAD NEWS! internal error in subroutine IBZKPT:


 VERY BAD NEWS! internal error in subroutine IBZKPT:
 Reciprocal lattice and k-lattice belong to different class of lattices. Often results are still useful...      96
 POSCAR, INCAR and KPOINTS ok, starting setup
 Reciprocal lattice and k-lattice belong to different class of lattices. Often results are still useful...      96


 VERY BAD NEWS! internal error in subroutine IBZKPT:
 Reciprocal lattice and k-lattice belong to different class of lattices. Often results are still useful...      96




 VERY BAD NEWS! internal error in subroutine IBZKPT:
 Reciprocal lattice and k-lattice belong to different class of lattices. Often results are still useful...      96
 VERY BAD NEWS! internal error in subroutine IBZKPT:
 Reciprocal lattice and k-lattice belong to different class of lattices. Often results are still useful...      96


 VERY BAD NEWS! internal error in subroutine IBZKPT:


 VERY BAD NEWS! internal error in subroutine IBZKPT:
 Reciprocal lattice and k-lattice belong to different class of lattices. Often results are still useful...      96
 Reciprocal lattice and k-lattice belong to different class of lattices. Often results are still useful...      96


 VERY BAD NEWS! internal error in subroutine IBZKPT:
 Reciprocal lattice and k-lattice belong to different class of lattices. Often results are still useful...      96



 VERY BAD NEWS! internal error in subroutine IBZKPT:
 Reciprocal lattice and k-lattice belong to different class of lattices. Often results are still useful...      96


 VERY BAD NEWS! internal error in subroutine IBZKPT:
 Reciprocal lattice and k-lattice belong to different class of lattices. Often results are still useful...      96


 VERY BAD NEWS! internal error in subroutine IBZKPT:
 Reciprocal lattice and k-lattice belong to different class of lattices. Often results are still useful...      96



 VERY BAD NEWS! internal error in subroutine IBZKPT:
 Reciprocal lattice and k-lattice belong to different class of lattices. Often results are still useful...      96


 VERY BAD NEWS! internal error in subroutine IBZKPT:
 Reciprocal lattice and k-lattice belong to different class of lattices. Often results are still useful...      96
 VERY BAD NEWS! internal error in subroutine IBZKPT:
 Reciprocal lattice and k-lattice belong to different class of lattices. Often results are still useful...      96


 VERY BAD NEWS! internal error in subroutine IBZKPT:
 Reciprocal lattice and k-lattice belong to different class of lattices. Often results are still useful...      96



 VERY BAD NEWS! internal error in subroutine IBZKPT:
 Reciprocal lattice and k-lattice belong to different class of lattices. Often results are still useful...      96

 VERY BAD NEWS! internal error in subroutine IBZKPT:


 VERY BAD NEWS! internal error in subroutine IBZKPT:
 Reciprocal lattice and k-lattice belong to different class of lattices. Often results are still useful...      96
 Reciprocal lattice and k-lattice belong to different class of lattices. Often results are still useful...      96


 VERY BAD NEWS! internal error in subroutine IBZKPT:
 Reciprocal lattice and k-lattice belong to different class of lattices. Often results are still useful...      96



 VERY BAD NEWS! internal error in subroutine IBZKPT:
 Reciprocal lattice and k-lattice belong to different class of lattices. Often results are still useful...      96

 VERY BAD NEWS! internal error in subroutine IBZKPT:
 Reciprocal lattice and k-lattice belong to different class of lattices. Often results are still useful...      96


 VERY BAD NEWS! internal error in subroutine IBZKPT:
 Reciprocal lattice and k-lattice belong to different class of lattices. Often results are still useful...      96
 FFT: planning ...
 WAVECAR not read
 entering main loop
       N       E                     dE             d eps       ncg     rms          rms(c)
DAV:   1     0.169566512839E+05    0.16957E+05   -0.87707E+05 31976   0.153E+03
DAV:   2     0.148589300159E+04   -0.15471E+05   -0.14795E+05 31096   0.452E+02
DAV:   3    -0.110486834310E+04   -0.25908E+04   -0.25080E+04 30584   0.182E+02
DAV:   4    -0.127989560883E+04   -0.17503E+03   -0.17336E+03 31768   0.473E+01
DAV:   5    -0.131946459235E+04   -0.39569E+02   -0.39396E+02 52080   0.139E+01    0.184E+02
DAV:   6    -0.139232645068E+04   -0.72862E+02   -0.28936E+03 38688   0.165E+02    0.453E+02
DAV:   7    -0.129930603169E+04    0.93020E+02   -0.82925E+02 32272   0.608E+01    0.248E+02
DAV:   8    -0.111212950048E+04    0.18718E+03   -0.54433E+02 36872   0.755E+01    0.101E+02
DAV:   9    -0.114274894866E+04   -0.30619E+02   -0.18756E+02 39056   0.580E+01    0.127E+02
DAV:  10    -0.114098641555E+04    0.17625E+01   -0.10506E+02 35920   0.322E+01    0.975E+01
DAV:  11    -0.111517903842E+04    0.25807E+02   -0.76273E+01 35968   0.333E+01    0.490E+01
DAV:  12    -0.111830302135E+04   -0.31240E+01   -0.40760E+01 38128   0.253E+01    0.506E+01
DAV:  13    -0.111969959404E+04   -0.13966E+01   -0.30164E+01 36744   0.160E+01    0.307E+01
DAV:  14    -0.112107898239E+04   -0.13794E+01   -0.12818E+01 36000   0.115E+01    0.328E+01
DAV:  15    -0.112163920977E+04   -0.56023E+00   -0.89792E+00 37384   0.832E+00    0.233E+01
DAV:  16    -0.112247329578E+04   -0.83409E+00   -0.26970E+00 34512   0.578E+00    0.184E+01
DAV:  17    -0.112320067646E+04   -0.72738E+00   -0.16864E+00 35112   0.346E+00    0.135E+01
DAV:  18    -0.112352388525E+04   -0.32321E+00   -0.38182E+00 36088   0.443E+00    0.106E+01
DAV:  19    -0.112362268197E+04   -0.98797E-01   -0.70809E+00 35240   0.293E+00    0.728E+00
DAV:  20    -0.112338514530E+04    0.23754E+00   -0.47857E-01 33304   0.276E+00    0.508E+00
DAV:  21    -0.112329283523E+04    0.92310E-01   -0.29687E-01 34184   0.114E+00    0.419E+00
DAV:  22    -0.112316541296E+04    0.12742E+00   -0.13757E-01 37864   0.113E+00    0.325E+00
DAV:  23    -0.112311605102E+04    0.49362E-01   -0.19766E-01 36328   0.115E+00    0.418E+00
DAV:  24    -0.112308935249E+04    0.26699E-01   -0.18374E-01 31448   0.688E-01    0.227E+00
DAV:  25    -0.112305880248E+04    0.30550E-01   -0.20574E-02 32488   0.478E-01    0.183E+00
DAV:  26    -0.112302231029E+04    0.36492E-01   -0.18312E-02 31984   0.332E-01    0.152E+00
DAV:  27    -0.112299853275E+04    0.23778E-01   -0.80845E-03 35776   0.278E-01    0.111E+00
DAV:  28    -0.112296325857E+04    0.35274E-01   -0.70332E-03 36552   0.301E-01    0.751E-01
DAV:  29    -0.112291528634E+04    0.47972E-01   -0.11172E-02 35096   0.315E-01    0.628E-01
DAV:  30    -0.112288486088E+04    0.30425E-01   -0.10308E-02 33560   0.206E-01    0.670E-01
DAV:  31    -0.112287282888E+04    0.12032E-01   -0.40032E-03 30968   0.108E-01    0.857E-01
DAV:  32    -0.112286796577E+04    0.48631E-02   -0.11658E-03 33792   0.735E-02    0.730E-01
DAV:  33    -0.112283756061E+04    0.30405E-01   -0.66290E-03 32960   0.169E-01    0.108E+00
DAV:  34    -0.112281154338E+04    0.26017E-01   -0.37012E-03 32880   0.179E-01    0.477E-01
DAV:  35    -0.112278620668E+04    0.25337E-01   -0.35429E-03 34840   0.206E-01    0.515E-01
DAV:  36    -0.112272225339E+04    0.63953E-01   -0.12568E-02 35152   0.311E-01    0.626E-01
DAV:  37    -0.112268106278E+04    0.41191E-01   -0.12258E-02 33336   0.234E-01    0.639E-01
DAV:  38    -0.112265351651E+04    0.27546E-01   -0.73182E-03 37800   0.313E-01    0.649E-01
DAV:  39    -0.112262881102E+04    0.24705E-01   -0.92017E-03 36304   0.299E-01    0.625E-01
DAV:  40    -0.112259903356E+04    0.29777E-01   -0.83477E-03 34824   0.186E-01    0.673E-01
DAV:  41    -0.112256005143E+04    0.38982E-01   -0.67966E-03 33768   0.147E-01    0.780E-01
DAV:  42    -0.112253156825E+04    0.28483E-01   -0.27710E-03 32024   0.688E-02    0.878E-01
DAV:  43    -0.112252635299E+04    0.52153E-02   -0.43924E-04 32896   0.308E-02    0.901E-01
DAV:  44    -0.112252733699E+04   -0.98401E-03   -0.33134E-05 36176   0.773E-03    0.897E-01
DAV:  45    -0.112253302198E+04   -0.56850E-02   -0.72538E-05 33336   0.284E-02    0.866E-01
DAV:  46    -0.112257272943E+04   -0.39707E-01   -0.36878E-03 34072   0.934E-02    0.661E-01
DAV:  47    -0.112260801323E+04   -0.35284E-01   -0.98201E-03 33000   0.117E-01    0.438E-01
DAV:  48    -0.112261057879E+04   -0.25656E-02   -0.24210E-03 33784   0.807E-02    0.382E-01
DAV:  49    -0.112260833667E+04    0.22421E-02   -0.51222E-04 36880   0.720E-02    0.314E-01
DAV:  50    -0.112258157712E+04    0.26760E-01   -0.64025E-03 36616   0.404E-01    0.311E-01
DAV:  51    -0.112257644353E+04    0.51336E-02   -0.54587E-03 34928   0.152E-01    0.392E-01
DAV:  52    -0.112257224301E+04    0.42005E-02   -0.11061E-03 32696   0.583E-02    0.389E-01
DAV:  53    -0.112255716080E+04    0.15082E-01   -0.14915E-03 36048   0.107E-01    0.438E-01
DAV:  54    -0.112253683844E+04    0.20322E-01   -0.29984E-03 35632   0.156E-01    0.596E-01
DAV:  55    -0.112252616991E+04    0.10669E-01   -0.18681E-03 32376   0.815E-02    0.642E-01
DAV:  56    -0.112252712179E+04   -0.95188E-03   -0.10867E-03 36512   0.147E-01    0.451E-01
DAV:  57    -0.112251112363E+04    0.15998E-01   -0.14938E-03 34304   0.106E-01    0.590E-01
DAV:  58    -0.112249747618E+04    0.13647E-01   -0.26737E-03 34392   0.116E-01    0.549E-01
DAV:  59    -0.112249066628E+04    0.68099E-02   -0.23982E-03 33416   0.713E-02    0.456E-01
DAV:  60    -0.112248595600E+04    0.47103E-02   -0.72888E-04 34264   0.600E-02    0.495E-01
DAV:  61    -0.112247992250E+04    0.60335E-02   -0.10851E-03 33968   0.649E-02    0.304E-01
DAV:  62    -0.112247732054E+04    0.26020E-02   -0.82547E-04 35416   0.848E-02    0.298E-01
DAV:  63    -0.112247367322E+04    0.36473E-02   -0.58498E-04 34864   0.565E-02    0.359E-01
DAV:  64    -0.112246876126E+04    0.49120E-02   -0.64764E-04 30632   0.417E-02    0.325E-01
DAV:  65    -0.112246861603E+04    0.14523E-03   -0.24662E-04 33936   0.416E-02    0.250E-01
DAV:  66    -0.112247186849E+04   -0.32525E-02   -0.40652E-04 37272   0.623E-02    0.159E-01
DAV:  67    -0.112247787084E+04   -0.60024E-02   -0.79917E-04 33536   0.586E-02    0.121E-01
DAV:  68    -0.112248105218E+04   -0.31813E-02   -0.52906E-04 32920   0.354E-02    0.145E-01
DAV:  69    -0.112248211057E+04   -0.10584E-02   -0.10911E-04 34584   0.279E-02    0.142E-01
DAV:  70    -0.112248245366E+04   -0.34309E-03   -0.10723E-04 31800   0.232E-02    0.111E-01
DAV:  71    -0.112248326240E+04   -0.80874E-03   -0.24371E-04 32920   0.321E-02    0.738E-02
DAV:  72    -0.112248322642E+04    0.35976E-04   -0.25570E-04 35144   0.355E-02    0.612E-02
DAV:  73    -0.112248394905E+04   -0.72263E-03   -0.24135E-04 34144   0.295E-02    0.607E-02
DAV:  74    -0.112248523089E+04   -0.12818E-02   -0.13455E-04 32480   0.247E-02    0.688E-02
DAV:  75    -0.112248583338E+04   -0.60248E-03   -0.12790E-04 30304   0.175E-02    0.809E-02
DAV:  76    -0.112248601707E+04   -0.18370E-03   -0.46835E-05 30304   0.120E-02    0.774E-02
DAV:  77    -0.112248624950E+04   -0.23242E-03   -0.49924E-05 31968   0.146E-02    0.607E-02
DAV:  78    -0.112248700270E+04   -0.75320E-03   -0.93081E-05 30144   0.130E-02    0.386E-02
DAV:  79    -0.112248773664E+04   -0.73394E-03   -0.49931E-05 31320   0.102E-02    0.246E-02
DAV:  80    -0.112248833204E+04   -0.59540E-03   -0.53887E-05 28944   0.957E-03    0.190E-02
DAV:  81    -0.112248876471E+04   -0.43268E-03   -0.22843E-05 29944   0.794E-03    0.162E-02
DAV:  82    -0.112248910308E+04   -0.33836E-03   -0.13700E-05 27072   0.557E-03    0.179E-02
DAV:  83    -0.112248935785E+04   -0.25477E-03   -0.60521E-06 24232   0.492E-03    0.203E-02
DAV:  84    -0.112248962968E+04   -0.27183E-03   -0.35118E-06 23792   0.397E-03    0.177E-02
DAV:  85    -0.112248982676E+04   -0.19708E-03   -0.32300E-06 23120   0.310E-03    0.149E-02
DAV:  86    -0.112248981498E+04    0.11783E-04   -0.59853E-06 24024   0.450E-03    0.704E-03
DAV:  87    -0.112249003267E+04   -0.21770E-03   -0.35265E-06 22232   0.350E-03    0.599E-03
DAV:  88    -0.112249012613E+04   -0.93457E-04   -0.18098E-06 22368   0.192E-03    0.456E-03
DAV:  89    -0.112249019565E+04   -0.69525E-04   -0.94671E-07 19160   0.170E-03    0.384E-03
DAV:  90    -0.112249025497E+04   -0.59321E-04   -0.13245E-06 20728   0.175E-03    0.324E-03
DAV:  91    -0.112249029395E+04   -0.38976E-04   -0.49936E-07 18312   0.124E-03    0.298E-03
DAV:  92    -0.112249032008E+04   -0.26134E-04   -0.24754E-07 17200   0.105E-03    0.273E-03
DAV:  93    -0.112249034483E+04   -0.24741E-04   -0.11497E-07 17096   0.582E-04    0.247E-03
DAV:  94    -0.112249038107E+04   -0.36242E-04   -0.24249E-07 17664   0.603E-04    0.246E-03
DAV:  95    -0.112249040752E+04   -0.26449E-04   -0.15361E-07 17160   0.537E-04    0.244E-03
DAV:  96    -0.112249042470E+04   -0.17184E-04   -0.84760E-08 17024   0.498E-04    0.232E-03
DAV:  97    -0.112249044279E+04   -0.18090E-04   -0.11091E-07 17072   0.436E-04    0.231E-03
DAV:  98    -0.112249045131E+04   -0.85204E-05   -0.49788E-08 16920   0.347E-04    0.226E-03
DAV:  99    -0.112249046300E+04   -0.11690E-04   -0.64170E-08 16824   0.315E-04    0.226E-03
DAV: 100    -0.112249046967E+04   -0.66738E-05   -0.26112E-08 16880   0.307E-04    0.223E-03
DAV: 101    -0.112249047212E+04   -0.24433E-05   -0.28498E-09 16632   0.224E-04    0.222E-03
DAV: 102    -0.112249047599E+04   -0.38745E-05    0.55525E-10 16512   0.191E-04    0.222E-03
DAV: 103    -0.112249047812E+04   -0.21238E-05    0.10518E-08 16584   0.178E-04    0.222E-03
DAV: 104    -0.112249047943E+04   -0.13108E-05    0.16508E-08 16320   0.133E-04    0.221E-03
DAV: 105    -0.112249048055E+04   -0.11207E-05    0.17484E-08 16344   0.121E-04    0.221E-03
DAV: 106    -0.112249048092E+04   -0.37576E-06    0.21599E-08 16520   0.114E-04
   1 F= -.11512978E+04 E0= -.11512923E+04  d E =-.110120E-01  mag=     0.0801
