
     Program PWSCF v.7.4.1 starts on 26Sep2026 at 20:38:50 

     This program is part of the open-source Quantum ESPRESSO suite
     for quantum simulation of materials; please cite
         "P. Giannozzi et al., J. Phys.:Condens. Matter 21 395502 (2009);
         "P. Giannozzi et al., J. Phys.:Condens. Matter 29 465901 (2017);
         "P. Giannozzi et al., J. Chem. Phys. 152 154105 (2020);
          URL http://www.quantum-espresso.org", 
     in publications or presentations arising from this work. More details at
     http://www.quantum-espresso.org/quote

     Parallel version (MPI & OpenMP), running on      16 processor cores
     Number of MPI processes:                 1
     Threads/MPI process:                    16

     MPI processes distributed on     1 nodes
     83674 MiB available memory on the printing compute node when the environment starts
 
     Reading input from pw.in

     Current dimensions of program PWSCF are:
     Max number of different atomic species (ntypx) = 10
     Max number of k-points (npk) =  40000
     Max angular momentum in pseudopotentials (lmaxx) =  4
     Presently no symmetry can be used with electric field

     file C.pbe-n-kjpaw_psl.1.0.0.UPF: wavefunction(s)  2S 2P renormalized
 
     Subspace diagonalization in iterative solution of the eigenvalue problem:
     a serial algorithm will be used

 
     G-vector sticks info
     --------------------
     sticks:   dense  smooth     PW     G-vecs:    dense   smooth      PW
     Sum        3193    1273    367               699497   177041   27695
 
     Using Slab Decomposition
 


     bravais-lattice index     =            0
     lattice parameter (alat)  =       9.4208  a.u.
     unit-cell volume          =    3493.1773 (a.u.)^3
     number of atoms/cell      =           20
     number of atomic types    =            2
     number of electrons       =       260.00
     number of Kohn-Sham states=          156
     kinetic-energy cutoff     =      52.0000  Ry
     charge density cutoff     =     520.0000  Ry
     scf convergence threshold =      1.0E-08
     mixing beta               =       0.3000
     number of iterations used =            8  local-TF  mixing
     Exchange-correlation= SLA  PW   PBX  PBC
                           (   1   4   3   4   0   0   0)

     GPU acceleration is ACTIVE.  1 visible GPUs per MPI rank


     celldm(1)=   9.420781  celldm(2)=   0.000000  celldm(3)=   0.000000
     celldm(4)=   0.000000  celldm(5)=   0.000000  celldm(6)=   0.000000

     crystal axes: (cart. coord. in units of alat)
               a(1) = (   1.000000  -0.000000   0.000000 )  
               a(2) = (   0.500000   0.866025   0.000000 )  
               a(3) = (   0.000000   0.000000   4.824244 )  

     reciprocal axes: (cart. coord. in units 2 pi/alat)
               b(1) = (  1.000000 -0.577350  0.000000 )  
               b(2) = (  0.000000  1.154701 -0.000000 )  
               b(3) = ( -0.000000  0.000000  0.207286 )  


     PseudoPot. # 1 for Ag read from file:
     /home/ubuntu/wad4l/pseudo_kgy/Ag_ONCV_PBE-1.0.oncvpsp.upf
     MD5 check sum: 94f47bd0669c641108e45594df92fabc
     Pseudo is Norm-conserving, Zval = 19.0
     Generated using ONCVPSP code by D. R. Hamann
     Using radial grid of 1398 points,  6 beta functions with: 
                l(1) =   0
                l(2) =   0
                l(3) =   1
                l(4) =   1
                l(5) =   2
                l(6) =   2

     PseudoPot. # 2 for C  read from file:
     /home/ubuntu/wad4l/pseudo_kgy/C.pbe-n-kjpaw_psl.1.0.0.UPF
     MD5 check sum: 5d2aebdfa2cae82b50a7e79e9516da0f
     Pseudo is Projector augmented-wave + core cor, Zval =  4.0
     Generated using "atomic" code by A. Dal Corso  v.5.1
     Shape of augmentation charge: PSQ
     Using radial grid of 1073 points,  4 beta functions with: 
                l(1) =   0
                l(2) =   0
                l(3) =   1
                l(4) =   1
     Q(r) pseudized with 0 coefficients 


     atomic species   valence    mass     pseudopotential
     Ag               19.00   107.86820     Ag( 1.00)
     C                 4.00    12.01100     C ( 1.00)

     No symmetry found



   Cartesian axes

     site n.     atom                  positions (alat units)
         1        Ag     tau(   1) = (   0.3337695   0.5765948   0.5717001  )
         2        Ag     tau(   2) = (   0.8337695   0.8652699   0.5717001  )
         3        Ag     tau(   3) = (   0.1685213   0.2891866   1.0409396  )
         4        Ag     tau(   4) = (   0.5004501   0.2909658   0.1002956  )
         5        Ag     tau(   5) = (   0.8337695   0.2879196   0.5717001  )
         6        Ag     tau(   6) = (   0.6684114   0.5780633   1.0413603  )
         7        Ag     tau(   7) = (   0.5006982   0.2907647   1.5133169  )
         8        Ag     tau(   8) = (   1.0004501   0.5796409   0.1002956  )
         9        Ag     tau(   9) = (   1.0016810   0.5788609   1.5119033  )
        10        Ag     tau(  10) = (   0.6685512   0.0008248   1.0411987  )
        11        Ag     tau(  11) = (   1.0004501   0.0022906   0.1002956  )
        12        Ag     tau(  12) = (   1.0010166   0.0019141   1.5136446  )
        13        C      tau(  13) = (   0.6671168   0.7720910   2.1769870  )
        14        C      tau(  14) = (   0.9171168   0.9164286   2.1772861  )
        15        C      tau(  15) = (   0.9171168   1.2051037   2.1765324  )
        16        C      tau(  16) = (   1.1671168   1.3494413   2.1772536  )
        17        C      tau(  17) = (   1.1671168   0.7720910   2.1773347  )
        18        C      tau(  18) = (   1.4171168   0.9164286   2.1764910  )
        19        C      tau(  19) = (   1.4171168   1.2051037   2.1772513  )
        20        C      tau(  20) = (   1.6671168   1.3494413   2.1770742  )

     --------------------------------------------
     DFT-D3 Dispersion Correction (no 3-body):
     --------------------------------------------
       Reference C6 values for interpolation: 

         atom   Coordination number   C6
         C          0.000            98.23
         C          0.987            86.49
         C          1.998            58.72
         C          2.999            51.56
         C          3.984            36.41
         Ag         0.000           853.49
         Ag         0.968           537.23

       Values used:

         atom   Coordination number  R0_AB[au]  C6      C8
         Ag         9.086            3.147    537.23  47741.54
         Ag         9.086            3.147    537.23  47741.54
         Ag         9.086            3.147    537.23  47741.54
         Ag         6.766            3.147    537.23  47741.54
         Ag         9.086            3.147    537.23  47741.54
         Ag         9.081            3.147    537.23  47741.54
         Ag         6.824            3.147    537.23  47741.54
         Ag         6.766            3.147    537.23  47741.54
         Ag         6.839            3.147    537.23  47741.54
         Ag         9.082            3.147    537.23  47741.54
         Ag         6.766            3.147    537.23  47741.54
         Ag         6.820            3.147    537.23  47741.54
         C          3.294            2.750     48.68   1407.85
         C          3.292            2.750     48.72   1408.93
         C          3.298            2.750     48.60   1405.68
         C          3.292            2.750     48.72   1408.93
         C          3.292            2.750     48.72   1408.98
         C          3.298            2.750     48.60   1405.62
         C          3.292            2.750     48.72   1408.97
         C          3.294            2.750     48.68   1408.00

         Molecular C6 ( Ry / a.u.^6 ) =    111465.54


     number of k points=    20  Marzari-Vanderbilt smearing, width (Ry)=  0.0100
                       cart. coord. in units 2pi/alat
        k(    1) = (   0.0000000   0.0000000   0.0000000), wk =   0.0555556
        k(    2) = (   0.0000000   0.1924501   0.0000000), wk =   0.1111111
        k(    3) = (   0.0000000   0.3849002   0.0000000), wk =   0.1111111
        k(    4) = (   0.0000000  -0.5773503   0.0000000), wk =   0.0555556
        k(    5) = (   0.1666667  -0.0962250   0.0000000), wk =   0.1111111
        k(    6) = (   0.1666667   0.0962250   0.0000000), wk =   0.1111111
        k(    7) = (   0.1666667   0.2886751   0.0000000), wk =   0.1111111
        k(    8) = (   0.1666667  -0.6735753   0.0000000), wk =   0.1111111
        k(    9) = (   0.1666667  -0.4811252   0.0000000), wk =   0.1111111
        k(   10) = (   0.1666667  -0.2886751   0.0000000), wk =   0.1111111
        k(   11) = (   0.3333333  -0.1924501   0.0000000), wk =   0.1111111
        k(   12) = (   0.3333333   0.0000000   0.0000000), wk =   0.1111111
        k(   13) = (   0.3333333   0.1924501   0.0000000), wk =   0.1111111
        k(   14) = (   0.3333333  -0.7698004   0.0000000), wk =   0.1111111
        k(   15) = (   0.3333333  -0.5773503   0.0000000), wk =   0.1111111
        k(   16) = (   0.3333333  -0.3849002   0.0000000), wk =   0.1111111
        k(   17) = (  -0.5000000   0.2886751   0.0000000), wk =   0.0555556
        k(   18) = (  -0.5000000   0.4811252   0.0000000), wk =   0.1111111
        k(   19) = (  -0.5000000   0.6735753   0.0000000), wk =   0.1111111
        k(   20) = (  -0.5000000  -0.2886751   0.0000000), wk =   0.0555556

     Dense  grid:   699497 G-vectors     FFT dimensions: (  72,  72, 360)

     Smooth grid:   177041 G-vectors     FFT dimensions: (  45,  45, 216)

     Estimated max dynamical RAM per process >       1.34 GB

     Check: negative core charge=   -0.000001

     Initial potential from superposition of free atoms

     starting charge     259.9962, renormalised to     260.0000

     negative rho (up, down):  1.045E-04 0.000E+00
 
     Adding external electric field

     Computed dipole along edir(3) : 
        Dipole               -0.0110 Ry au,         -0.0280 Debye
        Dipole field         -0.0000 Ry au, 
 
        Potential amp.        0.0035 Ry
        Total length         43.5584 bohr
 
     Starting wfcs are  152 randomized atomic wfcs +    4 random wfcs
     Checking if some PAW data can be deallocated... 

     total cpu time spent up to now is        4.0 secs

     Self-consistent Calculation

     iteration #  1     ecut=    52.00 Ry     beta= 0.30
     Davidson diagonalization with overlap
     ethr =  1.00E-02,  avg # of iterations =  5.0

     Threshold (ethr) on eigenvalues was too large:
     Diagonalizing with lowered threshold

     Davidson diagonalization with overlap
     ethr =  5.65E-04,  avg # of iterations =  2.6

     negative rho (up, down):  5.289E-08 0.000E+00
 
     Adding external electric field

     Computed dipole along edir(3) : 
        Dipole               -0.1150 Ry au,         -0.2922 Debye
        Dipole field         -0.0004 Ry au, 
 
        Potential amp.        0.0360 Ry
        Total length         43.5584 bohr
 

     total cpu time spent up to now is       14.0 secs

     total energy              =   -3596.11010272 Ry
     estimated scf accuracy    <       1.48241772 Ry

     iteration #  2     ecut=    52.00 Ry     beta= 0.30
     Davidson diagonalization with overlap
     ethr =  5.70E-04,  avg # of iterations =  1.5
 
     Adding external electric field

     Computed dipole along edir(3) : 
        Dipole               -0.3444 Ry au,         -0.8753 Debye
        Dipole field         -0.0012 Ry au, 
 
        Potential amp.        0.1079 Ry
        Total length         43.5584 bohr
 

     total cpu time spent up to now is       19.0 secs

     total energy              =   -3595.89307375 Ry
     estimated scf accuracy    <       0.82744956 Ry

     iteration #  3     ecut=    52.00 Ry     beta= 0.30
     Davidson diagonalization with overlap
     ethr =  3.18E-04,  avg # of iterations =  7.2
 
     Adding external electric field

     Computed dipole along edir(3) : 
        Dipole               -0.6426 Ry au,         -1.6334 Debye
        Dipole field         -0.0023 Ry au, 
 
        Potential amp.        0.2014 Ry
        Total length         43.5584 bohr
 

     total cpu time spent up to now is       24.6 secs

     total energy              =   -3595.84407078 Ry
     estimated scf accuracy    <       0.30925149 Ry

     iteration #  4     ecut=    52.00 Ry     beta= 0.30
     Davidson diagonalization with overlap
     ethr =  1.19E-04,  avg # of iterations =  7.0
 
     Adding external electric field

     Computed dipole along edir(3) : 
        Dipole               -0.6108 Ry au,         -1.5526 Debye
        Dipole field         -0.0022 Ry au, 
 
        Potential amp.        0.1914 Ry
        Total length         43.5584 bohr
 

     total cpu time spent up to now is       30.5 secs

     total energy              =   -3595.86945074 Ry
     estimated scf accuracy    <       0.56458095 Ry

     iteration #  5     ecut=    52.00 Ry     beta= 0.30
     Davidson diagonalization with overlap
     ethr =  1.19E-04,  avg # of iterations =  1.1

     negative rho (up, down):  7.262E-08 0.000E+00
 
     Adding external electric field

     Computed dipole along edir(3) : 
        Dipole               -0.9639 Ry au,         -2.4500 Debye
        Dipole field         -0.0035 Ry au, 
 
        Potential amp.        0.3021 Ry
        Total length         43.5584 bohr
 

     total cpu time spent up to now is       35.4 secs

     total energy              =   -3595.86150257 Ry
     estimated scf accuracy    <       0.56118662 Ry

     iteration #  6     ecut=    52.00 Ry     beta= 0.30
     Davidson diagonalization with overlap
     ethr =  1.19E-04,  avg # of iterations =  2.7

     negative rho (up, down):  2.066E-07 0.000E+00
 
     Adding external electric field

     Computed dipole along edir(3) : 
        Dipole               -1.0962 Ry au,         -2.7863 Debye
        Dipole field         -0.0039 Ry au, 
 
        Potential amp.        0.3435 Ry
        Total length         43.5584 bohr
 

     total cpu time spent up to now is       40.6 secs

     total energy              =   -3595.85352160 Ry
     estimated scf accuracy    <       0.45319532 Ry

     iteration #  7     ecut=    52.00 Ry     beta= 0.30
     Davidson diagonalization with overlap
     ethr =  1.19E-04,  avg # of iterations =  2.5
 
     Adding external electric field

     Computed dipole along edir(3) : 
        Dipole               -0.8845 Ry au,         -2.2483 Debye
        Dipole field         -0.0032 Ry au, 
 
        Potential amp.        0.2772 Ry
        Total length         43.5584 bohr
 

     total cpu time spent up to now is       45.8 secs

     total energy              =   -3595.85142831 Ry
     estimated scf accuracy    <       0.15078272 Ry

     iteration #  8     ecut=    52.00 Ry     beta= 0.30
     Davidson diagonalization with overlap
     ethr =  5.80E-05,  avg # of iterations =  4.2
 
     Adding external electric field

     Computed dipole along edir(3) : 
        Dipole               -0.6846 Ry au,         -1.7400 Debye
        Dipole field         -0.0025 Ry au, 
 
        Potential amp.        0.2145 Ry
        Total length         43.5584 bohr
 

     total cpu time spent up to now is       51.0 secs

     total energy              =   -3595.84406353 Ry
     estimated scf accuracy    <       0.12833888 Ry

     iteration #  9     ecut=    52.00 Ry     beta= 0.30
     Davidson diagonalization with overlap
     ethr =  4.94E-05,  avg # of iterations =  3.5

     negative rho (up, down):  1.489E-07 0.000E+00
 
     Adding external electric field

     Computed dipole along edir(3) : 
        Dipole               -0.3393 Ry au,         -0.8624 Debye
        Dipole field         -0.0012 Ry au, 
 
        Potential amp.        0.1063 Ry
        Total length         43.5584 bohr
 

     total cpu time spent up to now is       56.3 secs

     total energy              =   -3595.82961665 Ry
     estimated scf accuracy    <       0.08904797 Ry

     iteration # 10     ecut=    52.00 Ry     beta= 0.30
     Davidson diagonalization with overlap
     ethr =  3.42E-05,  avg # of iterations =  8.2

     negative rho (up, down):  3.364E-04 0.000E+00
 
     Adding external electric field

     Computed dipole along edir(3) : 
        Dipole               -0.0597 Ry au,         -0.1517 Debye
        Dipole field         -0.0002 Ry au, 
 
        Potential amp.        0.0187 Ry
        Total length         43.5584 bohr
 

     total cpu time spent up to now is       62.3 secs

     total energy              =   -3595.84024965 Ry
     estimated scf accuracy    <       0.01959425 Ry

     iteration # 11     ecut=    52.00 Ry     beta= 0.30
     Davidson diagonalization with overlap
     c_bands:  2 eigenvalues not converged
     ethr =  7.54E-06,  avg # of iterations = 11.3

     negative rho (up, down):  2.952E-03 0.000E+00
 
     Adding external electric field

     Computed dipole along edir(3) : 
        Dipole                0.0647 Ry au,          0.1644 Debye
        Dipole field          0.0002 Ry au, 
 
        Potential amp.       -0.0203 Ry
        Total length         43.5584 bohr
 

     total cpu time spent up to now is       69.0 secs

     total energy              =   -3595.84059639 Ry
     estimated scf accuracy    <       0.03575873 Ry

     iteration # 12     ecut=    52.00 Ry     beta= 0.30
     Davidson diagonalization with overlap
     ethr =  7.54E-06,  avg # of iterations =  8.2

     negative rho (up, down):  2.036E-04 0.000E+00
 
     Adding external electric field

     Computed dipole along edir(3) : 
        Dipole                0.0655 Ry au,          0.1666 Debye
        Dipole field          0.0002 Ry au, 
 
        Potential amp.       -0.0205 Ry
        Total length         43.5584 bohr
 

     total cpu time spent up to now is       75.1 secs

     total energy              =   -3595.83913668 Ry
     estimated scf accuracy    <       0.03936481 Ry

     iteration # 13     ecut=    52.00 Ry     beta= 0.30
     Davidson diagonalization with overlap
     ethr =  7.54E-06,  avg # of iterations =  5.3

     negative rho (up, down):  1.041E-03 0.000E+00
 
     Adding external electric field

     Computed dipole along edir(3) : 
        Dipole                0.1359 Ry au,          0.3454 Debye
        Dipole field          0.0005 Ry au, 
 
        Potential amp.       -0.0426 Ry
        Total length         43.5584 bohr
 

     total cpu time spent up to now is       80.6 secs

     total energy              =   -3595.83849938 Ry
     estimated scf accuracy    <       0.03321152 Ry

     iteration # 14     ecut=    52.00 Ry     beta= 0.30
     Davidson diagonalization with overlap
     ethr =  7.54E-06,  avg # of iterations =  5.3

     negative rho (up, down):  7.398E-06 0.000E+00
 
     Adding external electric field

     Computed dipole along edir(3) : 
        Dipole                0.0383 Ry au,          0.0974 Debye
        Dipole field          0.0001 Ry au, 
 
        Potential amp.       -0.0120 Ry
        Total length         43.5584 bohr
 

     total cpu time spent up to now is       86.2 secs

     total energy              =   -3595.83721117 Ry
     estimated scf accuracy    <       0.02724755 Ry

     iteration # 15     ecut=    52.00 Ry     beta= 0.30
     Davidson diagonalization with overlap
     ethr =  7.54E-06,  avg # of iterations =  6.0

     negative rho (up, down):  2.155E-03 0.000E+00
 
     Adding external electric field

     Computed dipole along edir(3) : 
        Dipole                0.2244 Ry au,          0.5703 Debye
        Dipole field          0.0008 Ry au, 
 
        Potential amp.       -0.0703 Ry
        Total length         43.5584 bohr
 

     total cpu time spent up to now is       91.8 secs

     total energy              =   -3595.83920138 Ry
     estimated scf accuracy    <       0.01697099 Ry

     iteration # 16     ecut=    52.00 Ry     beta= 0.30
     Davidson diagonalization with overlap
     ethr =  6.53E-06,  avg # of iterations =  6.8

     negative rho (up, down):  2.213E-03 0.000E+00
 
     Adding external electric field

     Computed dipole along edir(3) : 
        Dipole                0.2189 Ry au,          0.5563 Debye
        Dipole field          0.0008 Ry au, 
 
        Potential amp.       -0.0686 Ry
        Total length         43.5584 bohr
 

     total cpu time spent up to now is       97.6 secs

     total energy              =   -3595.83940640 Ry
     estimated scf accuracy    <       0.02703280 Ry

     iteration # 17     ecut=    52.00 Ry     beta= 0.30
     Davidson diagonalization with overlap
     ethr =  6.53E-06,  avg # of iterations =  1.0

     negative rho (up, down):  1.666E-03 0.000E+00
 
     Adding external electric field

     Computed dipole along edir(3) : 
        Dipole                0.2553 Ry au,          0.6490 Debye
        Dipole field          0.0009 Ry au, 
 
        Potential amp.       -0.0800 Ry
        Total length         43.5584 bohr
 

     total cpu time spent up to now is      102.5 secs

     total energy              =   -3595.84052316 Ry
     estimated scf accuracy    <       0.02508159 Ry

     iteration # 18     ecut=    52.00 Ry     beta= 0.30
     Davidson diagonalization with overlap
     ethr =  6.53E-06,  avg # of iterations =  5.3

     negative rho (up, down):  1.583E-03 0.000E+00
 
     Adding external electric field

     Computed dipole along edir(3) : 
        Dipole               -0.0080 Ry au,         -0.0203 Debye
        Dipole field         -0.0000 Ry au, 
 
        Potential amp.        0.0025 Ry
        Total length         43.5584 bohr
 

     total cpu time spent up to now is      108.0 secs

     total energy              =   -3595.83467836 Ry
     estimated scf accuracy    <       0.03407955 Ry

     iteration # 19     ecut=    52.00 Ry     beta= 0.30
     Davidson diagonalization with overlap
     c_bands:  2 eigenvalues not converged
     ethr =  6.53E-06,  avg # of iterations =  9.1

     negative rho (up, down):  5.964E-03 0.000E+00
 
     Adding external electric field

     Computed dipole along edir(3) : 
        Dipole               -0.0671 Ry au,         -0.1705 Debye
        Dipole field         -0.0002 Ry au, 
 
        Potential amp.        0.0210 Ry
        Total length         43.5584 bohr
 

     total cpu time spent up to now is      114.3 secs

     total energy              =   -3595.83494299 Ry
     estimated scf accuracy    <       0.00735379 Ry

     iteration # 20     ecut=    52.00 Ry     beta= 0.30
     Davidson diagonalization with overlap
     c_bands:  1 eigenvalues not converged
     c_bands:  1 eigenvalues not converged
     c_bands:  1 eigenvalues not converged
     c_bands:  1 eigenvalues not converged
     ethr =  2.83E-06,  avg # of iterations =  9.3

     negative rho (up, down):  8.685E-03 0.000E+00
 
     Adding external electric field

     Computed dipole along edir(3) : 
        Dipole               -0.1120 Ry au,         -0.2846 Debye
        Dipole field         -0.0004 Ry au, 
 
        Potential amp.        0.0351 Ry
        Total length         43.5584 bohr
 

     total cpu time spent up to now is      120.3 secs

     total energy              =   -3595.83431597 Ry
     estimated scf accuracy    <       0.00384013 Ry

     iteration # 21     ecut=    52.00 Ry     beta= 0.30
     Davidson diagonalization with overlap
     c_bands:  1 eigenvalues not converged
     c_bands:  1 eigenvalues not converged
     c_bands:  1 eigenvalues not converged
     c_bands:  1 eigenvalues not converged
     ethr =  1.48E-06,  avg # of iterations = 12.3

     negative rho (up, down):  1.225E-03 0.000E+00
 
     Adding external electric field

     Computed dipole along edir(3) : 
        Dipole                0.1939 Ry au,          0.4929 Debye
        Dipole field          0.0007 Ry au, 
 
        Potential amp.       -0.0608 Ry
        Total length         43.5584 bohr
 

     total cpu time spent up to now is      127.2 secs

     total energy              =   -3595.82098773 Ry
     estimated scf accuracy    <       0.09289407 Ry

     iteration # 22     ecut=    52.00 Ry     beta= 0.30
     Davidson diagonalization with overlap
     ethr =  1.48E-06,  avg # of iterations = 10.8

     negative rho (up, down):  5.181E-04 0.000E+00
 
     Adding external electric field

     Computed dipole along edir(3) : 
        Dipole                0.1219 Ry au,          0.3097 Debye
        Dipole field          0.0004 Ry au, 
 
        Potential amp.       -0.0382 Ry
        Total length         43.5584 bohr
 

     total cpu time spent up to now is      134.6 secs

     total energy              =   -3595.83571681 Ry
     estimated scf accuracy    <       0.01818684 Ry

     iteration # 23     ecut=    52.00 Ry     beta= 0.30
     Davidson diagonalization with overlap
     ethr =  1.48E-06,  avg # of iterations =  7.5

     negative rho (up, down):  3.307E-04 0.000E+00
 
     Adding external electric field

     Computed dipole along edir(3) : 
        Dipole                0.0862 Ry au,          0.2191 Debye
        Dipole field          0.0003 Ry au, 
 
        Potential amp.       -0.0270 Ry
        Total length         43.5584 bohr
 

     total cpu time spent up to now is      140.7 secs

     total energy              =   -3595.83533863 Ry
     estimated scf accuracy    <       0.00677085 Ry

     iteration # 24     ecut=    52.00 Ry     beta= 0.30
     Davidson diagonalization with overlap
     c_bands:  1 eigenvalues not converged
     c_bands:  1 eigenvalues not converged
     c_bands:  1 eigenvalues not converged
     ethr =  1.48E-06,  avg # of iterations =  8.6

     negative rho (up, down):  2.384E-04 0.000E+00
 
     Adding external electric field

     Computed dipole along edir(3) : 
        Dipole                0.0701 Ry au,          0.1781 Debye
        Dipole field          0.0003 Ry au, 
 
        Potential amp.       -0.0220 Ry
        Total length         43.5584 bohr
 

     total cpu time spent up to now is      146.8 secs

     total energy              =   -3595.83521295 Ry
     estimated scf accuracy    <       0.00316138 Ry

     iteration # 25     ecut=    52.00 Ry     beta= 0.30
     Davidson diagonalization with overlap
     ethr =  1.22E-06,  avg # of iterations =  2.2

     negative rho (up, down):  2.601E-04 0.000E+00
 
     Adding external electric field

     Computed dipole along edir(3) : 
        Dipole                0.0411 Ry au,          0.1044 Debye
        Dipole field          0.0001 Ry au, 
 
        Potential amp.       -0.0129 Ry
        Total length         43.5584 bohr
 

     total cpu time spent up to now is      151.9 secs

     total energy              =   -3595.83487503 Ry
     estimated scf accuracy    <       0.00243339 Ry

     iteration # 26     ecut=    52.00 Ry     beta= 0.30
     Davidson diagonalization with overlap
     ethr =  9.36E-07,  avg # of iterations =  8.2

     negative rho (up, down):  4.229E-04 0.000E+00
 
     Adding external electric field

     Computed dipole along edir(3) : 
        Dipole                0.0105 Ry au,          0.0267 Debye
        Dipole field          0.0000 Ry au, 
 
        Potential amp.       -0.0033 Ry
        Total length         43.5584 bohr
 

     total cpu time spent up to now is      157.9 secs

     total energy              =   -3595.83454593 Ry
     estimated scf accuracy    <       0.00181438 Ry

     iteration # 27     ecut=    52.00 Ry     beta= 0.30
     Davidson diagonalization with overlap
     ethr =  6.98E-07,  avg # of iterations =  8.6

     negative rho (up, down):  3.017E-04 0.000E+00
 
     Adding external electric field

     Computed dipole along edir(3) : 
        Dipole                0.0164 Ry au,          0.0417 Debye
        Dipole field          0.0001 Ry au, 
 
        Potential amp.       -0.0051 Ry
        Total length         43.5584 bohr
 

     total cpu time spent up to now is      163.9 secs

     total energy              =   -3595.83472373 Ry
     estimated scf accuracy    <       0.00319018 Ry

     iteration # 28     ecut=    52.00 Ry     beta= 0.30
     Davidson diagonalization with overlap
     ethr =  6.98E-07,  avg # of iterations =  1.1

     negative rho (up, down):  1.505E-04 0.000E+00
 
     Adding external electric field

     Computed dipole along edir(3) : 
        Dipole                0.0314 Ry au,          0.0799 Debye
        Dipole field          0.0001 Ry au, 
 
        Potential amp.       -0.0098 Ry
        Total length         43.5584 bohr
 

     total cpu time spent up to now is      168.6 secs

     total energy              =   -3595.83466444 Ry
     estimated scf accuracy    <       0.00056849 Ry

     iteration # 29     ecut=    52.00 Ry     beta= 0.30
     Davidson diagonalization with overlap
     ethr =  2.19E-07,  avg # of iterations =  8.3

     negative rho (up, down):  2.265E-04 0.000E+00
 
     Adding external electric field

     Computed dipole along edir(3) : 
        Dipole                0.0053 Ry au,          0.0136 Debye
        Dipole field          0.0000 Ry au, 
 
        Potential amp.       -0.0017 Ry
        Total length         43.5584 bohr
 

     total cpu time spent up to now is      174.5 secs

     total energy              =   -3595.83461778 Ry
     estimated scf accuracy    <       0.00080079 Ry

     iteration # 30     ecut=    52.00 Ry     beta= 0.30
     Davidson diagonalization with overlap
     ethr =  2.19E-07,  avg # of iterations =  8.6

     negative rho (up, down):  9.171E-05 0.000E+00
 
     Adding external electric field

     Computed dipole along edir(3) : 
        Dipole                0.0197 Ry au,          0.0501 Debye
        Dipole field          0.0001 Ry au, 
 
        Potential amp.       -0.0062 Ry
        Total length         43.5584 bohr
 

     total cpu time spent up to now is      180.4 secs

     total energy              =   -3595.83460172 Ry
     estimated scf accuracy    <       0.00403778 Ry

     iteration # 31     ecut=    52.00 Ry     beta= 0.30
     Davidson diagonalization with overlap
     ethr =  2.19E-07,  avg # of iterations =  3.5

     negative rho (up, down):  1.059E-04 0.000E+00
 
     Adding external electric field

     Computed dipole along edir(3) : 
        Dipole                0.0186 Ry au,          0.0472 Debye
        Dipole field          0.0001 Ry au, 
 
        Potential amp.       -0.0058 Ry
        Total length         43.5584 bohr
 

     total cpu time spent up to now is      185.7 secs

     total energy              =   -3595.83473420 Ry
     estimated scf accuracy    <       0.00001590 Ry

     iteration # 32     ecut=    52.00 Ry     beta= 0.30
     Davidson diagonalization with overlap
     ethr =  6.11E-09,  avg # of iterations =  1.6

     negative rho (up, down):  1.056E-04 0.000E+00
 
     Adding external electric field

     Computed dipole along edir(3) : 
        Dipole                0.0197 Ry au,          0.0501 Debye
        Dipole field          0.0001 Ry au, 
 
        Potential amp.       -0.0062 Ry
        Total length         43.5584 bohr
 

     total cpu time spent up to now is      190.7 secs

     total energy              =   -3595.83473489 Ry
     estimated scf accuracy    <       0.00000998 Ry

     iteration # 33     ecut=    52.00 Ry     beta= 0.30
     Davidson diagonalization with overlap
     ethr =  3.84E-09,  avg # of iterations =  1.0

     negative rho (up, down):  1.164E-04 0.000E+00
 
     Adding external electric field

     Computed dipole along edir(3) : 
        Dipole                0.0208 Ry au,          0.0528 Debye
        Dipole field          0.0001 Ry au, 
 
        Potential amp.       -0.0065 Ry
        Total length         43.5584 bohr
 

     total cpu time spent up to now is      195.5 secs

     total energy              =   -3595.83473568 Ry
     estimated scf accuracy    <       0.00000105 Ry

     iteration # 34     ecut=    52.00 Ry     beta= 0.30
     Davidson diagonalization with overlap
     ethr =  4.04E-10,  avg # of iterations =  2.8

     negative rho (up, down):  1.261E-04 0.000E+00
 
     Adding external electric field

     Computed dipole along edir(3) : 
        Dipole                0.0191 Ry au,          0.0486 Debye
        Dipole field          0.0001 Ry au, 
 
        Potential amp.       -0.0060 Ry
        Total length         43.5584 bohr
 

     total cpu time spent up to now is      200.7 secs

     total energy              =   -3595.83473452 Ry
     estimated scf accuracy    <       0.00001554 Ry

     iteration # 35     ecut=    52.00 Ry     beta= 0.30
     Davidson diagonalization with overlap
     ethr =  4.04E-10,  avg # of iterations =  2.0

     negative rho (up, down):  1.207E-04 0.000E+00
 
     Adding external electric field

     Computed dipole along edir(3) : 
        Dipole                0.0195 Ry au,          0.0496 Debye
        Dipole field          0.0001 Ry au, 
 
        Potential amp.       -0.0061 Ry
        Total length         43.5584 bohr
 

     total cpu time spent up to now is      205.6 secs

     total energy              =   -3595.83473531 Ry
     estimated scf accuracy    <       0.00000167 Ry

     iteration # 36     ecut=    52.00 Ry     beta= 0.30
     Davidson diagonalization with overlap
     ethr =  4.04E-10,  avg # of iterations =  1.0

     negative rho (up, down):  1.204E-04 0.000E+00
 
     Adding external electric field

     Computed dipole along edir(3) : 
        Dipole                0.0195 Ry au,          0.0497 Debye
        Dipole field          0.0001 Ry au, 
 
        Potential amp.       -0.0061 Ry
        Total length         43.5584 bohr
 

     total cpu time spent up to now is      210.6 secs

     total energy              =   -3595.83473542 Ry
     estimated scf accuracy    <       0.00000032 Ry

     iteration # 37     ecut=    52.00 Ry     beta= 0.30
     Davidson diagonalization with overlap
     ethr =  1.22E-10,  avg # of iterations =  1.0

     negative rho (up, down):  1.224E-04 0.000E+00
 
     Adding external electric field

     Computed dipole along edir(3) : 
        Dipole                0.0193 Ry au,          0.0492 Debye
        Dipole field          0.0001 Ry au, 
 
        Potential amp.       -0.0061 Ry
        Total length         43.5584 bohr
 

     total cpu time spent up to now is      215.5 secs

     total energy              =   -3595.83473538 Ry
     estimated scf accuracy    <       0.00000047 Ry

     iteration # 38     ecut=    52.00 Ry     beta= 0.30
     Davidson diagonalization with overlap
     ethr =  1.22E-10,  avg # of iterations =  1.0

     negative rho (up, down):  1.218E-04 0.000E+00
 
     Adding external electric field

     Computed dipole along edir(3) : 
        Dipole                0.0194 Ry au,          0.0492 Debye
        Dipole field          0.0001 Ry au, 
 
        Potential amp.       -0.0061 Ry
        Total length         43.5584 bohr
 

     total cpu time spent up to now is      220.1 secs

     total energy              =   -3595.83473540 Ry
     estimated scf accuracy    <       0.00000001 Ry

     iteration # 39     ecut=    52.00 Ry     beta= 0.30
     Davidson diagonalization with overlap
     ethr =  4.06E-12,  avg # of iterations =  1.1

     negative rho (up, down):  1.219E-04 0.000E+00
 
     Adding external electric field

     Computed dipole along edir(3) : 
        Dipole                0.0193 Ry au,          0.0489 Debye
        Dipole field          0.0001 Ry au, 
 
        Potential amp.       -0.0060 Ry
        Total length         43.5584 bohr
 

     total cpu time spent up to now is      225.0 secs

     End of self-consistent calculation

          k = 0.0000 0.0000 0.0000 ( 22161 PWs)   bands (ev):

   -86.0381 -86.0284 -86.0211 -86.0204 -86.0185 -86.0184 -85.8656 -85.8530
   -85.8503 -85.8204 -85.8069 -85.8069 -49.5479 -49.5219 -49.5216 -49.5212
   -49.5208 -49.5193 -49.5192 -49.4942 -49.4942 -49.4696 -49.4691 -49.4670
   -49.4669 -49.4635 -49.4208 -49.4202 -49.4071 -49.4069 -49.3495 -49.3488
   -49.3454 -49.3446 -49.3029 -49.3029 -49.3006 -49.3006 -49.2879 -49.2777
   -49.2747 -49.2585 -49.2583 -49.2406 -49.2288 -49.2287 -49.2129 -49.2125
   -13.2707  -8.1766  -8.1705  -8.1683  -7.0432  -7.0405  -7.0395  -1.6337
    -1.3322  -0.4724  -0.3353  -0.3332  -0.3298  -0.2160  -0.0550   0.4202
     0.4212   0.4354   0.4366   0.4380   0.4392   0.7772   0.7793   0.7853
     0.7868   0.9742   0.9768   0.9918   0.9918   1.2197   1.2787   1.2798
     1.3260   1.3282   1.3805   1.3829   1.3996   1.3997   1.4153   1.5263
     1.5270   1.5937   1.5956   1.6510   1.6554   1.6864   1.6903   1.7316
     1.7316   1.7520   1.7522   2.1688   2.1710   2.2859   2.2931   2.2957
     2.2967   2.3301   2.3301   2.4279   2.4398   2.6749   2.7015   2.7282
     2.7672   2.7703   2.8782   2.8895   2.9461   2.9495   2.9524   2.9550
     2.9628   2.9636   3.0221   3.0251   3.6997   3.7025   3.7088   5.2070
     6.4583   7.5393   7.5739   7.5870   9.4965   9.4999   9.6909   9.6926
     9.6984   9.7011   9.7814  10.1424  10.4754  10.4783  10.4851  10.4900
    10.8820  10.8889  11.3360  11.9946  12.1471  12.1492  12.1527  12.1572
    12.4241  12.4369  13.0640  13.0695

          k = 0.0000 0.1925 0.0000 ( 22089 PWs)   bands (ev):

   -86.0369 -86.0275 -86.0219 -86.0213 -86.0187 -86.0185 -85.8646 -85.8535
   -85.8508 -85.8193 -85.8075 -85.8073 -49.5448 -49.5387 -49.5335 -49.5322
   -49.5277 -49.5024 -49.4967 -49.4868 -49.4813 -49.4716 -49.4658 -49.4653
   -49.4625 -49.4608 -49.4300 -49.4244 -49.4179 -49.4098 -49.3656 -49.3603
   -49.3254 -49.3226 -49.3206 -49.3152 -49.2871 -49.2798 -49.2781 -49.2772
   -49.2752 -49.2695 -49.2614 -49.2396 -49.2294 -49.2292 -49.2239 -49.2157
   -13.1097  -9.3727  -8.5359  -8.5313  -6.4195  -6.4158  -5.6014  -1.4311
    -1.0916  -0.8116  -0.8092  -0.2546  -0.1748  -0.0373   0.1314   0.1391
     0.2666   0.3222   0.3330   0.4069   0.5420   0.6319   0.7095   0.7315
     0.7702   0.8198   0.9187   0.9418   0.9446   1.1119   1.1907   1.2123
     1.2832   1.3295   1.4093   1.4260   1.4302   1.4525   1.4894   1.5009
     1.5140   1.5495   1.5727   1.6479   1.6490   1.7193   1.7309   1.7963
     1.9116   2.0092   2.0490   2.0789   2.0956   2.2003   2.2150   2.2914
     2.3040   2.3151   2.3886   2.3957   2.4043   2.5183   2.5601   2.5779
     2.6222   2.7108   2.7296   2.7598   2.8082   2.9006   2.9691   3.0147
     3.0192   3.0763   3.1021   3.1730   3.4428   3.6016   3.6221   5.5580
     6.9491   6.9721   7.7874   7.8401   7.8451   8.0997   8.4602   8.6359
     9.0252   9.2958   9.4930  10.0012  10.3483  10.7885  10.9822  11.3205
    11.4327  11.5450  11.5768  12.1680  12.3629  12.4484  12.4517  12.5841
    13.1532  13.3889  13.5712  13.7952

          k = 0.0000 0.3849 0.0000 ( 22135 PWs)   bands (ev):

   -86.0335 -86.0253 -86.0247 -86.0226 -86.0199 -86.0189 -85.8621 -85.8548
   -85.8520 -85.8165 -85.8096 -85.8081 -49.5519 -49.5447 -49.5366 -49.5306
   -49.5238 -49.4969 -49.4889 -49.4771 -49.4749 -49.4645 -49.4616 -49.4592
   -49.4506 -49.4495 -49.4465 -49.4459 -49.4309 -49.4187 -49.3778 -49.3548
   -49.3332 -49.3097 -49.3037 -49.3008 -49.2973 -49.2849 -49.2789 -49.2763
   -49.2702 -49.2580 -49.2543 -49.2526 -49.2370 -49.2311 -49.2299 -49.2245
   -12.6287 -10.7366  -8.9334  -8.9285  -5.2927  -5.2888  -3.5442  -1.9334
    -1.9303  -0.8475  -0.4517  -0.1094  -0.0101  -0.0038   0.2281   0.2720
     0.2854   0.2917   0.3075   0.3783   0.4597   0.4690   0.5155   0.6135
     0.6878   0.6961   0.8211   0.8282   0.8602   0.9650   0.9970   1.0075
     1.1194   1.1867   1.2443   1.2845   1.3160   1.3576   1.3928   1.4353
     1.4674   1.5399   1.6607   1.6695   1.6923   1.7899   1.7937   1.8014
     1.8402   1.8565   1.8693   1.9979   2.0000   2.0525   2.0767   2.2427
     2.2459   2.3234   2.3887   2.4429   2.4667   2.4930   2.5544   2.6522
     2.7043   2.7859   2.8489   2.8585   2.9315   2.9715   3.0005   3.0504
     3.0786   3.1050   3.1780   3.1988   3.4268   3.4819   4.1844   4.7221
     5.4468   6.3891   6.7973   6.9677   7.4397   7.9337   8.2011   8.2609
     8.4024   8.4502   9.1334  10.2896  10.6566  10.7354  10.9340  10.9691
    11.6015  11.7447  12.1688  12.7222  12.9508  13.1805  13.3974  13.4370
    13.5171  13.6566  14.0864  14.4753

          k = 0.0000-0.5774 0.0000 ( 22116 PWs)   bands (ev):

   -86.0293 -86.0288 -86.0232 -86.0224 -86.0222 -86.0191 -85.8600 -85.8563
   -85.8526 -85.8129 -85.8129 -85.8084 -49.5566 -49.5494 -49.5285 -49.5279
   -49.5032 -49.5028 -49.4907 -49.4832 -49.4830 -49.4671 -49.4572 -49.4552
   -49.4549 -49.4453 -49.4450 -49.4365 -49.4332 -49.4330 -49.3821 -49.3377
   -49.3326 -49.3299 -49.2906 -49.2860 -49.2859 -49.2858 -49.2837 -49.2834
   -49.2794 -49.2769 -49.2451 -49.2390 -49.2389 -49.2339 -49.2338 -49.2303
   -11.8340 -11.8328  -9.0759  -9.0709  -4.4646  -4.4607  -2.7983  -2.7949
    -1.3797  -1.3782  -0.2631  -0.1722  -0.1061   0.0651   0.0694   0.1334
     0.1916   0.1945   0.2796   0.4108   0.4122   0.5622   0.5851   0.5854
     0.6229   0.6241   0.7180   0.7193   0.8522   0.8543   0.9989   0.9993
     1.1022   1.1281   1.1320   1.1734   1.1978   1.1987   1.3676   1.3714
     1.3998   1.4323   1.4334   1.4781   1.4815   1.7197   1.7213   1.7880
     1.7890   1.9590   2.0051   2.0261   2.0281   2.2321   2.2350   2.2894
     2.3453   2.3458   2.5754   2.6199   2.6202   2.7094   2.7111   2.7448
     2.8145   2.8151   2.9735   2.9793   2.9798   3.0105   3.1121   3.1626
     3.1636   3.1926   3.3090   3.3378   3.3565   3.4089   3.6496   3.6505
     5.2624   5.2627   6.1837   7.0124   7.5255   7.5406   7.5426   7.7339
     8.6991   8.7107   9.8052   9.8133  10.1695  10.7626  11.4994  11.7276
    11.7284  12.0239  12.0247  12.7181  12.9719  12.9751  13.2557  13.2584
    13.6580  13.6592  13.8408  13.8425

          k = 0.1667-0.0962 0.0000 ( 22089 PWs)   bands (ev):

   -86.0369 -86.0275 -86.0219 -86.0212 -86.0187 -86.0186 -85.8646 -85.8535
   -85.8508 -85.8193 -85.8075 -85.8073 -49.5448 -49.5393 -49.5332 -49.5321
   -49.5272 -49.5036 -49.4964 -49.4858 -49.4814 -49.4717 -49.4657 -49.4652
   -49.4632 -49.4603 -49.4296 -49.4248 -49.4181 -49.4097 -49.3656 -49.3603
   -49.3254 -49.3226 -49.3205 -49.3153 -49.2871 -49.2797 -49.2781 -49.2773
   -49.2752 -49.2695 -49.2614 -49.2396 -49.2294 -49.2291 -49.2240 -49.2155
   -13.1097  -9.3727  -8.5368  -8.5305  -6.4196  -6.4157  -5.6014  -1.4311
    -1.0916  -0.8126  -0.8083  -0.2551  -0.1744  -0.0372   0.1316   0.1382
     0.2689   0.3234   0.3312   0.4077   0.5392   0.6320   0.7137   0.7331
     0.7660   0.8205   0.9175   0.9391   0.9470   1.1115   1.1914   1.2135
     1.2843   1.3281   1.4107   1.4261   1.4266   1.4528   1.4871   1.5027
     1.5116   1.5499   1.5732   1.6478   1.6535   1.7193   1.7297   1.7973
     1.9138   2.0032   2.0450   2.0791   2.0981   2.1969   2.2205   2.2873
     2.3040   2.3121   2.3883   2.4004   2.4056   2.5220   2.5630   2.5776
     2.6220   2.7159   2.7278   2.7566   2.8068   2.9001   2.9694   3.0140
     3.0201   3.0745   3.1026   3.1754   3.4398   3.6007   3.6228   5.5583
     6.9489   6.9721   7.7915   7.8332   7.8483   8.1049   8.4524   8.6353
     9.0282   9.2947   9.4889  10.0013  10.3483  10.7978  10.9853  11.3152
    11.4301  11.5450  11.5786  12.1681  12.3593  12.4523  12.4595  12.5839
    13.1533  13.3830  13.5625  13.7939

          k = 0.1667 0.0962 0.0000 ( 22089 PWs)   bands (ev):

   -86.0369 -86.0275 -86.0219 -86.0213 -86.0187 -86.0186 -85.8646 -85.8535
   -85.8508 -85.8193 -85.8075 -85.8073 -49.5448 -49.5389 -49.5334 -49.5322
   -49.5275 -49.5028 -49.4966 -49.4866 -49.4813 -49.4715 -49.4657 -49.4654
   -49.4627 -49.4607 -49.4299 -49.4245 -49.4179 -49.4098 -49.3655 -49.3603
   -49.3253 -49.3227 -49.3207 -49.3151 -49.2871 -49.2799 -49.2781 -49.2770
   -49.2752 -49.2696 -49.2613 -49.2396 -49.2293 -49.2292 -49.2237 -49.2158
   -13.1097  -9.3727  -8.5359  -8.5313  -6.4195  -6.4158  -5.6014  -1.4311
    -1.0916  -0.8116  -0.8092  -0.2547  -0.1749  -0.0373   0.1313   0.1386
     0.2673   0.3232   0.3326   0.4072   0.5413   0.6322   0.7102   0.7319
     0.7686   0.8198   0.9179   0.9414   0.9459   1.1121   1.1909   1.2130
     1.2828   1.3292   1.4095   1.4254   1.4297   1.4528   1.4897   1.5032
     1.5140   1.5487   1.5720   1.6468   1.6491   1.7194   1.7306   1.7984
     1.9107   2.0087   2.0483   2.0776   2.0959   2.2008   2.2173   2.2903
     2.3028   2.3156   2.3887   2.3946   2.4039   2.5183   2.5612   2.5789
     2.6223   2.7101   2.7299   2.7591   2.8080   2.9018   2.9683   3.0134
     3.0216   3.0761   3.1024   3.1739   3.4418   3.6017   3.6220   5.5578
     6.9492   6.9720   7.7887   7.8363   7.8473   8.1020   8.4589   8.6354
     9.0241   9.2960   9.4894  10.0012  10.3483  10.7935  10.9839  11.3192
    11.4319  11.5450  11.5756  12.1680  12.3642  12.4464  12.4564  12.5839
    13.1532  13.3858  13.5733  13.7955

          k = 0.1667 0.2887 0.0000 ( 22089 PWs)   bands (ev):

   -86.0345 -86.0259 -86.0233 -86.0228 -86.0192 -86.0191 -85.8628 -85.8543
   -85.8518 -85.8174 -85.8084 -85.8084 -49.5408 -49.5405 -49.5391 -49.5353
   -49.5351 -49.4928 -49.4923 -49.4761 -49.4760 -49.4727 -49.4601 -49.4599
   -49.4525 -49.4523 -49.4446 -49.4387 -49.4296 -49.4143 -49.3678 -49.3667
   -49.3225 -49.3223 -49.3072 -49.3064 -49.2904 -49.2852 -49.2786 -49.2760
   -49.2664 -49.2612 -49.2610 -49.2446 -49.2377 -49.2302 -49.2301 -49.2210
   -12.7887  -9.9714  -9.9684  -7.7541  -6.6632  -4.5277  -4.5268  -2.1146
    -1.0395  -0.6571  -0.4915  -0.4878   0.0603   0.0781   0.0795   0.1871
     0.1878   0.2221   0.2226   0.2476   0.4127   0.5203   0.5222   0.7013
     0.7027   0.7312   0.7319   0.9009   0.9415   0.9422   1.0784   1.1177
     1.2805   1.3181   1.3227   1.3981   1.4588   1.4726   1.4738   1.5559
     1.5740   1.5755   1.6271   1.6535   1.7081   1.7107   1.7159   1.8540
     1.9367   1.9653   2.0623   2.0633   2.0888   2.1435   2.1590   2.2014
     2.2473   2.2527   2.3299   2.3809   2.3831   2.4475   2.4989   2.5168
     2.5974   2.6014   2.6948   2.6992   2.7211   2.7674   2.9836   2.9923
     3.0454   3.0914   3.0991   3.2229   3.2273   3.9533   4.2645   5.8063
     5.8113   6.1302   6.5907   6.5987   7.3687   7.8294   8.0072   8.0116
     9.5150   9.5816   9.8145   9.8615  10.4390  10.7610  10.8681  10.8749
    11.6594  11.6697  11.9610  12.5271  12.5324  12.5433  13.6007  13.6109
    13.9543  13.9601  14.2590  14.2929

          k = 0.1667-0.6736 0.0000 ( 22149 PWs)   bands (ev):

   -86.0307 -86.0264 -86.0241 -86.0233 -86.0208 -86.0195 -85.8603 -85.8556
   -85.8530 -85.8142 -85.8109 -85.8091 -49.5473 -49.5418 -49.5310 -49.5301
   -49.5235 -49.4965 -49.4929 -49.4926 -49.4719 -49.4658 -49.4614 -49.4556
   -49.4534 -49.4518 -49.4396 -49.4370 -49.4368 -49.4234 -49.3734 -49.3519
   -49.3287 -49.3225 -49.3069 -49.2909 -49.2900 -49.2839 -49.2792 -49.2771
   -49.2768 -49.2760 -49.2452 -49.2442 -49.2350 -49.2323 -49.2308 -49.2305
   -12.1506 -11.2043 -10.2754  -7.6907  -5.8440  -3.4934  -3.4247  -2.4447
    -1.3626  -0.4068  -0.2961  -0.1499  -0.0866  -0.0801  -0.0123   0.1226
     0.1300   0.1650   0.2203   0.2213   0.2332   0.3889   0.3901   0.4882
     0.5724   0.6274   0.6609   0.7260   0.7560   0.8541   0.9235   0.9953
     1.0703   1.0862   1.1467   1.2521   1.3332   1.3763   1.4368   1.4430
     1.4892   1.5238   1.5797   1.6953   1.7629   1.7978   1.8736   1.9259
     1.9813   1.9916   2.0203   2.0410   2.1550   2.1882   2.2077   2.2147
     2.3044   2.3368   2.4057   2.5021   2.5373   2.5405   2.6509   2.6565
     2.6879   2.7564   2.8642   2.9131   2.9272   2.9448   2.9836   3.0077
     3.0503   3.0858   3.1228   3.1337   3.2226   3.8173   4.4673   4.6369
     4.7749   4.9407   5.6929   6.0956   7.0582   7.1444   7.2372   8.3665
     9.0039   9.1966  10.2711  10.5974  10.8162  11.3017  11.3048  11.5953
    11.7315  12.0572  12.5737  12.7851  12.7997  13.1409  13.2454  13.3082
    13.8229  13.8804  13.9432  14.1940

          k = 0.1667-0.4811 0.0000 ( 22149 PWs)   bands (ev):

   -86.0307 -86.0264 -86.0241 -86.0233 -86.0208 -86.0195 -85.8603 -85.8556
   -85.8530 -85.8142 -85.8109 -85.8091 -49.5473 -49.5418 -49.5311 -49.5302
   -49.5236 -49.4962 -49.4929 -49.4926 -49.4719 -49.4657 -49.4612 -49.4556
   -49.4535 -49.4518 -49.4397 -49.4370 -49.4368 -49.4234 -49.3734 -49.3520
   -49.3287 -49.3224 -49.3067 -49.2910 -49.2898 -49.2839 -49.2792 -49.2771
   -49.2770 -49.2761 -49.2452 -49.2444 -49.2351 -49.2322 -49.2308 -49.2303
   -12.1506 -11.2043 -10.2754  -7.6907  -5.8440  -3.4934  -3.4248  -2.4446
    -1.3625  -0.4068  -0.2964  -0.1500  -0.0868  -0.0805  -0.0120   0.1236
     0.1300   0.1647   0.2193   0.2206   0.2336   0.3898   0.3924   0.4884
     0.5744   0.6269   0.6588   0.7272   0.7544   0.8530   0.9231   0.9953
     1.0711   1.0869   1.1492   1.2504   1.3321   1.3762   1.4356   1.4390
     1.4848   1.5262   1.5796   1.6979   1.7651   1.8009   1.8755   1.9232
     1.9782   1.9953   2.0213   2.0423   2.1532   2.1864   2.2062   2.2147
     2.3017   2.3386   2.4065   2.5041   2.5380   2.5414   2.6535   2.6571
     2.6848   2.7548   2.8620   2.9128   2.9273   2.9456   2.9843   3.0098
     3.0503   3.0856   3.1233   3.1346   3.2214   3.8175   4.4662   4.6369
     4.7726   4.9406   5.6930   6.0975   7.0603   7.1443   7.2361   8.3659
     9.0039   9.1965  10.2715  10.5975  10.8156  11.3021  11.3045  11.5952
    11.7317  12.0569  12.5734  12.7849  12.8016  13.1390  13.2454  13.3087
    13.8228  13.8808  13.9442  14.1939

          k = 0.1667-0.2887 0.0000 ( 22089 PWs)   bands (ev):

   -86.0346 -86.0259 -86.0233 -86.0228 -86.0192 -86.0191 -85.8628 -85.8543
   -85.8518 -85.8174 -85.8084 -85.8084 -49.5411 -49.5405 -49.5392 -49.5352
   -49.5349 -49.4933 -49.4922 -49.4757 -49.4755 -49.4724 -49.4606 -49.4601
   -49.4523 -49.4521 -49.4445 -49.4390 -49.4299 -49.4141 -49.3675 -49.3670
   -49.3224 -49.3223 -49.3072 -49.3063 -49.2903 -49.2852 -49.2787 -49.2760
   -49.2665 -49.2612 -49.2611 -49.2449 -49.2377 -49.2302 -49.2301 -49.2207
   -12.7887  -9.9707  -9.9691  -7.7541  -6.6632  -4.5275  -4.5270  -2.1146
    -1.0395  -0.6572  -0.4905  -0.4888   0.0586   0.0781   0.0794   0.1865
     0.1880   0.2222   0.2229   0.2490   0.4153   0.5215   0.5238   0.7009
     0.7024   0.7290   0.7303   0.9007   0.9414   0.9444   1.0776   1.1171
     1.2802   1.3163   1.3216   1.3966   1.4583   1.4695   1.4743   1.5556
     1.5713   1.5747   1.6293   1.6534   1.7076   1.7167   1.7193   1.8539
     1.9365   1.9654   2.0545   2.0673   2.0888   2.1499   2.1560   2.2018
     2.2454   2.2514   2.3285   2.3787   2.3849   2.4512   2.5059   2.5143
     2.5976   2.6019   2.6911   2.6991   2.7259   2.7654   2.9853   2.9913
     3.0448   3.0926   3.0966   3.2241   3.2260   3.9506   4.2645   5.8071
     5.8108   6.1313   6.5908   6.5976   7.3687   7.8290   8.0075   8.0131
     9.5309   9.5626   9.8275   9.8507  10.4390  10.7610  10.8691  10.8747
    11.6618  11.6663  11.9609  12.5306  12.5328  12.5453  13.5936  13.6087
    13.9570  13.9574  14.2596  14.2901

          k = 0.3333-0.1925 0.0000 ( 22135 PWs)   bands (ev):

   -86.0335 -86.0253 -86.0247 -86.0224 -86.0199 -86.0190 -85.8621 -85.8549
   -85.8520 -85.8165 -85.8096 -85.8081 -49.5524 -49.5447 -49.5367 -49.5303
   -49.5232 -49.4979 -49.4878 -49.4766 -49.4751 -49.4645 -49.4617 -49.4595
   -49.4508 -49.4492 -49.4464 -49.4459 -49.4313 -49.4186 -49.3778 -49.3548
   -49.3332 -49.3098 -49.3037 -49.3005 -49.2976 -49.2849 -49.2789 -49.2762
   -49.2702 -49.2579 -49.2544 -49.2527 -49.2370 -49.2311 -49.2299 -49.2244
   -12.6287 -10.7366  -8.9339  -8.9279  -5.2928  -5.2888  -3.5442  -1.9343
    -1.9294  -0.8475  -0.4520  -0.1094  -0.0096  -0.0038   0.2260   0.2736
     0.2858   0.2942   0.3065   0.3808   0.4571   0.4677   0.5165   0.6125
     0.6876   0.6976   0.8190   0.8275   0.8588   0.9650   1.0022   1.0049
     1.1216   1.1887   1.2424   1.2853   1.3137   1.3584   1.3932   1.4386
     1.4612   1.5420   1.6562   1.6708   1.6914   1.7903   1.7931   1.8002
     1.8419   1.8543   1.8616   2.0032   2.0051   2.0543   2.0765   2.2421
     2.2483   2.3234   2.3910   2.4438   2.4679   2.4916   2.5539   2.6478
     2.7007   2.7870   2.8522   2.8596   2.9297   2.9722   3.0019   3.0506
     3.0767   3.1073   3.1802   3.1971   3.4270   3.4818   4.1818   4.7221
     5.4476   6.3895   6.8028   6.9665   7.4252   7.9404   8.2012   8.2607
     8.3898   8.4608   9.1331  10.2981  10.6564  10.7358  10.9311  10.9692
    11.6005  11.7557  12.1688  12.7224  12.9384  13.1807  13.3965  13.4370
    13.5200  13.6546  14.0863  14.4755

          k = 0.3333 0.0000 0.0000 ( 22089 PWs)   bands (ev):

   -86.0346 -86.0259 -86.0233 -86.0228 -86.0192 -86.0191 -85.8628 -85.8543
   -85.8518 -85.8174 -85.8084 -85.8084 -49.5411 -49.5407 -49.5392 -49.5350
   -49.5349 -49.4933 -49.4924 -49.4756 -49.4753 -49.4722 -49.4606 -49.4603
   -49.4524 -49.4520 -49.4445 -49.4389 -49.4300 -49.4142 -49.3675 -49.3670
   -49.3225 -49.3223 -49.3072 -49.3064 -49.2904 -49.2852 -49.2786 -49.2760
   -49.2664 -49.2613 -49.2609 -49.2447 -49.2377 -49.2302 -49.2301 -49.2208
   -12.7887  -9.9707  -9.9692  -7.7541  -6.6632  -4.5275  -4.5270  -2.1146
    -1.0395  -0.6574  -0.4905  -0.4888   0.0580   0.0781   0.0790   0.1871
     0.1878   0.2225   0.2229   0.2493   0.4150   0.5221   0.5239   0.7003
     0.7016   0.7296   0.7308   0.9019   0.9421   0.9449   1.0776   1.1171
     1.2803   1.3157   1.3187   1.3973   1.4589   1.4704   1.4776   1.5549
     1.5704   1.5752   1.6276   1.6534   1.7076   1.7131   1.7198   1.8540
     1.9365   1.9652   2.0557   2.0701   2.0901   2.1388   2.1609   2.2019
     2.2406   2.2565   2.3287   2.3804   2.3833   2.4504   2.5067   2.5135
     2.6006   2.6017   2.6883   2.7010   2.7263   2.7646   2.9873   2.9887
     3.0465   3.0928   3.0959   3.2249   3.2271   3.9497   4.2645   5.8072
     5.8109   6.1308   6.5906   6.5973   7.3687   7.8287   8.0086   8.0113
     9.5298   9.5630   9.8267   9.8495  10.4390  10.7610  10.8725  10.8750
    11.6620  11.6659  11.9610  12.5317  12.5350  12.5459  13.5943  13.6094
    13.9541  13.9602  14.2593  14.2893

          k = 0.3333 0.1925 0.0000 ( 22135 PWs)   bands (ev):

   -86.0335 -86.0253 -86.0247 -86.0225 -86.0199 -86.0189 -85.8621 -85.8548
   -85.8520 -85.8165 -85.8096 -85.8081 -49.5521 -49.5447 -49.5366 -49.5305
   -49.5236 -49.4972 -49.4887 -49.4769 -49.4749 -49.4646 -49.4615 -49.4592
   -49.4506 -49.4496 -49.4463 -49.4458 -49.4310 -49.4188 -49.3778 -49.3548
   -49.3333 -49.3096 -49.3037 -49.3008 -49.2974 -49.2849 -49.2789 -49.2762
   -49.2701 -49.2581 -49.2541 -49.2525 -49.2369 -49.2311 -49.2300 -49.2247
   -12.6287 -10.7366  -8.9334  -8.9284  -5.2927  -5.2888  -3.5442  -1.9334
    -1.9303  -0.8475  -0.4519  -0.1094  -0.0099  -0.0039   0.2275   0.2726
     0.2854   0.2928   0.3074   0.3788   0.4589   0.4691   0.5153   0.6136
     0.6875   0.6964   0.8221   0.8269   0.8604   0.9650   0.9978   1.0070
     1.1200   1.1859   1.2430   1.2845   1.3160   1.3575   1.3928   1.4358
     1.4660   1.5425   1.6583   1.6680   1.6936   1.7911   1.7922   1.8020
     1.8424   1.8553   1.8688   1.9970   1.9995   2.0523   2.0781   2.2431
     2.2454   2.3241   2.3891   2.4432   2.4669   2.4917   2.5545   2.6515
     2.7031   2.7865   2.8501   2.8590   2.9323   2.9710   3.0019   3.0499
     3.0772   3.1055   3.1801   3.1987   3.4264   3.4821   4.1835   4.7221
     5.4471   6.3885   6.7998   6.9674   7.4377   7.9331   8.1999   8.2549
     8.4053   8.4479   9.1330  10.2957  10.6566  10.7355  10.9334  10.9692
    11.6004  11.7493  12.1689  12.7222  12.9542  13.1804  13.3998  13.4368
    13.5145  13.6575  14.0862  14.4753

          k = 0.3333-0.7698 0.0000 ( 22149 PWs)   bands (ev):

   -86.0307 -86.0265 -86.0241 -86.0233 -86.0208 -86.0196 -85.8603 -85.8556
   -85.8530 -85.8142 -85.8109 -85.8091 -49.5475 -49.5418 -49.5309 -49.5301
   -49.5233 -49.4965 -49.4929 -49.4925 -49.4719 -49.4659 -49.4614 -49.4555
   -49.4534 -49.4518 -49.4396 -49.4370 -49.4368 -49.4235 -49.3734 -49.3520
   -49.3288 -49.3226 -49.3067 -49.2910 -49.2899 -49.2839 -49.2792 -49.2771
   -49.2768 -49.2759 -49.2450 -49.2444 -49.2350 -49.2322 -49.2309 -49.2306
   -12.1506 -11.2043 -10.2754  -7.6907  -5.8440  -3.4934  -3.4247  -2.4447
    -1.3626  -0.4068  -0.2961  -0.1496  -0.0861  -0.0801  -0.0127   0.1222
     0.1300   0.1647   0.2205   0.2219   0.2330   0.3892   0.3903   0.4884
     0.5725   0.6274   0.6606   0.7260   0.7557   0.8538   0.9233   0.9953
     1.0706   1.0870   1.1471   1.2501   1.3338   1.3759   1.4376   1.4419
     1.4887   1.5249   1.5785   1.6952   1.7619   1.7984   1.8739   1.9257
     1.9806   1.9925   2.0203   2.0413   2.1559   2.1876   2.2084   2.2151
     2.3040   2.3369   2.4053   2.5022   2.5372   2.5409   2.6514   2.6566
     2.6877   2.7560   2.8644   2.9131   2.9269   2.9442   2.9840   3.0093
     3.0498   3.0873   3.1231   3.1333   3.2218   3.8171   4.4680   4.6369
     4.7745   4.9416   5.6914   6.0952   7.0580   7.1438   7.2371   8.3660
     9.0018   9.1964  10.2711  10.6014  10.8145  11.3018  11.3045  11.5953
    11.7314  12.0619  12.5735  12.7852  12.8006  13.1400  13.2489  13.3081
    13.8233  13.8798  13.9423  14.1945

          k = 0.3333-0.5774 0.0000 ( 22161 PWs)   bands (ev):

   -86.0276 -86.0270 -86.0268 -86.0214 -86.0211 -86.0210 -85.8593 -85.8553
   -85.8543 -85.8115 -85.8114 -85.8114 -49.5315 -49.5312 -49.5310 -49.5253
   -49.5250 -49.5248 -49.4918 -49.4916 -49.4914 -49.4593 -49.4590 -49.4589
   -49.4483 -49.4481 -49.4478 -49.4291 -49.4290 -49.4288 -49.3533 -49.3529
   -49.3509 -49.3073 -49.3072 -49.3071 -49.2837 -49.2834 -49.2831 -49.2813
   -49.2789 -49.2779 -49.2372 -49.2370 -49.2368 -49.2328 -49.2327 -49.2326
   -11.3625 -11.3617 -11.3595  -6.5076  -6.5076  -4.3300  -1.7299  -1.7275
    -1.7266  -0.3284  -0.3278  -0.3264  -0.0487  -0.0479  -0.0468  -0.0127
    -0.0118  -0.0112   0.1654   0.1668   0.1679   0.3231   0.3251   0.3259
     0.4805   0.4830   0.4841   0.6218   0.6282   0.6359   0.8110   0.8165
     0.8196   1.2090   1.2120   1.2132   1.4117   1.4123   1.4171   1.5116
     1.5131   1.5151   1.6316   1.6356   1.6365   2.0051   2.0083   2.0099
     2.0669   2.0708   2.0724   2.3762   2.3776   2.3801   2.4468   2.4470
     2.4481   2.6380   2.6401   2.6408   2.6945   2.6951   2.6965   2.7524
     2.7537   2.7547   2.8436   2.8452   2.8496   2.8924   2.8934   2.8941
     3.0953   3.0962   3.0971   3.1385   3.1398   3.1411   3.9248   3.9273
     3.9293   5.7299   5.7310   5.7344   5.9685   5.9687   8.0692   8.0773
     8.0782  10.5160  10.5225  10.5233  12.1588  12.1603  12.1641  12.3437
    12.3439  12.3447  12.5657  12.5676  12.5685  12.9701  12.9920  12.9939
    13.6951  13.7335  13.7348  13.9925

          k = 0.3333-0.3849 0.0000 ( 22149 PWs)   bands (ev):

   -86.0307 -86.0265 -86.0240 -86.0233 -86.0208 -86.0196 -85.8603 -85.8556
   -85.8530 -85.8142 -85.8109 -85.8091 -49.5479 -49.5417 -49.5311 -49.5300
   -49.5232 -49.4960 -49.4933 -49.4920 -49.4720 -49.4662 -49.4612 -49.4555
   -49.4535 -49.4519 -49.4398 -49.4369 -49.4368 -49.4233 -49.3735 -49.3520
   -49.3287 -49.3224 -49.3068 -49.2909 -49.2899 -49.2839 -49.2793 -49.2771
   -49.2770 -49.2761 -49.2453 -49.2443 -49.2351 -49.2322 -49.2308 -49.2303
   -12.1506 -11.2043 -10.2754  -7.6907  -5.8440  -3.4934  -3.4247  -2.4447
    -1.3626  -0.4068  -0.2963  -0.1498  -0.0856  -0.0806  -0.0122   0.1221
     0.1302   0.1643   0.2193   0.2224   0.2324   0.3883   0.3936   0.4905
     0.5741   0.6262   0.6598   0.7253   0.7539   0.8527   0.9223   0.9951
     1.0717   1.0904   1.1465   1.2524   1.3342   1.3768   1.4378   1.4397
     1.4811   1.5230   1.5766   1.6980   1.7604   1.8033   1.8750   1.9224
     1.9835   1.9916   2.0237   2.0400   2.1559   2.1868   2.2055   2.2176
     2.3054   2.3387   2.4037   2.5048   2.5376   2.5417   2.6516   2.6568
     2.6847   2.7545   2.8635   2.9124   2.9256   2.9445   2.9845   3.0093
     3.0511   3.0867   3.1236   3.1357   3.2209   3.8172   4.4679   4.6372
     4.7720   4.9421   5.6882   6.0951   7.0605   7.1480   7.2360   8.3664
     9.0006   9.1965  10.2713  10.6022  10.8142  11.3008  11.3042  11.5951
    11.7320  12.0680  12.5735  12.7849  12.8006  13.1399  13.2348  13.3088
    13.8235  13.8784  13.9420  14.1941

          k =-0.5000 0.2887 0.0000 ( 22116 PWs)   bands (ev):

   -86.0293 -86.0288 -86.0230 -86.0223 -86.0222 -86.0192 -85.8599 -85.8564
   -85.8526 -85.8129 -85.8129 -85.8084 -49.5572 -49.5494 -49.5285 -49.5280
   -49.5025 -49.5022 -49.4895 -49.4836 -49.4834 -49.4680 -49.4569 -49.4552
   -49.4549 -49.4456 -49.4453 -49.4365 -49.4331 -49.4329 -49.3821 -49.3377
   -49.3329 -49.3295 -49.2906 -49.2864 -49.2860 -49.2859 -49.2836 -49.2830
   -49.2795 -49.2769 -49.2452 -49.2389 -49.2388 -49.2339 -49.2338 -49.2302
   -11.8346 -11.8322  -9.0764  -9.0705  -4.4644  -4.4609  -2.7994  -2.7939
    -1.3807  -1.3772  -0.2630  -0.1711  -0.1059   0.0627   0.0719   0.1324
     0.1912   0.1936   0.2780   0.4145   0.4156   0.5606   0.5824   0.5835
     0.6205   0.6219   0.7220   0.7226   0.8522   0.8542   0.9985   0.9994
     1.1070   1.1236   1.1281   1.1744   1.1958   1.1996   1.3695   1.3743
     1.4018   1.4312   1.4336   1.4748   1.4811   1.7176   1.7186   1.7868
     1.7883   1.9568   1.9955   2.0319   2.0349   2.2337   2.2363   2.2969
     2.3473   2.3480   2.5768   2.6164   2.6168   2.7049   2.7086   2.7420
     2.8165   2.8178   2.9739   2.9794   2.9813   3.0122   3.1098   3.1621
     3.1644   3.1947   3.3090   3.3389   3.3561   3.4084   3.6498   3.6514
     5.2607   5.2611   6.1889   6.9956   7.5347   7.5399   7.5439   7.7327
     8.6973   8.7125   9.8038   9.8133  10.1779  10.7596  11.5116  11.7271
    11.7288  12.0234  12.0251  12.7044  12.9694  12.9774  13.2549  13.2593
    13.6572  13.6606  13.8395  13.8443

          k =-0.5000 0.4811 0.0000 ( 22149 PWs)   bands (ev):

   -86.0307 -86.0265 -86.0240 -86.0233 -86.0208 -86.0196 -85.8603 -85.8556
   -85.8530 -85.8142 -85.8109 -85.8091 -49.5479 -49.5417 -49.5311 -49.5301
   -49.5232 -49.4959 -49.4933 -49.4920 -49.4720 -49.4661 -49.4612 -49.4555
   -49.4535 -49.4519 -49.4399 -49.4369 -49.4368 -49.4234 -49.3735 -49.3519
   -49.3287 -49.3225 -49.3069 -49.2909 -49.2900 -49.2839 -49.2792 -49.2771
   -49.2769 -49.2760 -49.2454 -49.2442 -49.2351 -49.2323 -49.2308 -49.2304
   -12.1506 -11.2043 -10.2754  -7.6907  -5.8440  -3.4934  -3.4247  -2.4447
    -1.3626  -0.4068  -0.2962  -0.1499  -0.0857  -0.0814  -0.0121   0.1227
     0.1302   0.1644   0.2186   0.2219   0.2324   0.3883   0.3947   0.4905
     0.5745   0.6262   0.6602   0.7246   0.7530   0.8535   0.9225   0.9952
     1.0723   1.0912   1.1476   1.2517   1.3336   1.3763   1.4358   1.4389
     1.4811   1.5245   1.5762   1.6998   1.7609   1.8018   1.8742   1.9220
     1.9849   1.9907   2.0236   2.0399   2.1557   2.1872   2.2047   2.2170
     2.3058   2.3394   2.4039   2.5051   2.5377   2.5417   2.6516   2.6568
     2.6849   2.7536   2.8639   2.9128   2.9256   2.9441   2.9828   3.0095
     3.0521   3.0871   3.1228   3.1369   3.2225   3.8173   4.4673   4.6372
     4.7714   4.9421   5.6882   6.0951   7.0599   7.1479   7.2361   8.3665
     9.0005   9.1957  10.2713  10.6023  10.8155  11.3006  11.3045  11.5952
    11.7319  12.0680  12.5736  12.7850  12.7998  13.1411  13.2350  13.3086
    13.8234  13.8785  13.9434  14.1937

          k =-0.5000 0.6736 0.0000 ( 22149 PWs)   bands (ev):

   -86.0307 -86.0264 -86.0241 -86.0233 -86.0208 -86.0196 -85.8603 -85.8556
   -85.8530 -85.8142 -85.8109 -85.8091 -49.5475 -49.5418 -49.5311 -49.5302
   -49.5235 -49.4960 -49.4929 -49.4927 -49.4719 -49.4657 -49.4612 -49.4556
   -49.4535 -49.4519 -49.4399 -49.4370 -49.4368 -49.4234 -49.3734 -49.3520
   -49.3288 -49.3225 -49.3067 -49.2910 -49.2899 -49.2839 -49.2792 -49.2771
   -49.2769 -49.2760 -49.2450 -49.2445 -49.2350 -49.2322 -49.2309 -49.2305
   -12.1506 -11.2043 -10.2754  -7.6907  -5.8440  -3.4934  -3.4248  -2.4446
    -1.3625  -0.4068  -0.2962  -0.1498  -0.0863  -0.0815  -0.0122   0.1237
     0.1300   0.1644   0.2187   0.2208   0.2334   0.3901   0.3938   0.4886
     0.5750   0.6270   0.6589   0.7264   0.7532   0.8535   0.9231   0.9953
     1.0719   1.0886   1.1506   1.2477   1.3321   1.3754   1.4344   1.4370
     1.4842   1.5286   1.5780   1.6994   1.7646   1.7999   1.8749   1.9225
     1.9789   1.9954   2.0213   2.0426   2.1539   2.1862   2.2063   2.2145
     2.3017   2.3394   2.4063   2.5043   2.5380   2.5417   2.6538   2.6571
     2.6847   2.7535   2.8627   2.9132   2.9270   2.9447   2.9830   3.0115
     3.0508   3.0875   3.1228   3.1353   3.2222   3.8174   4.4663   4.6369
     4.7716   4.9416   5.6915   6.0972   7.0596   7.1436   7.2360   8.3655
     9.0017   9.1956  10.2715  10.6015  10.8153  11.3019  11.3045  11.5953
    11.7314  12.0616  12.5734  12.7851  12.8016  13.1393  13.2490  13.3084
    13.8231  13.8803  13.9447  14.1940

          k =-0.5000-0.2887 0.0000 ( 22116 PWs)   bands (ev):

   -86.0293 -86.0288 -86.0231 -86.0224 -86.0222 -86.0191 -85.8600 -85.8563
   -85.8526 -85.8129 -85.8129 -85.8084 -49.5568 -49.5495 -49.5284 -49.5280
   -49.5029 -49.5028 -49.4905 -49.4832 -49.4831 -49.4673 -49.4571 -49.4551
   -49.4550 -49.4455 -49.4450 -49.4364 -49.4334 -49.4330 -49.3821 -49.3378
   -49.3326 -49.3300 -49.2908 -49.2861 -49.2857 -49.2857 -49.2835 -49.2833
   -49.2795 -49.2769 -49.2449 -49.2391 -49.2391 -49.2339 -49.2338 -49.2304
   -11.8341 -11.8328  -9.0759  -9.0709  -4.4646  -4.4607  -2.7984  -2.7949
    -1.3797  -1.3781  -0.2629  -0.1718  -0.1063   0.0651   0.0694   0.1331
     0.1926   0.1931   0.2799   0.4120   0.4134   0.5623   0.5834   0.5853
     0.6225   0.6230   0.7193   0.7196   0.8516   0.8545   0.9990   0.9994
     1.1050   1.1272   1.1301   1.1688   1.1981   1.2002   1.3675   1.3713
     1.4009   1.4305   1.4329   1.4798   1.4813   1.7178   1.7213   1.7890
     1.7911   1.9590   2.0043   2.0244   2.0274   2.2329   2.2356   2.2898
     2.3458   2.3466   2.5758   2.6189   2.6196   2.7086   2.7107   2.7470
     2.8149   2.8156   2.9734   2.9807   2.9814   3.0106   3.1114   3.1624
     3.1632   3.1928   3.3086   3.3373   3.3570   3.4092   3.6499   3.6507
     5.2617   5.2620   6.1869   7.0103   7.5239   7.5401   7.5418   7.7285
     8.6990   8.7108   9.8042   9.8129  10.1756  10.7625  11.5042  11.7275
    11.7284  12.0237  12.0252  12.7220  12.9722  12.9751  13.2563  13.2582
    13.6574  13.6596  13.8394  13.8437

     the Fermi energy is     6.0847 ev

!    total energy              =   -3595.83473540 Ry
     estimated scf accuracy    <          1.1E-10 Ry
     smearing contrib. (-TS)   =      -0.00084598 Ry
     internal energy E=F+TS    =   -3595.83388942 Ry

     The total energy is F=E-TS. E is the sum of the following terms:
     one-electron contribution =  -24420.61925658 Ry
     hartree contribution      =   12240.40299073 Ry
     xc contribution           =    -362.17264156 Ry
     ewald contribution        =    8996.38653672 Ry
     DFT-D3 Dispersion         =      -0.50438942 Ry
     electric field correction =       0.00000133 Ry
     one-center paw contrib.   =     -49.32713066 Ry

     convergence has been achieved in  39 iterations

     negative rho (up, down):  1.219E-04 0.000E+00

     Forces acting on atoms (cartesian axes, Ry/au):

     atom    1 type  1   force =     0.00021626    0.00058146    0.00215637
     atom    2 type  1   force =     0.00018435    0.00044232    0.00212031
     atom    3 type  1   force =    -0.00021046   -0.00009214   -0.00015047
     atom    4 type  1   force =     0.00002132   -0.00035008   -0.00087489
     atom    5 type  1   force =     0.00009175    0.00056498    0.00212361
     atom    6 type  1   force =    -0.00032947   -0.00003123   -0.00033441
     atom    7 type  1   force =     0.00052161   -0.00042520    0.00061255
     atom    8 type  1   force =    -0.00001760   -0.00032892   -0.00088345
     atom    9 type  1   force =    -0.00050852    0.00022342    0.00077330
     atom   10 type  1   force =    -0.00019191   -0.00001124   -0.00021704
     atom   11 type  1   force =     0.00000592   -0.00034906   -0.00087280
     atom   12 type  1   force =     0.00021738   -0.00015329    0.00058098
     atom   13 type  2   force =     0.00057209   -0.00033273   -0.00057398
     atom   14 type  2   force =     0.00027831   -0.00059139   -0.00082918
     atom   15 type  2   force =     0.00034664   -0.00021316   -0.00024484
     atom   16 type  2   force =     0.00064679    0.00003705   -0.00079104
     atom   17 type  2   force =    -0.00073074   -0.00023154   -0.00094181
     atom   18 type  2   force =    -0.00012026    0.00006214   -0.00017056
     atom   19 type  2   force =    -0.00017333    0.00073227   -0.00075722
     atom   20 type  2   force =    -0.00082014    0.00046635   -0.00072543

     Total force =     0.005197     Total SCF correction =     0.000096

     Writing all to output data dir ./tmp/V2_top_hcp_dft_bound.save/ :
     XML data file, charge density, pseudopotentials, collected wavefunctions
 
     init_run     :      3.64s CPU      3.76s WALL (       1 calls)
     electrons    :    203.14s CPU    220.99s WALL (       1 calls)
     forces       :      0.69s CPU      0.82s WALL (       1 calls)
     force_dftd3  :      0.04s CPU      0.03s WALL (       1 calls)

     Called by init_run:
     wfcinit      :      1.05s CPU      1.61s WALL (       1 calls)
     potinit      :      1.69s CPU      1.24s WALL (       1 calls)
     hinit0       :      0.57s CPU      0.49s WALL (       1 calls)

     Called by electrons:
     c_bands      :    111.54s CPU    137.37s WALL (      40 calls)
     sum_band     :     22.10s CPU     32.42s WALL (      40 calls)
     v_of_rho     :     10.30s CPU      8.57s WALL (      40 calls)
     newd         :      0.58s CPU      0.59s WALL (      40 calls)
                                        0.59s GPU  (      40 calls)
     PAW_pot      :     48.65s CPU     30.68s WALL (      40 calls)
     mix_rho      :      7.18s CPU      7.55s WALL (      40 calls)
     energy_dftd3 :      0.00s CPU      0.00s WALL (       1 calls)

     Called by c_bands:
     init_us_2    :      1.51s CPU      1.92s WALL (    1640 calls)
     cegterg      :     98.60s CPU     99.05s WALL (     800 calls)

     Called by *egterg:
     cdiaghg      :     19.19s CPU     19.67s WALL (    4857 calls)
                                       19.64s GPU  (    4857 calls)
     h_psi        :     61.82s CPU     62.17s WALL (    4897 calls)
                                       62.00s GPU  (    4897 calls)
     s_psi        :      1.91s CPU      1.86s WALL (    4897 calls)
     g_psi        :      0.02s CPU      0.49s WALL (    4077 calls)
                                        0.46s GPU  (    4077 calls)

     Called by h_psi:
     h_psi:calbec :      0.18s CPU      2.73s WALL (    4897 calls)
                                        2.70s GPU  (    4897 calls)
     vloc_psi     :     53.83s CPU     54.06s WALL (    4897 calls)
                                       54.04s GPU  (    4897 calls)
     add_vuspsi   :      2.04s CPU      4.67s WALL (    4897 calls)
                                        4.64s GPU  (    4897 calls)

     General routines
     calbec       :      0.21s CPU      0.22s WALL (    5777 calls)
     fft          :      1.88s CPU      2.05s WALL (     530 calls)
                                        0.16s GPU  (     490 calls)
     ffts         :      0.41s CPU      0.71s WALL (    4348 calls)
                                        0.34s GPU  (    4308 calls)
     fftw         :      0.62s CPU     45.75s WALL (   47592 calls)
                                       45.47s GPU  (   47592 calls)
     interpolate  :      2.46s CPU      3.01s WALL (      40 calls)
     davcio       :      2.58s CPU     36.45s WALL (    3146 calls)
 
     Parallel routines
 
     PWSCF        :   3m29.78s CPU   3m48.06s WALL

 
   This run was terminated on:  20:42:38  26Sep2026            

=------------------------------------------------------------------------------=
   JOB DONE.
=------------------------------------------------------------------------------=
