120
Lattice="13.99299189 0.0 0.0 0.0 13.99299189 0.0 0.0 0.0 13.99299189" Properties=species:S:1:pos:R:3:forces:R:3 t_ps=17.0 charge=0 spin=0 energy=-508.11539777007624 free_energy=-508.11539777007624 stress="0.0031996838728947366 -0.0013772270468852246 0.0004562619549776586 -0.0013772270468852246 0.0008351557156121451 0.0006724481325796152 0.0004562619549776586 0.0006724481325796152 0.0028742226258844264" pbc="T T T"
P        1.12219005      10.49536311     -14.61513254       0.00018118       0.00240407       0.00011488
S       -0.47858124      10.91970456     -15.83167886      -0.00100311      -0.00065192       0.00200972
S        1.02042564       8.53608071     -14.00978874       0.00712006      -0.00038248      -0.00409724
S        0.94012887      11.74248396     -12.97664285      -0.00398045       0.00329269       0.00121998
S        2.94330215      10.92795895     -15.49692322       0.00808312      -0.00144404       0.00807236
P       17.43545242      22.64404522     -10.36231207       0.00576353       0.00402681       0.00376872
S       15.42637619      22.99469412     -10.03968709       0.00469045       0.01002179       0.00757278
S       18.42439510      23.68600598     -11.84397135      -0.00024977      -0.00298871      -0.01024623
S       17.61129408      20.65779570     -10.89453143       0.01450992       0.00452561      -0.00303019
S       18.40190066      23.10684947      -8.58286431       0.00102130      -0.00811647       0.01077692
P       -9.85402132      14.84740236      13.44628211      -0.00730984       0.00358351       0.00051073
S       -9.02722633      14.05252297      11.72889335      -0.01542575      -0.00521364      -0.00223475
S       -9.41601245      13.65060604      15.08933604       0.00500185       0.00720941       0.00774844
S      -11.86723979      14.97568320      13.10074821      -0.00706251       0.00305084       0.00106929
S       -8.92647507      16.65925332      13.83800306      -0.00048513       0.00860981      -0.00851864
P        0.31048877       2.69060610       4.02217486      -0.00152312       0.00096923      -0.00149191
S        0.93719349       1.26722963       2.66657940      -0.00381901      -0.00312843      -0.00077137
S        0.40755379       4.52942186       3.08603922       0.00176772       0.00236008      -0.00320941
S        1.44641655       2.61708137       5.73253300       0.00092576       0.00534602      -0.00273922
S       -1.68906971       2.27231548       4.38702844      -0.00109470      -0.00634275      -0.00233688
P       20.69835286      25.04825552       9.17997759       0.00584755      -0.00047812      -0.00184531
S       19.40986931      26.58809797       8.77798035       0.00364658       0.00310141       0.00545382
S       20.09748077      24.12816401      10.95235923      -0.00237736       0.00101011       0.00129828
S       22.64641562      25.64975490       9.39723659       0.00408023      -0.00039557      -0.00545308
S       20.57299939      23.72764126       7.60299869       0.00275875      -0.00045765      -0.00622810
P        5.36775549      14.92830166      19.50554864      -0.00033426      -0.00276103       0.00014954
S        5.08142338      16.30275529      17.95430024       0.00260920      -0.00047726      -0.00281387
S        7.36572426      14.59452652      19.79744427       0.00606649      -0.00105800       0.00419456
S        4.26905795      13.26816334      19.01043187      -0.00815883      -0.00310180       0.00091128
S        4.59022064      15.72375200      21.24152725      -0.00589231       0.00169503       0.00263403
P      -15.53767559       3.96456410      -4.98317559      -0.00010489      -0.00604549       0.00194355
S      -15.66925538       5.19861014      -6.62638129      -0.00061653      -0.00523887       0.00177460
S      -16.37688457       2.15308291      -5.51107359      -0.00393870      -0.01007817       0.01422561
S      -16.69391184       4.75659561      -3.44919113      -0.01018940      -0.01132908       0.00252481
S      -13.53389909       3.88907615      -4.50498209       0.00800069      -0.00765991      -0.00753216
P       -4.24422796      -6.63832243     -14.79488308       0.00173291       0.00787760      -0.00343318
S       -5.40371560      -5.74544907     -13.34016687      -0.00180665       0.01180099       0.00230333
S       -5.30820903      -8.32530509     -15.34679300      -0.00090957       0.00461439      -0.00245326
S       -2.38119593      -7.08097393     -14.01663971      -0.00222572      -0.00672281       0.00390710
S       -3.95310850      -5.46968737     -16.44550377       0.00687630       0.00922028      -0.00634060
P       11.65432747      29.46850607      13.34320012      -0.00321977      -0.00275323       0.00260247
S       13.11028780      29.06516311      11.95698093      -0.00584064      -0.00899437      -0.00338898
S       11.57616239      27.88939238      14.64770371      -0.00540283       0.00337918       0.01398937
S        9.77168127      29.67655483      12.52985455      -0.00050563       0.00139470      -0.00386934
S       12.11600441      31.25624820      14.31758466       0.00072392       0.00076143       0.01253264
P       28.74294086      -1.80216761      22.10431892      -0.00272571      -0.00174146       0.00320753
S       29.80004690      -3.53092328      22.51901391       0.00498426       0.00065059       0.00797215
S       26.76692396      -2.01430610      22.68211510      -0.00460758      -0.01475192      -0.00247209
S       28.78678641      -1.56004373      20.06303140      -0.00040259       0.00500385       0.00245773
S       29.51198928      -0.13260616      23.03019031       0.00027546       0.00002394       0.00426653
P       10.41734350      -3.00335690      31.95515217       0.00956530      -0.00034660      -0.00290001
S        8.40733415      -2.92647804      31.41400176       0.00138281       0.00145194      -0.00846015
S       11.00182120      -1.06041024      32.32939658       0.00877847      -0.00241955       0.00741353
S       11.42468356      -3.82842331      30.35040447      -0.00470984      -0.00211784      -0.00805454
S       10.80776565      -4.00827114      33.70903651       0.00641065      -0.00179950      -0.00023231
P       -5.30624636      -8.37963458       4.14979251       0.00031224       0.00026923      -0.00033548
S       -6.46487432      -9.12682480       2.63734346      -0.00026439       0.00144855      -0.00847247
S       -5.28054593      -9.76248688       5.67903481      -0.00177733       0.00000077       0.00424693
S       -6.21388654      -6.65856875       4.88838953      -0.00010844       0.00547150       0.00646099
S       -3.35159120      -7.88955378       3.69853514       0.00133202      -0.00293221      -0.01276387
Cl      22.26464017      -2.04201791      -0.51121496      -0.00962804      -0.00483984       0.00374516
Cl       1.68149567     -21.52338364       6.73990560      -0.00394037      -0.00837860      -0.00105932
Cl       6.93219425      33.87374345      -4.64731352       0.01420948       0.00023747       0.00172780
Cl     -12.75313539      18.60100097      13.10974602       0.00931450       0.00819995       0.00168290
Cl      18.20389453     -24.04009298      24.49105386      -0.00064298       0.00424502      -0.00571207
Cl      21.48775740     -11.68363931       9.66165012      -0.00136357       0.00216896       0.00096803
Cl      18.86685444       6.44462222      13.26097857      -0.00172536       0.00392065      -0.00239148
Cl     -10.56016794      -6.46161415     -32.38566546      -0.00362971       0.00344129      -0.00521696
Cl      41.51739167      -6.23686433      -3.80175616       0.00069426      -0.00589400       0.00133558
Cl      -4.27469145       7.61447487      22.03088937      -0.00169897       0.00635483      -0.00429411
Cl      19.10877420      -8.68413368      -7.52064257       0.00187713      -0.00145768      -0.00694732
Cl      22.27257457      15.09689145      58.20672720      -0.00768862      -0.00082716       0.00772290
Li     -19.41164238      41.45261786     -38.04425813       0.00801263      -0.00662182       0.00187822
Li      36.49509742     -31.51445581      39.52753221       0.00633164      -0.00121545      -0.00183152
Li     -38.52252054      49.81209700      56.64481561       0.00004628       0.00390309      -0.00004822
Li     -15.17467600      -5.47658853     -15.54101160      -0.00041800       0.00931461      -0.00270722
Li      -0.46587527     -28.92319232    -126.51090985       0.00577509      -0.00491675       0.01055161
Li      44.66339482      13.20548945      25.24026871      -0.00555847       0.00703174       0.00537470
Li       5.03862916       6.23626041     -31.22032623       0.00241612      -0.00151496      -0.01118382
Li     -49.83993487      68.06628542      54.44535226      -0.00588424       0.00685573      -0.00768585
Li      24.56186820       7.87074716      16.02880182      -0.00018338       0.00343097      -0.00014298
Li       1.97096801      38.20607738       6.03848806      -0.00623168      -0.00446032      -0.00223035
Li       1.28059925       6.49066475      -4.79989603       0.00579772      -0.00566901      -0.00462451
Li      47.75617129      72.29647779     -58.60778779      -0.00206570       0.00147189       0.00157413
Li      -8.26543031      33.95851097       4.22984178      -0.00534369      -0.00128507      -0.00229615
Li      -2.03333172      -9.85956586      16.84468026      -0.00290555       0.00112227       0.00449332
Li       9.01373971     -59.98287817     -48.35985358      -0.00162210      -0.00447950       0.00064381
Li     -28.13039088      24.05546392      51.86645093       0.00902306      -0.01070454       0.01087981
Li      -7.51664132      65.41407036       3.89496220       0.00436795      -0.00043463       0.00736140
Li      -3.82911434      21.67317392      89.60333622       0.00476180      -0.00231209      -0.00639799
Li      96.75660871      46.98883310      12.59986840       0.00194360       0.00768139       0.00088449
Li      47.20023800      25.54119728       6.61243078      -0.01033965       0.00302291       0.00112194
Li       0.09135111      37.71628318       2.04145010       0.00810652      -0.00777072       0.00721585
Li      17.62616132     -23.57529248      96.79616121       0.00258362       0.00200454      -0.00607402
Li      -7.19430386      28.49471398     -19.72629946      -0.00238508       0.01143947      -0.00325628
Li      59.63131043      23.80730358      -3.63661207       0.00251694       0.00084512      -0.00968328
Li      20.03003787      43.44685581     -26.21900037      -0.00116951       0.00444529      -0.00052478
Li       7.05258010      20.31635444     -13.57423897      -0.00874903       0.00839460       0.00085411
Li     -10.21178395      59.46606331     -22.28850139      -0.00323283       0.00308510       0.00010196
Li     -27.38135300      -9.57392981       7.07008290      -0.00039589       0.00378568      -0.00681880
Li       0.69983722     -24.90301681       0.92683082       0.00588559      -0.00609478      -0.00321027
Li      65.87174769       3.86360519      41.57284324       0.00482182       0.00158406      -0.00268109
Li     -39.57197006       0.35967511       6.64039001       0.00126548      -0.00039076       0.01311853
Li      35.58461920      16.65224615      -9.88951561      -0.00249546       0.00091919       0.00170592
Li      23.23862302      10.56837861      29.12969242      -0.00368013       0.00309165       0.00238759
Li     -46.82493959     -69.94300105     -13.72860807      -0.00710212       0.00010031       0.00688919
Li      49.60709762      20.18195511     -20.87878137       0.00253387       0.00028360      -0.00898015
Li      26.55015503       0.34319106      58.84268883       0.00136398       0.00649972      -0.00137536
Li      -4.12624546     -39.34199018     -31.76934784      -0.00717569       0.00212943       0.00810734
Li      -2.32886615     -21.14816570      37.11378144      -0.00328275      -0.00346742      -0.00559174
Li      25.10598847     -10.58094107     -49.70146152       0.00094462      -0.01440962       0.00102871
Li     -10.65576065     -16.39451761     -13.07510596       0.00734129      -0.00586303       0.00329240
Li      41.04674243      14.36247964      -4.51756417      -0.00700982      -0.01302212      -0.00150721
Li     -12.97647766      30.71793953      11.66300902       0.00058229       0.00614932       0.00812964
Li      -8.17154007      45.80695256      36.57284940      -0.00865615       0.00378782      -0.00858811
Li     -12.49842663      34.43479716     -51.61929291      -0.00684352       0.00095068      -0.01123888
Li      36.87957098      20.67246628      24.29127720      -0.00406656       0.00751822      -0.00785047
Li      87.86028076     -48.70211930      21.17997291       0.00935156       0.00140837       0.00153620
Li     -66.62480430     -41.34574155     -10.90104508      -0.00192404      -0.00211036       0.00284327
Li      26.30196553      11.96003535     -21.73687559       0.00079332      -0.01533126      -0.00061591
