120
Lattice="14.00411431 0.0 0.0 0.0 14.00411431 0.0 0.0 0.0 14.00411431" Properties=species:S:1:pos:R:3:forces:R:3 t_ps=40.0 charge=0 spin=0 energy=-508.07473040977146 free_energy=-508.07473040977146 stress="0.002621085210833619 -0.0016636678705432308 0.0006253475544336898 -0.0016636678705432308 0.0012210888257268226 0.000570710685857194 0.0006253475544336898 0.000570710685857194 0.0029183857655034717" pbc="T T T"
P        1.13702673      10.50427034     -14.63358432       0.00112196       0.00298104       0.00074683
S       -0.48387496      10.93935383     -15.82794266       0.00136383       0.00180167       0.00111488
S        1.01534678       8.54817136     -14.02602230       0.00861868       0.00025877      -0.00387165
S        0.95351103      11.75151023     -12.99984437      -0.00259614       0.00203730       0.00153893
S        2.95531513      10.92331549     -15.52805355       0.00830402       0.00136535       0.00934967
P       17.50298976      22.71212473     -10.42588744       0.00418881       0.00310262       0.00293666
S       15.51662026      23.13220357     -10.06246117       0.00428660       0.00897811       0.00624244
S       18.50095655      23.72858675     -11.91905161       0.00090131      -0.00529761      -0.01168178
S       17.60802825      20.72451752     -10.97048001       0.01520423       0.00323102      -0.00241185
S       18.50700618      23.15755886      -8.66535571       0.00003435      -0.00839211       0.01044047
P       -9.86699656      14.82720124      13.51622452      -0.00741023       0.00288748       0.00086696
S       -9.05542031      14.01395896      11.79618179      -0.01369072      -0.00698067       0.00067897
S       -9.43003942      13.64162103      15.16635847       0.00674702       0.00620565       0.00878643
S      -11.88077362      14.93711431      13.19173391      -0.00585829       0.00232967       0.00077594
S       -8.92649451      16.63598021      13.88898224      -0.00100221       0.00851589      -0.00830855
P        0.31485576       2.78268999       4.07947136      -0.00041382      -0.00118534      -0.00460384
S        0.98355245       1.39201018       2.70890575      -0.00656157      -0.00831307      -0.00283281
S        0.36583886       4.63213586       3.16078457       0.00560568       0.00136077      -0.00404765
S        1.43793342       2.71315477       5.80390929       0.00156497       0.01020382      -0.00571621
S       -1.67593915       2.30409845       4.41780667      -0.00187391      -0.00396668      -0.00542282
P       20.74341627      25.03800445       9.17028366      -0.00029206       0.00478908       0.00156499
S       19.20724725      26.36479099       8.88696065       0.00454231       0.01310473       0.00896204
S       20.36951752      24.02765155      10.94331745      -0.01334642       0.00289796       0.00242050
S       22.56760271      25.99937842       9.32985020       0.00123494       0.00269549      -0.00257202
S       20.80586653      23.81168200       7.53293559      -0.00128203       0.00471882      -0.00240054
P        5.29480360      14.81380817      19.66601725       0.00104604       0.00106995      -0.00101327
S        5.19467480      16.20109899      18.09467420       0.00906551      -0.00046616      -0.00581634
S        7.18403831      14.10094315      20.02849840       0.00632984       0.00347380       0.00393814
S        4.03231211      13.27932281      19.14855619      -0.01467254       0.00247965       0.00152655
S        4.56055605      15.72465343      21.35124772      -0.00817255       0.00706849      -0.00189488
P      -15.55585126       3.83710315      -4.97043502      -0.00043130      -0.00372658       0.00132535
S      -15.62147218       5.08818855      -6.60841883      -0.00381655      -0.00095626       0.00146816
S      -16.47842217       2.07094440      -5.48421030      -0.00834407      -0.00753766       0.01331657
S      -16.62890449       4.76428870      -3.46207408      -0.01178966      -0.01245398       0.00471735
S      -13.57166137       3.68114933      -4.43803281       0.00718312      -0.01183875      -0.01509560
P       -4.29111564      -6.45608632     -14.83383602       0.00565949       0.00330854      -0.00060279
S       -5.50429670      -5.61069350     -13.38781546       0.00273615       0.00947679       0.00142140
S       -5.32572437      -8.07989494     -15.55743340       0.00235301      -0.00191436       0.00021206
S       -2.50898134      -7.06481936     -14.01683622       0.00300440      -0.00686790       0.00433710
S       -3.83462990      -5.18391324     -16.38173315       0.00288059       0.00219653      -0.00868639
P       11.68587252      29.58706366      13.46210881      -0.00193374      -0.00490913       0.00132128
S       13.06873668      29.03119480      12.03132082      -0.00287643      -0.00362310      -0.00633248
S       11.52972512      27.98055985      14.74208057      -0.00180315      -0.00266313       0.00959326
S        9.81501873      29.97013507      12.69497362       0.00087965      -0.00807343      -0.00897640
S       12.31297934      31.31461296      14.38914097      -0.00601788      -0.00194026       0.01799533
P       28.64588942      -1.86435775      22.13668577      -0.00247312       0.00172599       0.00051181
S       29.73865124      -3.59982734      22.54657928       0.00574913       0.00185801       0.01084888
S       26.67735898      -2.08859303      22.71877479      -0.00439089      -0.00851075      -0.00354527
S       28.71450480      -1.58144263      20.11277907      -0.00409304       0.00202750       0.00003065
S       29.44620397      -0.24141598      23.10484514       0.00145885      -0.00124672       0.00116408
P       10.44265384      -2.99191749      31.93926755       0.00885928      -0.00036069       0.00029490
S        8.42518336      -2.91993407      31.42443335       0.00137689       0.00002934      -0.00720500
S       11.01642532      -1.05182178      32.33614908       0.00624866      -0.00185712       0.01019066
S       11.42922096      -3.81753392      30.32479173      -0.00470563      -0.00127467      -0.00598976
S       10.85289920      -4.01863223      33.67622378       0.00437531      -0.00169309       0.00359623
P       -5.32734664      -8.37651283       4.15217869       0.00033674       0.00255482       0.00118761
S       -6.51914705      -9.04334492       2.62338100       0.00514378       0.00180652      -0.00726168
S       -5.30128656      -9.83573362       5.62453483      -0.00384866       0.00066859       0.00719557
S       -6.22515960      -6.68608043       4.97298441      -0.00116298       0.00786902       0.00370033
S       -3.38552137      -7.87595994       3.70709244       0.00494424      -0.00043860      -0.00642604
Cl      22.30199786      -1.87395147      -0.52983412      -0.00794110      -0.00632864       0.00613091
Cl       1.69467973     -21.37238245       6.71429483      -0.00214715      -0.00237678       0.00781636
Cl       7.02982619      33.86852120      -4.77354112       0.01654565       0.00307168       0.00253592
Cl     -12.61322073      18.63488752      13.01651927       0.00383203       0.00827905       0.00029801
Cl      18.34333369     -24.04108785      24.50266593      -0.00956003       0.00414856       0.00135586
Cl      21.52344235     -11.85084384       9.73389434       0.00203772       0.00012555       0.00140056
Cl      18.89443864       6.51563628      13.17122242      -0.00148338      -0.00070663       0.00629555
Cl     -10.30312522      -6.19695676     -32.61119710       0.00156379      -0.00021818       0.00321335
Cl      41.65984051      -6.35059287      -3.73946011      -0.00309626      -0.00467889      -0.00888441
Cl      -4.05366676       7.86458490      22.15322388      -0.01133339      -0.00132798      -0.00899113
Cl      19.07463100      -8.70819401      -7.62988173       0.00119128      -0.00519063      -0.01261852
Cl      22.26650639      15.10428681      58.38142210      -0.00556029      -0.00072527       0.00965765
Li     -19.43788367      41.46837419     -37.98591378       0.00803980      -0.00432285       0.00367475
Li      36.68765163     -31.23769303      39.52672876       0.00519820      -0.00543960       0.00305867
Li     -38.53506467      49.91052112      56.61082912      -0.00009831       0.00457526       0.00240917
Li     -15.31537355      -5.39928506     -15.41850950       0.00309370       0.01054937      -0.00080971
Li      -0.58242292     -28.96956170    -126.53938402       0.01252870      -0.00356624       0.00734916
Li      44.63354851      13.21261632      25.38501224      -0.00151517       0.00675053      -0.00000775
Li       5.10482095       6.29072815     -31.37303667      -0.00320879      -0.00605936      -0.02063979
Li     -49.85353763      68.05605954      54.46997711      -0.00564785       0.00759575      -0.00540688
Li      24.47712584       7.90579952      16.02493655       0.00390783       0.00064762      -0.00065975
Li       2.14708942      38.37639763       5.99154480      -0.00029506      -0.00420678      -0.00270381
Li       1.45488757       7.80212231      -5.26372289       0.00438333      -0.00440800      -0.01181427
Li      47.82217726      72.29824211     -58.58637889      -0.00290925       0.00212381       0.00468653
Li      -8.30489483      34.04442740       4.15577503      -0.00753608       0.00123031      -0.00729408
Li      -2.07812608      -9.88622764      16.80770969      -0.00013089       0.00149815       0.00125947
Li       9.20087679     -59.83209976     -48.40941919      -0.01110779      -0.01080148      -0.00105921
Li     -28.25384324      24.07764001      51.98523223       0.00319274       0.00033416       0.01263127
Li      -7.44221813      65.42673672       3.84255291       0.00370909       0.00070190       0.00603951
Li      -3.86743598      21.70087714      89.74957485       0.00243589      -0.00685166      -0.00583086
Li      97.82771471      47.38632804      11.32715362       0.00196277       0.01244822       0.01102715
Li      47.66347097      25.85019514       6.50699798      -0.00661805       0.00465197      -0.00142049
Li       0.09275717      37.75934192       2.04027947       0.01267186      -0.00930338       0.00731093
Li      17.74673679     -23.58018743      96.82124634      -0.00096494       0.00329254      -0.00202316
Li      -7.00689562      28.08969455     -19.43402559       0.01545536      -0.00156568       0.00260667
Li      59.89416574      24.17003254      -3.86996469       0.00264810      -0.00153474      -0.00126708
Li      20.03831715      43.42758239     -26.18656895       0.00025614       0.00289939       0.00111104
Li       7.06574967      20.42263700     -13.74220877      -0.00738160       0.00630969       0.00047934
Li     -10.19577978      59.42119067     -22.29245818      -0.00181011       0.01048919      -0.00459786
Li     -27.26951514      -9.45829621       7.24907109      -0.00348323       0.00546042      -0.00669697
Li       0.72165068     -24.76010424       0.98640249       0.00283401      -0.01094435      -0.00505092
Li      66.60206790       4.43772641      41.08440317      -0.00810317      -0.01434042       0.00560704
Li     -39.71405324       0.40715863       6.72323529       0.00365759       0.00454686       0.01175255
Li      35.59903339      16.81979053     -10.09344045       0.00036712       0.00527435      -0.00602549
Li      23.25132576      10.67788973      29.11315231      -0.00281815       0.00120124       0.00397362
Li     -46.87653610     -69.80628047     -13.70700099      -0.00699981      -0.00510484       0.00579069
Li      49.38426958      19.91096504     -21.06767525      -0.00359752       0.00491553      -0.00796919
Li      26.60843640       0.42689132      58.89270849      -0.00256996       0.00660423      -0.00198574
Li      -4.14599378     -39.42634319     -31.70959552      -0.00750172       0.00161539       0.00450712
Li      -2.27042634     -21.25404718      37.10887059      -0.00679413      -0.00555724      -0.00129551
Li      25.11864532     -10.63604260     -49.73296064       0.00039572      -0.01048863      -0.00227456
Li     -10.65567811     -16.41236948     -13.09530656       0.01274706      -0.00569470       0.00509409
Li      40.99973175      14.32168219      -4.42097882       0.00059415      -0.00426991      -0.00831833
Li     -13.06182665      30.62077147      11.82133711       0.00391726       0.00787052       0.00081202
Li      -8.09011070      45.67850539      36.69562166      -0.01219174      -0.00250497      -0.01106189
Li     -12.50211490      34.56981406     -51.69392078      -0.00547205      -0.00087696      -0.01233682
Li      36.74261981      21.22004927      24.21905238       0.00177620      -0.00188953      -0.00740801
Li      88.03258903     -48.69614860      21.04105911       0.00688704       0.00700156       0.00116257
Li     -66.68493452     -41.36402105     -10.84491093       0.00016324       0.00142942       0.00110090
Li      26.26686326      11.96061128     -21.77414911       0.00339360      -0.01094884       0.00070076
