120
Lattice="14.00411431 0.0 0.0 0.0 14.00411431 0.0 0.0 0.0 14.00411431" Properties=species:S:1:pos:R:3:forces:R:3 t_ps=40.0 charge=0 spin=0 energy=-508.07473040977146 free_energy=-508.07473040977146 stress="0.002621085210833619 -0.0016636678705432308 0.0006253475544336898 -0.0016636678705432308 0.0012210888257268226 0.000570710685857194 0.0006253475544336898 0.000570710685857194 0.0029183857655034717" pbc="T T T"
P        1.13521441      10.52736094     -14.63510430       0.00112196       0.00298104       0.00074683
S       -0.47495507      10.98278770     -15.83150822       0.00136383       0.00180167       0.00111488
S        1.01399582       8.56896187     -14.03282892       0.00861868       0.00025877      -0.00387165
S        0.95879536      11.76601613     -12.99129502      -0.00259614       0.00203730       0.00153893
S        2.95600613      10.94359773     -15.52735082       0.00830402       0.00136535       0.00934967
P       17.49908344      22.70897153     -10.42117781       0.00418881       0.00310262       0.00293666
S       15.51260723      23.13305111     -10.05962522       0.00428660       0.00897811       0.00624244
S       18.49839757      23.72014802     -11.91775557       0.00090131      -0.00529761      -0.01168178
S       17.59682404      20.72033176     -10.96251757       0.01520423       0.00323102      -0.00241185
S       18.50309568      23.15515305      -8.66227712       0.00003435      -0.00839211       0.01044047
P       -9.88220819      14.83937705      13.51683978      -0.00741023       0.00288748       0.00086696
S       -9.06662524      14.02105452      11.80111172      -0.01369072      -0.00698067       0.00067897
S       -9.45460789      13.65325229      15.16893663       0.00674702       0.00620565       0.00878643
S      -11.89219432      14.97093396      13.17672117      -0.00585829       0.00232967       0.00077594
S       -8.93664010      16.64552585      13.89194053      -0.00100221       0.00851589      -0.00830855
P        0.30794476       2.78771616       4.07898081      -0.00041382      -0.00118534      -0.00460384
S        0.96804529       1.38761786       2.71089523      -0.00656157      -0.00831307      -0.00283281
S        0.36927641       4.63137378       3.14793162       0.00560568       0.00136077      -0.00404765
S        1.42876631       2.71976696       5.79930676       0.00156497       0.01020382      -0.00571621
S       -1.68774946       2.32558012       4.41412405      -0.00187391      -0.00396668      -0.00542282
P       20.75049219      25.04990315       9.16968839      -0.00029206       0.00478908       0.00156499
S       19.22784568      26.39101180       8.89149445       0.00454231       0.01310473       0.00896204
S       20.36525270      24.03501712      10.93816146      -0.01334642       0.00289796       0.00242050
S       22.58294054      25.99663280       9.33579161       0.00123494       0.00269549      -0.00257202
S       20.80917818      23.82938427       7.52775810      -0.00128203       0.00471882      -0.00240054
P        5.29538917      14.82904122      19.66811040       0.00104604       0.00106995      -0.00101327
S        5.18689330      16.21108645      18.09217269       0.00906551      -0.00046616      -0.00581634
S        7.19153705      14.13091232      20.02924110       0.00632984       0.00347380       0.00393814
S        4.04278667      13.28656288      19.15568001      -0.01467254       0.00247965       0.00152655
S        4.55477633      15.74133187      21.34976902      -0.00817255       0.00706849      -0.00189488
P      -15.52962384       3.81726728      -4.92180068      -0.00043130      -0.00372658       0.00132535
S      -15.63153048       5.09918343      -6.54057525      -0.00381655      -0.00095626       0.00146816
S      -16.51319176       2.07718276      -5.46986896      -0.00834407      -0.00753766       0.01331657
S      -16.63374139       4.72058224      -3.39510484      -0.01178966      -0.01245398       0.00471735
S      -13.56190781       3.57903056      -4.47065084       0.00718312      -0.01183875      -0.01509560
P       -4.26554891      -6.47848643     -14.85710057       0.00565949       0.00330854      -0.00060279
S       -5.43949568      -5.64160926     -13.38014164       0.00273615       0.00947679       0.00142140
S       -5.34684963      -8.08699785     -15.55362260       0.00235301      -0.00191436       0.00021206
S       -2.44850428      -7.05959482     -14.05840798       0.00300440      -0.00686790       0.00433710
S       -3.84730934      -5.21249560     -16.40827145       0.00288059       0.00219653      -0.00868639
P       11.67015614      29.58733874      13.41737900      -0.00193374      -0.00490913       0.00132128
S       13.07530058      29.05871763      12.02141501      -0.00287643      -0.00362310      -0.00633248
S       11.54785504      28.03997877      14.76193946      -0.00180315      -0.00266313       0.00959326
S        9.77979799      29.86876473      12.64359367       0.00087965      -0.00807343      -0.00897640
S       12.22405782      31.38660559      14.31004588      -0.00601788      -0.00194026       0.01799533
P       28.65828191      -1.85474037      22.13246155      -0.00247312       0.00172599       0.00051181
S       29.74179363      -3.59186577      22.53661035       0.00574913       0.00185801       0.01084888
S       26.68669001      -2.06005531      22.71152299      -0.00439089      -0.00851075      -0.00354527
S       28.72266597      -1.57183754      20.10516222      -0.00409304       0.00202750       0.00003065
S       29.45993554      -0.22837462      23.09499118       0.00145885      -0.00124672       0.00116408
P       10.44369536      -2.98965407      31.93771588       0.00885928      -0.00036069       0.00029490
S        8.42690993      -2.91799560      31.41901813       0.00137689       0.00002934      -0.00720500
S       11.00992485      -1.04692839      32.34047260       0.00624866      -0.00185712       0.01019066
S       11.43918103      -3.79745143      30.31980229      -0.00470563      -0.00127467      -0.00598976
S       10.85614757      -4.02076027      33.67052714       0.00437531      -0.00169309       0.00359623
P       -5.32377158      -8.37066731       4.14107761       0.00033674       0.00255482       0.00118761
S       -6.51410362      -9.04237532       2.61037951       0.00514378       0.00180652      -0.00726168
S       -5.29461236      -9.82774739       5.61226970      -0.00384866       0.00066859       0.00719557
S       -6.22130706      -6.68138309       4.95940116      -0.00116298       0.00786902       0.00370033
S       -3.37917765      -7.86956072       3.69787683       0.00494424      -0.00043860      -0.00642604
Cl      22.30105010      -1.89333138      -0.52403619      -0.00794110      -0.00632864       0.00613091
Cl       1.68057931     -21.37836770       6.73405917      -0.00214715      -0.00237678       0.00781636
Cl       7.01823151      33.85950390      -4.77694590       0.01654565       0.00307168       0.00253592
Cl     -12.66980888      18.63337779      13.12659767       0.00383203       0.00827905       0.00029801
Cl      18.32444493     -24.03703183      24.52067454      -0.00956003       0.00414856       0.00135586
Cl      21.50670666     -11.84478139       9.74637302       0.00203772       0.00012555       0.00140056
Cl      18.89108339       6.50510898      13.19137421      -0.00148338      -0.00070663       0.00629555
Cl     -10.30665193      -6.19697567     -32.60465979       0.00156379      -0.00021818       0.00321335
Cl      41.59294334      -6.23585169      -3.74390697      -0.00309626      -0.00467889      -0.00888441
Cl      -4.04603295       7.85029387      22.15413666      -0.01133339      -0.00132798      -0.00899113
Cl      19.07039133      -8.69599385      -7.63976910       0.00119128      -0.00519063      -0.01261852
Cl      22.25472190      15.10449506      58.37469525      -0.00556029      -0.00072527       0.00965765
Li     -19.44339383      41.47375764     -37.98222079       0.00803980      -0.00432285       0.00367475
Li      36.68365254     -31.24748156      39.52162531       0.00519820      -0.00543960       0.00305867
Li     -38.54798985      49.89692446      56.62261563      -0.00009831       0.00457526       0.00240917
Li     -15.25564709      -5.38704901     -15.52151551       0.00309370       0.01054937      -0.00080971
Li      -0.56605542     -28.94705686    -126.52516479       0.01252870      -0.00356624       0.00734916
Li      44.61729440      13.22613413      25.37901181      -0.00151517       0.00675053      -0.00000775
Li       5.08787377       6.28728963     -31.37162243      -0.00320879      -0.00605936      -0.02063979
Li     -49.85990203      68.06197636      54.45604615      -0.00564785       0.00759575      -0.00540688
Li      24.53329507       7.91252666      16.02761373       0.00390783       0.00064762      -0.00065975
Li       2.13966436      38.37529092       6.00215969      -0.00029506      -0.00420678      -0.00270381
Li       1.42176589       7.73186478      -5.18567729       0.00438333      -0.00440800      -0.01181427
Li      47.80304919      72.30275907     -58.58144724      -0.00290925       0.00212381       0.00468653
Li      -8.30801490      34.04930459       4.14918212      -0.00753608       0.00123031      -0.00729408
Li      -2.06891207      -9.85466567      16.82404704      -0.00013089       0.00149815       0.00125947
Li       9.20985176     -59.84219839     -48.40240545      -0.01110779      -0.01080148      -0.00105921
Li     -28.26366227      24.09720918      51.96345343       0.00319274       0.00033416       0.01263127
Li      -7.45584050      65.44097655       3.85008386       0.00370909       0.00070190       0.00603951
Li      -3.85969260      21.69303566      89.75957057       0.00243589      -0.00685166      -0.00583086
Li      97.06065315      47.13803348      12.48818186       0.00196277       0.01244822       0.01102715
Li      47.67617405      25.87533757       6.51591966      -0.00661805       0.00465197      -0.00142049
Li       0.10800194      37.76520951       2.03400472       0.01267186      -0.00930338       0.00731093
Li      17.70848181     -23.57486351      96.84215907      -0.00096494       0.00329254      -0.00202316
Li      -6.97270598      28.09055024     -19.42746947       0.01545536      -0.00156568       0.00260667
Li      59.87811366      24.16513644      -3.86740261       0.00264810      -0.00153474      -0.00126708
Li      20.02209323      43.42970582     -26.18452929       0.00025614       0.00289939       0.00111104
Li       7.05954601      20.42984436     -13.71297495      -0.00738160       0.00630969       0.00047934
Li     -10.20487312      59.43462465     -22.29458850      -0.00181011       0.01048919      -0.00459786
Li     -27.29177585      -9.46940755       7.27904472      -0.00348323       0.00546042      -0.00669697
Li       0.70893229     -24.77966748       1.00405782       0.00283401      -0.01094435      -0.00505092
Li      66.27908548       4.22590745      41.10647293      -0.00810317      -0.01434042       0.00560704
Li     -39.71589541       0.41296079       6.72969072       0.00365759       0.00454686       0.01175255
Li      35.59128920      16.82219673     -10.08939756       0.00036712       0.00527435      -0.00602549
Li      23.25883118      10.66903077      29.11667572      -0.00281815       0.00120124       0.00397362
Li     -46.87724599     -69.84252608     -13.67943326      -0.00699981      -0.00510484       0.00579069
Li      49.37430203      19.91296275     -21.07707447      -0.00359752       0.00491553      -0.00796919
Li      26.62580916       0.41159424      58.94194998      -0.00256996       0.00660423      -0.00198574
Li      -4.16428084     -39.38961273     -31.74317525      -0.00750172       0.00161539       0.00450712
Li      -2.24964827     -21.25287468      37.18307948      -0.00679413      -0.00555724      -0.00129551
Li      25.13904632     -10.63488065     -49.68457013       0.00039572      -0.01048863      -0.00227456
Li     -10.65231658     -16.41653369     -13.09736995       0.01274706      -0.00569470       0.00509409
Li      41.02179203      14.37447469      -4.47769848       0.00059415      -0.00426991      -0.00831833
Li     -13.04650851      30.69347863      11.78025662       0.00391726       0.00787052       0.00081202
Li      -8.10479152      45.67331847      36.70402682      -0.01219174      -0.00250497      -0.01106189
Li     -12.51036223      34.57152778     -51.67182636      -0.00547205      -0.00087696      -0.01233682
Li      36.75109164      21.19105519      24.18397709       0.00177620      -0.00188953      -0.00740801
Li      88.00273813     -48.69643068      21.04663111       0.00688704       0.00700156       0.00116257
Li     -66.69310901     -41.36617382     -10.83557599       0.00016324       0.00142942       0.00110090
Li      26.27760490      11.96108361     -21.77033677       0.00339360      -0.01094884       0.00070076
