120
Lattice="13.99602846 0.0 0.0 0.0 13.99602846 0.0 0.0 0.0 13.99602846" Properties=species:S:1:pos:R:3:forces:R:3 t_ps=12.0 charge=0 spin=0 energy=-508.1447961384455 free_energy=-508.1447961384455 stress="0.0025295603268466567 -0.0005750707352138337 0.00017899886539964288 -0.0005750707352138337 0.0015936549543828073 -0.00020041911786460956 0.00017899886539964288 -0.00020041911786460956 0.0032402561994189618" pbc="T T T"
P        1.17262684      10.52281397     -14.67235206      -0.00215977       0.00458711       0.00142234
S       -0.43211257      10.95484125     -15.87117967      -0.00272950       0.00561687       0.00286508
S        1.06712741       8.57017417     -14.04476888       0.00379248       0.00086234      -0.00461878
S        1.00047566      11.77981101     -13.03937517      -0.00449357       0.00202614       0.00521685
S        3.00409024      10.92898346     -15.56357423       0.00428150       0.00184101       0.00937660
P       17.49837852      22.67629815     -10.36952940       0.00391389       0.00438651       0.00325264
S       15.49966114      23.08606617     -10.05482078       0.00320389       0.00904560       0.00876673
S       18.50471584      23.69643407     -11.85744599      -0.00302453      -0.00455984      -0.01212525
S       17.63312303      20.68532103     -10.88648692       0.01464672       0.00497828       0.00048885
S       18.47999567      23.11430983      -8.59928858       0.00280493      -0.00457496       0.00889655
P       -9.76305856      14.80422113      13.41275153      -0.00545575       0.00479593      -0.00490919
S       -8.92711955      13.95973073      11.71945687      -0.01218680      -0.00153795      -0.00810432
S       -9.38293922      13.61705988      15.07448344       0.00413175       0.00538429       0.00034547
S      -11.76318815      14.97582278      13.02033166      -0.00765851       0.00301259      -0.00118381
S       -8.80351463      16.60193372      13.80119199       0.00154939       0.00715642      -0.00956426
P        0.33199875       2.75595353       3.98033970      -0.00031194       0.00271889      -0.00125765
S        0.97946010       1.33765674       2.62594351      -0.00228229      -0.00089367       0.00009814
S        0.43422634       4.60000543       3.06188649       0.00343533       0.00434952      -0.00006079
S        1.44282345       2.67348372       5.71210543       0.00128193       0.00555006      -0.00125967
S       -1.66840424       2.32759183       4.31787552      -0.00167772      -0.00348309      -0.00538504
P       20.74331221      24.92000831       9.19712328      -0.00111548      -0.00157451      -0.00026572
S       19.22445348      26.24678515       8.84266443       0.00185649       0.00633724       0.00377378
S       20.26369573      23.91574948      10.96719703      -0.01396079       0.00182710       0.00427974
S       22.57614807      25.79214408       9.42628248      -0.00002646      -0.00662476      -0.00112147
S       20.80107015      23.70977296       7.51871978      -0.00255749      -0.00214253      -0.00213951
P        5.27563989      14.72603669      19.55177044      -0.00132207      -0.00474859      -0.00519077
S        5.18739028      16.16149566      18.02954545       0.00673078      -0.00264641      -0.00577602
S        7.15398473      14.01468190      19.95828286       0.00477549      -0.00602366       0.00181085
S        4.02882182      13.19691081      19.00266584      -0.00982497      -0.00224791      -0.00054804
S        4.55056977      15.60035439      21.26655608      -0.00409987       0.00293255      -0.00065045
P      -15.55790600       3.90241108      -5.01024810      -0.00154920      -0.00078155       0.00087155
S      -15.71041406       5.15335814      -6.63434815      -0.00127039       0.00186041       0.00127602
S      -16.37875813       2.09196394      -5.53908588      -0.00596120      -0.00587941       0.01362320
S      -16.67259106       4.70880218      -3.45772902      -0.01715633      -0.00924069       0.00146797
S      -13.55125771       3.87914552      -4.50101414       0.00594887      -0.00170851      -0.01003297
P       -4.24535337      -6.49013118     -14.71150002       0.00497410       0.00042575       0.00116357
S       -5.46992636      -5.59820401     -13.30360263      -0.00196467       0.00986555      -0.00186320
S       -5.31428878      -8.14048248     -15.35428457       0.00183829      -0.00190233       0.00127339
S       -2.45279073      -7.03217221     -13.90163629       0.00024446      -0.00721786       0.00628714
S       -3.84275111      -5.28992994     -16.32922416       0.00224451       0.00251420      -0.00873122
P       11.71944685      29.58127182      13.35518248      -0.00086530       0.00110292       0.00163204
S       13.16803273      29.24814559      11.93761506      -0.00600019      -0.01015048      -0.00682861
S       11.62490777      27.95642994      14.60523846       0.00274156       0.00048925       0.01035408
S        9.82791739      29.89139337      12.60403207       0.00011609       0.00604954      -0.00286216
S       12.30800660      31.34120777      14.29417911       0.00356695       0.00541849       0.01176290
P       28.65018082      -1.77599457      22.09486569      -0.00156706      -0.00482043       0.00135549
S       29.66732363      -3.53557960      22.45317402       0.00736946       0.00158205       0.01007781
S       26.68196298      -1.96340304      22.71054426      -0.00573603      -0.01005910      -0.00539945
S       28.66952490      -1.48648365      20.06229366      -0.00149488      -0.00033768       0.00151842
S       29.48787908      -0.15445140      23.04765487       0.00304259      -0.00184369       0.00334235
P       10.44924738      -2.98333254      31.95711797       0.00768048      -0.00002277      -0.00241559
S        8.42866644      -2.95127004      31.45628675       0.00151229       0.00283591      -0.00788481
S       10.99651840      -1.02895842      32.32350816       0.00769633      -0.00280962       0.00702844
S       11.44992910      -3.80052056      30.35312071      -0.00522294      -0.00166248      -0.00906929
S       10.88036695      -3.99398255      33.70477758       0.00343358      -0.00266267       0.00139858
P       -5.33400269      -8.42677856       4.25153821       0.00088152      -0.00010538       0.00199404
S       -6.56714888      -9.00112004       2.70559757       0.00204854       0.00607792      -0.00382696
S       -5.28130995      -9.95123632       5.60592945      -0.00559820       0.00257069       0.00929933
S       -6.22018791      -6.71057493       5.07605457       0.00002296       0.00537136       0.00944783
S       -3.40391400      -7.86872204       3.76418234       0.00401667      -0.00077076      -0.01130643
Cl      22.28615667      -1.94028411      -0.50662778      -0.00471651      -0.00350545       0.00487709
Cl       1.58348730     -21.42591015       6.75134617      -0.00102201      -0.00289446       0.00639819
Cl       6.86827283      34.15902761      -4.51281740       0.02150003       0.00161480       0.00026971
Cl     -12.43054005      18.51073490      12.99804109       0.01157335       0.01053670      -0.00671843
Cl      18.11929172     -24.29442492      24.45738082      -0.00946520       0.00400029      -0.00009127
Cl      21.46050280     -11.64629458       9.59334535       0.00370938       0.00582426      -0.00716410
Cl      18.97593056       6.65740968      13.21212279      -0.00165273       0.00359161       0.00340679
Cl     -10.49688966      -6.22012278     -32.50598671      -0.00810533      -0.00106256      -0.00656277
Cl      41.53828228      -6.23316144      -3.79000328      -0.00183278      -0.00293987       0.00235187
Cl      -4.14634400       7.80001354      22.17731277      -0.00276723      -0.00087565      -0.00237752
Cl      18.97732711      -8.74268310      -7.43100645       0.00389003      -0.00563831      -0.00776848
Cl      22.29409332      15.07244968      58.28800242      -0.00829173       0.00123767       0.00620757
Li     -19.42748641      41.43300247     -38.00093024       0.00922155      -0.00030439       0.00112605
Li      36.63255942     -31.38347614      39.58809717       0.00222551      -0.01072284       0.00560367
Li     -38.50439931      49.87185945      56.65715454      -0.00155530       0.00607785       0.00319976
Li     -15.16770734      -5.53475075     -15.49411125      -0.00333529       0.00722479      -0.00176818
Li      -0.41512592     -28.86136795    -126.59837036       0.00810663      -0.00039941       0.01314466
Li      44.69723532      13.20119129      25.27044341      -0.00479245       0.00910723      -0.00049696
Li       5.39259654       7.43775020     -31.11780727       0.01632834       0.00318083      -0.00983100
Li     -49.87264557      67.94757805      54.54149681      -0.00671004       0.00930471      -0.00400283
Li      24.48597571       7.92009326      16.09693307      -0.00065686       0.00123101       0.00152064
Li       2.02830725      38.37699507       5.98372712      -0.00092480      -0.00268468      -0.00191264
Li       1.35754937       6.68783591      -4.81764618       0.00602344      -0.00640789      -0.00597950
Li      47.83247969      72.23736213     -58.64910236      -0.00423621       0.00462425       0.00023289
Li      -8.30187955      34.00387718       4.38604357      -0.00457236       0.00178677      -0.00747804
Li      -2.03253426      -9.78419129      16.77966693       0.00118607       0.00190755      -0.00234297
Li       9.23132577     -59.78884590     -48.36075004      -0.01073109      -0.00532827       0.00536975
Li     -28.23003498      24.06227877      51.85283638       0.00552463      -0.00690592       0.01076503
Li      -7.41109836      65.29167067       3.87577825       0.00392135      -0.00251918       0.00327618
Li      -3.82862850      21.69632212      89.66587169       0.00103405      -0.00575838      -0.00460136
Li      97.38548295      45.92857538      11.98186760       0.00345787       0.00136045      -0.00279063
Li      47.59267838      25.76039520       6.42929301      -0.00584144      -0.00470894      -0.00849520
Li       0.15368203      37.76020362       2.00356184       0.00513345      -0.00535466       0.00973237
Li      17.93815437     -23.43569281      96.72233253       0.00161947       0.00082290      -0.00369797
Li      -7.45073395      28.40089404     -19.60137997      -0.00769352       0.00790786      -0.00411968
Li      59.63476430      24.20358990      -3.96340867       0.00927945      -0.00107089       0.00180297
Li      20.06500842      43.38261920     -26.22110811      -0.00314026      -0.00022979      -0.00175924
Li       7.10350315      20.41014802     -13.52052831      -0.00772663       0.00303540       0.00668598
Li     -10.16732641      59.37370064     -22.27382013       0.00013759       0.00628535       0.00115895
Li     -27.38488760      -9.52304932       7.07225645      -0.00116853       0.00082022      -0.00168352
Li       0.81573097     -24.83857900       0.86827090       0.00629251      -0.01075324      -0.00612453
Li      66.42508513       4.31222869      41.10457235      -0.00350683      -0.00769347       0.00148685
Li     -39.69092534       0.39024914       6.63380563       0.00350455      -0.00256616       0.00885302
Li      35.59893992      16.79419345     -10.13694044      -0.00380620       0.00500745      -0.00845201
Li      23.26902749      10.66257128      29.15145233      -0.00474914       0.00114261       0.00458383
Li     -46.79532879     -69.81896187     -13.74891320       0.00092162      -0.00462453       0.00623439
Li      49.52592061      21.29788517     -20.42899147      -0.00331134       0.00622860      -0.00889443
Li      26.58524343       0.38979709      58.82114649       0.00066552       0.00418488      -0.00122241
Li      -4.14888132     -39.38923109     -31.80213525      -0.00667204      -0.00147119       0.00612085
Li      -2.26497008     -21.22063254      37.15892986      -0.00319520       0.00194981      -0.00484099
Li      25.09350748     -10.62123553     -49.76624413       0.00145637      -0.01196060       0.00024313
Li     -10.61338463     -16.43453257     -13.09924093       0.00705968      -0.00231610       0.00558375
Li      41.05151659      14.37563031      -4.43572883      -0.00363053      -0.01079643      -0.00006331
Li     -11.92738748      30.79407428      11.35756895      -0.00002391       0.00513031       0.00247404
Li      -8.14252971      46.05000126      36.63278690      -0.00462277       0.00193519      -0.00733431
Li     -12.49497633      34.50616966     -51.64056735      -0.00611486       0.00166633      -0.00867265
Li      36.86515150      20.96498339      24.42037748       0.01040244      -0.01231957      -0.00334014
Li      87.79894316     -48.70346938      21.10225897       0.00819965       0.00573094       0.00530466
Li     -66.64389937     -41.36242923     -10.92592524      -0.00270054       0.00125358       0.00106957
Li      26.24889873      12.03385762     -21.73145738       0.00438721      -0.01243852       0.00011632
