120
Lattice="13.98527654 0.0 0.0 0.0 13.98527654 0.0 0.0 0.0 13.98527654" Properties=species:S:1:pos:R:3:forces:R:3 t_ps=37.0 charge=0 spin=0 energy=-508.0778808569798 free_energy=-508.0778808569798 stress="0.0026464902336924383 -0.0011191398772319716 0.0003172116066770973 -0.0011191398772319716 0.0011349604460192577 0.0006307583202326323 0.0003172116066770973 0.0006307583202326323 0.0030100655288047137" pbc="T T T"
P        1.12367569      10.46500474     -14.63229354      -0.00007939       0.00423579       0.00419896
S       -0.45348986      10.89816888     -15.87057629      -0.00131192       0.00615525       0.00597119
S        1.00445712       8.50975966     -14.01861822       0.00414583       0.00059288      -0.00231187
S        0.91849658      11.72080987     -13.00494776      -0.00084174       0.00208489       0.00765829
S        2.97085061      10.87427335     -15.48656174       0.00535273      -0.00015981       0.00938865
P       17.40580356      22.63941055     -10.35648203       0.00479051       0.00563577       0.00323475
S       15.39659163      22.99158303     -10.03993631       0.00445887       0.01098155       0.00782875
S       18.40189048      23.68695102     -11.82785583      -0.00045167      -0.00347331      -0.01119007
S       17.58387339      20.65759508     -10.89391353       0.01183799       0.00535388      -0.00252875
S       18.36824768      23.09478231      -8.57124410       0.00143684      -0.00812676       0.01009835
P       -9.78287345      14.75403633      13.49012001      -0.00696296       0.00072490       0.00004462
S       -8.96321109      13.96347880      11.76901645      -0.01644940      -0.00622549      -0.00651787
S       -9.36097566      13.57395375      15.14578990       0.00527441       0.00495959       0.00474433
S      -11.79697036      14.86351798      13.14951798      -0.00762969       0.00305129       0.00036811
S       -8.84764976      16.56294446      13.87263560       0.00119692       0.00450324      -0.01029504
P        0.29187805       2.69898992       4.02993819      -0.00096171       0.00469758      -0.00310413
S        0.93426767       1.26753630       2.68962282      -0.00164299       0.00033535      -0.00130926
S        0.41942896       4.53688467       3.09764664       0.00387593       0.00558667      -0.00419375
S        1.40435463       2.60513843       5.75519972       0.00150928       0.00930474      -0.00199692
S       -1.72144457       2.30685342       4.35101964       0.00016974      -0.00382794      -0.00539920
P       20.66336909      25.05810538       9.12938609      -0.00085570       0.00112658       0.00108475
S       19.29705690      26.52642750       8.77171908      -0.00066391       0.00941041       0.00175349
S       20.20302281      24.06771871      10.90161317      -0.01271843       0.00710808       0.00478978
S       22.56455964      25.85931364       9.28733013      -0.00100307       0.00176143      -0.00512480
S       20.63303687      23.74617503       7.55110046      -0.00378982      -0.00205572       0.00303788
P        5.34992810      14.93351444      19.59110151       0.00183404      -0.00250176      -0.00027756
S        5.09577374      16.28387839      18.00566920       0.00434720      -0.00350545      -0.00650377
S        7.34455039      14.58899413      19.90531218       0.00570093      -0.00069905       0.00490851
S        4.25595837      13.27374158      19.06165397      -0.01024763      -0.00431590       0.00123806
S        4.51263168      15.74705750      21.27864550      -0.00814281       0.00311113      -0.00076647
P      -15.55634722       3.90096734      -4.95161704      -0.00046441       0.00034516      -0.00124293
S      -15.67871105       5.15459076      -6.57409239      -0.00047806       0.00128028       0.00000319
S      -16.35266387       2.08520980      -5.50373983      -0.00218964      -0.00565496       0.01123431
S      -16.71547209       4.69752519      -3.43339464      -0.01333430      -0.00824253      -0.00014296
S      -13.55457581       3.88271355      -4.40816939       0.00912496       0.00111909      -0.00923919
P       -4.34204922      -6.46006479     -14.81635507       0.00633128       0.00194230       0.00134767
S       -5.52727606      -5.60173124     -13.35405900      -0.00011005       0.01049320       0.00139897
S       -5.41220770      -8.09225477     -15.48354737       0.00146609      -0.00210342       0.00069058
S       -2.54155847      -7.04380714     -14.02587153      -0.00001274      -0.00694426       0.00535141
S       -3.94355707      -5.22692077     -16.40764671       0.00102750       0.00231966      -0.00825693
P       11.68036050      29.55963861      13.35959489       0.00114777       0.00278477      -0.00147238
S       13.12964556      29.15050182      11.95075538      -0.00287860      -0.00092019      -0.00688288
S       11.57224057      27.95138961      14.62753754       0.00315912       0.00471837       0.00899681
S        9.79407492      29.86701662      12.60278889       0.00104075       0.00363863      -0.00609122
S       12.24221847      31.33198828      14.28910922       0.00071198       0.00713868       0.01290588
P       28.72033965      -1.82638717      22.10789938      -0.00343718      -0.00049900       0.00223263
S       29.75562263      -3.57110349      22.50969946       0.00565471       0.00299567       0.00862280
S       26.73757978      -2.02486493      22.67096639      -0.00389906      -0.01102550      -0.00151969
S       28.77794476      -1.56174154      20.07072129      -0.00203614       0.00535789       0.00267968
S       29.50441124      -0.17470051      23.05698346       0.00141862       0.00314275       0.00384339
P       10.40814696      -2.97465853      31.93710374       0.00699685       0.00022988      -0.00097600
S        8.38682085      -2.89237941      31.44532990       0.00050978       0.00244655      -0.00798559
S       10.99814293      -1.03596259      32.32693803       0.00758399      -0.00239741       0.00734143
S       11.38282370      -3.78952261      30.31165086      -0.00551767      -0.00531144      -0.00472127
S       10.83651507      -3.99601954      33.67710919       0.00123240      -0.00182923       0.00319296
P       -5.32038602      -8.34219325       4.15161153       0.00045976       0.00191661       0.00067772
S       -6.48724845      -9.08593876       2.64877939       0.00135166       0.00287163      -0.01066968
S       -5.27508369      -9.72851538       5.68366996      -0.00365528      -0.00107129       0.00333926
S       -6.23662411      -6.63318961       4.91482470      -0.00158085       0.00531267       0.00667212
S       -3.37713717      -7.82840694       3.68952192       0.00127364      -0.00301337      -0.00997278
Cl      22.26003031      -1.90513878      -0.51810990      -0.00463018      -0.00271101       0.00497917
Cl       1.64286245     -21.53372004       6.74396582      -0.00613881      -0.00169349       0.00353936
Cl       6.86084732      33.84246075      -4.66670163       0.01989825      -0.00417807       0.00331382
Cl     -12.55092449      18.44151369      13.06600108       0.01259550       0.01018361      -0.00042066
Cl      18.21595209     -24.12968188      24.52793510      -0.00471266      -0.00063763      -0.00572010
Cl      21.49944765     -11.78991447       9.65726342       0.00102162      -0.00595734      -0.00279712
Cl      18.84799200       6.44268260      13.24668856      -0.00111948       0.00333920      -0.00107769
Cl     -10.56701459      -6.47079575     -32.38244144      -0.00375547       0.00342556      -0.00358408
Cl      41.42224144      -6.27024126      -3.81360763      -0.00093969      -0.00178206       0.00350044
Cl      -4.30653694       7.68874379      22.05848296      -0.00508209       0.00422035      -0.00225107
Cl      19.07220258      -8.68337489      -7.54483420       0.00051989      -0.00324595      -0.01256595
Cl      22.27244970      15.09959747      58.27637919      -0.00449230      -0.00242048       0.00421905
Li     -19.41880866      41.45178548     -37.92208495       0.00716838      -0.00462570      -0.00021466
Li      36.56019735     -31.23311414      39.46910995       0.00199957      -0.00313926       0.00083859
Li     -38.51140649      49.79958149      56.59984642      -0.00114811       0.00207108       0.00074095
Li     -15.20297073      -5.52156538     -15.52720619      -0.00519799       0.01058764      -0.00039402
Li      -0.51639505     -28.91422075    -126.48072990       0.01454340       0.00312543       0.01464623
Li      44.67538434      13.14169167      25.27372237      -0.00659798       0.00907828       0.00413960
Li       4.97891786       6.17498707     -31.21177596       0.00242964      -0.00860057      -0.01459406
Li     -49.84396669      67.91983708      54.49526933      -0.00690070       0.01125996      -0.00058076
Li      24.43519400       7.91528632      15.98491265       0.00082019      -0.00156893      -0.00089342
Li       1.96904324      38.17981890       6.03287011      -0.00832409      -0.00568224      -0.00175978
Li       1.23819822       6.53917305      -4.81651964       0.00655394      -0.00320672      -0.00255149
Li      47.80475588      72.17048132     -58.53859414      -0.00318571      -0.00091162       0.00144198
Li      -8.27790630      33.94180796       4.21694746      -0.00672985      -0.00010302      -0.00575355
Li      -2.04351699      -9.80269999      16.78986148      -0.00318238       0.00305879      -0.00006628
Li       9.07233028     -59.82690949     -48.39123582      -0.01097087      -0.00761769       0.00248673
Li     -28.16365660      23.98772555      51.80068495       0.00873020      -0.00555517       0.01436369
Li      -7.51114167      65.36217422       3.88942055       0.00455116      -0.00078270       0.00754333
Li      -3.86429941      21.69259220      89.56724444       0.00170971      -0.00556387      -0.00555471
Li      97.13911039      46.32059306      12.09811624       0.00833412       0.00654696      -0.00000589
Li      47.17508449      25.51684366       6.56583189      -0.01242873      -0.00327148       0.00041412
Li       0.06682932      37.68417880       2.01543078       0.00576548      -0.00473635       0.01116551
Li      17.75559513     -23.61968868      96.80021122       0.00403511      -0.00211999      -0.00605184
Li      -6.81061282      28.08343797     -19.53378681       0.00888599      -0.00626473       0.00068791
Li      59.62461661      23.79512157      -3.66874663       0.00400467      -0.00210293      -0.00379921
Li      20.03878516      43.38173540     -26.11020111      -0.00002701      -0.00078050      -0.00157919
Li       7.05109738      20.34947546     -13.57913575      -0.00790806       0.00704578       0.00122207
Li     -10.24693264      59.42361443     -22.26293777      -0.00324116       0.00355228      -0.00512919
Li     -27.37650313      -9.59734519       7.12157850       0.00081399       0.00710557      -0.00444141
Li       0.73008301     -24.88483098       0.94915409       0.00534420      -0.00484605      -0.00661962
Li      66.24322936       4.34015845      41.13217159      -0.00511663      -0.01049140       0.00017677
Li     -39.54938569       0.35859624       6.66862829      -0.00036907       0.00032311       0.01020346
Li      35.55983872      16.67233145      -9.85194197      -0.00144611       0.00046105      -0.00222320
Li      23.17828391      10.65959252      29.12471253      -0.00329350       0.00086032       0.00399306
Li     -46.80926904     -69.73916408     -13.70021638       0.00401661      -0.00429665       0.00454639
Li      49.53281963      20.13132272     -20.87879320      -0.00910883      -0.00433557      -0.01095218
Li      26.51569383       0.36615867      58.80764427       0.00278259       0.00637639      -0.00509515
Li      -4.13919131     -39.38647549     -31.74815927      -0.00959214       0.00305290       0.00492579
Li      -2.44889883     -21.19163557      37.15789068       0.00190381       0.00162011      -0.00813910
Li      25.08076712     -10.59185329     -49.68245270       0.00146041      -0.01320206      -0.00119336
Li     -10.67551529     -16.39737034     -13.05463473       0.00996447      -0.00801303       0.00626844
Li      41.03767450      14.31666843      -4.46014924      -0.00592917      -0.01011021      -0.00037064
Li     -12.58389105      30.53357632      11.58623846       0.01264356       0.01433154       0.00423632
Li      -8.16290848      45.65648442      36.55409678      -0.01386365      -0.00963872      -0.00959328
Li     -12.50607361      34.42039943     -51.59036301      -0.00804695       0.00282438      -0.00704936
Li      36.48468832      21.22379173      24.26536858       0.01187288      -0.01319818      -0.01058186
Li      87.78314170     -48.70862927      21.14210496       0.00871838       0.00391890       0.00399837
Li     -66.57661356     -41.33439245     -10.84610027      -0.00132311      -0.00409773       0.00400190
Li      26.30664528      11.96604197     -21.73729896      -0.00136080      -0.01375158       0.00182428
