120
Lattice="13.99358543 0.0 0.0 0.0 13.99358543 0.0 0.0 0.0 13.99358543" Properties=species:S:1:pos:R:3:forces:R:3 t_ps=18.0 charge=0 spin=0 energy=-508.1697679763989 free_energy=-508.1697679763989 stress="0.003515864192053073 -0.0011890584472595467 0.00032705699067489785 -0.0011890584472595467 0.0007680211071825417 0.00028788274583303356 0.00032705699067489785 0.00028788274583303356 0.0029287653279335244" pbc="T T T"
P        1.16553364      10.49760614     -14.61026141      -0.00185573       0.00401355       0.00122639
S       -0.43857500      10.89653236     -15.82778383      -0.00483040       0.00226233       0.00547834
S        1.05182126       8.55148583     -13.96304234       0.00468955       0.00074879      -0.00361778
S        0.98833272      11.76943642     -12.98977659      -0.00274425       0.00405613       0.00365489
S        2.98935357      10.91263578     -15.50464046       0.00508966      -0.00186660       0.00824804
P       17.44542814      22.62664268     -10.34190606       0.00811483       0.00404985       0.00259766
S       15.44557353      23.00466283      -9.99973747       0.00731596       0.01054258       0.00749224
S       18.44652199      23.70147224     -11.79809167       0.00162736      -0.00503528      -0.01321599
S       17.59542494      20.65294314     -10.91972162       0.01356722       0.00466741      -0.00353853
S       18.42306600      23.04453869      -8.56734833       0.00538117      -0.00809739       0.00806145
P       -9.79952738      14.89917693      13.39132493      -0.00349323       0.00498051      -0.00260381
S       -8.98346836      14.13075583      11.65114184      -0.01239102      -0.00248909      -0.00607241
S       -9.35153670      13.68201777      15.01790859       0.00954107       0.00509686       0.00089019
S      -11.81939874      14.99362569      13.08634677      -0.00406778       0.00498813       0.00095624
S       -8.88769694      16.71143730      13.78817085       0.00317292       0.00966022      -0.01091107
P        0.23314134       2.67708285       4.01920719       0.00028893       0.00075178      -0.00250688
S        0.85230062       1.27326444       2.63733980      -0.00249379      -0.00454527       0.00013440
S        0.31422454       4.53173705       3.10943583       0.00499376       0.00174925      -0.00471423
S        1.38091339       2.57789738       5.71625326       0.00247489       0.00769176      -0.00244431
S       -1.76413068       2.25652274       4.39457781       0.00037243      -0.00504068      -0.00382541
P       20.85185261      25.18244336       9.13399189       0.00208407      -0.00440864      -0.00137169
S       19.51611103      26.66663914       8.72519418       0.00168785       0.00191333       0.00003345
S       20.17911862      24.13003313      10.79014960      -0.00964377       0.00457946       0.00784958
S       22.76420943      25.80983825       9.50529394      -0.00096711      -0.00598094      -0.00196709
S       20.89030446      24.00798195       7.40588149       0.00047988      -0.00536916      -0.00139774
P        5.24473304      14.87419263      19.40117862       0.00002648      -0.00633783      -0.00395017
S        5.02907106      16.29718578      17.89307875       0.00367103      -0.00281933      -0.00612530
S        7.22823581      14.41062429      19.72910688       0.00569699      -0.00321655       0.00443495
S        4.15854439      13.22312107      18.88087441       0.00044223      -0.00801618      -0.00460903
S        4.52033512      15.67568414      21.14044832      -0.00700533      -0.00001430      -0.00173804
P      -15.55223976       3.92493999      -4.92813690      -0.00314895      -0.00077397       0.00135228
S      -15.72226883       5.17387351      -6.55681389      -0.00388406       0.00006840       0.00066187
S      -16.37360965       2.11059656      -5.46610224      -0.00339504      -0.00510093       0.01370442
S      -16.70584069       4.72507753      -3.38561210      -0.01350007      -0.00611153       0.00185335
S      -13.54484144       3.85068646      -4.47919696       0.00582456      -0.00614699      -0.00994571
P       -4.23519823      -6.63411583     -14.67619602       0.00122718       0.00469175      -0.00501957
S       -5.39567217      -5.75493086     -13.21896271      -0.00313939       0.00978133      -0.00174533
S       -5.34519891      -8.27396671     -15.29122899      -0.00058799       0.00044241      -0.00018591
S       -2.39234206      -7.13805537     -13.89225669      -0.00086257      -0.00772916       0.00274617
S       -3.88313987      -5.43632907     -16.29593224       0.00409866       0.00575050      -0.00905080
P       11.63023439      29.42983077      13.32324331      -0.00185488      -0.00061151       0.00433203
S       13.14555400      29.06056835      11.99802309      -0.00557383      -0.00762279      -0.00525946
S       11.51444355      27.84406302      14.61988951      -0.00116405       0.00391941       0.01403277
S        9.76311907      29.61340504      12.45448463       0.00289653       0.00312811      -0.00378970
S       12.03024621      31.21829523      14.32609492       0.00282840       0.00269062       0.01398876
P       28.72978963      -1.84797560      22.13183651      -0.00449253      -0.00158706       0.00362761
S       29.77587712      -3.58288382      22.53890280       0.00394021       0.00137566       0.00915358
S       26.75072467      -2.06083258      22.70779710      -0.00653439      -0.01052425      -0.00312275
S       28.78242502      -1.59809059      20.09087308      -0.00132373       0.00473951       0.00406979
S       29.50006787      -0.17776795      23.05248689       0.00113745       0.00030734       0.00671133
P       10.44098099      -2.98271869      31.94914819       0.00876298      -0.00009759      -0.00274242
S        8.41898195      -2.93520082      31.44154277       0.00181882       0.00185955      -0.00898611
S       10.98919690      -1.03158026      32.33205513       0.00965228      -0.00363997       0.00669842
S       11.43350963      -3.80879932      30.34012072      -0.00504945      -0.00202699      -0.00854207
S       10.90102789      -3.98975354      33.68404439       0.00281297      -0.00259082       0.00152311
P       -5.36775762      -8.39416154       4.38037127       0.00085331       0.00024974      -0.00203644
S       -6.54697885      -9.03153778       2.83328476       0.00237127       0.00254211      -0.00715497
S       -5.33411009      -9.90608018       5.79328556      -0.00457107       0.00172285       0.00845102
S       -6.21195851      -6.64796470       5.13940113       0.00264668       0.00457969       0.01008134
S       -3.40760890      -7.92626106       3.90428010       0.00256971      -0.00317717      -0.01117337
Cl      22.20721580      -2.06657705      -0.49873374      -0.00870652      -0.00573117       0.00505496
Cl       1.60835668     -21.58835682       6.75101748       0.00118299       0.00132084       0.00020274
Cl       6.97912215      34.17166401      -4.67533238       0.01300184       0.00123741       0.00085491
Cl     -12.80909337      18.61731667      13.18892428       0.00875327       0.01155239       0.00072479
Cl      17.96590999     -23.90417815      24.61934591      -0.00803116       0.00354402      -0.00997034
Cl      21.48337768     -11.41974697       9.46054757      -0.00221423      -0.00104706      -0.00438196
Cl      18.87784821       6.52818993      13.28402513      -0.00589389       0.00139989       0.01019509
Cl     -10.52393121      -6.41616495     -32.46511898      -0.00225976       0.00242988       0.00032781
Cl      41.60197497      -6.32707837      -3.66634769       0.00167218      -0.00274117       0.00136588
Cl      -4.07052682       7.90805094      22.20652127      -0.00779023      -0.00431572       0.00311882
Cl      19.02615109      -8.73411957      -7.55386608       0.00512476      -0.00449413      -0.00466040
Cl      22.26328643      15.15863518      58.18629242      -0.00429473      -0.00053572       0.00288067
Li     -19.40870458      41.47294423     -38.12808176       0.00920113      -0.00342930      -0.00051053
Li      36.54236715     -31.50170680      39.55222822      -0.00086403      -0.00589825       0.00243819
Li     -38.49952178      49.88061051      56.65838721      -0.00463567       0.00725794       0.00034780
Li     -15.15276405      -5.49856550     -15.42493902      -0.00181384       0.00980414      -0.00010704
Li      -0.49967949     -28.96183650    -126.50838148       0.01300589       0.00057723       0.00919858
Li      44.67645503      13.25108509      25.27234342      -0.00145877       0.00853274       0.00552983
Li       4.98876307       6.22357421     -31.25328692       0.00198928      -0.00729080      -0.01946053
Li     -49.82738457      68.09998222      54.31507544      -0.00809055       0.01103227      -0.00143073
Li      24.56148127       7.84135801      16.17411232      -0.00168303       0.00334917       0.00171291
Li       2.09737120      38.23737345       6.05610100      -0.00285534      -0.00093717      -0.00449434
Li       1.35343834       6.39001964      -4.73421727       0.00609875      -0.00051364      -0.00375323
Li      47.61514377      72.46611625     -58.82898206      -0.00504560      -0.00139611      -0.00866313
Li      -8.31453236      34.07296018       4.32889704      -0.00703301       0.00251684      -0.00525745
Li      -2.13777297      -9.85639857      16.88246561      -0.00159145       0.00110807       0.00151104
Li       9.33653148     -59.65634221     -48.33007766      -0.00729552      -0.00550873       0.00297105
Li     -28.13607857      23.97342339      51.89229200       0.00664508      -0.00813521       0.01357659
Li      -7.50929653      65.39179588       3.93611466       0.00779722      -0.00471598       0.00248737
Li      -3.80808936      21.70773783      89.72873486       0.00047884      -0.00510498      -0.00362351
Li      96.77547046      46.96468492      12.65635246      -0.00130477       0.01010145       0.00223767
Li      47.77181080      26.03661364       6.40160984      -0.00966179      -0.00227330      -0.00478274
Li       0.14127063      37.76074961       2.07362969       0.00771720      -0.00681674       0.00951274
Li      17.59581454     -23.48876541      96.87993597       0.00339244       0.00177235      -0.00370658
Li      -7.32979191      28.73278427     -19.81398587      -0.00469871       0.00852813      -0.00518766
Li      59.63817116      23.86062670      -3.71680197       0.00258294      -0.00157759      -0.00428676
Li      20.02074280      43.51036978     -26.26295646       0.00012455       0.00362443      -0.00060666
Li       7.01005819      20.36463630     -13.51487129      -0.01011764       0.00765892      -0.00092603
Li     -10.27953427      59.45128639     -22.31484915       0.00219177      -0.00018538       0.00132879
Li     -27.43815168      -9.63437015       7.08714825      -0.00359965       0.00549004      -0.00476215
Li       0.58083999     -24.86668070       0.95975891       0.00629946      -0.00653741      -0.00131166
Li      65.92604218       3.85807914      41.32177133      -0.00057136      -0.00251766       0.00721322
Li     -39.62622705       0.31959232       6.62688137      -0.00043441       0.00090188       0.01018735
Li      35.52745364      16.68341065      -9.92897317      -0.00346289       0.00011439      -0.00072507
Li      23.23062671      10.57039435      29.14701947      -0.00497380       0.00092275       0.00373713
Li     -46.89294473     -69.93710221     -13.76465575      -0.00225550      -0.00020964       0.00578066
Li      49.55887913      21.67079270     -20.33991190      -0.00390128      -0.00105256      -0.00304760
Li      26.47122865       0.36114959      58.80631268       0.00523262       0.00810695      -0.00160314
Li      -4.16086340     -39.36338599     -31.81410906      -0.00757373      -0.00084188       0.00405820
Li      -2.23539243     -21.17942201      37.22057594      -0.00635944       0.00233457      -0.00585891
Li      25.08044609     -10.61204985     -49.65626728       0.00150741      -0.01211858      -0.00001074
Li     -10.59937769     -16.37104081     -13.09077801       0.00803038      -0.00608971       0.00388533
Li      41.05116330      14.30838783      -4.44587539      -0.00552339      -0.00719232       0.00215933
Li     -12.85515797      30.75751415      11.68215598       0.00399787       0.01007221       0.00605315
Li      -7.13792232      46.29159601      35.75088754      -0.00112691       0.00645430      -0.00342066
Li     -12.51109151      34.42358774     -51.62454207      -0.00486575       0.00370945      -0.01197624
Li      36.94907147      20.73454796      24.41702195       0.00086033      -0.00767764      -0.00593531
Li      87.76275610     -48.79648874      21.12136137       0.00896223       0.00194241       0.00409364
Li     -66.67933604     -41.33880368     -11.02684975       0.00083813      -0.00640921      -0.00045456
Li      26.33605053      11.99309572     -21.74390197      -0.00028507      -0.01272547      -0.00051211
