120
Lattice="13.97758003 0.0 0.0 0.0 13.97758003 0.0 0.0 0.0 13.97758003" Properties=species:S:1:pos:R:3:forces:R:3 t_ps=36.0 charge=0 spin=0 energy=-508.1046713604021 free_energy=-508.1046713604021 stress="0.0021253779242818 -0.0014407740736638913 0.00043113084061602975 -0.0014407740736638913 0.0010610342754701233 0.0004473063727903008 0.00043113084061602975 0.0004473063727903008 0.002031204436992729" pbc="T T T"
P        1.17500578      10.47769353     -14.66591063      -0.00278494      -0.00808468       0.00530302
S       -0.37897851      10.98982326     -15.90429460      -0.01514914       0.00105562      -0.00144394
S        0.98377607       8.52192391     -14.08420365       0.00315429      -0.01037708      -0.00368212
S        1.00745888      11.71371232     -13.02663128      -0.00639164      -0.00165179       0.00899118
S        3.05182630      10.78433620     -15.50523317       0.00256440       0.01148140      -0.00001538
P       17.48660396      22.56607385     -10.46508515      -0.00638471       0.00814729       0.00511162
S       15.49404212      23.00809090     -10.12950276       0.00008962       0.00070284      -0.00225948
S       18.48321214      23.57323105     -11.97868848       0.00226480       0.00373964       0.00968734
S       17.61638112      20.56943805     -10.88858467      -0.00531692       0.00440092      -0.00727669
S       18.46872270      23.11605075      -8.71659231      -0.00945958       0.00265678      -0.00365944
P       -9.88961811      14.82793045      13.44146491      -0.00072589       0.00165294      -0.00341837
S       -9.05953504      14.03036189      11.72027491      -0.00035697       0.00337081      -0.00669462
S       -9.43633751      13.66674507      15.10003308       0.00270094       0.00511919      -0.00704952
S      -11.90538704      14.89935929      13.09761643      -0.00112479      -0.00172900      -0.00095783
S       -8.98532953      16.65804159      13.80416585      -0.00160336       0.00522910       0.00004875
P        0.28661256       2.75286084       4.01026245       0.00594928       0.00717394      -0.00276307
S        0.94405637       1.34031067       2.65752848       0.01358841       0.01639241      -0.01160902
S        0.36317391       4.58981603       3.07640788      -0.00937220       0.00917720       0.00485704
S        1.40438964       2.68931230       5.74185663       0.01071053       0.00598857      -0.00523665
S       -1.70692160       2.29717399       4.35394528       0.00930898      -0.00301010       0.01146048
P       20.86675454      25.04017490       9.05627894      -0.01927078      -0.01056464      -0.00301304
S       19.31222640      26.37865565       8.86038861       0.00040314      -0.00878850       0.00176392
S       20.44994461      23.95093805      10.78396181       0.00436523       0.00229161      -0.00020634
S       22.70514823      25.92408248       9.27028713      -0.00745660       0.00377669       0.00391304
S       20.86553067      23.89471830       7.36207597      -0.00245019       0.00159234       0.01231939
P        5.28267162      14.84148925      19.52972980      -0.01401490      -0.00657206       0.00144717
S        5.13928073      16.25228972      17.99227045       0.00183653       0.00546908      -0.00146572
S        7.19685986      14.20252561      19.89579985       0.01693743       0.00615529       0.01171500
S        4.07101784      13.27283420      19.01875379       0.00768078       0.00532410       0.00718051
S        4.55235482      15.69757264      21.25439664       0.00083643       0.00746889       0.00671922
P      -15.54251872       3.83319035      -5.00439003       0.00586154       0.00444437      -0.00382233
S      -15.62381434       5.10279473      -6.62733148       0.00232259      -0.00028359      -0.00198810
S      -16.47143277       2.07175239      -5.52739418       0.00625122      -0.00462293      -0.00253037
S      -16.60105773       4.74886819      -3.48232047       0.00102439      -0.00147781      -0.00071542
S      -13.55430034       3.66720216      -4.49363525       0.00792597       0.00301965       0.00050283
P       -4.25500492      -6.43142469     -14.83084364       0.00208017       0.00181768       0.00084186
S       -5.47189197      -5.59376807     -13.38366867      -0.00285607       0.00716787      -0.00069460
S       -5.30764075      -8.02032731     -15.59077400       0.00391269      -0.00397451      -0.00631536
S       -2.47909171      -7.06417993     -14.02236557      -0.00213647       0.01080453      -0.00937440
S       -3.76455539      -5.12947604     -16.34941947       0.00281232       0.00303238      -0.00743441
P       11.63641813      29.50837351      13.36512642       0.00344326      -0.00216878       0.00578089
S       13.01858440      28.97545748      11.92612958       0.00426877      -0.01035531      -0.01102623
S       11.49270233      27.88055321      14.62122216      -0.00612230      -0.00780302       0.01832477
S        9.76546635      29.90755731      12.60934704      -0.00925536      -0.00065652      -0.00199928
S       12.27229056      31.21836672      14.31638720       0.00284357       0.00935782       0.00365431
P       28.62776625      -1.86102677      22.01602656       0.00181984       0.00198737      -0.01689231
S       29.73117801      -3.58498324      22.43408271       0.00722180      -0.01135507      -0.00417219
S       26.65777572      -2.09268576      22.59240914      -0.01385085      -0.00673205       0.00460083
S       28.70090241      -1.58374281      19.98939154      -0.00399907      -0.00152412      -0.01030338
S       29.41516506      -0.23418284      22.98753924       0.00318045       0.01603660       0.00136809
P       10.44748191      -2.98402449      31.81286524      -0.00417426       0.00618191      -0.00002173
S        8.42256177      -2.92804255      31.33086727      -0.00936007       0.00527607      -0.00515175
S       10.99651125      -1.03941869      32.22895663      -0.00403343       0.01531301       0.00041919
S       11.42346933      -3.77471521      30.17651055      -0.00917351       0.00975979      -0.00426317
S       10.91176812      -4.02677905      33.52681907      -0.01274691       0.00425411       0.00530496
P       -5.29411811      -8.36212348       4.10733395       0.01434121       0.00648930      -0.00049977
S       -6.46285263      -9.04789601       2.57330927      -0.00000136      -0.02164029      -0.01004880
S       -5.27887371      -9.80797250       5.59286806       0.00123116       0.00855685      -0.00443269
S       -6.20904272      -6.67384006       4.91548886      -0.00602749      -0.01042857      -0.01367151
S       -3.35215150      -7.84930541       3.67732203      -0.01855618      -0.00945254      -0.00460899
Cl      22.21948445      -1.86285700      -0.58400264      -0.00255634      -0.00205047      -0.00296953
Cl       1.69564977     -21.36973970       6.65106747       0.00129759      -0.00605558       0.00482013
Cl       6.99389317      33.93333152      -4.76359189       0.00376962       0.00183984      -0.00152675
Cl     -12.63493586      18.60757568      12.93953102      -0.00527886       0.00415680      -0.00804587
Cl      18.23178302     -23.92388156      24.38493569       0.01315061       0.00871827      -0.00047954
Cl      21.41932137     -11.66651664       9.65918615       0.00311649       0.01123112       0.00076143
Cl      18.85373693       6.58518835      13.02912477       0.00976824      -0.00570918       0.00491335
Cl     -10.27072033      -6.14188408     -32.65037719      -0.00560045      -0.00945599       0.01106881
Cl      41.57566103      -6.32453474      -3.80385154       0.00526248      -0.00735702       0.00407428
Cl      -4.08837361       7.87329285      22.07299496      -0.00180003      -0.00354115      -0.00064583
Cl      19.08944012      -8.72434091      -7.55941058       0.00435997       0.00259583      -0.00407851
Cl      22.19277791      15.07880673      58.20504754       0.00209881       0.00266510       0.00649047
Li     -19.39633774      41.38557050     -37.99157624      -0.00803440       0.00002779       0.00887726
Li      36.70802941     -31.13931644      39.40960312       0.00187658      -0.00876918      -0.00337649
Li     -38.43027432      50.21561675      55.98581746       0.01044007      -0.01220785       0.01364596
Li     -15.26794106      -5.36006470     -15.44827034       0.00577411      -0.00637953      -0.00759294
Li      -0.50355963     -28.87110907    -126.34617880      -0.01878220      -0.01006422       0.01082272
Li      44.55358029      13.16074959      25.27958967       0.00232289       0.00570984      -0.00629902
Li       5.05427260       6.33744880     -31.36664897       0.00705719      -0.00644738       0.00378907
Li     -49.71346348      67.95437734      54.15166745       0.00441889       0.01396997      -0.00324987
Li      24.46298833       7.90496095      15.96275018       0.00145746       0.00017336      -0.01059683
Li       2.17926386      38.27230605       5.87343655       0.01227270      -0.00860755       0.00099014
Li       1.45176121       7.80049434      -5.33519501       0.00064339       0.00159665       0.00339336
Li      47.66236842      72.24135632     -58.53654545       0.00175374       0.00206988      -0.00173752
Li      -8.24467073      33.90656499       4.15280746       0.00121118       0.00984007      -0.00841532
Li      -2.08621102      -9.85973375      16.72034993      -0.00419371      -0.01216423      -0.00332959
Li       9.29658627     -59.67783208     -48.39617629      -0.01606631       0.00597736       0.00704186
Li     -28.16628318      24.02751537      51.80223410       0.00637756      -0.00172089       0.00274493
Li      -7.42971273      65.26676761       3.76894061      -0.01153732       0.00863744      -0.00428322
Li      -3.85983584      21.67029525      89.54394933       0.00973132       0.00561171      -0.00533014
Li      97.63138489      47.31056445      11.23501334       0.00089932      -0.00642508       0.00253848
Li      47.67832479      25.92718958       6.44612531       0.00007767       0.00021312      -0.00182983
Li       0.10668478      37.66823744       1.97464352       0.00597778       0.00026248       0.00559606
Li      17.65956327     -23.45200608      96.58074075      -0.00399629      -0.00008399      -0.00957914
Li      -7.33223475      28.42168346     -19.58357427      -0.00002067      -0.00863301       0.01806556
Li      59.89916150      24.15657564      -4.01808839      -0.00884853      -0.01533626       0.01544363
Li      19.97256196      43.41860948     -26.20358357      -0.00049664       0.00658826       0.00452342
Li       7.04851404      20.41695548     -13.77304593       0.00623613       0.00205879       0.00137597
Li     -10.22016371      59.36021864     -22.28015786       0.00814550       0.00716369      -0.00598088
Li     -27.25987886      -9.44833897       7.17703015       0.00455507      -0.00473114       0.00612187
Li       0.71066812     -24.77051806       0.91322406      -0.01534609       0.01432688      -0.00000373
Li      66.47970916       4.43590638      40.96122139      -0.00069566      -0.01255242      -0.00333403
Li     -39.64118673       0.39768491       6.62744753      -0.00557139       0.00052417      -0.00592034
Li      35.54111121      16.76532260     -10.08295092       0.00048248       0.00357894       0.00447695
Li      23.19578878      10.67468382      29.00458292      -0.01807763      -0.00670497      -0.00729091
Li     -46.81504096     -69.67738542     -13.74350389      -0.00552086      -0.00417322       0.00684409
Li      49.38019774      19.94131173     -21.01486995       0.00450611       0.00896198      -0.00041784
Li      26.49498200       0.42307206      58.70704683       0.01733377      -0.00567121       0.01358665
Li      -4.16975811     -39.32662807     -31.70844908      -0.00073039      -0.00423558      -0.00116368
Li      -2.33737400     -21.20384283      37.03899346       0.00743284      -0.00652446      -0.00999959
Li      25.06388459     -10.60666769     -49.67965650       0.01114821       0.00318005      -0.00053187
Li     -10.56614417     -16.40156758     -13.06956999      -0.00402125       0.00171655       0.00650098
Li      40.92094785      14.29402689      -4.49508959       0.00235476      -0.01087310      -0.00034647
Li     -13.07308547      30.57502167      11.73574780      -0.00667571       0.00029160       0.00000891
Li      -8.13493853      45.79540193      36.55901627       0.00848556      -0.00724812      -0.00598914
Li     -12.48262627      34.45512068     -51.65170236      -0.01930614      -0.00162817      -0.00008685
Li      36.52841095      21.44051851      24.17999632       0.01752262      -0.01629290      -0.01068619
Li      87.86286394     -48.61289348      20.90321019       0.00481165      -0.00212404       0.01080769
Li     -66.58745812     -41.24909180     -10.88634484       0.00176476      -0.00009938       0.00879078
Li      26.25744968      11.94424981     -21.81062017       0.00448610      -0.00843294      -0.00359456
