120
Lattice="13.97758003 0.0 0.0 0.0 13.97758003 0.0 0.0 0.0 13.97758003" Properties=species:S:1:pos:R:3:forces:R:3 t_ps=36.0 charge=0 spin=0 energy=-508.1046713604021 free_energy=-508.1046713604021 stress="0.0021253779242818 -0.0014407740736638913 0.00043113084061602975 -0.0014407740736638913 0.0010610342754701233 0.0004473063727903008 0.00043113084061602975 0.0004473063727903008 0.002031204436992729" pbc="T T T"
P        1.35558502      10.64232607     -14.67661910      -0.00278494      -0.00808468       0.00530302
S        0.24997067      11.57572505     -16.11776397      -0.01514914       0.00105562      -0.00144394
S        0.79296526       8.71767780     -14.22786733       0.00315429      -0.01037708      -0.00368212
S        1.15344265      11.78126047     -12.97126656      -0.00639164      -0.00165179       0.00899118
S        3.35300621      10.56218121     -15.28388421       0.00256440       0.01148140      -0.00001538
P       17.48032228      22.44533958     -10.38523484      -0.00638471       0.00814729       0.00511162
S       15.47686147      22.90384183     -10.14828936       0.00008962       0.00070284      -0.00225948
S       18.51374059      23.41027074     -11.89861409       0.00226480       0.00373964       0.00968734
S       17.62134631      20.43846023     -10.73882423      -0.00531692       0.00440092      -0.00727669
S       18.41463677      23.04256990      -8.62758495      -0.00945958       0.00265678      -0.00365944
P       -9.92018681      14.81281112      13.48397763      -0.00072589       0.00165294      -0.00341837
S       -9.14909220      13.97027820      11.76733657      -0.00035697       0.00337081      -0.00669462
S       -9.51562936      13.67147681      15.16256675       0.00270094       0.00511919      -0.00704952
S      -11.92571287      15.05640434      13.07827225      -0.00112479      -0.00172900      -0.00095783
S       -8.92511191      16.60201174      13.85569143      -0.00160336       0.00522910       0.00004875
P        0.27512736       2.72346578       4.03199619       0.00594928       0.00717394      -0.00276307
S        0.90971944       1.28458785       2.69351495       0.01358841       0.01639241      -0.01160902
S        0.36700754       4.54810138       3.08527577      -0.00937220       0.00917720       0.00485704
S        1.41706370       2.65778979       5.74561196       0.01071053       0.00598857      -0.00523665
S       -1.71774410       2.28640120       4.40398319       0.00930898      -0.00301010       0.01146048
P       20.89296857      24.96667621       9.11635563      -0.01927078      -0.01056464      -0.00301304
S       19.33458788      26.30756892       8.98143857       0.00040314      -0.00878850       0.00176392
S       20.49428133      23.82443943      10.81987323       0.00436523       0.00229161      -0.00020634
S       22.73461980      25.83380874       9.32972228      -0.00745660       0.00377669       0.00391304
S       20.85362835      23.85803748       7.39894788      -0.00245019       0.00159234       0.01231939
P        5.30198320      14.81538404      19.57886010      -0.01401490      -0.00657206       0.00144717
S        5.16976474      16.22967048      18.04494992       0.00183653       0.00546908      -0.00146572
S        7.20512812      14.17075329      19.98256644       0.01693743       0.00615529       0.01171500
S        4.10423258      13.24163537      19.04392579       0.00768078       0.00532410       0.00718051
S        4.54463019      15.66406078      21.29279248       0.00083643       0.00746889       0.00671922
P      -15.61378686       3.72307141      -4.95322753       0.00586154       0.00444437      -0.00382233
S      -15.64227609       5.06783635      -6.51106823       0.00232259      -0.00028359      -0.00198810
S      -16.64716468       2.03397982      -5.51577968       0.00625122      -0.00462293      -0.00253037
S      -16.58323189       4.62277504      -3.36277163       0.00102439      -0.00147781      -0.00071542
S      -13.64252858       3.28295235      -4.56270676       0.00792597       0.00301965       0.00050283
P       -4.31408309      -6.42652804     -14.72740240       0.00208017       0.00181768       0.00084186
S       -5.50327688      -5.58341336     -13.26156725      -0.00285607       0.00716787      -0.00069460
S       -5.42138261      -7.95883039     -15.52882606       0.00391269      -0.00397451      -0.00631536
S       -2.57928896      -7.16325689     -13.91848263      -0.00213647       0.01080453      -0.00937440
S       -3.76971477      -5.11216839     -16.21182678       0.00281232       0.00303238      -0.00743441
P       11.56490869      29.52808369      13.42110141       0.00344326      -0.00216878       0.00578089
S       12.96117450      29.25081276      11.95096356       0.00426877      -0.01035531      -0.01102623
S       11.54460418      27.85749492      14.61477683      -0.00612230      -0.00780302       0.01832477
S        9.65683416      29.89068885      12.73929590      -0.00925536      -0.00065652      -0.00199928
S       12.17262552      31.26213255      14.39363952       0.00284357       0.00935782       0.00365431
P       28.69477861      -1.83863366      21.98775338       0.00181984       0.00198737      -0.01689231
S       29.75440176      -3.58213320      22.42124924       0.00722180      -0.01135507      -0.00417219
S       26.73714578      -1.93877523      22.62744041      -0.01385085      -0.00673205       0.00460083
S       28.71511383      -1.62661003      19.94926095      -0.00399907      -0.00152412      -0.01030338
S       29.58128952      -0.21610915      22.87896973       0.00318045       0.01603660       0.00136809
P       10.44741097      -3.00903603      31.90290783      -0.00417426       0.00618191      -0.00002173
S        8.42081739      -2.96757737      31.43458337      -0.00936007       0.00527607      -0.00515175
S       10.98745545      -1.05974326      32.30871381      -0.00403343       0.01531301       0.00041919
S       11.42217997      -3.79081325      30.26279840      -0.00917351       0.00975979      -0.00426317
S       10.93450628      -4.04359432      33.62333497      -0.01274691       0.00425411       0.00530496
P       -5.29658895      -8.37434544       4.21930653       0.01434121       0.00648930      -0.00049977
S       -6.43544658      -9.06318432       2.66986061      -0.00000136      -0.02164029      -0.01004880
S       -5.28742111      -9.80631598       5.71327458       0.00123116       0.00855685      -0.00443269
S       -6.21878660      -6.68817638       5.01917052      -0.00602749      -0.01042857      -0.01367151
S       -3.35046609      -7.85095589       3.79451087      -0.01855618      -0.00945254      -0.00460899
Cl      22.10032888      -1.89624356      -0.48532702      -0.00255634      -0.00205047      -0.00296953
Cl       1.62377992     -21.41953404       6.74145736       0.00129759      -0.00605558       0.00482013
Cl       6.83494147      33.88416961      -4.59083494       0.00376962       0.00183984      -0.00152675
Cl     -12.61709203      18.55183810      13.02833585      -0.00527886       0.00415680      -0.00804587
Cl      18.04238940     -24.06584200      24.53770837       0.01315061       0.00871827      -0.00047954
Cl      21.34470294     -11.67978687       9.72642759       0.00311649       0.01123112       0.00076143
Cl      18.78735739       6.59996753      13.10325770       0.00976824      -0.00570918       0.00491335
Cl     -10.37982293      -6.17556307     -32.55028256      -0.00560045      -0.00945599       0.01106881
Cl      41.36682006      -6.06970145      -3.88303700       0.00526248      -0.00735702       0.00407428
Cl      -4.26910656       7.68251071      22.14058869      -0.00180003      -0.00354115      -0.00064583
Cl      19.05907571      -8.76993569      -7.43365264       0.00435997       0.00259583      -0.00407851
Cl      22.20744537      15.02725193      58.29159278       0.00209881       0.00266510       0.00649047
Li     -19.39998739      41.34709432     -37.89024447      -0.00803440       0.00002779       0.00887726
Li      36.68387831     -31.13006678      39.51685215       0.00187658      -0.00876918      -0.00337649
Li     -38.51414345      50.31457455      55.91982270       0.01044007      -0.01220785       0.01364596
Li     -15.30055311      -5.77947870     -15.55735205       0.00577411      -0.00637953      -0.00759294
Li      -0.20263170     -28.55967802    -126.29067319      -0.01878220      -0.01006422       0.01082272
Li      44.29532773      13.15920236      25.27820099       0.00232289       0.00570984      -0.00629902
Li       4.86893696       6.27952385     -31.27345366       0.00705719      -0.00644738       0.00378907
Li     -49.90002869      67.82506675      54.25217874       0.00441889       0.01396997      -0.00324987
Li      24.44625153       7.88804737      16.06289835       0.00145746       0.00017336      -0.01059683
Li       2.13137744      38.18590360       5.87751530       0.01227270      -0.00860755       0.00099014
Li       1.32723479       7.81810358      -5.26558381       0.00064339       0.00159665       0.00339336
Li      47.64416061      72.15445734     -58.46635743       0.00175374       0.00206988      -0.00173752
Li      -8.22958627      33.85325341       4.32043170       0.00121118       0.00984007      -0.00841532
Li      -2.08480510      -9.82967190      16.82555642      -0.00419371      -0.01216423      -0.00332959
Li       9.28517557     -59.75332430     -48.34345209      -0.01606631       0.00597736       0.00704186
Li     -28.16482278      24.17688888      51.84402771       0.00637756      -0.00172089       0.00274493
Li      -7.45813985      65.20588145       3.86549957      -0.01153732       0.00863744      -0.00428322
Li      -3.84929023      21.66222980      89.59731832       0.00973132       0.00561171      -0.00533014
Li      97.10582463      45.73526251      12.07169018       0.00089932      -0.00642508       0.00253848
Li      47.64662368      25.89431337       6.53916581       0.00007767       0.00021312      -0.00182983
Li       0.13354083      37.73875182       1.94336628       0.00597778       0.00026248       0.00559606
Li      17.68270459     -23.42013343      96.94461412      -0.00399629      -0.00008399      -0.00957914
Li      -7.37922422      28.39423542     -19.51221280      -0.00002067      -0.00863301       0.01806556
Li      59.89252499      24.12077024      -3.95002508      -0.00884853      -0.01533626       0.01544363
Li      19.98732709      43.35059867     -26.13578589      -0.00049664       0.00658826       0.00452342
Li       6.96632848      20.50237420     -13.70136419       0.00623613       0.00205879       0.00137597
Li     -10.21136056      59.35612994     -22.24645448       0.00814550       0.00716369      -0.00598088
Li     -27.29049372      -9.53805376       7.25738413       0.00455507      -0.00473114       0.00612187
Li       0.69532154     -24.87641165       0.89965831      -0.01534609       0.01432688      -0.00000373
Li      66.22163361       4.43853080      41.16538592      -0.00069566      -0.01255242      -0.00333403
Li     -39.62880796       0.36226168       6.55661502      -0.00557139       0.00052417      -0.00592034
Li      35.57077421      16.75697422     -10.00228114       0.00048248       0.00357894       0.00447695
Li      23.17817782      10.67227100      29.09250863      -0.01807763      -0.00670497      -0.00729091
Li     -46.82046844     -69.75513664     -13.65193684      -0.00552086      -0.00417322       0.00684409
Li      49.65782043      20.12729927     -20.72839109       0.00450611       0.00896198      -0.00041784
Li      26.45679269       0.38569207      58.77176946       0.01733377      -0.00567121       0.01358665
Li      -4.22663737     -39.36239165     -31.60319002      -0.00073039      -0.00423558      -0.00116368
Li      -2.40939510     -21.27561584      37.17451192       0.00743284      -0.00652446      -0.00999959
Li      25.03505404     -10.60502804     -49.62589613       0.01114821       0.00318005      -0.00053187
Li     -10.44502415     -16.50338286     -12.88967698      -0.00402125       0.00171655       0.00650098
Li      41.16836458      14.60775534      -4.63389406       0.00235476      -0.01087310      -0.00034647
Li     -12.02348350      30.89934590      11.39363189      -0.00667571       0.00029160       0.00000891
Li      -8.19123628      45.76639812      36.53164994       0.00848556      -0.00724812      -0.00598914
Li     -12.51125269      34.37837519     -51.56462972      -0.01930614      -0.00162817      -0.00008685
Li      36.25420971      21.59781659      24.33651497       0.01752262      -0.01629290      -0.01068619
Li      87.79178926     -48.68533957      21.00206564       0.00481165      -0.00212404       0.01080769
Li     -66.61142297     -41.24041392     -10.81530703       0.00176476      -0.00009938       0.00879078
Li      26.27620222      11.95421303     -21.74139424       0.00448610      -0.00843294      -0.00359456
