120
Lattice="13.99299189 0.0 0.0 0.0 13.99299189 0.0 0.0 0.0 13.99299189" Properties=species:S:1:pos:R:3:forces:R:3 t_ps=17.0 charge=0 spin=0 energy=-507.95205137726737 free_energy=-507.95205137726737 stress="0.003401415930392258 -0.001445574352346624 3.815030299622455e-05 -0.001445574352346624 0.0008275432561207188 0.0005769310327238652 3.815030299622455e-05 0.0005769310327238652 0.0023341896804279973" pbc="T T T"
P        1.14959919      10.46429209     -14.61733347       0.00047681       0.00359609      -0.00043322
S       -0.44348132      10.90985994     -15.83651890      -0.00089040      -0.00085386       0.00128144
S        1.00023165       8.51472297     -13.98611309       0.00691492       0.00045158      -0.00537349
S        0.98401580      11.73256135     -12.99171122      -0.00623159       0.00647718       0.00104667
S        2.99140544      10.83003838     -15.48824906       0.00816317      -0.00353245       0.01015255
P       17.43694866      22.64386049     -10.36475828       0.00542694       0.00191462       0.00198428
S       15.42981664      22.99105552     -10.04246843       0.00187282       0.00747698       0.00485228
S       18.43260354      23.68346325     -11.84311913       0.00012630      -0.00329849      -0.00795210
S       17.61909621      20.65830450     -10.89402035       0.02009354       0.00486367      -0.00444005
S       18.39939722      23.10881099      -8.58060050      -0.00423364      -0.00961994       0.01076470
P       -9.87214903      14.88287302      13.45241976      -0.00142029       0.00622125      -0.00321446
S       -9.06894729      14.08126557      11.71921882      -0.01350442      -0.00202053      -0.00337264
S       -9.37557444      13.63932140      15.05540178       0.00529859       0.00630091       0.00410934
S      -11.86850405      15.11202336      13.23367805      -0.00606260       0.00822914      -0.00107538
S       -8.84605597      16.65597549      13.81859553       0.00511184       0.00703402      -0.00936366
P        0.31523343       2.69373810       4.02442637       0.00009380       0.00095049      -0.00084533
S        0.93749328       1.25118182       2.69221749      -0.00205710      -0.00377391      -0.00112481
S        0.42123471       4.52196937       3.07201467       0.00436086       0.00104429      -0.00363666
S        1.45128132       2.63555141       5.73639276       0.00088378       0.00191099      -0.00252689
S       -1.68623067       2.28275028       4.39436763      -0.00025848      -0.00383547      -0.00331756
P       20.63723732      25.05599430       9.20913689      -0.00259348      -0.00129494       0.00035610
S       19.33174568      26.59639865       8.76636501      -0.00336042       0.00009449       0.00263950
S       20.04999082      24.18020803      11.00205313      -0.00709625       0.00593671       0.00578638
S       22.57099474      25.69155215       9.40292638      -0.00296884       0.00331897      -0.00444946
S       20.52132272      23.73056774       7.64404984      -0.00271184      -0.00473869      -0.00013870
P        5.36289246      14.91879891      19.49658255       0.00370024      -0.00711449      -0.00138810
S        5.08791494      16.28988072      17.94274008       0.00525260      -0.00661862      -0.00430405
S        7.35592468      14.56429521      19.79825571       0.00731346      -0.00571389       0.00837519
S        4.24773017      13.26737522      19.00094208      -0.00350499      -0.01174654      -0.00555543
S        4.59107140      15.72155987      21.23047646      -0.00535840      -0.00361067      -0.00212589
P      -15.54322274       3.97896362      -4.98913297      -0.00197974      -0.00481480       0.00129080
S      -15.67425304       5.21557931      -6.62908483      -0.00144524      -0.00321051       0.00106761
S      -16.37053102       2.16310473      -5.51785957      -0.00515479      -0.00842855       0.01256822
S      -16.70284854       4.76676232      -3.45399170      -0.01157879      -0.01037356       0.00165339
S      -13.53972008       3.90300251      -4.50872580       0.00711516      -0.00677138      -0.00945275
P       -4.25456766      -6.64946538     -14.79076411      -0.00040532       0.00792255      -0.00186320
S       -5.41213750      -5.75947558     -13.33280744      -0.00194275       0.01061644       0.00321069
S       -5.30411180      -8.35058793     -15.33326093       0.00008094       0.00481304      -0.00032809
S       -2.38564131      -7.07658397     -14.02335078      -0.00095068      -0.00475661       0.00445584
S       -3.98584349      -5.48038451     -16.44690579       0.00478776       0.01027147      -0.00675178
P       11.67428881      29.46016727      13.33950872      -0.00212940      -0.00105627       0.00153667
S       13.13782144      29.08724757      11.95626584      -0.00485656      -0.00733135      -0.00772221
S       11.61517540      27.86553753      14.62522421      -0.00137783       0.00475848       0.01232427
S        9.78782028      29.66158553      12.52704074       0.00237307       0.00265373      -0.00348169
S       12.12219175      31.24065458      14.33137759       0.00393850       0.00131804       0.01022438
P       28.74892760      -1.77526576      22.05948439      -0.00206794      -0.00163867       0.00281293
S       29.84981142      -3.46163711      22.53956964       0.00458854       0.00142742       0.00843479
S       26.78484102      -1.98318016      22.67287479      -0.00635011      -0.01146894      -0.00456251
S       28.77013766      -1.60130581      20.01256291      -0.00079977       0.00525729       0.00253395
S       29.52901117      -0.08802987      22.93597399       0.00069980      -0.00152086       0.00691854
P       10.41438182      -3.00003476      31.95353803       0.00656261       0.00005638      -0.00164887
S        8.40580934      -2.92522384      31.40722706      -0.00051181      -0.00109899      -0.00663798
S       11.00083642      -1.05585682      32.31720383       0.00921389      -0.00221153       0.00851960
S       11.42736876      -3.84005942      30.36052649      -0.00745578      -0.00384589      -0.00504155
S       10.78956829      -3.99242520      33.71883975       0.00021224      -0.00027576       0.00302644
P       -5.30531900      -8.37811666       4.15566951      -0.00103962       0.00036556      -0.00145654
S       -6.46366923      -9.12601151       2.64615887      -0.00006041      -0.00339040      -0.00515652
S       -5.28443368      -9.76021819       5.68790132      -0.00115602      -0.00142820       0.00740357
S       -6.20971376      -6.65325662       4.89195177      -0.00167228       0.00391698       0.00552738
S       -3.34770377      -7.89378447       3.70826370       0.00321287      -0.00190699      -0.01020165
Cl      22.28010355      -2.03869854      -0.50469326      -0.00964324      -0.00387481       0.00431471
Cl       1.66173822     -21.50244573       6.73813551      -0.00442115      -0.00392524      -0.00229564
Cl       6.94848305      33.85902047      -4.65350191       0.01345195       0.00210614       0.00354453
Cl     -12.76756709      18.64601316      13.08834805       0.00923755       0.01039750       0.00138157
Cl      18.21552423     -24.06963935      24.48769345      -0.00010873       0.00181436      -0.00293901
Cl      21.49810497     -11.69166645       9.64527375      -0.00263111       0.00037170       0.00120984
Cl      18.85845281       6.43624057      13.24907365      -0.00086340       0.00408689      -0.00647462
Cl     -10.55364737      -6.55472354     -32.39110719      -0.00437477       0.00139968      -0.00456477
Cl      41.52040077      -6.20450883      -3.83079091      -0.00052563      -0.00146134       0.00217109
Cl      -4.28082491       7.63255104      22.03044605      -0.00282017       0.00537014      -0.00216724
Cl      19.10530158      -8.68348235      -7.53220813      -0.00205474      -0.00405151      -0.00312325
Cl      22.29412861      15.10657272      58.21299055      -0.00489966       0.00042738       0.00740155
Li     -19.40600754      41.45199386     -38.04990813       0.00876064      -0.00337139       0.00089409
Li      36.46873423     -31.50294931      39.53638591       0.00196226       0.00102102      -0.00142218
Li     -38.54273365      49.81513563      56.63361652      -0.00282019      -0.00160221      -0.00430989
Li     -15.16313428      -5.47154692     -15.55088677      -0.00043024       0.00988057      -0.00189943
Li      -0.36786343     -28.89917643    -126.54372033       0.00885804      -0.00544741       0.00974291
Li      45.22632299      12.78404514      24.42884663      -0.00801643       0.00341230       0.00499258
Li       5.06367043       6.16987409     -31.21270304       0.00106422      -0.00064315      -0.00956645
Li     -49.87352717      68.13745171      54.55779857      -0.00837609       0.00838442       0.00068412
Li      24.56914530       7.85863682      16.02941704      -0.00237035       0.00305950       0.00193531
Li       1.97070804      38.18391590       6.05137747      -0.00109168      -0.00658171      -0.00303087
Li       1.25387564       6.45182933      -4.78199978       0.00460030      -0.00074465      -0.00323323
Li      47.78130096      72.28789802     -58.60922279       0.00186674       0.00132586       0.00287288
Li      -8.26028927      33.96538951       4.22883048      -0.00088801      -0.00329112       0.00068294
Li      -2.01703497      -9.86082980      16.84234736       0.00096809       0.00221853       0.00067989
Li       8.97892301     -59.98021137     -48.34175007      -0.00834685      -0.00519542       0.00300559
Li     -28.09868329      24.08820679      51.85704432       0.01125501      -0.00550842       0.01206958
Li      -7.51411024      65.40605153       3.86993962       0.00095963       0.01416165       0.01409293
Li      -3.81972921      21.68428686      89.59813903       0.00579421      -0.00482999      -0.00672770
Li      96.73938616      46.95999789      12.61475636       0.00193132       0.00934081      -0.00137391
Li      47.15166941      25.52370840       6.58131009      -0.00494929       0.00533927       0.00065711
Li       0.09597103      37.73663650       2.04643990       0.00903626      -0.00466746       0.00455527
Li      17.62478496     -23.61690682      96.81007034       0.00326570      -0.00126303      -0.00492876
Li      -7.22766886      28.50332734     -19.72705307      -0.00720742       0.00636795      -0.00027865
Li      59.65515355      23.54442330      -3.45449867      -0.00178984      -0.00526077      -0.01058216
Li      20.05593496      43.43661646     -26.23479549      -0.00043382       0.00527730       0.00037995
Li       7.04103599      20.30351674     -13.58603685      -0.00796364       0.00765943       0.00291059
Li     -10.20286735      59.46426514     -22.30902619       0.00000887      -0.00155090       0.00185493
Li     -27.38620619      -9.56278345       7.06632727      -0.00078524       0.00516984      -0.00869176
Li       0.77623024     -24.95559811       0.88553026       0.01146215      -0.00645842      -0.00544163
Li      65.86256882       3.82645773      41.60656732       0.00734338       0.00241984      -0.00154844
Li     -39.60816897       0.37136961       6.56047037      -0.00505706       0.00295179       0.01185733
Li      35.58340598      16.65588281      -9.89332386      -0.00139593       0.00380173      -0.00111758
Li      23.24949175      10.55425494      29.12847412      -0.00461908       0.00236734       0.00499531
Li     -46.79188945     -69.94561602     -13.71954812      -0.00633253       0.00222085       0.00601109
Li      49.63755884      20.17861306     -20.87506310       0.00791779      -0.00284447      -0.00781110
Li      26.54670293       0.35670870      58.83515582       0.00387901       0.00579708      -0.00190744
Li      -4.12152122     -39.34769253     -31.77353051      -0.00749845       0.00163705       0.00675643
Li      -2.32896657     -21.13151375      37.10829712      -0.00263300      -0.00151981      -0.00359642
Li      25.10231083     -10.56102507     -49.70909042       0.00172844      -0.01406355      -0.00099048
Li     -10.62770479     -16.40023976     -13.09989301       0.00982148      -0.00741790       0.00147158
Li      41.07061515      14.38805199      -4.49873154      -0.00563554      -0.00999524      -0.00246053
Li     -12.93999288      30.73242601      11.66381915      -0.00028508       0.00853263       0.00485246
Li      -8.17133848      45.80082497      36.55585624      -0.00533736       0.00551951      -0.00823697
Li     -12.49425580      34.42144455     -51.62845617      -0.00407173       0.00073629      -0.01324090
Li      36.90649196      20.61863047      24.30658631      -0.00146428       0.00409683      -0.00759344
Li      87.84914623     -48.71781760      21.15029685       0.00736676       0.00214142      -0.00148205
Li     -66.61391814     -41.37028923     -10.94060331      -0.00233363      -0.00632078       0.00065530
Li      26.28940506      11.96767277     -21.74147903      -0.00075164      -0.01482094      -0.00151132
