120
Lattice="13.98458456 0.0 0.0 0.0 13.98458456 0.0 0.0 0.0 13.98458456" Properties=species:S:1:pos:R:3:forces:R:3 t_ps=19.0 charge=0 spin=0 energy=-508.15188582945734 free_energy=-508.15188582945734 stress="0.00317373770311018 -0.0010855419947890888 6.141944195010188e-05 -0.0010855419947890888 0.0007408029814957365 0.00023766904465065167 6.141944195010188e-05 0.00023766904465065167 0.002168453528084524" pbc="T T T"
P        1.09501839      10.47687245     -14.64161208       0.00660749       0.00697833       0.00407909
S       -0.51495253      10.86632563     -15.85434514      -0.00852445       0.00032318      -0.00210103
S        1.00002510       8.53787303     -13.98448671       0.00472274       0.00191485      -0.00519163
S        0.91885954      11.77092801     -13.03713794      -0.00622981      -0.00043345       0.00127848
S        2.91795443      10.89158907     -15.54333316       0.00180058       0.00395957       0.00913125
P       17.31589983      22.70028371     -10.33117217       0.01412193       0.00339648      -0.00395547
S       15.30837692      23.03425618     -10.01038764       0.00574457       0.00496308       0.00105413
S       18.27738952      23.79929178     -11.79047114      -0.00495443       0.00145705       0.00045877
S       17.53135406      20.73070284     -10.87957135       0.00821734      -0.00562238      -0.00740455
S       18.28811869      23.10805671      -8.53516637      -0.00008463      -0.00238728       0.00309406
P       -9.73915630      14.83949055      13.32757161       0.01313242       0.00334421      -0.00036817
S       -8.96467723      14.05109234      11.58184282      -0.00517837       0.00663876      -0.00176610
S       -9.29132252      13.56046351      14.91146126       0.00320955       0.00737691      -0.00147585
S      -11.75769795      15.00578511      13.05403596      -0.01287644       0.00240996      -0.00136012
S       -8.77194191      16.61683064      13.74658600       0.00094522       0.00756789      -0.00612791
P        0.27450589       2.69330660       3.99957854       0.00024087      -0.00207701      -0.00925351
S        0.94906944       1.27961664       2.65156850       0.00037008       0.00052857       0.00432468
S        0.30797741       4.53071640       3.06061143       0.00261818      -0.00026691      -0.00309745
S        1.40674785       2.70194784       5.71470596       0.00483796       0.00061445       0.00050950
S       -1.70230411       2.21312550       4.38265455       0.00105705      -0.00597598      -0.00054610
P       20.79793441      25.04035074       9.16233300      -0.00497774      -0.01115863       0.00324683
S       19.47690910      26.53985949       8.74876814      -0.00439277      -0.00244725      -0.00362747
S       20.15253700      24.03271246      10.85816456      -0.00075369       0.01189582      -0.00152379
S       22.71527688      25.67565020       9.46917510       0.00534114       0.00094936       0.00216328
S       20.75480190      23.82597848       7.46649189      -0.00466092      -0.01029121       0.00234785
P        5.43524325      14.58635038      19.28349840       0.00464139      -0.01778766      -0.01205354
S        5.05855914      16.01630619      17.80832698       0.00695716      -0.00688287      -0.00508329
S        7.43336051      14.47747595      19.69643348       0.00194947      -0.00670152       0.00713563
S        4.62308407      12.80794041      18.62668335      -0.00196874      -0.00275794       0.00294397
S        4.50351023      15.27732808      20.97912886      -0.00704348       0.00079516       0.00213828
P      -15.56221981       3.94241044      -4.96038999       0.00496859      -0.00110391       0.00235105
S      -15.77362576       5.17452889      -6.59458322      -0.00155563      -0.00094669      -0.00601765
S      -16.35582321       2.10944023      -5.47956284      -0.00382783      -0.00600733       0.00910255
S      -16.71011523       4.72032713      -3.40427822      -0.01021212      -0.00645305       0.00162129
S      -13.54721954       3.91720703      -4.53050972      -0.00413313      -0.00915389      -0.00737448
P       -4.25156909      -6.70439389     -14.65062731       0.00797492       0.01280902      -0.01455821
S       -5.40642447      -5.81102159     -13.20202854      -0.00123750       0.00876805      -0.00218758
S       -5.36125999      -8.35669236     -15.23838287      -0.00068158       0.00185946      -0.00045700
S       -2.39865882      -7.18323581     -13.88078375       0.00096740      -0.00510073       0.00208133
S       -3.91432476      -5.53242181     -16.29755961       0.00457561       0.00206421       0.00217349
P       11.65017518      29.39535143      13.29559217       0.01554897      -0.00316323      -0.00473817
S       13.17909302      29.07746597      11.98014169      -0.01844006       0.00353621      -0.00097649
S       11.54741219      27.80686479      14.58923188      -0.00020219       0.00605119       0.01202487
S        9.77912630      29.56238349      12.42853200      -0.01361570       0.00173685      -0.00396600
S       12.02932985      31.17575546      14.32251287       0.00298281      -0.00399672       0.01047455
P       28.73515627      -1.78368063      22.12385737      -0.01166963      -0.00814926       0.00103523
S       29.78682248      -3.51765166      22.52009422       0.00650571      -0.00471203       0.00438569
S       26.74940457      -2.02912006      22.64211499       0.00461622      -0.01037929      -0.00103445
S       28.84779396      -1.49147354      20.08748644       0.00026447      -0.00077398       0.00298246
S       29.45215634      -0.12264725      23.10622376       0.00291433      -0.00283097       0.00579796
P       10.47877540      -2.99532835      31.89361463      -0.00120124      -0.00950040      -0.00360392
S        8.47645438      -2.89745446      31.36480726       0.00059687       0.00765055       0.00055362
S       11.11626694      -1.06521528      32.25465213       0.00173924      -0.00130083       0.00133853
S       11.44070853      -3.89099793      30.29956530      -0.00113224       0.00189069      -0.00401037
S       10.89503419      -3.99621628      33.64743239       0.00117731      -0.00260912       0.00167929
P       -5.38514600      -8.45536871       4.41955654       0.00613119       0.00963439       0.01056648
S       -6.58538566      -9.09487151       2.87576431       0.00063025      -0.00370412      -0.00931699
S       -5.32526567     -10.00068459       5.79819381      -0.00187824       0.00176714       0.01027730
S       -6.20852862      -6.72035119       5.16386154      -0.00318042      -0.00285125       0.00667475
S       -3.42446042      -7.99629034       3.91141346      -0.00584440      -0.00264993      -0.00659869
Cl      22.23196299      -2.11534504      -0.52019612      -0.00614996      -0.00531764       0.00117509
Cl       1.51517573     -21.42313326       6.71331171       0.00806114       0.00246795      -0.00010181
Cl       6.96193470      34.00557158      -4.67458470       0.00545851      -0.00235716      -0.00095297
Cl     -12.76330271      18.60439490      13.18054875       0.01089743       0.00909322       0.00085085
Cl      17.86620898     -24.01679127      24.65444968      -0.01102146       0.00099089      -0.00658805
Cl      21.44604717     -11.52998759       9.38987996      -0.00514313       0.00098702      -0.00091358
Cl      18.84809435       6.46804645      13.31615605       0.00168644       0.00597039       0.02037402
Cl     -10.52716784      -6.47083961     -32.47226855      -0.00115240       0.00478505       0.00487444
Cl      41.52769411      -6.27243091      -3.73812569       0.00343143      -0.00435021       0.00117535
Cl      -4.10132604       7.89597513      22.17608132      -0.00399588       0.00043191      -0.00093311
Cl      18.94530551      -8.84938326      -7.59552564       0.00394202      -0.00837421      -0.00311911
Cl      22.33347248      15.10922728      58.10258540      -0.00830217       0.00152222       0.00212167
Li     -19.25126046      41.44682876     -38.10742912       0.00723350      -0.00208305      -0.00487123
Li      36.52075937     -31.55787964      39.53110783      -0.00153184      -0.00560602       0.00321230
Li     -38.52357197      49.80966086      56.63787220      -0.00486881       0.00624347      -0.00422421
Li     -15.22984777      -5.52972119     -15.46684005      -0.00105450       0.00811231      -0.00066671
Li      -0.52580328     -28.94783671    -126.50965570       0.00749366      -0.00506576       0.01261768
Li      44.64609063      13.20859759      25.26603225      -0.00059760       0.00582834      -0.00146446
Li       4.93977324       6.10870998     -31.27245070       0.00740279      -0.00344224      -0.01900121
Li     -49.80811958      68.00372981      54.34763222      -0.00694920       0.01343029      -0.00207272
Li      24.51861062       7.76153935      16.18210535      -0.00069166       0.00598202       0.00382856
Li       1.94151401      38.18473706       6.05581543      -0.00496729      -0.00643262      -0.00565755
Li       1.28049562       6.46477466      -4.79367288       0.00450569       0.00166837      -0.00474496
Li      47.61216541      72.33230312     -58.84487175      -0.00361155       0.00062973      -0.00538971
Li      -8.30078903      34.11987466       4.31996444      -0.00144720       0.00351575       0.00236542
Li      -2.14270466      -9.89158185      16.86619532       0.00002448      -0.00369084       0.00379098
Li       9.23657626     -59.67681906     -48.38368589      -0.00740684      -0.00620411      -0.00111576
Li     -28.13225386      23.99617890      51.81488491       0.01410174      -0.00677168       0.01074767
Li      -8.07463817      66.49608447       3.98410068      -0.00502015       0.01910235       0.00607138
Li      -3.83399397      21.67238076      89.64412803      -0.00026925      -0.00214658      -0.00301160
Li      96.71247862      46.86030239      12.63725928      -0.00307772       0.01098334      -0.00311543
Li      46.98149484      25.43623059       6.69391425      -0.00485131       0.00450653      -0.00228672
Li       0.04814325      37.75180858       2.02544890       0.00786905      -0.00614079       0.00223903
Li      17.63726392     -23.54251322      96.90611185       0.00472018       0.00565548      -0.00063641
Li      -7.27014924      28.53300391     -19.85845453      -0.00174176       0.01142811      -0.00567274
Li      59.61867070      23.76593482      -3.67731306      -0.00032016      -0.00279765      -0.00397996
Li      20.09430845      43.34169126     -26.30283013      -0.00397511       0.00420254      -0.00171332
Li       7.00578357      20.27280805     -13.42743737      -0.00485901       0.00675416       0.00145846
Li     -10.14388025      59.16680653     -22.36766444       0.00094925      -0.00359429       0.00303383
Li     -27.45600797      -9.50740981       7.04240258      -0.00254890       0.00877817      -0.00596546
Li       0.60079567     -24.88224786       0.91834210       0.00439394      -0.00967484      -0.00342978
Li      65.82138136       3.77138617      41.41968309      -0.00085784      -0.00349371       0.00864510
Li     -39.83470745       0.54039366       6.77712480       0.00219224       0.00722442       0.00619368
Li      35.52618034      16.58567903      -9.92539320      -0.00253885      -0.00097954       0.00264733
Li      23.23624107      10.49830463      29.10982204      -0.00859769       0.00139134       0.00214610
Li     -46.80991501     -69.95317472     -13.78500926      -0.00474598       0.00089883       0.00497227
Li      49.53356993      21.52812670     -20.32161723      -0.00835352      -0.00369740      -0.00446454
Li      26.55854881       0.34864068      58.71505751       0.00588450       0.00487746      -0.00114867
Li      -4.16849242     -39.35806565     -31.80951394      -0.00662541      -0.00301339       0.00136596
Li      -2.28148145     -21.16065108      37.16568863      -0.00273117      -0.00436344       0.00044744
Li      25.05624817     -10.64649754     -49.65257598       0.00391753      -0.01116065       0.00228100
Li     -10.68999730     -16.34847143     -13.18558865       0.00667018      -0.00284286       0.00215241
Li      40.98295336      14.31743207      -4.40086281      -0.00172272      -0.00266287      -0.00077779
Li     -12.53811055      30.85195155      11.54740723       0.00302567       0.00918828       0.00365821
Li      -7.09956201      46.17514703      35.65218051      -0.00037143       0.00589614      -0.00208688
Li     -12.58591647      34.43321432     -51.62086060       0.00265150      -0.00095290      -0.01230539
Li      36.92073114      20.57140591      24.42619453       0.00154367      -0.00228278      -0.00735208
Li      87.67683899     -48.82829210      21.06880281       0.00682640       0.00413032       0.00937989
Li     -66.55076670     -41.53496695     -11.06783658       0.00002070      -0.00731184      -0.00211035
Li      26.36671496      11.97412502     -21.77280452      -0.00045560      -0.01256989      -0.00120194
