120
Lattice="13.98473105 0.0 0.0 0.0 13.98473105 0.0 0.0 0.0 13.98473105" Properties=species:S:1:pos:R:3:forces:R:3 t_ps=46.0 charge=0 spin=0 energy=-508.0979350266645 free_energy=-508.0979350266645 stress="0.0023792119444181483 -0.0014847263948210804 0.00030441899574315073 -0.0014847263948210804 0.0014126862960560514 -0.00015570722240117443 0.00030441899574315073 -0.00015570722240117443 0.0026146915614542765" pbc="T T T"
P        1.18959741      10.49546630     -14.61013976       0.00075144       0.00462309       0.00081854
S       -0.42917830      10.92301431     -15.80595697      -0.00295904       0.00522057       0.00298363
S        1.06888847       8.54216467     -13.99646197       0.00740593       0.00062960      -0.00592775
S        0.97949117      11.74994848     -12.98017252      -0.00330155       0.00223439       0.00302859
S        3.01666682      10.92317294     -15.48732823       0.00545625       0.00118683       0.00975979
P       17.48145928      22.68077125     -10.36306830       0.00505281       0.00253590       0.00196309
S       15.49496256      23.12625160     -10.03118477       0.00420846       0.00952330       0.00797465
S       18.50011813      23.68758911     -11.85319358      -0.00114894      -0.00753400      -0.01429655
S       17.59203867      20.69169732     -10.88609516       0.01408487       0.00365134      -0.00131477
S       18.47366192      23.10797448      -8.59571146       0.00320306      -0.00805735       0.00845720
P       -9.85363469      14.85856891      13.41607702      -0.00140398       0.00394121      -0.00151470
S       -9.00812329      14.03716993      11.72338568      -0.01338855      -0.00478372      -0.00510767
S       -9.35640647      13.61515724      15.04302697       0.00802486       0.00473403       0.00504850
S      -11.86483408      14.91703507      13.14306674      -0.00685444      -0.00084361      -0.00031915
S       -8.93358604      16.65477140      13.84166343      -0.00198685       0.00631728      -0.00727773
P        0.30330671       2.78161564       4.07416904      -0.00174223       0.00119304      -0.00020723
S        0.97301604       1.39423872       2.69598439      -0.00398225      -0.00574986       0.00295855
S        0.35520934       4.63118482       3.15381775       0.00468508       0.00138676      -0.00429398
S        1.41054729       2.70633718       5.80749380       0.00232962       0.00925047      -0.00191533
S       -1.68475528       2.31089205       4.41463360      -0.00182163      -0.00434316      -0.00396499
P       20.84005373      24.85257673       9.12788252      -0.00114929      -0.00489821      -0.00064931
S       19.22556534      26.10579973       8.91416744       0.00370894       0.00352066       0.00749238
S       20.51244812      23.66129876      10.77408587      -0.01392994       0.00024794       0.00907632
S       22.60004042      25.88679895       9.34637027       0.00014771      -0.00425752      -0.00262289
S       20.94141272      23.79342962       7.34621314       0.00174818      -0.00219973      -0.00217075
P        5.24521096      14.71076272      19.61559394      -0.00036305      -0.00500933      -0.00428013
S        5.14548676      16.13503907      18.07777605       0.00983236      -0.00326076      -0.00447512
S        7.12060993      13.97584030      19.99382661       0.00489078      -0.00792570       0.00171568
S        3.97671548      13.19208065      19.07394346      -0.01141780      -0.00294114      -0.00216539
S        4.54742120      15.58876736      21.33222614      -0.00476797      -0.00114724      -0.00122688
P      -15.56063818       3.81132378      -4.94267353      -0.00116796       0.00081134       0.00017542
S      -15.65974924       5.09149897      -6.55431229       0.00076402       0.00369113      -0.00082850
S      -16.47303702       2.04660076      -5.47348300      -0.00682400      -0.00509809       0.01320458
S      -16.61917556       4.70884306      -3.40826944      -0.01583443      -0.00603538      -0.00284694
S      -13.56731967       3.66353028      -4.43768535       0.00874372      -0.00209312      -0.01236968
P       -4.25419625      -6.41112608     -14.70979859       0.00194883       0.00581923       0.00357202
S       -5.47432037      -5.58687329     -13.25702391      -0.00255865       0.00899838       0.00400787
S       -5.30959668      -8.00491312     -15.46358271      -0.00062799       0.00456572      -0.00196239
S       -2.47219163      -7.04278669     -13.91473046      -0.00001692      -0.00634605       0.00602437
S       -3.79817808      -5.08584283     -16.21537277       0.00232177       0.00742560      -0.00365962
P       11.64939483      29.53264856      13.44778853       0.00233596       0.00115403      -0.00127846
S       13.04465585      28.97212008      12.03131991      -0.00249596      -0.00394426      -0.00650854
S       11.50056918      27.92748313      14.73309351       0.00132580       0.00128264       0.01328250
S        9.77938370      29.89814016      12.66777809       0.00221439       0.00044968      -0.00197910
S       12.25790493      31.26457674      14.37695102       0.00651847       0.00098256       0.00930275
P       28.57546347      -1.86478570      22.13411558      -0.00282300      -0.00476396       0.00107118
S       29.66331577      -3.59627913      22.54492132       0.00594490       0.00190655       0.00959704
S       26.60245973      -2.08220949      22.70997953      -0.00548701      -0.00854872      -0.00519004
S       28.65392750      -1.56964158      20.11145078      -0.00340816       0.00017269       0.00172672
S       29.37906164      -0.24317209      23.10403869       0.00321650      -0.00291989       0.00624203
P       10.46403937      -2.96013060      31.89640863       0.00790541       0.00030544      -0.00168791
S        8.43986308      -2.92320392      31.41804379       0.00132678       0.00114767      -0.00573740
S       10.99799269      -1.01230817      32.31092547       0.00728371      -0.00257547       0.00836905
S       11.44781182      -3.75780118      30.26890207      -0.00645917      -0.00202878      -0.00882324
S       10.93339916      -4.00606071      33.60732855       0.00396968      -0.00355325       0.00168127
P       -5.33694719      -8.41008621       4.23679510       0.00066004      -0.00224397       0.00243438
S       -6.56861930      -8.99337394       2.69157688       0.00426739       0.00505146      -0.00388051
S       -5.29177938      -9.91818896       5.61206665      -0.00375636       0.00152742       0.00887902
S       -6.21581802      -6.68615707       5.04393489      -0.00005362       0.00253817       0.01059211
S       -3.40180648      -7.87018687       3.75383766       0.00639215      -0.00203959      -0.00915188
Cl      22.23100131      -1.84784961      -0.44883236       0.00082604      -0.00490570       0.00252705
Cl       1.58632832     -21.31565153       6.70128394      -0.00106903      -0.00362751       0.00492404
Cl       6.99676865      34.08059121      -4.67238552       0.01209407       0.00322905      -0.00039144
Cl     -12.61313542      18.60657234      12.99575650       0.01119685       0.01045576      -0.00149262
Cl      18.33715452     -23.90750324      24.43204122      -0.00360767       0.00274026      -0.00604359
Cl      21.45748985     -11.71651799       9.62734050       0.00145241       0.00365532      -0.00515119
Cl      18.89114114       6.51851118      13.20974643      -0.00144683       0.00040890       0.00096165
Cl     -10.36892066      -6.18209141     -32.57017232      -0.00704382      -0.00009811      -0.00707645
Cl      41.52827971      -6.35198237      -3.71520799      -0.00398958       0.00335294      -0.00859541
Cl      -4.08033530       7.94166374      22.13938481      -0.00872792       0.00038458      -0.00448861
Cl      18.96172186      -8.76582914      -7.49514364       0.00457702      -0.00683514      -0.00643330
Cl      22.19895122      15.08276980      58.30340012      -0.00628742       0.00190825       0.00672149
Li     -19.41691996      41.41316941     -37.92289556       0.01015584      -0.00201017       0.00240842
Li      36.56284417     -31.15946186      39.54470133       0.00142806      -0.00083942       0.00539674
Li     -38.44743961      49.80657889      56.60892807      -0.00139455       0.00203942      -0.00002552
Li     -15.25919140      -5.39599984     -15.34773615      -0.00404126       0.01774956       0.00681420
Li      -0.60356845     -28.95685849    -126.35331068       0.01114528      -0.00298590       0.00737003
Li      44.57598483      13.16824044      25.33233514      -0.00567190       0.00638568       0.00359227
Li       5.05809232       6.38139412     -31.27873444       0.00055152      -0.00622659      -0.01854285
Li     -49.94682948      68.42766990      55.19281871      -0.00224724       0.00751558      -0.00132104
Li      24.47507671       7.92084006      16.08395124       0.00161560      -0.00133319       0.00440679
Li       2.12678066      38.32934806       6.02102472      -0.00003133      -0.00469848      -0.00319498
Li       1.36743611       7.80241358      -5.25278740       0.00572209       0.00387890      -0.01503819
Li      47.75249443      72.29560659     -58.59887991      -0.00376646       0.00685473       0.00138362
Li      -8.29916948      33.98110983       4.33836979      -0.00732107       0.00196649      -0.00746609
Li      -2.10485836      -9.84792913      16.81062691       0.00080791      -0.00001840      -0.00146549
Li       9.35041560     -59.63516425     -48.37873371      -0.00967653      -0.00433906       0.00385829
Li     -28.26366199      24.02385893      51.91427670       0.00446178      -0.00269790       0.01688093
Li      -7.38541716      65.26984730       3.87945700       0.00392818      -0.00287020       0.00436810
Li      -3.82740899      21.69231427      89.58819888       0.00044856      -0.00965824      -0.00409969
Li      97.67295765      47.31024303      11.30432717       0.00550281       0.00636996      -0.00202403
Li      47.57603194      25.76384106       6.45660335      -0.00438956      -0.00249343      -0.00795514
Li       0.11725907      37.71732046       2.03637165       0.00846148      -0.01121860       0.00664303
Li      17.70978483     -23.49645204      96.64899232      -0.00193434       0.00343045      -0.00365582
Li      -7.31327270      28.20557717     -19.47112265      -0.00710810       0.00075034      -0.00406685
Li      59.88705856      24.10446025      -3.86335357       0.00298781       0.00300265      -0.00012495
Li      19.98838961      43.42343333     -26.15690984      -0.00204914      -0.00043459       0.00072867
Li       7.09508471      20.38668013     -13.58998265      -0.00847885       0.00430997      -0.00096878
Li     -10.19730035      59.29991502     -22.20836717       0.00020102       0.00330676      -0.00046963
Li     -27.28729365      -9.43926211       7.23516365       0.00098804       0.00403989      -0.00600175
Li       0.68454580     -24.69594053       0.99221764       0.00493843      -0.00903998      -0.00359046
Li      66.47279668       4.40884340      41.02807027      -0.00152230      -0.00010690       0.00738667
Li     -39.68678388       0.39203466       6.73040975       0.00308849      -0.00215242       0.00715536
Li      35.52090925      16.81360978     -10.08686024      -0.00035662       0.00480678      -0.00731149
Li      23.24195356      10.67192538      29.11197289      -0.00435821      -0.00121139       0.00758987
Li     -46.80627802     -69.68800790     -13.64957367      -0.00577115      -0.00179041       0.00602307
Li      49.57805106      21.38377364     -20.45917026      -0.00762804       0.00396615      -0.00488877
Li      26.55542094       0.43948034      58.81947650       0.00100334       0.00474109      -0.00078244
Li      -4.18295114     -39.37024933     -31.69152269      -0.00644657      -0.00105261       0.00495286
Li      -2.41244226     -21.26474673      37.15144354      -0.00326830      -0.00280725      -0.00777449
Li      25.04097600     -10.60189191     -49.66717576      -0.00004415      -0.01243724      -0.00013582
Li     -10.63507017     -16.41874214     -13.02359098       0.00944854      -0.00559836       0.00572329
Li      40.90930744      14.29784168      -4.38948460      -0.00249822      -0.00765892      -0.00177527
Li     -13.07533742      30.58250690      11.79146553       0.00557277       0.00563387       0.00560732
Li      -7.98995855      45.95874851      36.49167145      -0.01024978       0.00293780      -0.00551058
Li     -12.51675642      34.53451181     -51.62205469      -0.00837115      -0.00129565      -0.01460008
Li      36.29011584      21.63543298      24.54776242       0.00045318       0.00563398      -0.00239255
Li      87.80445015     -48.70753596      21.01830452       0.00716031       0.00614302       0.00190284
Li     -66.61202243     -41.33790999     -10.84041102      -0.00313615       0.00108960       0.00642973
Li      26.22974878      11.99374090     -21.72865331       0.00277702      -0.01313005       0.00129449
