120
Lattice="13.98837871 0.0 0.0 0.0 13.98837871 0.0 0.0 0.0 13.98837871" Properties=species:S:1:pos:R:3:forces:R:3 t_ps=15.0 charge=0 spin=0 energy=-508.02715968109635 free_energy=-508.02715968109635 stress="0.0027507769135068022 -0.0012469030618027363 0.000383315063724723 -0.0012469030618027363 0.0008238231413748503 0.000432200530047486 0.000383315063724723 0.000432200530047486 0.0023893803078348444" pbc="T T T"
P        1.16386135      10.47019310     -14.62924950       0.00527684       0.00687198       0.00614304
S       -0.42220071      10.90584438     -15.85923222      -0.00789498       0.00054173       0.00123083
S        1.04381302       8.51323226     -14.01933455       0.00556198       0.00178583      -0.00044751
S        0.96683091      11.71823546     -12.99405972      -0.00539713       0.00066052       0.00358210
S        2.99780212      10.89262465     -15.49617125       0.00059447       0.00373101       0.01077457
P       17.43256481      22.63432158     -10.35500894       0.01136122       0.00398593       0.00045904
S       15.42558014      22.99989695     -10.03721115       0.00441164       0.00907475       0.00417275
S       18.43345992      23.66782492     -11.83468654      -0.00422826       0.00151701       0.00455859
S       17.59641840      20.64685135     -10.87970489       0.00750339      -0.00411829      -0.00307965
S       18.40227085      23.09334204      -8.57562932      -0.00306774      -0.00104135       0.00789634
P       -9.80518089      14.80573904      13.45786388       0.00677164       0.00068753       0.00048844
S       -8.98396770      13.99416763      11.74336387      -0.00932231       0.00274229      -0.00150448
S       -9.38013391      13.62881746      15.11700226       0.00132815       0.00569973      -0.00033612
S      -11.81674142      14.93543734      13.11843224      -0.01379546       0.00091017       0.00042120
S       -8.86638658      16.61585603      13.82853424      -0.00046373       0.00490975      -0.00694060
P        0.28780603       2.71547829       4.03612581       0.00050780      -0.00148888      -0.00844731
S        0.93496588       1.31818789       2.66252046       0.00043730       0.00033995       0.00548396
S        0.35433579       4.56645201       3.12058116       0.00415944      -0.00069027      -0.00555313
S        1.42147803       2.62860117       5.74789558       0.00346145       0.00061799      -0.00000672
S       -1.70814010       2.27482574       4.39282132      -0.00073910      -0.00427143      -0.00270022
P       20.74356609      25.03022981       9.11820002      -0.00195794      -0.00872901      -0.00535291
S       19.34985421      26.48768130       8.77446456      -0.00382215       0.00403025      -0.00619287
S       20.23604229      24.03710139      10.88236246      -0.00492258       0.01195994      -0.00197189
S       22.65082377      25.76786514       9.31196134       0.00335169       0.00246068       0.00220509
S       20.68385588      23.73975002       7.51879335      -0.00298600      -0.00571680       0.00487908
P        5.34826588      14.90964945      19.52585829       0.00499652      -0.01684572      -0.01068535
S        5.07844568      16.29305981      17.97884008       0.00607440      -0.00633051      -0.00571717
S        7.33887469      14.54828738      19.82891815       0.00647492      -0.00411120       0.00381697
S        4.23614947      13.26230898      19.01775432       0.00515827      -0.00741514      -0.00524578
S        4.56902716      15.70540797      21.26042809      -0.00612256      -0.00539238      -0.00390638
P      -15.49991197       3.90470961      -4.92563529       0.00555224      -0.00484036       0.00168658
S      -15.67562729       5.16831962      -6.54345343      -0.00156079      -0.00234823      -0.00746239
S      -16.33299701       2.10054352      -5.48314499      -0.00368560      -0.00691741       0.00817236
S      -16.65469913       4.69580837      -3.38891091      -0.00853941      -0.00639049       0.00001333
S      -13.49287748       3.85398071      -4.46937110      -0.00398211      -0.00704404      -0.00536640
P       -4.24325619      -6.54891474     -14.82797267       0.00462173       0.00750197      -0.00880758
S       -5.39750428      -5.70753083     -13.33893428       0.00144932       0.00926136       0.00266402
S       -5.34418542      -8.15863255     -15.49259133      -0.00075204       0.00162323       0.00690151
S       -2.40447237      -7.08791079     -14.05057313       0.00157996      -0.00112894       0.00537710
S       -3.87274557      -5.29339268     -16.40555592      -0.00135561       0.00024317       0.00052699
P       11.66364729      29.47603426      13.33977768       0.01252201      -0.00301830      -0.00372558
S       13.13715020      29.02286256      11.98396422      -0.01314702       0.00797740      -0.00692439
S       11.55250388      27.91559962      14.66664570      -0.00156420       0.00825348       0.00834002
S        9.79076500      29.68068233      12.50221134      -0.01151860       0.00028693      -0.00304574
S       12.12378117      31.28345808      14.27378495       0.00405531      -0.00516370       0.00780389
P       28.72370034      -1.82791314      22.11444130      -0.01167766      -0.00368257       0.00151038
S       29.76366193      -3.57050186      22.51404314       0.00552579      -0.00044929       0.00624756
S       26.74317429      -2.03924407      22.68075666       0.00329794      -0.00959456      -0.00194320
S       28.77929484      -1.56140465      20.07629981       0.00009055       0.00405180       0.00373197
S       29.50117477      -0.17327011      23.05904827       0.00016138       0.00024710       0.00825070
P       10.44910979      -3.00492209      31.91963528      -0.00130392      -0.00788998      -0.00132213
S        8.43317133      -2.93579250      31.40224319       0.00123455       0.00701239       0.00159874
S       11.02082933      -1.06170911      32.30787603       0.00086307      -0.00121465       0.00068076
S       11.44375789      -3.81918641      30.30276343      -0.00018328      -0.00109621      -0.00239143
S       10.87241034      -4.02081407      33.66187672       0.00198066      -0.00092281       0.00416825
P       -5.31483483      -8.36718646       4.15808539       0.00830679       0.01048132       0.00724158
S       -6.48943490      -9.10671055       2.65721725      -0.00156012      -0.00666067      -0.00901600
S       -5.27922486      -9.74922910       5.69184551       0.00021034       0.00198769       0.00733179
S       -6.21274732      -6.64589877       4.91173819      -0.00492330       0.00038753       0.00354627
S       -3.36234661      -7.88029188       3.69827115      -0.00903618      -0.00373614      -0.00734894
Cl      22.26620125      -1.98589610      -0.52478199      -0.00516042      -0.00590295       0.00079002
Cl       1.65588859     -21.50797882       6.75069119      -0.00029688       0.00053382      -0.00336589
Cl       6.88225180      33.91587277      -4.66651353       0.00372343      -0.00170190      -0.00153160
Cl     -12.68122960      18.56991514      13.11420802       0.01114317       0.00766919       0.00091164
Cl      18.21320690     -24.05415935      24.48925620      -0.00493640      -0.00144035      -0.00438898
Cl      21.47723354     -11.68977423       9.63392897      -0.00019242       0.00459655      -0.00122788
Cl      18.87459747       6.43299528      13.25416991       0.00168287       0.00381276       0.00172621
Cl     -10.54819669      -6.43360940     -32.39711374      -0.00526232       0.00214097      -0.00257070
Cl      41.47874065      -6.28751381      -3.76780616      -0.00098469      -0.00277840       0.00264461
Cl      -4.26856477       7.67459286      22.05435783       0.00047879       0.00283753      -0.00702306
Cl      19.08145770      -8.69888254      -7.52328274      -0.00097026      -0.00904954      -0.00223889
Cl      22.26226388      15.09052217      58.24278007      -0.00887996       0.00137284       0.00356906
Li     -19.39808348      41.42488127     -38.00355915       0.00561062      -0.00297203      -0.00349078
Li      36.59741032     -31.31496100      39.47000187      -0.00024574      -0.00537829       0.00294052
Li     -38.49323126      49.78872989      56.62401889       0.00023765      -0.00475181      -0.00350723
Li     -15.17356869      -5.45651225     -15.52861721      -0.00091672       0.00941195       0.00088769
Li      -0.51653073     -28.96130629    -126.44576710       0.00576408      -0.00454673       0.01679752
Li      44.65420540      13.18409945      25.28884258      -0.00748104       0.00247225       0.00056082
Li       4.99721271       6.22464488     -31.21511399       0.00623027      -0.00015545      -0.01023016
Li     -49.82153954      67.94908501      54.40794434      -0.00912340       0.01215205      -0.00209488
Li      24.55957091       7.86515281      16.00369709       0.00124385       0.00488101       0.00319317
Li       1.97687313      38.19548908       6.04064287      -0.00125346      -0.00020548      -0.00391901
Li       1.28183796       6.51952115      -4.80202160       0.00053512      -0.00120552      -0.00673462
Li      47.76118269      72.23559891     -58.59397755      -0.00186774      -0.00081171       0.00216594
Li      -8.26859680      33.94799181       4.23842805       0.00085266      -0.00197123       0.00502534
Li      -2.09474004      -9.87537403      16.80733988       0.00182974      -0.00296668      -0.00036746
Li       9.11605831     -59.85510840     -48.41461731      -0.00905566      -0.00884795       0.00403126
Li     -28.15284932      23.99079519      51.82422967       0.01404254      -0.00405108       0.01428545
Li      -7.49356470      65.37313188       3.88836457       0.00518517       0.00669265       0.01279437
Li      -3.83130568      21.67313779      89.57759808       0.00426723      -0.00093493      -0.00646983
Li      96.87934507      46.99915192      12.53490867       0.00520497       0.01101449      -0.00327191
Li      47.22303738      25.51835112       6.54945663       0.00170666       0.00779215      -0.00388292
Li       0.10533467      37.69163853       2.02293415       0.00909230      -0.00461281       0.00349001
Li      17.67978503     -23.60054695      96.77657193       0.00309206       0.00310015      -0.00427206
Li      -7.20501684      28.40495327     -19.67710614      -0.00412838       0.01411763      -0.00706170
Li      59.67463902      23.85287691      -3.70751226      -0.00184370      -0.00153978      -0.00662131
Li      20.03331479      43.43148256     -26.17415998      -0.00352905       0.00404472      -0.00371081
Li       7.09289110      20.30673215     -13.59139412      -0.00482304       0.00822381       0.00517889
Li     -10.22803486      59.43383096     -22.26297994      -0.00183036      -0.00419820       0.00019893
Li     -27.38160895      -9.56823867       7.10512197      -0.00137908       0.01064411      -0.00968084
Li       0.66169229     -24.81613610       0.97023706       0.00582771      -0.01000523      -0.00549005
Li      66.10532097       4.05062767      41.02294489       0.00025018      -0.00445860       0.00890627
Li     -39.57446963       0.36032670       6.67226009      -0.00152020       0.00939338       0.01090649
Li      35.56597415      16.65490572      -9.86501452      -0.00030298       0.00030922       0.00500222
Li      23.24048029      10.59368799      29.09698989      -0.00660398       0.00100347       0.00356327
Li     -46.83149669     -69.84428580     -13.70621449      -0.00910096      -0.00098835       0.00488414
Li      49.61879976      20.18107536     -20.86229410       0.00903776       0.00641618      -0.00677655
Li      26.55300718       0.36171082      58.82627175       0.00517443       0.00307410      -0.00252712
Li      -4.12995468     -39.39012431     -31.80155736      -0.00859879      -0.00273943       0.00388369
Li      -2.41590545     -21.19865679      37.20143171      -0.00196935      -0.00263012      -0.00159722
Li      25.10641794     -10.58809845     -49.65520599       0.00387137      -0.01215025      -0.00026546
Li     -10.62435955     -16.39735777     -13.06860244       0.00862850      -0.00504523       0.00370640
Li      41.03851131      14.30885785      -4.45274120      -0.00487553      -0.00533113      -0.00307989
Li     -12.92531701      30.64950061      11.68379757      -0.00098162       0.00376301       0.00635965
Li      -8.17287611      45.79260190      36.55095415      -0.00879733       0.01108845      -0.01295060
Li     -12.50606952      34.43971089     -51.58813984      -0.00296191      -0.00162339      -0.01255501
Li      36.54149828      21.22326574      24.26110724       0.01189257      -0.00625540      -0.00726883
Li      87.82266564     -48.70593935      21.15550770       0.00529677       0.00851635       0.00594984
Li     -66.60690772     -41.32104984     -10.88879194       0.00062397      -0.01084226       0.00022943
Li      26.31042619      11.96755457     -21.73610914      -0.00202582      -0.01257554      -0.00087359
