120
Lattice="14.0038225 0.0 0.0 0.0 14.0038225 0.0 0.0 0.0 14.0038225" Properties=species:S:1:pos:R:3:forces:R:3 t_ps=4.0 charge=0 spin=0 energy=-508.08847110555774 free_energy=-508.08847110555774 stress="0.002682871242608331 -0.001471091830047092 0.0007365191290458655 -0.001471091830047092 0.0008509452469164216 0.0005901537761074592 0.0007365191290458655 0.0005901537761074592 0.0028696811018861386" pbc="T T T"
P        1.13488009      10.47350560     -14.62489106       0.00148208       0.00342473       0.00105099
S       -0.49563491      10.87190411     -15.82030562       0.00184473       0.00370889       0.00274353
S        1.05226562       8.51341318     -14.02697283       0.00793286       0.00141280      -0.00261735
S        0.93115292      11.71817554     -12.99111279      -0.00208946       0.00323129       0.00247044
S        2.94124551      10.94603081     -15.51523102       0.00872273       0.00057121       0.00842232
P       17.50581557      22.69930185     -10.39547956       0.00508302       0.00330641       0.00310959
S       15.50268276      23.05900918     -10.04879382       0.00488328       0.00983673       0.00669605
S       18.47463821      23.73257780     -11.89177186       0.00219096      -0.00581370      -0.01088171
S       17.67848516      20.71014230     -10.90760943       0.01353606       0.00370685      -0.00165588
S       18.49563099      23.17430123      -8.62569763       0.00011293      -0.00797343       0.01121365
P       -9.88879969      14.86648129      13.49885835      -0.00594743       0.00249469      -0.00113461
S       -9.10238990      14.06856682      11.75904797      -0.01206519      -0.00725299      -0.00142403
S       -9.41161346      13.67861626      15.13520081       0.00726799       0.00692808       0.00728407
S      -11.91323613      14.95363704      13.21518580      -0.00407751       0.00325292      -0.00202062
S       -8.96291113      16.68228101      13.85644218       0.00075060       0.00813657      -0.00832876
P        0.33432067       2.73254236       4.07847725       0.00014158       0.00035071      -0.00349151
S        0.98156196       1.29296815       2.74860950      -0.00538914      -0.00468944      -0.00415586
S        0.44790826       4.55977086       3.12538957       0.00283425       0.00397798      -0.00177621
S        1.43523614       2.66773144       5.81906714       0.00236703       0.01015232      -0.00594856
S       -1.67190750       2.30267892       4.39156198      -0.00049829      -0.00504034      -0.00350753
P       20.79168246      25.05341886       9.15815687       0.00146981       0.00036900       0.00139205
S       19.37359369      26.49268292       8.79537910       0.00358158       0.00614892       0.00687666
S       20.28500773      24.12701502      10.95290190      -0.00880518       0.00390021       0.00525221
S       22.69917440      25.78698549       9.31992313       0.00092192      -0.00176980      -0.00399224
S       20.72122159      23.74088161       7.57418934      -0.00257947      -0.00070500      -0.00280883
P        5.34664922      14.92772876      19.57785902       0.00275915      -0.00118998      -0.00229710
S        5.07717057      16.31307977      18.03306913       0.00484029      -0.00049513      -0.00665080
S        7.33338149      14.55489270      19.88582064       0.00886303       0.00195455       0.00114984
S        4.23131571      13.27987426      19.07437201      -0.00655721      -0.00274123      -0.00064930
S        4.57408501      15.72402511      21.31622979      -0.00452130       0.00248340      -0.00131381
P      -15.55833079       3.80814154      -4.99184511      -0.00024469      -0.00377585       0.00217753
S      -15.58242858       5.05896212      -6.63089958      -0.00223030      -0.00265698       0.00130783
S      -16.49368201       2.05069909      -5.50818856      -0.00666514      -0.00777273       0.01449810
S      -16.64152007       4.74488951      -3.49264133      -0.01194704      -0.01103046       0.00417530
S      -13.58514356       3.63003993      -4.43263443       0.00692367      -0.01018100      -0.01189279
P       -4.26748316      -6.51940171     -14.82902182       0.00332811       0.00465557      -0.00035042
S       -5.47806254      -5.64088656     -13.40196924       0.00057375       0.00891365       0.00340093
S       -5.29495934      -8.17565682     -15.48630904       0.00152492      -0.00077370       0.00076798
S       -2.46863945      -7.08649303     -14.01748320       0.00077913      -0.00533019       0.00572156
S       -3.84991882      -5.28303870     -16.41942235       0.00098083       0.00437404      -0.00694603
P       11.68208259      29.52095327      13.44047719      -0.00052390      -0.00279263       0.00099883
S       13.05042229      28.92488647      12.01152190      -0.00275947      -0.00249165      -0.00726412
S       11.49721435      27.93492667      14.74184733      -0.00117458       0.00049253       0.01009239
S        9.81931490      29.94027516      12.67669084       0.00229642      -0.00652703      -0.00871818
S       12.36885945      31.23599293      14.35042234      -0.00196958       0.00080708       0.01526602
P       28.70002407      -1.88153542      22.12852703      -0.00150537       0.00383365       0.00226171
S       29.79327157      -3.61554750      22.55961719       0.00501111       0.00186448       0.00939623
S       26.72906875      -2.11731172      22.68897302      -0.00384982      -0.00994288      -0.00170823
S       28.79324210      -1.61247838      20.10019227      -0.00223522       0.00495165       0.00111379
S       29.47770068      -0.24630214      23.08854853       0.00174414      -0.00001658       0.00164351
P       10.43961240      -2.98914613      31.94475308       0.01026232      -0.00078822      -0.00036857
S        8.42230787      -2.90632009      31.43379807       0.00283775       0.00071313      -0.00669114
S       11.01972118      -1.05176374      32.34811827       0.00945461      -0.00259509       0.00926025
S       11.42600976      -3.81249837      30.33032798      -0.00351887      -0.00348856      -0.00505327
S       10.85699050      -4.01985107      33.68124395       0.00401883      -0.00221020       0.00356332
P       -5.29291176      -8.38279515       4.14139058      -0.00072551       0.00152884       0.00011212
S       -6.49390553      -9.11071629       2.65701295       0.00084085       0.00411674      -0.00907440
S       -5.24651309      -9.77027363       5.67383084      -0.00499875       0.00046259       0.00549411
S       -6.17978144      -6.65963502       4.91284543      -0.00178065       0.00681574       0.00602931
S       -3.35275523      -7.89426252       3.65123738       0.00176995      -0.00359058      -0.00851981
Cl      22.30627803      -1.89996646      -0.54520487      -0.00810237      -0.00751946       0.00630517
Cl       1.79371576     -21.43796282       6.73680587      -0.00733700      -0.00146759       0.00595853
Cl       7.00218394      33.97177217      -4.70371158       0.01391178       0.00074976       0.00414454
Cl     -12.64211849      18.63087201      12.99569031       0.00599030       0.01101159       0.00007883
Cl      18.30922351     -23.97971621      24.47015241      -0.00528664       0.00162061      -0.00167998
Cl      21.48790531     -11.71417422       9.69559139       0.00226682       0.00362512      -0.00086957
Cl      18.92769469       6.48069586      13.24018911      -0.00257137       0.00093493      -0.00167513
Cl     -10.33088343      -6.22908247     -32.51439258       0.00070995       0.00062007      -0.00139217
Cl      41.64486886      -6.37309383      -3.79042191      -0.00312670      -0.00321032      -0.00403459
Cl      -4.15575901       7.65403405      22.02901674      -0.00888006       0.00086338      -0.00165530
Cl      19.16642506      -8.72282616      -7.54098514       0.00201208      -0.00604434      -0.00917072
Cl      22.23079895      15.12078986      58.33548081      -0.00422462      -0.00022691       0.00589167
Li     -19.43379979      41.49534556     -38.02959616       0.01097703      -0.00571401       0.00011401
Li      36.65438758     -31.34418011      39.53175521       0.00327452      -0.00490144       0.00115844
Li     -38.50055811      49.86326416      56.66375570       0.00181097       0.00271112       0.00102538
Li     -15.27694054      -5.46577195     -15.43952465      -0.00020676       0.01506499       0.00108271
Li      -0.64789698     -29.05615163    -126.53017920       0.01495908      -0.00127555       0.00889432
Li      44.59276072      13.23366262      25.39495150       0.00145575       0.00618476       0.00046764
Li       5.11540974       6.31452148     -31.26991859      -0.00227142      -0.00549788      -0.01444190
Li     -49.83351356      68.15289087      54.43112889      -0.00708772       0.00718982      -0.00117106
Li      24.49862624       7.90546340      16.00530075       0.00177851       0.00063220       0.00124468
Li       2.10313920      38.28270606       6.00957213      -0.00480289      -0.00690758      -0.00446895
Li       1.47536308       7.76278138      -5.26991281       0.00379934      -0.00405192      -0.01005685
Li      47.77678011      72.36076813     -58.63726778      -0.00175113       0.00192001       0.00355250
Li      -8.23475554      33.98292059       4.23523542      -0.00651808      -0.00105868      -0.00386551
Li      -2.01702485      -9.89885212      16.75885081      -0.00332987       0.00179380       0.00143776
Li       9.13063733     -59.95910428     -48.45230548      -0.00814104      -0.00482678       0.00288211
Li     -28.21639341      24.06172301      51.97675676       0.00500354      -0.00066301       0.01458800
Li      -7.44209698      65.42359578       3.82935758       0.00489191      -0.00022526       0.00841969
Li      -3.78952023      21.69536013      89.60598989       0.00251598      -0.00465182      -0.00254628
Li      97.82879320      47.36802708      11.29297365       0.00509643       0.01648278       0.00770193
Li      47.39820423      25.58039926       6.53915172      -0.01699895      -0.00229847       0.00256280
Li       0.10457267      37.71098811       2.04214663       0.00978820      -0.00721196       0.00585742
Li      17.70378594     -23.55915171      96.78896084       0.00039082       0.00093477      -0.00291417
Li      -7.28172716      28.47736855     -19.67361886      -0.00226470       0.01026305      -0.00559287
Li      59.85952820      24.07683491      -3.74532051       0.00110997      -0.00368011      -0.00584273
Li      20.01618975      43.52748202     -26.20381005       0.00207773       0.00298379      -0.00081429
Li       7.12007678      20.33590802     -13.63531408      -0.00845703       0.00658619       0.00220938
Li     -10.22197663      59.49884520     -22.25417323      -0.00167040       0.00377220      -0.00228765
Li     -27.23671228      -9.49367178       7.26899845      -0.00137492       0.00539873      -0.00562116
Li       0.79313736     -24.92216952       0.94893197       0.00188053      -0.00483654      -0.00444333
Li      66.65204332       4.37235381      41.07135939      -0.00313295      -0.01081265       0.00055647
Li     -39.63774636       0.36919385       6.69027662       0.00369634      -0.00047702       0.00999029
Li      35.59392559      16.68599031      -9.88194035      -0.00051276      -0.00050793      -0.00058659
Li      23.24385939      10.66917090      29.11546621      -0.00267005      -0.00088354       0.00458543
Li     -46.90824900     -69.82007673     -13.71601667      -0.00651282      -0.00402616       0.00558155
Li      49.81036821      20.18225963     -20.89688612      -0.00094106       0.00141234      -0.00865797
Li      26.58770148       0.39807808      58.88743312       0.00101764       0.00605931      -0.00208884
Li      -4.17017536     -39.44453510     -31.73313720      -0.00904288       0.00076157       0.00440074
Li      -2.28299617     -21.29362130      37.05504162      -0.00786211      -0.00346017      -0.00267123
Li      25.12954693     -10.64145565     -49.76194533      -0.00094487      -0.01088674      -0.00290089
Li     -10.66427546     -16.37722241     -13.09465231       0.01048784      -0.00651358       0.00543289
Li      41.00820358      14.30463600      -4.46455152       0.00103817      -0.00516743      -0.00669426
Li     -13.14228066      30.59518800      11.83652904       0.00252760       0.00928214       0.00251029
Li      -8.11922035      45.88236614      36.60753547      -0.01032503       0.00044285      -0.01037018
Li     -12.45148670      34.49646491     -51.67492414      -0.00684409       0.00163627      -0.01265263
Li      36.80967146      21.06458525      24.29557239      -0.00217451       0.00052796      -0.00878467
Li      88.14855617     -48.70403848      21.13553810       0.00358656       0.00357907      -0.00028202
Li     -66.66513459     -41.36907754     -10.86435511      -0.00103379      -0.00269477      -0.00108905
Li      26.30892555      11.94859503     -21.78963138       0.00307170      -0.01258823      -0.00101317
