120
Lattice="14.0038225 0.0 0.0 0.0 14.0038225 0.0 0.0 0.0 14.0038225" Properties=species:S:1:pos:R:3:forces:R:3 t_ps=4.0 charge=0 spin=0 energy=-508.08847110555774 free_energy=-508.08847110555774 stress="0.002682871242608331 -0.001471091830047092 0.0007365191290458655 -0.001471091830047092 0.0008509452469164216 0.0005901537761074592 0.0007365191290458655 0.0005901537761074592 0.0028696811018861386" pbc="T T T"
P        1.13657072      10.50019045     -14.62703846       0.00148208       0.00342473       0.00105099
S       -0.48456980      10.92535536     -15.82065675       0.00184473       0.00370889       0.00274353
S        1.04094421       8.53898857     -14.02884422       0.00793286       0.00141280      -0.00261735
S        0.95213181      11.73914095     -12.98444973      -0.00208946       0.00323129       0.00247044
S        2.95073119      10.94686725     -15.51636024       0.00872273       0.00057121       0.00842232
P       17.49577178      22.69108235     -10.38628621       0.00508302       0.00330641       0.00310959
S       15.49315623      23.05834930     -10.04751211       0.00488328       0.00983673       0.00669605
S       18.47623059      23.72491458     -11.87657225       0.00219096      -0.00581370      -0.01088171
S       17.65734187      20.70250628     -10.90470918       0.01353606       0.00370685      -0.00165588
S       18.48097341      23.15891334      -8.61399498       0.00011293      -0.00797343       0.01121365
P       -9.88657137      14.85853495      13.49319005      -0.00594743       0.00249469      -0.00113461
S       -9.08354443      14.06650002      11.75906042      -0.01206519      -0.00725299      -0.00142403
S       -9.41515051      13.67579119      15.13454960       0.00726799       0.00692808       0.00728407
S      -11.90704178      14.94883808      13.18914997      -0.00407751       0.00325292      -0.00202062
S       -8.97194936      16.68082190      13.85894127       0.00075060       0.00813657      -0.00832876
P        0.32225824       2.73436825       4.07723863       0.00014158       0.00035071      -0.00349151
S        0.96041313       1.30157127       2.73205412      -0.00538914      -0.00468944      -0.00415586
S        0.42167541       4.56306198       3.12041073       0.00283425       0.00397798      -0.00177621
S        1.43643816       2.66863515       5.80224890       0.00236703       0.01015232      -0.00594856
S       -1.68148730       2.30731995       4.40849080      -0.00049829      -0.00504034      -0.00350753
P       20.81885904      25.06500770       9.15568409       0.00146981       0.00036900       0.00139205
S       19.41812112      26.52248611       8.80050311       0.00358158       0.00614892       0.00687666
S       20.28129507      24.12314746      10.93579841      -0.00880518       0.00390021       0.00525221
S       22.73329952      25.77160948       9.35043575       0.00092192      -0.00176980      -0.00399224
S       20.74953612      23.77043457       7.55820122      -0.00257947      -0.00070500      -0.00280883
P        5.35588191      14.93113065      19.56632395       0.00275915      -0.00118998      -0.00229710
S        5.07845170      16.31234519      18.01925754       0.00484029      -0.00049513      -0.00665080
S        7.34608101      14.57361137      19.87297213       0.00886303       0.00195455       0.00114984
S        4.25034876      13.27669508      19.06585564      -0.00655721      -0.00274123      -0.00064930
S        4.57862470      15.72680497      21.30313495      -0.00452130       0.00248340      -0.00131381
P      -15.53033553       3.76800528      -4.93240415      -0.00024469      -0.00377585       0.00217753
S      -15.59773627       5.06357345      -6.54036432      -0.00223030      -0.00265698       0.00130783
S      -16.53352743       2.04709699      -5.49405833      -0.00666514      -0.00777273       0.01449810
S      -16.63351554       4.66561538      -3.39998965      -0.01194704      -0.01103046       0.00417530
S      -13.56946626       3.49157080      -4.47856907       0.00692367      -0.01018100      -0.01189279
P       -4.23716839      -6.56159857     -14.85226089       0.00332811       0.00465557      -0.00035042
S       -5.39128474      -5.69464228     -13.37781302       0.00057375       0.00891365       0.00340093
S       -5.32862498      -8.19110134     -15.48526169       0.00152492      -0.00077370       0.00076798
S       -2.39834993      -7.10271378     -14.07333838       0.00077913      -0.00533019       0.00572156
S       -3.86728602      -5.32845105     -16.44361985       0.00098083       0.00437404      -0.00694603
P       11.65404785      29.50702049      13.40142389      -0.00052390      -0.00279263       0.00099883
S       13.07332981      28.98725758      12.01877392      -0.00275947      -0.00249165      -0.00726412
S       11.52734706      27.97287951      14.75806917      -0.00117458       0.00049253       0.01009239
S        9.77252470      29.77254678      12.60287762       0.00229642      -0.00652703      -0.00871818
S       12.20072935      31.30398554      14.31030076      -0.00196958       0.00080708       0.01526602
P       28.72322892      -1.85688165      22.11971654      -0.00150537       0.00383365       0.00226171
S       29.79409634      -3.59895077      22.54631093       0.00501111       0.00186448       0.00939623
S       26.74778799      -2.05186789      22.68151685      -0.00384982      -0.00994288      -0.00170823
S       28.80797806      -1.59327248      20.08727796      -0.00223522       0.00495165       0.00111379
S       29.52028580      -0.22585587      23.07234657       0.00174414      -0.00001658       0.00164351
P       10.45597970      -3.00013178      31.95024435       0.01026232      -0.00078822      -0.00036857
S        8.44053976      -2.92510323      31.43001996       0.00283775       0.00071313      -0.00669114
S       11.02059856      -1.05738368      32.35314161       0.00945461      -0.00259509       0.00926025
S       11.45466546      -3.80403500      30.33095541      -0.00351887      -0.00348856      -0.00505327
S       10.88110310      -4.03035797      33.68347047       0.00401883      -0.00221020       0.00356332
P       -5.29381505      -8.37751378       4.13807521      -0.00072551       0.00152884       0.00011212
S       -6.48263645      -9.10936299       2.64486605       0.00084085       0.00411674      -0.00907440
S       -5.24799731      -9.76299572       5.66868291      -0.00499875       0.00046259       0.00549411
S       -6.18494682      -6.65706845       4.90493615      -0.00178065       0.00681574       0.00602931
S       -3.34611843      -7.88686205       3.66248864       0.00176995      -0.00359058      -0.00851981
Cl      22.30922984      -1.95297883      -0.52559055      -0.00810237      -0.00751946       0.00630517
Cl       1.73374934     -21.44518737       6.74361095      -0.00733700      -0.00146759       0.00595853
Cl       6.96357841      33.96515806      -4.70340793       0.01391178       0.00074976       0.00414454
Cl     -12.70607258      18.58810331      13.12143651       0.00599030       0.01101159       0.00007883
Cl      18.26631292     -23.97911879      24.49754454      -0.00528664       0.00162061      -0.00167998
Cl      21.46347533     -11.68686461       9.70443059       0.00226682       0.00362512      -0.00086957
Cl      18.90602266       6.49603262      13.24430435      -0.00257137       0.00093493      -0.00167513
Cl     -10.35218916      -6.23534017     -32.53890507       0.00070995       0.00062007      -0.00139217
Cl      41.55213605      -6.22751543      -3.81858997      -0.00312670      -0.00321032      -0.00403459
Cl      -4.16605549       7.62726340      22.04636682      -0.00888006       0.00086338      -0.00165530
Cl      19.14691305      -8.71758826      -7.55219360       0.00201208      -0.00604434      -0.00917072
Cl      22.23650006      15.11183519      58.32484431      -0.00422462      -0.00022691       0.00589167
Li     -19.43107417      41.48363684     -38.03134833       0.01097703      -0.00571401       0.00011401
Li      36.64989706     -31.38050236      39.53951482       0.00327452      -0.00490144       0.00115844
Li     -38.52575030      49.88372898      56.66439070       0.00181097       0.00271112       0.00102538
Li     -15.20516996      -5.46422084     -15.55128277      -0.00020676       0.01506499       0.00108271
Li      -0.59550647     -29.01049587    -126.52348900       0.01495908      -0.00127555       0.00889432
Li      44.61272673      13.22698185      25.37143138       0.00145575       0.00618476       0.00046764
Li       5.07066199       6.31907235     -31.27860783      -0.00227142      -0.00549788      -0.01444190
Li     -49.81839953      68.14545462      54.40897559      -0.00708772       0.00718982      -0.00117106
Li      24.59281636       7.89176871      16.00359076       0.00177851       0.00063220       0.00124468
Li       2.08259530      38.28199676       6.01784286      -0.00480289      -0.00690758      -0.00446895
Li       1.41128181       7.68250327      -5.19596613       0.00379934      -0.00405192      -0.01005685
Li      47.75233583      72.36882737     -58.63262139      -0.00175113       0.00192001       0.00355250
Li      -8.24351991      33.98491164       4.22263372      -0.00651808      -0.00105868      -0.00386551
Li      -2.03234494      -9.87369053      16.81890919      -0.00332987       0.00179380       0.00143776
Li       9.16659352     -59.97047209     -48.42521752      -0.00814104      -0.00482678       0.00288211
Li     -28.23838974      24.10590909      51.94813455       0.00500354      -0.00066301       0.01458800
Li      -7.45669807      65.43700942       3.86257861       0.00489191      -0.00022526       0.00841969
Li      -3.79229568      21.68350347      89.64168272       0.00251598      -0.00465182      -0.00254628
Li      97.00834279      47.02737660      12.53782217       0.00509643       0.01648278       0.00770193
Li      47.39661143      25.59321607       6.55965312      -0.01699895      -0.00229847       0.00256280
Li       0.11785393      37.73417750       2.04088126       0.00978820      -0.00721196       0.00585742
Li      17.67006336     -23.54692743      96.82789623       0.00039082       0.00093477      -0.00291417
Li      -7.26693084      28.51139345     -19.68633283      -0.00226470       0.01026305      -0.00559287
Li      59.84501913      24.05811431      -3.75576443       0.00110997      -0.00368011      -0.00584273
Li      20.01636809      43.52059818     -26.20975187       0.00207773       0.00298379      -0.00081429
Li       7.09781220      20.36081924     -13.62460870      -0.00845703       0.00658619       0.00220938
Li     -10.22474876      59.49648820     -22.27022473      -0.00167040       0.00377220      -0.00228765
Li     -27.26860742      -9.52709058       7.29812430      -0.00137492       0.00539873      -0.00562116
Li       0.73234713     -24.90357833       0.97613388       0.00188053      -0.00483654      -0.00444333
Li      66.23839009       4.09951275      41.15625659      -0.00313295      -0.01081265       0.00055647
Li     -39.62952877       0.37211976       6.68936601       0.00369634      -0.00047702       0.00999029
Li      35.59841077      16.68172352      -9.87687100      -0.00051276      -0.00050793      -0.00058659
Li      23.27048087      10.63316415      29.12463645      -0.00267005      -0.00088354       0.00458543
Li     -46.90277899     -69.89599139     -13.68201650      -0.00651282      -0.00402616       0.00558155
Li      49.74926114      20.17821739     -20.91158530      -0.00094106       0.00141234      -0.00865797
Li      26.59977097       0.38219463      58.93402420       0.00101764       0.00605931      -0.00208884
Li      -4.18448034     -39.41454783     -31.76556828      -0.00904288       0.00076157       0.00440074
Li      -2.28414327     -21.31174584      37.16023752      -0.00786211      -0.00346017      -0.00267123
Li      25.14342746     -10.63388256     -49.69988507      -0.00094487      -0.01088674      -0.00290089
Li     -10.64824197     -16.38954254     -13.09721995       0.01048784      -0.00651358       0.00543289
Li      41.06698575      14.39062420      -4.51984191       0.00103817      -0.00516743      -0.00669426
Li     -13.05114592      30.63834797      11.77698154       0.00252760       0.00928214       0.00251029
Li      -8.15636540      45.88392882      36.61993268      -0.01032503       0.00044285      -0.01037018
Li     -12.47852169      34.49927632     -51.66503025      -0.00684409       0.00163627      -0.01265263
Li      36.78804102      21.04056395      24.26272768      -0.00217451       0.00052796      -0.00878467
Li      88.06107582     -48.72895381      21.11124551       0.00358656       0.00357907      -0.00028202
Li     -66.67408544     -41.37433168     -10.87010767      -0.00103379      -0.00269477      -0.00108905
Li      26.32719275      11.95793906     -21.78389990       0.00307170      -0.01258823      -0.00101317
