120
Lattice="13.98266699 0.0 0.0 0.0 13.98266699 0.0 0.0 0.0 13.98266699" Properties=species:S:1:pos:R:3:forces:R:3 t_ps=45.0 charge=0 spin=0 energy=-508.06058145069187 free_energy=-508.06058145069187 stress="0.0030487695918359385 -0.0017717782347608862 0.00021707344958107465 -0.0017717782347608862 0.001229808203952523 0.0006385407945652081 0.00021707344958107465 0.0006385407945652081 0.002663163515733117" pbc="T T T"
P        1.19879790      10.51335572     -14.66047675       0.00020588       0.00218029       0.00111058
S       -0.36433045      10.97487162     -15.90929880      -0.00250727      -0.00090243       0.00132836
S        1.05440790       8.55999878     -14.05288180       0.00880853       0.00109615      -0.00224441
S        0.97302124      11.75767877     -13.02079407      -0.00355816       0.00362148       0.00223226
S        3.05455536      10.92635324     -15.49251884       0.00603783       0.00164128       0.01020394
P       17.41937064      22.63463629     -10.38101549       0.00564235       0.00397102       0.00279626
S       15.42290921      23.04178999     -10.05795253       0.00558190       0.01147512       0.00777690
S       18.43931686      23.66983275     -11.85684213       0.00114714      -0.00592169      -0.01309289
S       17.55069700      20.65291055     -10.93884069       0.01509176       0.00382568      -0.00399327
S       18.39661121      23.07532030      -8.61386679       0.00257980      -0.01134661       0.00935710
P       -9.82213920      14.86660629      13.43159597      -0.00669095       0.00489965      -0.00041185
S       -8.93062650      14.02580293      11.77509137      -0.01842366      -0.00384484      -0.00558374
S       -9.37482784      13.64147720      15.08761478       0.00628158       0.00678727       0.00691896
S      -11.81993734      14.96534858      13.08087622      -0.00865998       0.00108620       0.00118196
S       -8.90296245      16.66509139      13.86921485      -0.00248563       0.00713227      -0.00631203
P        0.27144981       2.75633860       4.02678199      -0.00141223       0.00181162      -0.00240954
S        0.93099739       1.36244475       2.65125598      -0.00334480      -0.00562087       0.00060994
S        0.33384552       4.60614433       3.10947631       0.00614245       0.00064139      -0.00754589
S        1.40050948       2.66781378       5.73799723       0.00143631       0.00903600      -0.00227151
S       -1.72271785       2.31454669       4.38488478      -0.00056528      -0.00397933      -0.00355145
P       20.77503063      24.94973499       9.01636959       0.00201087      -0.00120637      -0.00120302
S       19.26621196      26.32412373       8.87477175       0.00523258       0.00517148       0.01067686
S       20.40737137      23.69247605      10.61711065      -0.00969236      -0.00328171       0.00072085
S       22.59284215      25.89743067       9.30621627       0.00291305       0.00035730      -0.00199857
S       20.85831060      23.91679241       7.24666028       0.00467735       0.00516759      -0.00637117
P        5.30488138      14.89285210      19.60208047      -0.00055443      -0.00168251       0.00031803
S        5.13982268      16.27760455      18.03222626       0.00758972      -0.00296491      -0.00540359
S        7.24058588      14.32414515      19.95627815       0.00149210      -0.00688005       0.00592897
S        4.12548167      13.30027690      19.05959188      -0.01767682       0.00108405       0.00322270
S        4.51244711      15.74529251      21.28910583      -0.00738973       0.00650126       0.00007198
P      -15.50679692       3.95677251      -4.90799750      -0.00236823      -0.00129336       0.00101602
S      -15.72514492       5.23980896      -6.50051263      -0.00450280       0.00061547       0.00331662
S      -16.32929035       2.14645599      -5.47620700      -0.00641455      -0.00626130       0.01343110
S      -16.64489297       4.71017147      -3.34496903      -0.00939117      -0.00775105       0.00328271
S      -13.48821079       3.90167116      -4.49515877       0.00840023      -0.00388346      -0.01175148
P       -4.28103006      -6.50384676     -14.83922084       0.00384641       0.00893444      -0.00078508
S       -5.42755122      -5.65373779     -13.33884241      -0.00127713       0.00948173       0.00007914
S       -5.35480773      -8.13228313     -15.46114226      -0.00011959       0.00425332      -0.00633202
S       -2.42225395      -7.00698989     -14.05985977       0.00001266      -0.00790926       0.00598544
S       -3.91945796      -5.22154931     -16.39790571       0.00533617       0.00755171      -0.00573698
P       11.67719538      29.51550181      13.33695638      -0.00382135      -0.00097051       0.00215754
S       13.13681687      29.08218737      11.96107925      -0.00545380      -0.00608527      -0.00670254
S       11.59755448      27.94070272      14.65161242      -0.00350411       0.00292563       0.01177179
S        9.79350697      29.70504562      12.52172370       0.00066781       0.00203426      -0.00316322
S       12.12506016      31.31826672      14.28221213       0.00186700       0.00000110       0.01393524
P       28.69869815      -1.82291797      22.09472645      -0.00439761      -0.00213295       0.00153424
S       29.72455620      -3.57104749      22.48714071       0.00541661       0.00358170       0.00928900
S       26.71262444      -2.01112042      22.65673258      -0.00566209      -0.00975574      -0.00391596
S       28.75735154      -1.53714709      20.06016146      -0.00377108       0.00448440       0.00194113
S       29.48687389      -0.17664233      23.05367108       0.00017935       0.00114459       0.00578777
P       10.46668773      -2.97157973      31.88057201       0.00833957       0.00054717      -0.00216696
S        8.43945447      -2.92120679      31.40036160       0.00077392       0.00041617      -0.00786463
S       11.01186381      -1.02288529      32.28754696       0.00577723      -0.00122025       0.00799557
S       11.44207608      -3.76200991      30.24247962      -0.00664145      -0.00229539      -0.00879209
S       10.93971431      -4.00675988      33.59418098       0.00519755      -0.00155337       0.00014891
P       -5.32866055      -8.35165297       4.15241860       0.00211206       0.00231485      -0.00031310
S       -6.50643878      -9.07323880       2.63934235       0.00263770       0.00520632      -0.00821178
S       -5.28885641      -9.77044257       5.65918774      -0.00018244      -0.00205247       0.00316329
S       -6.24000699      -6.65639752       4.93851668       0.00055797       0.00545431       0.00653637
S       -3.38564890      -7.84138914       3.70098938       0.00462704      -0.00123273      -0.01004634
Cl      22.25015708      -1.91116464      -0.46124134      -0.00000362      -0.00550565       0.00036517
Cl       1.60803043     -21.46241415       6.71024587      -0.00312052      -0.00396287       0.00026873
Cl       6.94746694      33.86843249      -4.69714874       0.01521947      -0.00008756      -0.00062458
Cl     -12.68103999      18.61873754      13.11368683       0.00775102       0.00998201      -0.00002254
Cl      18.24306562     -24.03132723      24.50203342      -0.00464728      -0.00007500      -0.00219146
Cl      21.48889076     -11.77205375       9.65918311      -0.00000759      -0.00305269      -0.00006998
Cl      18.87545448       6.48719559      13.20680431      -0.00085082       0.00125652       0.00134634
Cl     -10.54684934      -6.42014476     -32.43145947      -0.00561217      -0.00139961      -0.00561705
Cl      41.43378087      -6.26742533      -3.73285491      -0.00307779      -0.00606518      -0.00130984
Cl      -4.22606858       7.89648185      22.08804591      -0.00597348       0.00661341      -0.00806940
Cl      19.04140066      -8.66750110      -7.55333989      -0.00025150      -0.00299940      -0.01130501
Cl      22.23800997      15.08397269      58.26073595      -0.00731873      -0.00046522       0.00629591
Li     -19.40328308      41.41381978     -37.92838455       0.00638550      -0.00421151       0.00357428
Li      36.47602491     -31.21247472      39.47686193      -0.00168430      -0.00611438       0.00180749
Li     -38.47635305      49.81151892      56.55111585       0.00027693       0.00216888       0.00184064
Li     -15.21643003      -5.36120081     -15.53603135       0.00160476       0.00770940      -0.00312211
Li      -0.47499213     -28.89049625    -126.43851567       0.00909501      -0.00550116       0.00945329
Li      44.66933026      13.17372237      25.25410998      -0.01016417       0.00788216       0.00580818
Li       5.03883832       6.25155598     -31.26837732       0.00257125      -0.00861078      -0.01753322
Li     -49.91415554      68.43958977      55.28464615      -0.00305082       0.00765366      -0.00464334
Li      24.52669297       7.90410051      15.98374457       0.00083911       0.00128992       0.00006744
Li       2.06680838      38.24457262       6.01218095       0.00152012      -0.00123568      -0.00160430
Li       1.24252937       6.55021793      -4.81693999       0.00413030      -0.00771376      -0.00627811
Li      47.78690268      72.25071227     -58.52887957      -0.00137752       0.00485682       0.00466573
Li      -8.31199641      33.97542440       4.18772440      -0.00785265       0.00508286      -0.00680628
Li      -2.11134061      -9.82343468      16.80175542       0.00088016       0.00166693       0.00258898
Li       9.27131281     -59.67847667     -48.42379011      -0.00610697      -0.00477520       0.00237078
Li     -28.17044786      23.97908598      51.76940247       0.00644268      -0.00597208       0.01340156
Li      -7.49345189      65.35417835       3.90368734       0.00626853       0.00111658       0.00800539
Li      -3.88967900      21.70799418      89.60640712       0.00149588      -0.00729806      -0.00329782
Li      96.81581491      47.07940825      12.56103960       0.00500438       0.00853628       0.00520576
Li      47.53288906      25.86554315       6.49457836      -0.00910780       0.00883967      -0.00087762
Li       0.11640289      37.70988113       1.98446588       0.00947963      -0.00988639       0.00922330
Li      17.66533315     -23.50841936      96.73187652      -0.00086593       0.00427739      -0.00466579
Li      -6.88699371      28.02533288     -19.40016144       0.00746366      -0.00410568       0.00478055
Li      59.73272124      23.90483601      -3.79913019       0.00643415      -0.00057039      -0.00412496
Li      20.01215485      43.44994903     -26.13307937      -0.00126247      -0.00088771      -0.00013485
Li       7.09231996      20.34273605     -13.60346387      -0.00708636       0.00738652      -0.00502304
Li     -10.23904291      59.40951917     -22.25028359       0.00012488       0.00525937      -0.00498395
Li     -27.42995918      -9.51373325       7.07106866      -0.00352276       0.00712288      -0.00888774
Li       0.63934028     -24.74034387       0.97390202       0.00615028      -0.01024706      -0.00466094
Li      66.07442334       4.10040630      41.03427587      -0.00163848      -0.00374865       0.00488634
Li     -39.59898117       0.39505038       6.69781421      -0.00067555       0.00370065       0.01046293
Li      35.55723736      16.73559725      -9.95610988      -0.00062923       0.00925920      -0.01068602
Li      23.23058244      10.60824650      29.10319970      -0.00219884       0.00106651       0.00447241
Li     -46.73627378     -69.76163381     -13.64925706      -0.00491109      -0.00387579       0.00712787
Li      49.34748981      20.00243801     -20.96263521      -0.00679225      -0.00216584      -0.00973624
Li      26.54577265       0.39488224      58.81032455       0.00144886       0.00805472      -0.00260995
Li      -4.12437628     -39.32008213     -31.76811396      -0.00764345       0.00345574       0.00882945
Li      -2.54674536     -21.11307564      37.32844312      -0.00127431      -0.00507829      -0.00654652
Li      25.10042076     -10.54392182     -49.61105299       0.00276384      -0.01182369       0.00036229
Li     -10.64629763     -16.40026996     -13.02238842       0.00972988      -0.00773423       0.00553868
Li      41.02475501      14.33490610      -4.47232534      -0.00658567      -0.00925472      -0.00210895
Li     -12.94033931      30.72590099      11.66393401       0.00217358       0.00698379       0.00658552
Li      -8.15261154      45.68368757      36.58432471      -0.01041396      -0.00683730      -0.01053661
Li     -12.52744842      34.47517257     -51.60022353      -0.00727056      -0.00078066      -0.01077146
Li      36.15217671      21.80802691      24.02370616       0.01124989      -0.00569980      -0.00057023
Li      87.72169215     -48.66496634      21.09976114       0.00975562       0.00244460       0.00380850
Li     -66.60390257     -41.24729692     -10.81489313      -0.00147352       0.00231543       0.00670808
Li      26.31755351      11.98591848     -21.75312252       0.00004059      -0.01264608       0.00191564
