332
Lattice="10.055095635733188 0.0 0.0 0.0 20.110191271466377 0.0 0.0 0.0 48.138382209668734" Properties=species:S:1:pos:R:3 source=db/raw/wad_sese_4L_2026_09_25/s_outer_relaxed_final_coords.txt source_sha256=504e0b081aa2d05a71b55ee97c6ae0129250bd1a820e41a00c55446ee89b86c8 charge=0 spin=0 pbc="T T F"
P        4.66149300       2.33600800       3.10503600
P       -0.36611200       7.36358000       3.10492800
P       -0.15381200       2.34483700       8.09159000
P        4.87356200       7.37246200       8.09170400
S        5.88041700       3.48769500       4.28211100
S        0.85293400       8.51532000       4.28186200
S        3.35766900       1.17496600       4.20088900
S        8.38518100       6.20250900       4.20078600
S        3.64705100       3.56575400       1.79941200
S        8.67455300       8.59322900       1.79918200
S        8.66814300       3.52275500       6.90754900
S        3.64071900       8.55019000       6.90710200
S        5.71989200       0.97894500       1.89980100
S        0.69220300       6.00645500       1.89976600
S        0.90032700       1.03766500       6.88919800
S        5.92778700       6.06495200       6.88975000
Li       3.54918400       1.50267500       0.50011500
Li       8.57670000       6.53013300       0.50000000
Li       7.81484800       2.09662400       5.16474100
Li       2.78707600       7.12420300       5.16473300
Li       2.59844900       5.16866400       3.29565500
Li       7.62604500       0.14106900       3.29560200
Li       6.81383100      10.45238400       7.92990400
Li       1.78548500       5.42555800       7.93016200
Li       3.73542500       9.35715500       2.41796100
Li       8.76299500       4.32960100       2.41793200
Li       4.34524200       4.09971200       6.21129900
Li       9.37316700       9.12720500       6.21112500
Li       6.98179500       2.57201100       0.67776200
Li       1.95425600       7.59975900       0.67777200
Li       0.68376400       0.14648500       2.22429200
Li       5.71135500       5.17405700       2.22443400
Li       4.90721000       0.37908300       5.86215700
Li      -0.12053000       5.40705700       5.86245800
Li       1.44704700       2.61547900       5.05529600
Li       6.47450400       7.64287900       5.05552100
Cl       9.66153100       7.21527500       8.00165400
Cl       4.39140200       7.11114500       3.26705900
Cl       9.41896800       2.08364600       3.26701900
S        2.29217500       9.74547800       0.61720500
S        7.31969600       4.71803100       0.61721900
S        7.17402200       9.89571000       5.60511100
S        2.14628900       4.86827200       5.60514400
P        4.87097968       2.67600775      12.96606214
P       -0.15558417       7.70052857      12.95335317
P       -0.36010159       2.71346461      17.87573527
P        4.66218934       7.76186105      17.82120440
S        5.92242610       3.97453951      14.16826477
S        0.88732919       9.00328821      14.15735905
S        0.96032200       3.55168300       9.29272200
S        5.98770400       8.57960400       9.29261600
S        3.65096345       1.48921250      14.14472397
S        8.67439528       6.51451952      14.12704460
S        8.70860000       1.14654400       9.32327800
S        3.68066400       6.17464100       9.32351800
S        3.68021758       3.87970624      11.75864983
S        8.71169496       8.90592832      11.74294147
S        8.34083798       3.84629227      16.84024051
S        3.30821917       8.86695132      16.76191877
S        5.98644557       1.47818578      11.76947170
S        0.96898250       6.50469610      11.76414112
S        0.85229027       1.56450802      16.69858809
S        5.88069616       6.61259151      16.65005026
Li       2.75221100       2.21974300      10.28008800
Li       7.77722300       7.24780100      10.28266300
Li       9.35500167       0.90935651      14.78955156
Li       4.31236319       5.94122685      14.78693719
Li       7.89275500       5.34625200       8.31295200
Li       2.86435600       0.31772500       8.31259600
Li       1.75884804       4.60017743      13.12334848
Li       6.77770025      -0.42535449      13.11819853
Li       7.58419261       9.88820133      17.71161642
Li       2.60032592       4.82262301      17.76983485
Li       2.83733528       9.72807709      12.74934138
Li       7.88406243       4.68195210      12.74919996
Li       2.79815943       2.92456257      15.84466628
Li       7.82012790       7.97006065      15.80863228
Li       7.73600136       2.80945484      10.74376466
Li       2.74852714       7.84415770      10.77888334
Li       0.13687578       0.99602639      11.48447341
Li       5.16387581       6.01468124      11.48028971
Li       6.43144235       2.37410965      15.97010612
Li       1.38976283       7.39875250      15.96352200
Li      -0.13857645       4.59426013      15.14346552
Li       4.89057312       9.62009694      15.09860426
Li       5.16655600       4.06245100       9.56726400
Li       0.13962000       9.08800700       9.56881100
Cl       9.50065630       7.94284623      17.62121805
Cl       4.63278700       2.18843600       8.00286400
Cl       4.63544098       7.88795715      13.06228872
Cl       9.68926347       2.86114332      13.10794340
S        2.10078109      10.05937160      10.53388260
S        7.12720624       5.03083360      10.53725571
S        7.15191558      10.20826261      15.40652927
S        2.13351736       5.16122407      15.45905087
S        0.68378408       4.01015868      19.11650518
S        5.68874444       9.08909801      19.04134496
S        8.76056971       1.42290632      19.20947035
S        3.74188317       6.47461936      19.16661950
Li       0.82041308       2.03120002      20.49823570
Li       5.86879683       7.18608654      20.47376287
Li       8.95528470       5.81550944      18.61920746
Li       3.84856863       0.79269158      18.68028176
Li       8.43025715       3.45494160      20.48465240
Li       3.37601168       8.46179843      20.46594091
Li       5.76264837       4.84012004      18.55802419
Li       0.56957914       9.89436442      18.52194349
Cl       4.47945522       2.91784410      17.69369956
S        2.20159888      10.34954144      20.12402937
S        7.32090446       5.44584547      20.28324020
P        4.66149300      12.39110364       3.10503600
P       -0.36611200      17.41867564       3.10492800
P       -0.15381200      12.39993264       8.09159000
P        4.87356200      17.42755764       8.09170400
S        5.88041700      13.54279064       4.28211100
S        0.85293400      18.57041564       4.28186200
S        3.35766900      11.23006164       4.20088900
S        8.38518100      16.25760464       4.20078600
S        3.64705100      13.62084964       1.79941200
S        8.67455300      18.64832464       1.79918200
S        8.66814300      13.57785064       6.90754900
S        3.64071900      18.60528564       6.90710200
S        5.71989200      11.03404064       1.89980100
S        0.69220300      16.06155064       1.89976600
S        0.90032700      11.09276064       6.88919800
S        5.92778700      16.12004764       6.88975000
Li       3.54918400      11.55777064       0.50011500
Li       8.57670000      16.58522864       0.50000000
Li       7.81484800      12.15171964       5.16474100
Li       2.78707600      17.17929864       5.16473300
Li       2.59844900      15.22375964       3.29565500
Li       7.62604500      10.19616464       3.29560200
Li       6.81383100      20.50747964       7.92990400
Li       1.78548500      15.48065364       7.93016200
Li       3.73542500      19.41225064       2.41796100
Li       8.76299500      14.38469664       2.41793200
Li       4.34524200      14.15480764       6.21129900
Li       9.37316700      19.18230064       6.21112500
Li       6.98179500      12.62710664       0.67776200
Li       1.95425600      17.65485464       0.67777200
Li       0.68376400      10.20158064       2.22429200
Li       5.71135500      15.22915264       2.22443400
Li       4.90721000      10.43417864       5.86215700
Li      -0.12053000      15.46215264       5.86245800
Li       1.44704700      12.67057464       5.05529600
Li       6.47450400      17.69797464       5.05552100
Cl       9.66153100      17.27037064       8.00165400
Cl       4.39140200      17.16624064       3.26705900
Cl       9.41896800      12.13874164       3.26701900
S        2.29217500      19.80057364       0.61720500
S        7.31969600      14.77312664       0.61721900
S        7.17402200      19.95080564       5.60511100
S        2.14628900      14.92336764       5.60514400
P        4.86296629      12.73811887      12.94634133
P       -0.16420987      17.76712414      12.95632766
P       -0.40996508      12.78264089      17.81104121
P        4.61702280      17.79994862      17.86449823
S        5.91438105      14.03598853      14.14896378
S        0.89273178      19.06254473      14.15825107
S        0.96032200      13.60677864       9.29272200
S        5.98770400      18.63469964       9.29261600
S        3.64154172      11.55394896      14.12501824
S        8.67294306      16.58090305      14.13684471
S        8.70860000      11.20163964       9.32327800
S        3.68066400      16.22973664       9.32351800
S        3.67378252      13.94498790      11.74099325
S        8.70035002      18.97345383      11.75320577
S        8.30241056      13.93223735      16.77709342
S        3.27420297      18.97362796      16.84983543
S        5.97839106      11.54533080      11.74537171
S        0.94628242      16.57187143      11.75273744
S        0.80807000      11.66133679      16.61627281
S        5.83059270      16.67226278      16.67251992
Li       2.75221100      12.27483864      10.28008800
Li       7.77722300      17.30289664      10.28266300
Li       9.32948193      10.97088855      14.74515812
Li       4.31712049      15.98753609      14.76107852
Li       7.89275500      15.40134764       8.31295200
Li       2.86435600      10.37282064       8.31259600
Li       1.74674340      14.66432241      13.08586203
Li       6.78175622       9.63880256      13.08172099
Li       7.64775271      19.91558242      17.74585362
Li       2.56919734      14.92672636      17.70689881
Li       2.85939818      19.77487814      12.75094894
Li       7.86907420      14.76100416      12.74916080
Li       2.77666319      13.00060900      15.81167850
Li       7.79744181      18.01033883      15.83026712
Li       7.77965605      12.87529570      10.78224351
Li       2.71943541      17.89695549      10.75424149
Li       0.13783039      11.04706854      11.46625341
Li       5.16331318      16.07800213      11.47619606
Li       6.40923352      12.44009712      15.95732560
Li       1.40168276      17.46399211      15.94990624
Li      -0.13875456      14.65203903      15.12458026
Li       4.88818356      19.68167148      15.16464445
Li       5.16655600      14.11754664       9.56726400
Li       0.13962000      19.14310264       9.56881100
Cl       9.45437837      17.98649098      17.69507880
Cl       4.63278700      12.24353164       8.00286400
Cl       4.65101532      17.94737620      13.09311527
Cl       9.65631033      12.91981072      13.04819423
S        2.09886132      20.11717784      10.53859480
S        7.12593040      15.09061901      10.53512766
S        7.16647601      20.25648042      15.44747101
S        2.12861877      15.24227117      15.40583156
S        0.64413979      14.12477345      19.01418081
S        5.69741754      19.13011345      19.06407111
S        8.70689302      11.51172158      19.13302363
S        3.66454901      16.53345164      19.17896284
Li       1.33322359      12.39138338      20.48127068
Li       6.54738044      17.43780186      20.51075844
Li       8.80568401      15.78953577      18.56794393
Li       3.85876267      10.79370593      18.51914971
Li       8.69945366      13.49804335      20.48913468
Li       3.72443959      18.53361154      20.52819202
Li       5.58579784      14.88853871      18.63243037
Li       0.76317936      19.81737745      18.58331543
Cl       4.43274991      12.98492691      17.64031485
S        2.26704193      20.34913500      20.41885468
S        7.21928671      15.25199987      20.29424684
Ag       2.32468598      10.35950838      22.65005671
Ag       2.33900923      13.26768226      22.81797844
Ag       2.33951839      16.12523178      22.70292129
Ag       2.29647188      18.97065484      22.74426043
Ag       2.35911783      21.84552430      22.71037257
Ag       2.30731489      24.70232310      22.70555762
Ag       2.30742261      27.56320388      22.79187787
Ag       4.83594825      11.78941007      22.73254313
Ag       4.82406179      14.67449556      22.71040995
Ag       4.85147110      17.54224233      22.82855308
Ag       4.88173554      20.39316332      22.72334082
Ag       4.84013391      23.27968622      22.72459149
Ag       4.77988361      26.16557898      22.77281508
Ag       4.86966657      29.00917842      22.76905434
Ag       7.34887563      10.35998011      22.69965448
Ag       7.32432437      13.21268615      22.79172149
Ag       7.38288910      16.08401503      22.72644303
Ag       7.35121230      18.98473739      22.75127978
Ag       7.36421754      21.85324377      22.71756596
Ag       7.32640587      24.73195397      22.71675992
Ag       7.36913662      27.60680749      22.75401361
Ag       9.83468677      11.82077153      22.76556529
Ag       9.91994089      14.65180069      22.75964947
Ag       9.85835983      17.53863540      22.73364665
Ag       9.83061612      20.42416983      22.72994691
Ag       9.87582040      23.28313270      22.83089279
Ag       9.87663993      26.14834678      22.72161969
Ag       9.85930587      29.03256211      22.71398645
Ag       3.16055920      11.77285079      25.09608846
Ag       3.18551729      14.69193423      25.12534487
Ag       3.15233953      17.55629490      25.11155677
Ag       3.17539376      20.40987871      25.10420496
Ag       3.16330544      23.27885382      25.07393316
Ag       3.16221327      26.15067228      25.14403144
Ag       3.16147903      29.04683002      25.08989259
Ag       5.67905165      10.36472079      25.10901654
Ag       5.66731131      13.23882057      25.10931093
Ag       5.70467707      16.09115452      25.12010266
Ag       5.68742178      18.98454858      25.14171370
Ag       5.68025084      21.84724333      25.08688474
Ag       5.68378259      24.72301363      25.10002834
Ag       5.69222030      27.58436671      25.12483131
Ag       8.18975459      11.79275923      25.12688190
Ag       8.20151147      14.66834652      25.12063811
Ag       8.18882677      17.52656659      25.09108131
Ag       8.20692350      20.42265719      25.12214055
Ag       8.17599041      23.30263187      25.10587953
Ag       8.19146731      26.14876913      25.10602281
Ag       8.20080966      29.03942131      25.09032623
Ag      10.72826077      10.35776522      25.07759387
Ag      10.71144977      13.22588098      25.14779019
Ag      10.70921935      16.10858175      25.10250731
Ag      10.70585166      18.98391105      25.10128369
Ag      10.73404663      21.83512967      25.11654527
Ag      10.70680410      24.73655260      25.13003829
Ag      10.69262586      27.59939639      25.10334035
Ag       4.01591940      10.35876174      27.45975652
Ag       4.01054049      13.22784915      27.45145913
Ag       4.02233855      16.11598215      27.45707062
Ag       4.01417523      18.98018712      27.46890232
Ag       4.01634202      21.85279101      27.44467458
Ag       4.01792421      24.71511069      27.44917529
Ag       4.01622654      27.60530058      27.45158168
Ag       6.52414639      11.80013770      27.45924154
Ag       6.53042343      14.66484201      27.47503640
Ag       6.53489358      17.54091969      27.46505737
Ag       6.53387332      20.42447140      27.45615116
Ag       6.52444062      23.28559747      27.45451685
Ag       6.52946288      26.15443309      27.46865711
Ag       6.53402160      29.03653173      27.44605514
Ag       9.05312637      10.35759723      27.43922642
Ag       9.03977792      13.23382886      27.47287245
Ag       9.04451855      16.10731373      27.46235654
Ag       9.04459341      18.97291403      27.44671213
Ag       9.05068692      21.86088803      27.44781044
Ag       9.03967017      24.72435082      27.46813089
Ag       9.03663846      27.59602328      27.45039002
Ag      11.55996171      11.78795032      27.46461877
Ag      11.55929251      14.67570335      27.45688172
Ag      11.55200738      17.54360955      27.45872158
Ag      11.56214211      20.40988073      27.46761957
Ag      11.56288962      23.28982848      27.45062808
Ag      11.55103049      26.16901998      27.46705492
Ag      11.55713276      29.03326026      27.44975756
Ag       2.35185959      10.35802090      29.82915473
Ag       2.34974166      13.23320203      29.82267532
Ag       2.35173591      16.10798731      29.82159139
Ag       2.35194909      18.97857959      29.83524618
Ag       2.35374960      21.85310598      29.82183451
Ag       2.35156328      24.72606207      29.81723526
Ag       2.35255718      27.60069497      29.82569631
Ag       4.86324082      11.79753065      29.82900142
Ag       4.86102001      14.66959988      29.82463477
Ag       4.86704663      17.54341558      29.83569488
Ag       4.86621556      20.41884001      29.82173971
Ag       4.86466974      23.28851675      29.82657700
Ag       4.86145440      26.16161378      29.82013584
Ag       4.86781283      29.03407517      29.82309952
Ag       7.38122700      10.36022135      29.80839388
Ag       7.37793733      13.23180331      29.84066761
Ag       7.37967099      16.10629741      29.83434407
Ag       7.38049964      18.98204599      29.81932539
Ag       7.38246807      21.85492978      29.82030628
Ag       7.37735896      24.72329760      29.83263862
Ag       7.37768808      27.59867895      29.82400993
Ag       9.89208558      11.79395031      29.82731622
Ag       9.89296040      14.67034556      29.83014051
Ag       9.89183036      17.54505013      29.83226469
Ag       9.89154643      20.41674269      29.81716461
Ag       9.89593511      23.28839105      29.82766362
Ag       9.88951488      26.16377991      29.83024041
Ag       9.89218271      29.03391960      29.81723184
