200
Coordinates from ORCA-job dp6_gs0_neutral_run E -10051.686813573808
  C          -1.43204319715549      0.57831484531483      3.71900573365403
  C          -1.61054483418586      0.54943992761190      2.20308026232765
  S          -3.08987301778308     -0.47906715654564      1.83611104777792
  O          -4.28081921390049      0.36528081502854      1.85339644546132
  O          -3.01468219829498     -1.72766360038004      2.60099461683258
  O          -2.85506769170545     -0.88252030416461      0.24337564535248
  C          -1.74992885122744      1.95375842740438      1.61730683011408
  C          -1.75130949718790      2.04086604279532      0.09512127900797
  O          -0.59885195380386      1.42934005310357     -0.48849860725599
  C           0.59214989276915      2.19876190845940     -0.41748229216168
  C           1.73962210694401      1.34652600041929      0.08470409827729
  C           1.83676937428916      0.01278485253609     -0.63787954416038
  O           2.97220708354407     -0.73668784220788     -0.17683013322071
  C           3.02833210576547     -0.77983974232418      1.18215443301623
  C           3.74334873056714     -1.71847809960885      1.89396394080532
  S           3.50517284386821     -1.46519498036038      3.61384039680324
  C           2.44576467083314     -0.11909154194080      3.34477456296370
  C           2.30640259071040      0.12934323275813      2.00888945242755
  O           1.52548433832725      1.12886342188031      1.49666421603755
  H          -0.53059164788954      1.15707623437436      3.94269450411799
  H          -1.31331953965252     -0.42695823509049      4.12806230197378
  H          -2.28176774141406      1.06436131430534      4.20995789371617
  H          -0.77752896514745      0.01728025760795      1.72957128081962
  H          -2.50576399646922     -1.78841178730062      0.22809164042425
  H          -0.90501845866929      2.53095867157550      2.01548815321398
  H          -2.66677598463334      2.42012456273965      1.99899663327317
  H          -2.61037392286925      1.51492822193970     -0.32932851816009
  H          -1.82167108906563      3.09663102038809     -0.21054128357768
  H           0.48314873112898      3.06316958150484      0.25291102543770
  H           0.84687183871730      2.57968045386082     -1.41992927720068
  H           2.68488789922178      1.89983024600433     -0.04547782321013
  H           0.91508635558531     -0.56184390782590     -0.47844327666430
  H           1.98855217687210      0.16657744560425     -1.70965841706921
  H           2.00717737214968      0.42085030194265      4.17114934671770
  C          10.11054068650371     -6.11957330095584      1.69606124359125
  C          10.16495323796167     -4.77321323284755      0.97368066464123
  S          11.29474511445015     -3.70118084951038      1.95089534978838
  O          12.67029385761831     -3.94242458972104      1.52242837002359
  O          10.90717670324748     -3.75038336335060      3.36453877471328
  O          10.92750403658305     -2.17602532265023      1.41238048640016
  C          10.63517792327834     -4.92386679744891     -0.47372024888845
  C          10.77520649066749     -3.64010798417483     -1.28751335973259
  O           9.57534205503430     -2.86452773398039     -1.30463874995288
  C           8.63055743257743     -3.23237138201413     -2.29523555583186
  C           7.23321022670496     -3.09048439057761     -1.72446692036301
  C           7.01947552408875     -1.76405873160374     -1.01207448448993
  O           5.69816482088253     -1.68636688441585     -0.44857198246704
  C           5.43977197170972     -2.77152203259668      0.33364280991997
  C           4.56614150450516     -2.78173459077789      1.39934698799464
  S           4.60180329626785     -4.34677466346638      2.19485286489161
  C           5.81844723261039     -4.96641568045458      1.08749931048380
  C           6.12777115275334     -3.99502036813481      0.15842246002687
  O           7.06858806046471     -4.19134477861565     -0.80457672677578
  H           9.46515567843752     -6.79749609698105      1.13103712693483
  H           9.70749603654428     -6.01539794023589      2.70545908874100
  H          11.10601885184496     -6.57216500883043      1.75670889740941
  H           9.19249027203435     -4.26557602803332      1.01020817378592
  H          10.31461952866694     -1.78745354608154      2.05753344128094
  H           9.90324448232128     -5.58944518117583     -0.95237091499049
  H          11.60112734928974     -5.44474872836661     -0.48604730923375
  H          11.54687751565411     -2.99162100647335     -0.86359958137222
  H          11.08383419163549     -3.89365145568928     -2.31361559687297
  H           8.75885801328726     -4.27598002021122     -2.61956459162529
  H           8.73164413476786     -2.58377385263015     -3.18206386301370
  H           6.49112502144614     -3.19853452133304     -2.53171369009325
  H           7.76983266395445     -1.63969429901522     -0.22133733650192
  H           7.09785672564113     -0.93760261798938     -1.72345185768407
  C           6.50392670063396    -13.09446137256779      1.10545262120235
  C           5.59330180198039    -12.43972210262755      2.14031448749611
  S           3.86006658039053    -12.87013682114269      1.70724859462001
  O           3.50524353434294    -14.13302767228937      2.34724075821230
  O           3.64838874510292    -12.63643107677952      0.27618929717090
  O           2.99126947582675    -11.71418567586013      2.51793572861173
  C           5.93325616266765    -12.88754451373470      3.56236946782032
  C           5.16544658927828    -12.20167276698292      4.69209555587515
  O           5.22546075418880    -10.77903106117416      4.60801612663582
  C           6.44167724395201    -10.20648800281323      5.05825672809249
  C           6.71659388785898     -8.95276132594255      4.25543955500629
  C           5.53285107950779     -7.99873094381226      4.23046960107886
  O           5.84677927849978     -6.82190525111379      3.46321003848988
  C           6.35628907375285     -7.14941107065007      2.24177668284612
  C           6.34432429993698     -6.29235387629959      1.16021749035767
  S           7.06268774518806     -7.09800226210351     -0.23130243593513
  C           7.38329259569493     -8.56159753582277      0.68463363317283
  C           6.94911653472862     -8.40839870974220      1.98102715613260
  O           7.04080063521515     -9.39015633579045      2.91789629917551
  H           7.53440614839513    -12.77781279626605      1.30485179537429
  H           6.24951539586360    -12.77327544905159      0.09414340366406
  H           6.45363004820905    -14.18788531184583      1.15536879122916
  H           5.64153540644382    -11.34647002845811      2.06453198947392
  H           2.80784989598612    -10.99713815957615      1.88916161704835
  H           7.01021934896598    -12.69499864714201      3.68471721245558
  H           5.76773560968800    -13.97132200396384      3.64867780786153
  H           4.10374699573517    -12.45747979941199      4.64567845593885
  H           5.55294665527214    -12.55072072517120      5.66249924883243
  H           7.29397959144076    -10.88959592472223      4.92512785703779
  H           6.37771041379050     -9.95051951225866      6.12951119472820
  H           7.59334605919466     -8.43375887599868      4.67601298727909
  H           4.65524722437642     -8.49896106377336      3.80256086074542
  H           5.30166391781044     -7.65078175096975      5.24056232139935
  C           9.34080526676559    -16.21049899179054     -0.33000067072094
  C           9.70278519884099    -15.59567337412187      1.01790117446621
  S           8.66997484666001    -16.41450560671125      2.30389527538973
  O           9.37834925646805    -17.57615913623670      2.82956264093373
  O           7.28224218323469    -16.50254594507346      1.83518575423113
  O           8.68378579449552    -15.29511119229056      3.53096587649562
  C          11.18998162340676    -15.75339281408016      1.33765119727430
  C          11.67655377203542    -15.09144166538356      2.62449260984822
  O          11.35038178516250    -13.70235992808645      2.67993019201203
  C          12.22275951751067    -12.85828457014746      1.94709095855383
  C          11.42854412393834    -11.70788649039341      1.36678989566423
  C          10.54158637107463    -11.02577114676957      2.39749125003164
  O           9.80996044979441     -9.93846514006552      1.80646122388779
  C           9.17845058420688    -10.33048840517418      0.66502939066512
  C           8.08937403461959     -9.68061261996020      0.12900297342389
  S           7.61727595012932    -10.45067849039442     -1.37543182015736
  C           8.88497612968322    -11.65594834527560     -1.24420791093766
  C           9.61907256782710    -11.44042116651224     -0.10165785572723
  O          10.62952496741462    -12.26042421534073      0.29906647517269
  H           9.89865542679881    -15.67875737967867     -1.10943027597366
  H           8.27763167431143    -16.10587918403294     -0.55325093479931
  H           9.61972374729356    -17.26862156691010     -0.36107494062148
  H           9.41377840918640    -14.53821620326350      1.05683661037417
  H           7.85291026683364    -14.79506062265912      3.46526166850719
  H          11.72116961913561    -15.31878868400393      0.47613598245160
  H          11.43080028583667    -16.82484939496599      1.37942072541404
  H          11.20063207215009    -15.54680068671673      3.49700824192405
  H          12.76385101934786    -15.23681071569649      2.72635868427666
  H          12.70642498235786    -13.38902260898284      1.11333694570747
  H          13.01667210460206    -12.46217378820594      2.60272985756257
  H          12.12188649802864    -10.96697815278348      0.93612042320438
  H           9.84286206333274    -11.75452825813317      2.82915461715257
  H          11.15117050916206    -10.58865419758181      3.19305427822411
  C          10.36986885842772    -18.86072626833699     -3.18052910033524
  C          11.65681594400566    -18.06873012789412     -2.95994788708040
  S          12.50396608770829    -18.79196427672608     -1.49545629384587
  O          13.37182106231834    -19.88193334764705     -1.92970345273134
  O          11.53540463964065    -18.96580438622701     -0.40603303128247
  O          13.52193725822914    -17.56775629357555     -1.02371381254826
  C          12.55955522050997    -18.09207339197791     -4.19264130452710
  C          13.86466046029659    -17.30830550100013     -4.08782234792701
  O          13.65732479259270    -15.93973595043537     -3.73024640592053
  C          13.29332160035840    -15.08804865327636     -4.80460257758189
  C          12.18287474988156    -14.15632020000264     -4.36704208855800
  C          12.46380926547430    -13.47496836850388     -3.03686252385420
  O          11.39467377750810    -12.58180021298699     -2.68133861671583
  C          10.17966058887565    -13.18570980903545     -2.79375602873901
  C           9.03231546614119    -12.73042574617276     -2.18537831391365
  S           7.67914684517779    -13.76603432742014     -2.60127968528577
  C           8.68150119325862    -14.81010722196930     -3.59077881629425
  C           9.97694602564544    -14.34169702962357     -3.59019814589483
  O          10.98679970766138    -14.95891946786540     -4.26976625162271
  H           9.84272292219639    -18.42869834143997     -4.03639999565108
  H           9.71343679996460    -18.81420801051143     -2.30894328364809
  H          10.58747626000264    -19.91077173027109     -3.40305831407698
  H          11.43368009328351    -17.03397059186410     -2.67330574390067
  H          13.09728237716624    -17.12754900130948     -0.26909231742139
  H          11.95086353939301    -17.68883963762101     -5.01384760971741
  H          12.79963835724388    -19.13196778355663     -4.44761677141812
  H          14.51239525895769    -17.72537974140323     -3.31214031510537
  H          14.40755224170286    -17.37700521081990     -5.04330271267306
  H          12.93532311481613    -15.65543620013008     -5.67608093629680
  H          14.16249496953554    -14.48900655349090     -5.12354796579276
  H          12.02626851071448    -13.38768609025696     -5.14200374505228
  H          12.59673350676458    -14.23242023454591     -2.25262578181551
  H          13.36545482417297    -12.86036740401960     -3.10599652618989
  C           4.31785136170070    -18.82610423905514     -7.75715249211022
  C           3.44016127114008    -18.56712222169896     -6.53480898081135
  S           1.97850529127712    -17.60747516323717     -7.10010419088823
  O           0.95682420106744    -18.52982664042734     -7.58612132847030
  O           2.43180947035122    -16.46340629506026     -7.89746751147590
  O           1.38138342652372    -16.99342257027042     -5.68050065230103
  C           3.02643325801605    -19.86617253038736     -5.84423928812105
  C           2.34411312382850    -19.70703882095346     -4.48981695784217
  O           3.12382377394936    -18.92979580830343     -3.57771149561440
  C           4.20400937276607    -19.62224171708767     -2.96970917081071
  C           5.47020114571334    -18.79409463845066     -3.04902976558714
  C           5.26241510445865    -17.36599518342118     -2.57527967498538
  O           6.49636363425021    -16.62343147082922     -2.63511260525919
  C           7.13938540585273    -16.79179469569257     -3.82096372099598
  C           8.15770268324778    -15.96990401102061     -4.25208001496794
  S           8.74692032864132    -16.53337761716293     -5.80817539275845
  C           7.63739440308398    -17.86883986632680     -5.82547905683344
  C           6.85650799047971    -17.87148314990063     -4.70416566518169
  O           5.90171843487353    -18.80766866408402     -4.43202711647172
  H           5.21409870740770    -19.35842602932599     -7.42392942095643
  H           4.62210082128394    -17.89424636041337     -8.23834732422472
  H           3.79964387498571    -19.45285776898174     -8.49061699112674
  H           3.95209809451993    -17.90455707700370     -5.82766510084839
  H           1.68976006039853    -16.07526921345606     -5.60982398452485
  H           3.94858516188565    -20.44880550987405     -5.71857528601495
  H           2.37083776146995    -20.44317054858149     -6.50841152724368
  H           1.39151762551682    -19.18044782437332     -4.58551301852768
  H           2.13584416431131    -20.70149526978273     -4.06535000999641
  H           4.39487515716746    -20.59066722181271     -3.45384137542420
  H           3.97361395237818    -19.81378725549255     -1.90937258069451
  H           6.25276536251654    -19.27116749177273     -2.43592147547643
  H           4.50271277337518    -16.87047833338898     -3.19204200082804
  H           4.95178573106036    -17.34863035531372     -1.52756313838887
  H           7.64494484403271    -18.58871506481847     -6.63104640967108
