200
Coordinates from ORCA-job dp6_gs1_neutral_run E -10051.686410408405
  C          -0.81482881890691      1.02811046497580      3.66527024827949
  C          -1.15433232200087      0.74749557147460      2.20364880947228
  S          -2.67060833645770     -0.29127781155841      2.17405026548716
  O          -3.84797387138253      0.57205621974348      2.17542652036006
  O          -2.51949951448068     -1.39654407039216      3.12534822733297
  O          -2.61415898552630     -0.95895856359917      0.65558073238238
  C          -1.34613177713175      2.03689455086682      1.40621615457135
  C          -1.52024294278255      1.86937836173647     -0.09931836153425
  O          -0.44916304625725      1.13409159401540     -0.69558724226545
  C           0.74900254524834      1.87082945902273     -0.88883038094763
  C           1.94006523611874      1.07420081372006     -0.39712981874755
  C           1.95069488584072     -0.35085145169250     -0.92572102867320
  O           3.12380002765049     -1.05152161770369     -0.48201379981004
  C           3.31319712286043     -0.91077046944814      0.85856728040135
  C           4.07843262742022     -1.76326349328091      1.62287050300000
  S           4.01645656701859     -1.26966383208450      3.30462061941240
  C           2.95878931186613      0.05825225232620      2.95312438769404
  C           2.69212396438473      0.12525916927202      1.61521321357750
  O           1.88100985180413      1.06826169180420      1.04599887282734
  H           0.10833044688066      1.61535726158407      3.69268245879606
  H          -0.65977704964783      0.10448486475041      4.22648985946843
  H          -1.60477448542928      1.61060659620009      4.15114479552718
  H          -0.38025981221983      0.12469034794979      1.74116222834821
  H          -2.26015472982350     -1.85791287674774      0.75270399467370
  H          -0.45486209497580      2.64688105302796      1.60419746953247
  H          -2.20802057553426      2.58795394241938      1.80270305049811
  H          -2.42916176495015      1.30900426016074     -0.33284115449545
  H          -1.61121687418906      2.86176641165822     -0.56834858769243
  H           0.73112199400929      2.83116397080032     -0.35394599226929
  H           0.88431784466488      2.08545985477373     -1.96157721041959
  H           2.86812034142713      1.58248241476136     -0.70863822041442
  H           1.04782888116248     -0.87816015475759     -0.59096776731347
  H           1.98967517794360     -0.35354316049423     -2.01839455933439
  H           2.61198957985840      0.71850832596646      3.73456386326274
  C          10.31295673711720     -7.03029595586951      0.56858881923279
  C          10.33478856043064     -5.57746041727841      0.10343732701351
  S          11.31775295654992     -4.62433187129763      1.32880922955484
  O          12.72446486677098     -4.65218979605888      0.93967803928379
  O          10.87354426688985     -4.98320378528016      2.67750264889664
  O          10.83049118846729     -3.06538859874037      1.05472613854653
  C          10.91434868876442     -5.44017819115209     -1.30508322877157
  C          10.89788946205176     -4.03390815679996     -1.90675255252852
  O           9.63106258903098     -3.39251421688910     -1.78373105302722
  C           8.63021061346500     -3.83782647543570     -2.68184549038558
  C           7.27980981628673     -3.62044693116578     -2.02870920785883
  C           7.12333968608164     -2.21563546217783     -1.46690393890800
  O           5.84354965741907     -2.05755799472440     -0.83110468229736
  C           5.63009146047611     -3.04380293521268      0.08407275106333
  C           4.83962442666138     -2.90394616404627      1.20324866470024
  S           4.88670551674056     -4.37621953752587      2.15467864449594
  C           6.01664729315583     -5.14416732869585      1.05420558871272
  C           6.28669946596319     -4.29993899090461      0.00102056040346
  O           7.18201805148756     -4.60426979843076     -0.97716513692475
  H           9.69818669961514     -7.60747770009709     -0.13200179255745
  H           9.86605224473860     -7.12426099436807      1.55999923053031
  H          11.32075281762582     -7.46131825326618      0.59696045454878
  H           9.32912444614240     -5.14118920248085      0.14498679777769
  H          10.09027128256427     -2.88375924531602      1.65703811131592
  H          10.33043282292869     -6.12153025184033     -1.94172509277706
  H          11.95456157046943     -5.79546364407272     -1.30825386037023
  H          11.60372848152726     -3.38668216839056     -1.37911682220281
  H          11.20974215409719     -4.08371978991762     -2.96243824960801
  H           8.72682916631737     -4.90932822651661     -2.91433556998476
  H           8.67842283708108     -3.27712943253216     -3.63120691084512
  H           6.48003338816475     -3.81315623927342     -2.76193327278516
  H           7.92507330521079     -2.00725204966622     -0.74776214731850
  H           7.15670520160095     -1.47957881456675     -2.27466562477734
  C          11.22649803878721    -11.21835646714498      1.17439029503751
  C          10.82389048524409    -10.76362439707350     -0.22447776134147
  S          12.32130755702884    -10.07614008758366     -1.05088216698472
  O          12.98115417982474    -11.13019297901348     -1.81407052993609
  O          13.05769243959358     -9.22872634373215     -0.10756679821476
  O          11.66203050190868     -9.05952821645618     -2.18875087328812
  C          10.22641432795555    -11.89674369066330     -1.05793398723134
  C           9.67424057311103    -11.49607896507944     -2.42472017132130
  O           8.71413309128828    -10.44297339356510     -2.33289741272831
  C           7.41216567083473    -10.86273161386155     -1.95749525760375
  C           6.76257692106285     -9.78518368093184     -1.11690624006050
  C           6.84330427281025     -8.40572444107627     -1.75320375539125
  O           6.20217576953374     -7.42077238676030     -0.92720124763163
  C           6.62630933087778     -7.49915549870025      0.36500245578127
  C           6.51960002614122     -6.46982164996409      1.27441970906215
  S           7.11187340139776     -6.99466292827579      2.84161040956796
  C           7.50327094255335     -8.59536752499158      2.24205148312736
  C           7.18303040634375     -8.68575241108440      0.90860451816965
  O           7.44344252637689     -9.79088661293505      0.15462567988429
  H          10.32657798242646    -11.56152399270927      1.69848619554750
  H          11.65424177928067    -10.39614741775734      1.75081885971593
  H          11.94639072117993    -12.04216381365246      1.13348095336972
  H          10.11988110308279     -9.92489556494909     -0.17280471881042
  H          11.67653697018275     -8.16432838874481     -1.81049567097894
  H           9.41312933183923    -12.31393008426456     -0.44340647908236
  H          10.99011100198894    -12.67423765194840     -1.20153852777474
  H          10.47369637390010    -11.11873690058512     -3.06795909493967
  H           9.23628525334525    -12.37701740723266     -2.92026062001730
  H           7.43462751054574    -11.78724287381171     -1.36107509448388
  H           6.79553172871100    -11.05157019389979     -2.85251293686775
  H           5.70450805493766    -10.04569050415737     -0.94897261972596
  H           7.89435077574024     -8.13238775027266     -1.91610573572615
  H           6.31216716504336     -8.39567109053605     -2.70907289513708
  C          12.23740167898081    -14.63424893972683      3.52690019907887
  C          10.97760412770710    -14.99846212630539      2.74687516607359
  S          11.48908158147574    -15.48015939996908      1.04621559903273
  O          11.79019533584839    -16.90650546596767      1.01380772883104
  O          12.42101280683085    -14.47786389016087      0.51601759948993
  O          10.07685772257105    -15.31066328482192      0.18812313372045
  C          10.19999646306336    -16.13000163385665      3.42075861009076
  C           8.87875453466976    -16.52635354353737      2.76707987115485
  O           8.00546178516676    -15.41142087688393      2.58432260308724
  C           7.27750174018973    -15.02758364360538      3.73966120013789
  C           7.18345563383253    -13.51799289542268      3.79951491037700
  C           6.75721581785877    -12.89828443743095      2.47698653194904
  O           6.65122807334508    -11.46974558738604      2.58932223891298
  C           7.75751788681078    -10.93069318076985      3.17188991014131
  C           8.11884226032902     -9.60768582307666      3.05449779273327
  S           9.57083636974977     -9.29821113425758      3.98880326300694
  C           9.68449903118818    -10.96926403226865      4.50586990635184
  C           8.63643550428489    -11.69278305888157      3.98662579545973
  O           8.49048879574595    -13.03493964616498      4.17507086317279
  H          11.93646113891291    -14.27904148598419      4.51913923801385
  H          12.79854747477379    -13.83176741361327      3.04428922013169
  H          12.88240285472284    -15.51012363916028      3.64918273906257
  H          10.33372924427720    -14.12125095954776      2.60790039908794
  H          10.10676497474071    -14.43535289979034     -0.23231274083136
  H          10.01188584344349    -15.78090425941224      4.44815287534486
  H          10.84743035489433    -17.01656890547869      3.47331121827113
  H           9.04889710671812    -16.94210499284700      1.77067835451871
  H           8.38799589299303    -17.30570650042844      3.37161847556679
  H           7.76235231143260    -15.37275857945164      4.66508170060511
  H           6.26133543818574    -15.45514609065201      3.70916563105155
  H           6.46539576532564    -13.22910423911751      4.58462723642544
  H           7.48476131725945    -13.15894672410700      1.69678098862380
  H           5.76589416205667    -13.25725223348915      2.18715145091305
  C          14.93189614411479    -16.08449925729324      6.31012148798710
  C          13.58079734486100    -16.42574226553296      6.93661760911021
  S          12.99382863574244    -17.97800677818491      6.14365079685197
  O          13.53419469734677    -19.12357044101845      6.86836787547608
  O          13.11958798743827    -17.85774693229832      4.68594567987516
  O          11.36770797908760    -17.96991417149913      6.47690829543849
  C          13.67422689955891    -16.57350819300723      8.45501904577783
  C          12.37916584332532    -16.91507047061411      9.18651017719135
  O          11.32290411882797    -15.99444711074728      8.90339445085527
  C          11.34774513579945    -14.79585173874928      9.66146343660542
  C          11.06833320511167    -13.61295928039980      8.75778897640647
  C           9.85521265222239    -13.82061320348974      7.86359924658788
  O           9.62141797175994    -12.67011571577027      7.03387586430527
  C          10.75866746688400    -12.26852042629753      6.40267594201565
  C          10.78260376822335    -11.45580310941875      5.29241402984782
  S          12.43952867620611    -11.14445958298297      4.80842978783257
  C          13.08648456094446    -12.12093913334456      6.11270290536049
  C          12.04971669237663    -12.62768735582606      6.86611678098564
  O          12.25196259571880    -13.42699822851662      7.95285053167084
  H          15.30414299841334    -15.16215467021333      6.76601886913800
  H          14.84665582102980    -15.92908616946574      5.23260215620852
  H          15.66290935966573    -16.87879050755936      6.49530938743350
  H          12.82785061728855    -15.67267962119979      6.67324422182376
  H          10.92079468142421    -17.62178900133277      5.68790322017310
  H          14.06627073125096    -15.61425406256484      8.82024646415539
  H          14.41963350786583    -17.34133441564109      8.69831295245308
  H          12.00671929617637    -17.89815363830105      8.88631405447062
  H          12.57433362954862    -16.95298276542326     10.26941938033365
  H          12.32380132364761    -14.63347555010135     10.14163155512125
  H          10.58184241501909    -14.83433457248417     10.45372500422949
  H          10.91710978827574    -12.70980419759802      9.37156857525965
  H          10.00596744382509    -14.71013324276087      7.23748228346403
  H           8.95369787331687    -13.94917888524780      8.46875385159828
  C          20.07184576284784    -10.45946445503754      7.10436284319444
  C          19.86003150264747    -10.05673295773309      5.64715005833427
  S          20.16141068885313     -8.24716915444379      5.52164907507933
  O          21.58397471854737     -8.01121949272333      5.29359922639974
  O          19.42396808042738     -7.55950286598970      6.58613474368241
  O          19.41309505576155     -7.86133653230105      4.09357958808231
  C          20.76751946561469    -10.84041392067183      4.69996051940285
  C          20.46103550010907    -10.68366342347125      3.21469331799411
  O          19.10212053298215    -11.00313427200629      2.90585909097655
  C          18.81244459671098    -12.39143953811401      2.84182945980039
  C          17.55424552022154    -12.70136067392305      3.62657241853332
  C          16.40318774225481    -11.77694388026057      3.26943669898718
  O          15.21818092855027    -12.13105109058714      4.00975999848575
  C          15.47692652982126    -12.29950327731329      5.33421589418206
  C          14.49416399746491    -12.31387080587329      6.29992614742116
  S          15.22578998993083    -12.57634541171369      7.87570121254232
  C          16.81981510646778    -12.69045264559317      7.19610357489480
  C          16.78745567855423    -12.52563995173469      5.83987857924818
  O          17.88562241412002    -12.57337543768737      5.03122630846751
  H          19.85016332999440    -11.52719943182777      7.19618562393768
  H          19.41194047779610     -9.90501554897290      7.77471164721717
  H          21.11010964699410    -10.29725297239681      7.41290865799133
  H          18.80957360315992    -10.18391648011643      5.36112729298457
  H          18.55338409592281     -7.46641647897619      4.31354970978252
  H          20.65934476390431    -11.89601343954617      4.98229540760639
  H          21.81414126439727    -10.56544709335136      4.88035773895144
  H          20.60222695971773     -9.65066904519732      2.88683109898925
  H          21.14622786883936    -11.31698000098717      2.62989979758446
  H          19.63189659915471    -13.00078742309315      3.24918918907748
  H          18.65741989033463    -12.69168574800884      1.79291653828491
  H          17.25588278429522    -13.74533019752695      3.43401582175026
  H          16.67488130334982    -10.73562454170274      3.48134272594591
  H          16.14043641663805    -11.87802488575550      2.21336917821187
  H          17.67592845479140    -12.90270742674612      7.81993437352136
