200
DP6 neutral, geometry seed g1 (lcg 1; torsions [280, 210, 150, 270] deg) — UNRELAXED, ORCA Opt 대상
  C        -2.1937233220      -0.2774432627       1.7641951858
  C        -1.8309370459      -0.1639629207       0.2855501885
  S        -2.9895831433      -1.2391768865      -0.6533064804
  O        -4.1867487561      -0.4755349088      -0.9927804770
  O        -3.0663396895      -2.5525186257      -0.0062172865
  O        -2.1866270326      -1.4633655177      -2.0887827310
  C        -1.8906884595       1.2809544378      -0.2079358096
  C        -1.3578671848       1.5208532510      -1.6164563708
  O        -0.0203903518       1.0444727449      -1.7828256567
  C         0.9857628170       1.8766747862      -1.2248487793
  C         1.9610113955       1.0517763309      -0.4106445321
  C         2.4604973616      -0.1733338898      -1.1591858764
  O         3.4275697528      -0.8919696430      -0.3770805430
  C         2.9911317091      -1.0984925012       0.8959735808
  C         3.4978207658      -2.0641626167       1.7353890768
  S         2.6359503411      -2.0346135401       3.2613193378
  C         1.6054067709      -0.7415889622       2.7406272044
  C         1.9274039268      -0.3454116025       1.4739711667
  O         1.2784706723       0.6515057765       0.7974308635
  H        -1.4850280254       0.3305051391       2.3349467174
  H        -2.1320522502      -1.3096496926       2.1144958580
  H        -3.2026941317       0.1034682949       1.9548432545
  H        -0.8378041905      -0.5882623158       0.0980935524
  H        -1.7624122457      -2.3356458169      -2.0439329105
  H        -1.3018964205       1.8680137685       0.5092469144
  H        -2.9235118745       1.6465440757      -0.1524384035
  H        -1.9550926133       0.9883041028      -2.3610910485
  H        -1.4139194662       2.5956596305      -1.8504472899
  H         0.5609325056       2.6532792335      -0.5728658637
  H         1.5387914075       2.3822718758      -2.0333217766
  H         2.8227567366       1.6827424190      -0.1345345826
  H         1.6155525812      -0.8285867888      -1.4085502852
  H         2.9725694148       0.1234870744      -2.0785857835
  H         0.8429495373      -0.3377262066       3.3905707970
  C         9.5720146438      -5.8915552029       2.8740806279
  C        10.0903612501      -4.5088379874       2.4860696140
  S        10.9987623585      -3.8307995605       3.9334819361
  O        12.3905971702      -4.2679045194       3.8775053836
  O        10.1824048068      -3.9967510035       5.1398992165
  O        11.0319100920      -2.2043619920       3.6030473146
  C        10.9792131337      -4.5601241237       1.2443700235
  C        11.4028292453      -3.2113880182       0.6735094274
  O        10.2867793874      -2.3658038361       0.3858076225
  C         9.5836587666      -2.6843459056      -0.8059215267
  C         8.0925286188      -2.7298171334      -0.5418859954
  C         7.5983736418      -1.5160629570       0.2282283988
  O         6.1732801770      -1.5656382842       0.4010449998
  C         5.7657725204      -2.7799545183       0.8627236070
  C         4.5568672037      -3.0010371945       1.4820759503
  S         4.4392734559      -4.6803306852       1.9702355168
  C         6.0151080310      -5.0497035944       1.3495400140
  C         6.5821823112      -3.9458794742       0.7793380556
  O         7.8265027878      -3.9343067516       0.2096815322
  H         9.0018692462      -6.2894611952       2.0289409768
  H         8.9175772994      -5.8447829219       3.7468045102
  H        10.3971938184      -6.5801275424       3.0847098726
  H         9.2553618983      -3.8156871002       2.3319241780
  H        10.3278167359      -1.7927692739       4.1300038955
  H        10.4056523127      -5.1108646210       0.4872549634
  H        11.8778078367      -5.1514667983       1.4603182631
  H        12.0184422578      -2.6556501655       1.3853484610
  H        12.0055078034      -3.3720095506      -0.2342707267
  H         9.8927767753      -3.6558162711      -1.2173027135
  H         9.7844751493      -1.9159749581      -1.5703010294
  H         7.5570709217      -2.7908066735      -1.5043351577
  H         8.0957888978      -1.4704864293       1.2058720533
  H         7.8057667793      -0.5981913167      -0.3285483155
  C        10.9328300785     -10.4084447564       0.9965532044
  C        10.5510096614     -10.1790255405      -0.4638312114
  S        12.0547574414      -9.5938963400      -1.3449087024
  O        12.8148360841     -10.7463889688      -1.8197133570
  O        12.6817325522      -8.5171656410      -0.5722668705
  O        11.4182939010      -8.8914490863      -2.7076511553
  C         9.9820541177     -11.4411721747      -1.1101912307
  C         9.4083692685     -11.2696654956      -2.5122941746
  O         8.4074209974     -10.2508657273      -2.5714702977
  C         7.1361523963     -10.6279822348      -2.0638037672
  C         6.6109651895      -9.5678361188      -1.1174845175
  C         6.7174123531      -8.1655103588      -1.6942132115
  O         6.1508805426      -7.1987390091      -0.7955422265
  C         6.6107558036      -7.3649418099       0.4751524324
  C         6.5643891974      -6.3883338434       1.4436636389
  S         7.3013639935      -6.9813802241       2.9192377035
  C         7.6699549586      -8.5181702102       2.2069378367
  C         7.2265087258      -8.5728373037       0.9163960324
  O         7.3808758076      -9.6611565326       0.1010997726
  H        10.0351447177     -10.7260961866       1.5359181503
  H        11.3151759858      -9.4966203933       1.4597063072
  H        11.6859329337     -11.1980017258       1.0906441035
  H         9.8387651651      -9.3501585367      -0.5482714459
  H        11.4034262328      -7.9329638731      -2.5529763144
  H         9.1913285657     -11.7938133172      -0.4349818921
  H        10.7540950251     -12.2203209213      -1.1361201563
  H        10.1816312389     -10.9653309961      -3.2222133175
  H         8.9972322664     -12.2308964423      -2.8588298322
  H         7.1774211805     -11.5848454052      -1.5241252925
  H         6.4241850299     -10.7422953898      -2.8974896363
  H         5.5549557606      -9.7839985948      -0.8832604166
  H         7.7703660357      -7.9256303590      -1.8917794026
  H         6.1463151818      -8.0887181294      -2.6234341463
  C        11.8139892005     -14.3571657700       3.5327612492
  C        10.5175462923     -14.9560664414       2.9926719780
  S        10.9171317184     -15.8132045760       1.4161007560
  O        11.3245612173     -17.1854909651       1.7028576779
  O        11.7232633216     -14.9258786809       0.5721654609
  O         9.4292253675     -15.9356585389       0.6903427431
  C         9.8673232081     -15.9080938046       3.9953482229
  C         8.4807690006     -16.4209593274       3.6227118080
  O         7.5600912519     -15.3604252533       3.3563057580
  C         7.0439682846     -14.7099256361       4.5080580548
  C         7.1384999341     -13.2060753794       4.3507377298
  C         6.6080344563     -12.7244834077       3.0101631994
  O         6.6551159074     -11.2912943122       2.9266944780
  C         7.8700706677     -10.8063428687       3.3041604643
  C         8.3380680834      -9.5569725001       2.9665526437
  S         9.9575989790      -9.3393718345       3.6005276499
  C         9.9821146303     -10.9289263787       4.2916638126
  C         8.7999893195     -11.5741118230       4.0648451780
  O         8.5306672634     -12.8469079446       4.4896175804
  H        11.5795610865     -13.8169620981       4.4551925124
  H        12.2604689431     -13.6588693774       2.8220145671
  H        12.5437199118     -15.1386300213       3.7698771039
  H         9.8176918308     -14.1619318346       2.7080725323
  H         9.3737192204     -15.2226675705       0.0335305900
  H         9.8071636032     -15.3529815380       4.9407272571
  H        10.5281285037     -16.7667724080       4.1679739995
  H         8.5124267432     -17.0207052047       2.7095626297
  H         8.0998774242     -17.0645345376       4.4313019917
  H         7.5867147423     -14.9980385444       5.4196283100
  H         5.9855859006     -14.9855961448       4.6452792501
  H         6.5681793605     -12.7216512065       5.1611763292
  H         7.1971910817     -13.1694544403       2.1976476470
  H         5.5571118719     -13.0019745757       2.8915843454
  C        15.1357983821     -15.5519519903       6.5481820698
  C        13.8964434400     -15.9953652371       7.3218271235
  S        13.4871049868     -17.7041976232       6.7812117152
  O        14.2278588596     -18.6596092216       7.5996679694
  O        13.4990448783     -17.7657027439       5.3164602867
  O        11.9017680950     -17.8556903371       7.2495511995
  C        14.1113779295     -15.9253233037       8.8329204709
  C        12.8780037509     -16.1786654993       9.6925874878
  O        11.7921542000     -15.3112693031       9.3580627285
  C        11.9060827434     -13.9868120527       9.8569608156
  C        11.6186503912     -12.9834704032       8.7588079623
  C        10.3480326365     -13.3070428190       7.9898502682
  O        10.0768858014     -12.2990599990       7.0031057712
  C        11.1798133595     -12.0193105002       6.2553995707
  C        11.1382931458     -11.4129750661       5.0206686880
  S        12.7605927463     -11.2805352343       4.3704699670
  C        13.4603097658     -12.0519461569       5.7562098930
  C        12.4979918088     -12.3677329242       6.6723725795
  O        12.7529820455     -12.9895346459       7.8645632224
  H        15.3677074304     -14.5230436055       6.8401096495
  H        14.9675258536     -15.5803452774       5.4697568123
  H        16.0002584803     -16.1793744583       6.7899815754
  H        13.0269936418     -15.3952512974       7.0296573210
  H        11.3566989016     -17.7104506967       6.4592067941
  H        14.4939088029     -14.9162306513       9.0351887943
  H        14.8980925938     -16.6321319057       9.1249716282
  H        12.4988226110     -17.1940317340       9.5519040683
  H        13.1442329304     -16.0664219401      10.7554181124
  H        12.9095682751     -13.7843778380      10.2576854987
  H        11.1809620520     -13.8355444606      10.6732421735
  H        11.5270207721     -11.9780576354       9.2032089508
  H        10.4464557903     -14.2891021716       7.5090607273
  H         9.4851690317     -13.3156307032       8.6613360975
  C        20.5856614099     -10.6847778665       5.1357975462
  C        20.1696057025     -11.0568793452       3.7146779921
  S        20.4350998675      -9.5788446483       2.6540850467
  O        21.8073348172      -9.5828489440       2.1557342959
  O        19.8508428472      -8.4026898960       3.3057950444
  O        19.4840603213      -9.9117312584       1.3348825370
  C        20.9443901374     -12.2651230455       3.1908821810
  C        20.4793239994     -12.8233338084       1.8505330683
  O        19.0885578992     -13.1536693591       1.8499841364
  C        18.7600060065     -14.3695457171       2.5055482890
  C        17.5955620168     -14.1600997736       3.4518326562
  C        16.4428072478     -13.4114704581       2.8028526006
  O        15.3360722714     -13.2907578522       3.7104763292
  C        15.7356506765     -12.8413879342       4.9320234293
  C        14.8910790585     -12.2661250875       5.8538142834
  S        15.8023448812     -11.7785808062       7.2694589612
  C        17.2967849699     -12.3403589816       6.5941753436
  C        17.0942986944     -12.8920810748       5.3614007328
  O        18.0926721947     -13.4158860111       4.5856078007
  H        20.4003064231     -11.5492458154       5.7807740397
  H        20.0110037070      -9.8366803003       5.5134506958
  H        21.6524948667     -10.4424734993       5.1865142560
  H        19.0904721033     -11.2431078329       3.6674285384
  H        18.6590325581      -9.4118560276       1.4457572473
  H        20.8464267058     -13.0413852420       3.9611616713
  H        22.0103253463     -12.0150512282       3.1199000858
  H        20.6090250615     -12.0907915992       1.0498469261
  H        21.0830731040     -13.7080845787       1.5940401397
  H        19.6077992034     -14.7670271843       3.0815676236
  H        18.4762840047     -15.1279051627       1.7576245404
  H        17.2367803571     -15.1413351140       3.8056631053
  H        16.7802762424     -12.4164049686       2.4846614296
  H        16.0672102542     -13.9624832431       1.9363582957
  H        18.2250248695     -12.2529403042       7.1397327911
