200
DP6 neutral, geometry seed g0 (lcg 0; torsions [130, 80, 30, 150] deg) — UNRELAXED, ORCA Opt 대상
  C        -2.1937233220      -0.2774432627       1.7641951858
  C        -1.8309370459      -0.1639629207       0.2855501885
  S        -2.9895831433      -1.2391768865      -0.6533064804
  O        -4.1867487561      -0.4755349088      -0.9927804770
  O        -3.0663396895      -2.5525186257      -0.0062172865
  O        -2.1866270326      -1.4633655177      -2.0887827310
  C        -1.8906884595       1.2809544378      -0.2079358096
  C        -1.3578671848       1.5208532510      -1.6164563708
  O        -0.0203903518       1.0444727449      -1.7828256567
  C         0.9857628170       1.8766747862      -1.2248487793
  C         1.9610113955       1.0517763309      -0.4106445321
  C         2.4604973616      -0.1733338898      -1.1591858764
  O         3.4275697528      -0.8919696430      -0.3770805430
  C         2.9911317091      -1.0984925012       0.8959735808
  C         3.4978207658      -2.0641626167       1.7353890768
  S         2.6359503411      -2.0346135401       3.2613193378
  C         1.6054067709      -0.7415889622       2.7406272044
  C         1.9274039268      -0.3454116025       1.4739711667
  O         1.2784706723       0.6515057765       0.7974308635
  H        -1.4850280254       0.3305051391       2.3349467174
  H        -2.1320522502      -1.3096496926       2.1144958580
  H        -3.2026941317       0.1034682949       1.9548432545
  H        -0.8378041905      -0.5882623158       0.0980935524
  H        -1.7624122457      -2.3356458169      -2.0439329105
  H        -1.3018964205       1.8680137685       0.5092469144
  H        -2.9235118745       1.6465440757      -0.1524384035
  H        -1.9550926133       0.9883041028      -2.3610910485
  H        -1.4139194662       2.5956596305      -1.8504472899
  H         0.5609325056       2.6532792335      -0.5728658637
  H         1.5387914075       2.3822718758      -2.0333217766
  H         2.8227567366       1.6827424190      -0.1345345826
  H         1.6155525812      -0.8285867888      -1.4085502852
  H         2.9725694148       0.1234870744      -2.0785857835
  H         0.8429495373      -0.3377262066       3.3905707970
  C         9.5720146438      -5.8915552029       2.8740806279
  C        10.0903612501      -4.5088379874       2.4860696140
  S        10.9987623585      -3.8307995605       3.9334819361
  O        12.3905971702      -4.2679045194       3.8775053836
  O        10.1824048068      -3.9967510035       5.1398992165
  O        11.0319100920      -2.2043619920       3.6030473146
  C        10.9792131337      -4.5601241237       1.2443700235
  C        11.4028292453      -3.2113880182       0.6735094274
  O        10.2867793874      -2.3658038361       0.3858076225
  C         9.5836587666      -2.6843459056      -0.8059215267
  C         8.0925286188      -2.7298171334      -0.5418859954
  C         7.5983736418      -1.5160629570       0.2282283988
  O         6.1732801770      -1.5656382842       0.4010449998
  C         5.7657725204      -2.7799545183       0.8627236070
  C         4.5568672037      -3.0010371945       1.4820759503
  S         4.4392734559      -4.6803306852       1.9702355168
  C         6.0151080310      -5.0497035944       1.3495400140
  C         6.5821823112      -3.9458794742       0.7793380556
  O         7.8265027878      -3.9343067516       0.2096815322
  H         9.0018692462      -6.2894611952       2.0289409768
  H         8.9175772994      -5.8447829219       3.7468045102
  H        10.3971938184      -6.5801275424       3.0847098726
  H         9.2553618983      -3.8156871002       2.3319241780
  H        10.3278167359      -1.7927692739       4.1300038955
  H        10.4056523127      -5.1108646210       0.4872549634
  H        11.8778078367      -5.1514667983       1.4603182631
  H        12.0184422578      -2.6556501655       1.3853484610
  H        12.0055078034      -3.3720095506      -0.2342707267
  H         9.8927767753      -3.6558162711      -1.2173027135
  H         9.7844751493      -1.9159749581      -1.5703010294
  H         7.5570709217      -2.7908066735      -1.5043351577
  H         8.0957888978      -1.4704864293       1.2058720533
  H         7.8057667793      -0.5981913167      -0.3285483155
  C         6.2170541385     -12.3275970883       1.2223365286
  C         5.5620898753     -12.0131511890       2.5652022105
  S         3.8524868252     -12.6877907238       2.5199250449
  O         3.8715083302     -14.0801334527       2.9585800004
  O         3.2017897976     -12.2774091471       1.2718855711
  O         3.1060762483     -11.8486852293       3.7423644893
  C         6.3571441289     -12.5877895666       3.7366053351
  C         5.8824527335     -12.1793366764       5.1266613872
  O         5.8194524915     -10.7602575116       5.2866536262
  C         7.0714809891     -10.1231692659       5.4930736608
  C         7.2084876139      -8.9220481447       4.5799533242
  C         5.9825042770      -8.0239215599       4.6082025220
  O         6.1779689969      -6.8658114179       3.7812870993
  C         6.6507705244      -7.2026530257       2.5497149375
  C         6.5643891974      -6.3883338434       1.4436636389
  S         7.2400863783      -7.2082942108       0.0496575431
  C         7.6111044147      -8.6292473335       0.9706307789
  C         7.2553698214      -8.4651897316       2.2789385422
  O         7.4241690352      -9.4225263374       3.2422605961
  H         7.2247969289     -11.9008952879       1.2283386018
  H         5.6579095890     -11.8930969569       0.3912589947
  H         6.3038865376     -13.4081285196       1.0663584016
  H         5.4313342452     -10.9313860188       2.6840717495
  H         2.5990817495     -11.1322104353       3.3270818079
  H         7.3915349371     -12.2491657847       3.5921064932
  H         6.3652844983     -13.6830663803       3.6726156715
  H         4.8708512219     -12.5436815127       5.3227582357
  H         6.5486412336     -12.6208545634       5.8845138577
  H         7.9140470134     -10.8026857814       5.3010244612
  H         7.1452235262      -9.7829252524       6.5389193503
  H         8.0931580699      -8.3370465232       4.8830611376
  H         5.1035572456      -8.5868058195       4.2677620745
  H         5.8049790569      -7.6491618055       5.6199043031
  C         9.2058650036     -15.6172619567      -0.3135370278
  C         9.9896013208     -15.3012228631       0.9580837198
  S         9.3135283826     -16.3567076550       2.3030031778
  O        10.0077040208     -17.6410433590       2.3034981777
  O         7.8501954310     -16.2668426949       2.3012283262
  O         9.8354935393     -15.5708517776       3.6688611099
  C        11.4898138551     -15.5252595565       0.7745742555
  C        12.3762489393     -15.0706325433       1.9286837099
  O        12.1706695499     -13.6969103673       2.2662880949
  C        12.7831089682     -12.7646087874       1.3877678929
  C        11.7950778813     -11.6868162423       0.9910194676
  C        11.0565243237     -11.1033758356       2.1845857441
  O        10.1790322050     -10.0427793036       1.7742721421
  C         9.4121464741     -10.4092232415       0.7106092918
  C         8.2410874331      -9.7804684960       0.3539369882
  S         7.5348304749     -10.5855416126      -1.0335834857
  C         8.8119971046     -11.7557616375      -1.0997979446
  C         9.7369725032     -11.5191614310      -0.1232878037
  O        10.8548839226     -12.2842216765       0.0714756684
  H         9.5801686901     -14.9696504361      -1.1123812251
  H         8.1378362760     -15.4313059847      -0.1836991588
  H         9.3509097339     -16.6583968908      -0.6208109948
  H         9.7921688324     -14.2737335459       1.2847777682
  H         9.0865525194     -15.0494494027       4.0006233289
  H        11.7664677978     -14.9749467876      -0.1343420098
  H        11.6810173991     -16.5876411019       0.5781591387
  H        12.1601400745     -15.6340646679       2.8399355694
  H        13.4321138852     -15.2473965023       1.6698608981
  H        13.1560314071     -13.2469457359       0.4729875816
  H        13.6409802566     -12.2901759789       1.8917197949
  H        12.3331837536     -10.8786037685       0.4675906502
  H        10.4840544781     -11.8935263754       2.6878020718
  H        11.7618005962     -10.6585400258       2.8918389187
  C         9.8010691371     -18.3376045586      -4.0537405545
  C        11.2153089263     -17.7680711818      -3.9718858018
  S        12.1766982586     -18.8336708032      -2.8229040304
  O        12.7642892424     -19.9416728919      -3.5702101723
  O        11.4006174721     -19.0503668035      -1.5980923533
  O        13.4509193823     -17.8531436629      -2.4099730064
  C        11.8792465266     -17.6888832268      -5.3457205598
  C        13.2239005885     -16.9719643636      -5.3942417909
  O        13.1566640637     -15.6490612312      -4.8568789944
  C        12.5742635449     -14.6806940125      -5.7166118527
  C        11.5393657609     -13.8658523734      -4.9680991995
  C        12.0517272174     -13.3580627079      -3.6301530438
  O        11.0658350138     -12.5380610595      -2.9829834109
  C         9.8432257642     -13.1371402933      -2.9727737500
  C         8.8264194473     -12.7950932117      -2.1107785948
  S         7.4419265516     -13.8343449549      -2.3851686738
  C         8.2557794184     -14.7150520288      -3.6369483759
  C         9.5104189501     -14.2164670279      -3.8429188668
  O        10.3883388723     -14.7150070497      -4.7668725387
  H         9.2122351673     -17.6901679072      -4.7108222248
  H         9.3230434226     -18.3682413411      -3.0725801892
  H         9.8034417916     -19.3464412393      -4.4799566240
  H        11.2044360092     -16.7819265344      -3.4935100085
  H        13.2478997322     -17.4747283576      -1.5390975066
  H        11.1649166914     -17.1651419305      -5.9945181139
  H        12.0020537805     -18.7002592067      -5.7529419331
  H        13.9738966645     -17.4957317736      -4.7961512140
  H        13.5860861685     -16.9448793390      -6.4340367401
  H        12.0876712432     -15.1443189810      -6.5865675504
  H        13.3566906081     -14.0007368648      -6.0913962237
  H        11.2374480881     -13.0064427899      -5.5901956116
  H        12.3157225930     -14.2085684996      -2.9880996099
  H        12.9303546909     -12.7229453354      -3.7720694174
  C         2.9629116804     -18.4051424424      -7.0123713884
  C         2.6014350489     -18.5359678074      -5.5347509981
  S         0.9879726981     -17.6918076999      -5.2816421916
  O        -0.0958191705     -18.6361898367      -5.5364672845
  O         1.0278987074     -16.3693490406      -5.9132521950
  O         0.9742683682     -17.4342061828      -3.6418133514
  C         2.5425244662     -19.9960881834      -5.0885628735
  C         2.3629263006     -20.2276019694      -3.5923786007
  O         3.3624928814     -19.5656138055      -2.8139246557
  C         4.6291635169     -20.2068296749      -2.7926236645
  C         5.7316192855     -19.2051595492      -3.0692095459
  C         5.5999777676     -17.9449180783      -2.2296105536
  O         6.6975248284     -17.0510252561      -2.4736612565
  C         6.9094273646     -16.8687395792      -3.8061937289
  C         7.6013979004     -15.8037652957      -4.3362253250
  S         7.6049485426     -15.9107845503      -6.0857078061
  C         6.6684531352     -17.3694787607      -6.0738160459
  C         6.3940438212     -17.7586005748      -4.7938102088
  O         5.6669142545     -18.8728768656      -4.4734247035
  H         3.9382939999     -18.8770459132      -7.1659696568
  H         3.0279602704     -17.3592103097      -7.3188310323
  H         2.2314620142     -18.9168977389      -7.6468042989
  H         3.3098464021     -17.9737424353      -4.9154781413
  H         1.2316531416     -16.5091830054      -3.4971604654
  H         3.4884304242     -20.4480316345      -5.4149359126
  H         1.7371296288     -20.5120073499      -5.6261117651
  H         1.4061433051     -19.8319117009      -3.2423296572
  H         2.3716748788     -21.3095636778      -3.3865440721
  H         4.6948650749     -21.0100935194      -3.5402824080
  H         4.7996441732     -20.6558209517      -1.8004843921
  H         6.7075957362     -19.6765980229      -2.8643710911
  H         4.6489778823     -17.4460440782      -2.4576680509
  H         5.6367149783     -18.1883583852      -1.1642994415
  H         6.3913391011     -17.8638271172      -6.9934528108
