200
DP6 neutral, geometry seed g2 (lcg 2; torsions [150, 120, 260, 200] deg) — UNRELAXED, ORCA Opt 대상
  C        -2.1937233220      -0.2774432627       1.7641951858
  C        -1.8309370459      -0.1639629207       0.2855501885
  S        -2.9895831433      -1.2391768865      -0.6533064804
  O        -4.1867487561      -0.4755349088      -0.9927804770
  O        -3.0663396895      -2.5525186257      -0.0062172865
  O        -2.1866270326      -1.4633655177      -2.0887827310
  C        -1.8906884595       1.2809544378      -0.2079358096
  C        -1.3578671848       1.5208532510      -1.6164563708
  O        -0.0203903518       1.0444727449      -1.7828256567
  C         0.9857628170       1.8766747862      -1.2248487793
  C         1.9610113955       1.0517763309      -0.4106445321
  C         2.4604973616      -0.1733338898      -1.1591858764
  O         3.4275697528      -0.8919696430      -0.3770805430
  C         2.9911317091      -1.0984925012       0.8959735808
  C         3.4978207658      -2.0641626167       1.7353890768
  S         2.6359503411      -2.0346135401       3.2613193378
  C         1.6054067709      -0.7415889622       2.7406272044
  C         1.9274039268      -0.3454116025       1.4739711667
  O         1.2784706723       0.6515057765       0.7974308635
  H        -1.4850280254       0.3305051391       2.3349467174
  H        -2.1320522502      -1.3096496926       2.1144958580
  H        -3.2026941317       0.1034682949       1.9548432545
  H        -0.8378041905      -0.5882623158       0.0980935524
  H        -1.7624122457      -2.3356458169      -2.0439329105
  H        -1.3018964205       1.8680137685       0.5092469144
  H        -2.9235118745       1.6465440757      -0.1524384035
  H        -1.9550926133       0.9883041028      -2.3610910485
  H        -1.4139194662       2.5956596305      -1.8504472899
  H         0.5609325056       2.6532792335      -0.5728658637
  H         1.5387914075       2.3822718758      -2.0333217766
  H         2.8227567366       1.6827424190      -0.1345345826
  H         1.6155525812      -0.8285867888      -1.4085502852
  H         2.9725694148       0.1234870744      -2.0785857835
  H         0.8429495373      -0.3377262066       3.3905707970
  C         9.5720146438      -5.8915552029       2.8740806279
  C        10.0903612501      -4.5088379874       2.4860696140
  S        10.9987623585      -3.8307995605       3.9334819361
  O        12.3905971702      -4.2679045194       3.8775053836
  O        10.1824048068      -3.9967510035       5.1398992165
  O        11.0319100920      -2.2043619920       3.6030473146
  C        10.9792131337      -4.5601241237       1.2443700235
  C        11.4028292453      -3.2113880182       0.6735094274
  O        10.2867793874      -2.3658038361       0.3858076225
  C         9.5836587666      -2.6843459056      -0.8059215267
  C         8.0925286188      -2.7298171334      -0.5418859954
  C         7.5983736418      -1.5160629570       0.2282283988
  O         6.1732801770      -1.5656382842       0.4010449998
  C         5.7657725204      -2.7799545183       0.8627236070
  C         4.5568672037      -3.0010371945       1.4820759503
  S         4.4392734559      -4.6803306852       1.9702355168
  C         6.0151080310      -5.0497035944       1.3495400140
  C         6.5821823112      -3.9458794742       0.7793380556
  O         7.8265027878      -3.9343067516       0.2096815322
  H         9.0018692462      -6.2894611952       2.0289409768
  H         8.9175772994      -5.8447829219       3.7468045102
  H        10.3971938184      -6.5801275424       3.0847098726
  H         9.2553618983      -3.8156871002       2.3319241780
  H        10.3278167359      -1.7927692739       4.1300038955
  H        10.4056523127      -5.1108646210       0.4872549634
  H        11.8778078367      -5.1514667983       1.4603182631
  H        12.0184422578      -2.6556501655       1.3853484610
  H        12.0055078034      -3.3720095506      -0.2342707267
  H         9.8927767753      -3.6558162711      -1.2173027135
  H         9.7844751493      -1.9159749581      -1.5703010294
  H         7.5570709217      -2.7908066735      -1.5043351577
  H         8.0957888978      -1.4704864293       1.2058720533
  H         7.8057667793      -0.5981913167      -0.3285483155
  C         6.5616745197     -12.2455989389       0.3774021997
  C         5.5049088809     -12.1135196184       1.4714515985
  S         3.9270481111     -12.7780185757       0.8015802384
  O         3.8675094907     -14.2163552611       1.0445637660
  O         3.6844139429     -12.2058063741      -0.5262465745
  O         2.7986921008     -12.1100171284       1.8195054596
  C         5.9156391178     -12.8381588760       2.7523514504
  C         5.0109344938     -12.6189943825       3.9597859126
  O         4.8394730418     -11.2339338905       4.2689147319
  C         5.9343781377     -10.6286204126       4.9403642436
  C         6.2992730863      -9.3164410296       4.2768218899
  C         5.0888561257      -8.4314392024       4.0275688670
  O         5.4839602331      -7.1733031559       3.4581822612
  C         6.3339660268      -7.3426026912       2.4081339952
  C         6.5643891974      -6.3883338434       1.4436636389
  S         7.6787734183      -7.0145906594       0.2444535287
  C         7.8027110963      -8.5451252006       1.0488522677
  C         7.0470900160      -8.5571597836       2.1864036524
  O         6.9458743093      -9.6340723162       3.0248490644
  H         7.4970050367     -11.8223781807       0.7564760669
  H         6.2737820163     -11.7049107705      -0.5264213836
  H         6.7398191582     -13.2956356772       0.1222462638
  H         5.2967184096     -11.0573669408       1.6779488985
  H         2.4173777324     -11.3451822754       1.3585648365
  H         6.9273518649     -12.4821587623       2.9873228556
  H         5.9908857773     -13.9151477372       2.5568388566
  H         4.0057318328     -13.0073327353       3.7773038970
  H         5.4236578699     -13.1567670391       4.8278559062
  H         6.8231954906     -11.2755712541       4.9415546550
  H         5.6609061784     -10.4306072892       5.9896502138
  H         7.0176644652      -8.7760347755       4.9160542157
  H         4.3866674725      -8.9449469428       3.3578471578
  H         4.5863312717      -8.1949497778       4.9693979887
  C         9.6622278316     -15.1230943812      -1.4605730921
  C         9.5614357359     -15.3332418187       0.0483409734
  S         8.1985164528     -16.5291563730       0.3519369537
  O         8.7268760179     -17.8887079975       0.2898578693
  O         7.0160533052     -16.1217051531      -0.4130379452
  O         7.8428334884     -16.2650625754       1.9517272745
  C        10.8786892204     -15.8261508083       0.6453248903
  C        10.9335605040     -15.8978710637       2.1672535548
  O        10.6056286324     -14.6509309157       2.7844676002
  C        11.6407480552     -13.6792898423       2.7619414547
  C        11.1007215584     -12.3448164921       2.2899205099
  C         9.8190207463     -11.9477033467       3.0040694442
  O         9.3760598483     -10.6501838226       2.5757665123
  C         9.3674607823     -10.5457585332       1.2182706714
  C         8.6437992459      -9.6032621910       0.5240505583
  S         8.8623050727      -9.8390883514      -1.1989688569
  C         9.9051733658     -11.2024274554      -0.9567167731
  C        10.0894691443     -11.4407581260       0.3753360631
  O        10.8612258145     -12.4570154008       0.8698951844
  H        10.4502144457     -14.3873165348      -1.6486263815
  H         8.7256211972     -14.7471171435      -1.8771448000
  H         9.9321307801     -16.0522576320      -1.9736279306
  H         9.2373514772     -14.4104524762       0.5431865133
  H         7.0554840406     -15.6974089115       1.9779841310
  H        11.6493968803     -15.1313094710       0.2865554048
  H        11.1205532363     -16.8145856131       0.2350924249
  H        10.2102047860     -16.6189959381       2.5561933607
  H        11.9360462209     -16.2286291927       2.4814302195
  H        12.4656419386     -13.9741145836       2.0977339958
  H        12.0535263427     -13.5552165052       3.7764448057
  H        11.8644935934     -11.5666839980       2.4569688844
  H         9.0397074304     -12.6959820193       2.8090410984
  H         9.9883651928     -11.8712308838       4.0815549392
  C        13.2991662992     -12.2491192245      -7.3135984751
  C        11.8950511856     -11.8148114801      -7.7270959720
  S        12.0503998125     -10.2186129050      -8.6259552632
  O        12.2866955648     -10.4834091733     -10.0420927976
  O        12.9030219730      -9.3085906217      -7.8550356283
  O        10.5082130827      -9.6103641814      -8.5406408092
  C        11.1997763544     -12.8715924077      -8.5840165002
  C         9.7313988714     -12.6105255543      -8.9004547690
  O         8.9470681264     -12.4078144532      -7.7227087375
  C         8.6155001504     -13.5909667354      -7.0111756203
  C         8.9029455489     -13.4156362474      -5.5340548146
  C         8.3416438276     -12.1162744338      -4.9799214578
  O         8.5782411957     -12.0187506632      -3.5665122907
  C         9.8737022737     -12.2980375262      -3.2541775561
  C        10.4811424091     -11.9161342921      -2.0798295067
  S        12.1592762450     -12.4220425753      -2.0886792320
  C        12.0188515315     -13.1210767062      -3.6687381059
  C        10.7454663408     -12.9906565853      -4.1447758662
  O        10.3377423188     -13.4443594078      -5.3698843519
  H        13.2129536168     -13.1827945829      -6.7492637504
  H        13.7809769856     -11.5009554162      -6.6809593702
  H        13.9309396279     -12.4352320562      -8.1886080127
  H        11.2908537138     -11.5789649322      -6.8434870616
  H        10.5004720827      -8.9544691573      -7.8246931490
  H        11.2894767123     -13.8146337479      -8.0289154271
  H        11.7479154475     -12.9992842300      -9.5258395061
  H         9.6099189251     -11.7021423701      -9.4959557053
  H         9.3294169267     -13.4507884150      -9.4882084336
  H         9.1823445042     -14.4602199799      -7.3739832428
  H         7.5430945323     -13.8112272069      -7.1393500012
  H         8.4687306732     -14.2639012246      -4.9784947104
  H         8.7997102682     -11.2641960275      -5.4989819528
  H         7.2566077611     -12.0809394272      -5.1101087955
  C        16.2516756287     -15.6400875684      -9.0318044959
  C        15.1360488165     -16.6785172244      -8.9413428203
  S        14.2176664181     -16.6460268819     -10.5336522313
  O        14.8606358222     -17.5528802530     -11.4800166279
  O        13.9016711314     -15.2577527874     -10.8833152196
  O        12.7805930498     -17.3727130693     -10.1307474103
  C        15.6786756608     -18.0745298050      -8.6393315719
  C        14.6332973676     -19.1473618910      -8.3553649335
  O        13.7455646771     -18.7778372858      -7.2976624898
  C        14.2820051370     -18.9103820196      -5.9897138865
  C        14.0199999596     -17.6550964796      -5.1829530718
  C        12.5750224893     -17.1924748472      -5.2750717871
  O        12.3533117790     -16.0401756417      -4.4466603095
  C        13.3055575348     -15.0877864343      -4.6465511826
  C        13.1505195116     -13.7625951953      -4.3092703932
  S        14.5791541551     -12.8609735406      -4.7764278899
  C        15.3490251952     -14.2714149002      -5.4267413636
  C        14.5569784748     -15.3725380733      -5.2676157804
  O        14.9011720099     -16.6283877407      -5.6887432603
  H        16.7837081101     -15.6297269471      -8.0755147495
  H        15.8555924822     -14.6407145112      -9.2228398129
  H        16.9685425792     -15.8951961399      -9.8194837502
  H        14.3970755351     -16.3827198624      -8.1877744454
  H        12.1316521919     -16.6633661290      -9.9945786215
  H        16.3292900227     -17.9603696238      -7.7623032199
  H        16.3133777102     -18.4091796624      -9.4693647175
  H        13.9974578451     -19.3214968617      -9.2271010549
  H        15.1391457453     -20.0961809764      -8.1167328085
  H        15.3662241459     -19.0912050096      -6.0074700830
  H        13.8067424622     -19.7643546908      -5.4799558816
  H        14.2726888163     -17.8456476065      -4.1262687911
  H        12.3266849201     -16.9602939394      -6.3189619871
  H        11.8996550066     -17.9683648096      -4.9044316641
  H        16.3342883728     -14.2183856203      -5.8664556245
