308
Lattice="10.055095635733188 0.0 0.0 0.0 20.110191271466377 0.0 0.0 0.0 45.736390209668734" Properties=species:S:1:pos:R:3 source=db/raw/wad_sese_4L_2026_09_25/li_outer_relaxed_final_coords.txt source_sha256=7e0b1daea3467b1f25e72d9689ca41f76646907ed74cbad1ad628507f66fcce5 charge=0 spin=0 pbc="T T F"
P        4.93424100       2.06296700       1.74074200
P       -0.09333100       7.09049800       1.74071000
P       -0.05861700       2.33843100       6.89456800
P        4.96889700       7.36598800       6.89456200
S        6.38173700       3.19542700       2.78569800
S        1.35412000       8.22300600       2.78566700
S        3.83039100       1.04514300       3.23778100
S        8.85793400       6.07265700       3.23775200
S        3.84486600       3.45948300       0.75102400
S        8.87236800       8.48697800       0.75097000
S        8.62861300       3.38523600       5.71638800
S        3.60106300       8.41278800       5.71634600
S        5.60408800       0.60552800       0.50001100
S        0.57656300       5.63307200       0.50000000
S        1.03570200       1.05818900       5.72973400
S        6.06321400       6.08567100       5.72979100
Li       8.23494000       1.96179800       3.79093200
Li       3.20730400       6.98939200       3.79092400
Li       1.83837300       4.03990700       1.90374300
Li       6.86586600      -0.98772200       1.90370600
Li       7.75457500       9.72559000       6.55907100
Li       2.72689300       4.69817800       6.55912000
Li       3.65770800       9.31565900       1.47235200
Li       8.68530100       4.28804100       1.47233100
Li       2.72110000       2.53970500       4.76521300
Li       7.74854800       7.56717200       4.76513500
Li      -0.43616800      -0.15905500       2.66847300
Li       4.59146800       4.86851500       2.66852900
Li       5.74171100       1.76388000       4.74593000
Li       0.71410500       6.79142300       4.74589500
Li       0.13204700       4.11372600       4.04707500
Li       5.15955100       9.14132200       4.04705600
Cl       9.40184600       7.51199100       6.73780500
Cl       4.95905700       7.42875800       2.28647400
Cl       9.98661400       2.40119300       2.28648900
S        7.40517200       9.86201100       4.20074200
S        2.37761500       4.83450900       4.20077300
P        5.02871085       2.63487620      11.68289995
P        0.01097052       7.67421553      11.68659360
P        0.03398944       2.63625585      16.35745457
P        5.11218863       7.74205478      16.32900228
S        6.24240046       3.84599180      12.81187312
S        1.21778230       8.88529634      12.82092776
S        0.99185400       3.69462600       7.99757100
S        6.01939100       8.72221400       7.99750400
S        3.71701061       1.59278663      12.88148014
S        8.74030055       6.64090054      12.88071097
S        8.85032600       1.16298100       8.18404200
S        3.82273400       6.19059600       8.18406300
S        3.83443580       3.85922394      10.50091329
S        8.88528911       8.88603984      10.47808298
S        8.62419269       3.87995412      15.61296493
S        3.67792318       9.00002263      15.56352792
S        6.02685641       1.33457619      10.48823652
S        1.01391292       6.36692132      10.50169548
S        1.14364848       1.68465367      14.91405297
S        6.14971179       6.70440679      14.89189940
Li       2.71711700       2.28922400       9.03005800
Li       7.74449400       7.31678800       9.03015300
Li       8.01793544       2.44569814      13.79597096
Li       3.01894765       7.49280882      13.79908812
Li       8.12815900       5.29686000       7.13461800
Li       3.10049600       0.26926500       7.13458800
Li       2.84149357       5.59020637      11.89298196
Li       7.86038311       0.56926782      11.89296812
Li       7.26643689      11.19710705      16.37403098
Li       2.12752000       6.13839042      16.45855875
Li       3.22057673       9.79586040      11.42396758
Li       8.29595623       4.77017922      11.43031970
Li       2.85179513       3.17217953      15.71907998
Li       7.94470408       8.15864429      15.54911968
Li       7.77702107       2.76874426       9.57066420
Li       2.75610529       7.80725512       9.56344150
Li       0.29875111       0.84922536      10.27631584
Li       5.32777477       5.87113074      10.27902226
Li       5.14132847       0.54462236      14.53020514
Li       0.12923858       5.60634052      14.51591908
Li       1.71020372       3.09214121      13.02893037
Li       6.71052847       8.12436933      12.98142301
Li       5.34231600       4.22634500       8.23440600
Li       0.31469700       9.25359700       8.23472000
Cl      10.08418330       7.36195528      16.18605781
Cl       4.37430000       2.48446500       6.73783600
Cl       4.46990932       7.60288204      11.70775023
Cl       9.49258152       2.56605200      11.72713263
S        2.27560667      10.07134241       9.30624090
S        7.30188200       5.02751300       9.34307300
S        7.58011247      10.16574523      14.11872282
S        2.50500540       5.13821408      14.18961678
S        1.29773686       3.88331516      17.46017908
S        6.47433885       8.93234379      17.36104037
S        9.32491511       1.09016889      17.49207422
S        4.27521381       6.31319587      17.56066319
Li       9.27347726       5.49214457      17.46680186
Li       4.18146481       0.35012647      17.48470567
Li       4.86969740       4.70091275      14.62039561
Li      -0.09465716       9.79779807      14.70603509
Cl       4.98844672       2.27713115      16.22817881
P        4.93424100      12.11806264       1.74074200
P       -0.09333100      17.14559364       1.74071000
P       -0.05861700      12.39352664       6.89456800
P        4.96889700      17.42108364       6.89456200
S        6.38173700      13.25052264       2.78569800
S        1.35412000      18.27810164       2.78566700
S        3.83039100      11.10023864       3.23778100
S        8.85793400      16.12775264       3.23775200
S        3.84486600      13.51457864       0.75102400
S        8.87236800      18.54207364       0.75097000
S        8.62861300      13.44033164       5.71638800
S        3.60106300      18.46788364       5.71634600
S        5.60408800      10.66062364       0.50001100
S        0.57656300      15.68816764       0.50000000
S        1.03570200      11.11328464       5.72973400
S        6.06321400      16.14076664       5.72979100
Li       8.23494000      12.01689364       3.79093200
Li       3.20730400      17.04448764       3.79092400
Li       1.83837300      14.09500264       1.90374300
Li       6.86586600       9.06737364       1.90370600
Li       7.75457500      19.78068564       6.55907100
Li       2.72689300      14.75327364       6.55912000
Li       3.65770800      19.37075464       1.47235200
Li       8.68530100      14.34313664       1.47233100
Li       2.72110000      12.59480064       4.76521300
Li       7.74854800      17.62226764       4.76513500
Li      -0.43616800       9.89604064       2.66847300
Li       4.59146800      14.92361064       2.66852900
Li       5.74171100      11.81897564       4.74593000
Li       0.71410500      16.84651864       4.74589500
Li       0.13204700      14.16882164       4.04707500
Li       5.15955100      19.19641764       4.04705600
Cl       9.40184600      17.56708664       6.73780500
Cl       4.95905700      17.48385364       2.28647400
Cl       9.98661400      12.45628864       2.28648900
S        7.40517200      19.91710664       4.20074200
S        2.37761500      14.88960464       4.20077300
P        5.05621985      12.69847933      11.65400008
P        0.01566950      17.73479837      11.65315015
P        0.13644289      12.70350597      16.31119579
P        5.09870921      17.63101985      16.34584273
S        6.25945728      13.91087442      12.79385579
S        1.22283225      18.95942184      12.77689102
S        0.99185400      13.74972164       7.99757100
S        6.01939100      18.77730964       7.99750400
S        3.75371011      11.65256100      12.85342733
S        8.78206174      16.67880344      12.85923303
S        8.85032600      11.21807664       8.18404200
S        3.82273400      16.24569164       8.18406300
S        3.84773210      13.91668191      10.47642872
S        8.85106485      18.95486124      10.49272663
S        8.70050322      13.92621903      15.58466813
S        3.60783299      18.86349765      15.62414750
S        6.05525256      11.41055723      10.44940662
S        1.01428756      16.46101624      10.43226202
S        1.23109358      11.78514701      14.84264066
S        6.26510400      16.78178836      14.88974102
Li       2.71711700      12.34431964       9.03005800
Li       7.74449400      17.37188364       9.03015300
Li       8.06797470      12.51128259      13.73722716
Li       3.01468343      17.54696787      13.71023016
Li       8.12815900      15.35195564       7.13461800
Li       3.10049600      10.32436064       7.13458800
Li       2.83904722      15.66661272      11.81663474
Li       7.88007905      10.61686498      11.83780082
Li       7.12529308      21.22536091      16.48860557
Li       2.19126232      16.26427575      16.35691228
Li       3.27638065      19.87129167      11.38746055
Li       8.28267866      14.81923906      11.42801456
Li       2.96179121      13.25734725      15.62033551
Li       7.91139017      18.30178449      15.76979542
Li       7.81506855      12.83873945       9.56976040
Li       2.77504802      17.88547616       9.54240667
Li       0.30790028      10.90433362      10.26204077
Li       5.33592492      15.92934006      10.27688680
Li       5.23124082      10.68566393      14.48438734
Li       0.17173914      15.66718830      14.49312203
Li       1.76513408      13.18246644      12.94977691
Li       6.78680771      18.19145473      13.01242766
Li       5.34231600      14.28144064       8.23440600
Li       0.31469700      19.30869264       8.23472000
Cl      10.08167049      17.41617071      16.19032860
Cl       4.37430000      12.53956064       6.73783600
Cl       4.48813094      17.67647124      11.69154705
Cl       9.51806755      12.63649570      11.68487827
S        2.26842092      20.13836187       9.30093593
S        7.30188200      15.08260864       9.34307300
S        7.52278779      20.22346795      14.19706715
S        2.53416785      15.21755677      14.10024694
S        1.42886741      13.94746757      17.38623938
S        6.30891771      18.88558237      17.51736872
S        9.45373747      11.14345370      17.42745262
S        4.36769456      16.00494415      17.37223744
Li       9.37029120      15.46386144      17.44116547
Li       4.43478625      10.52187319      17.44233514
Li       4.91587983      14.83176410      14.62627162
Li      -0.14274954      19.78626958      14.62832310
Cl       5.13162528      12.41774349      16.16661906
Ag       5.84948728       3.20810724      19.79088914
Ag       5.89373397       6.06057138      19.78430924
Ag       5.84746535       8.99000408      19.84869284
Ag       5.84180604      11.85715422      19.79051123
Ag       5.88442069      14.71350708      19.72449928
Ag       5.88866049      17.59292299      19.85498504
Ag       5.84611087      20.48515388      19.86393163
Ag       8.35235021       4.66231474      19.87612900
Ag       8.39985174       7.50492937      19.76914646
Ag       8.35812645      10.41465233      19.85004832
Ag       8.35468775      13.30021637      19.76949243
Ag       8.37579560      16.14179319      19.85059303
Ag       8.40810120      18.99871453      19.85535685
Ag       8.33832042      21.90923430      19.79196007
Ag      10.88728263       3.22439387      19.90892645
Ag      10.87624370       6.10263905      19.85457120
Ag      10.89203572       8.94191435      19.77421887
Ag      10.90093479      11.80685884      19.79502541
Ag      10.86722899      14.71999467      19.81750886
Ag      10.87430019      17.57951136      19.75669923
Ag      10.91846020      20.44499927      19.74381932
Ag      13.40605091       4.61836306      19.90289677
Ag      13.37865560       7.53004664      19.75149705
Ag      13.38072514      10.39359367      19.85815843
Ag      13.42478299      13.24434200      19.75906097
Ag      13.38565171      16.18416188      19.76350490
Ag      13.37795212      19.04763730      19.82775177
Ag      13.41532130      21.87422167      19.83053270
Ag       6.70469573       4.65436055      22.18267203
Ag       6.73626154       7.52056508      22.13987715
Ag       6.73444337      10.40655611      22.16437230
Ag       6.73988647      13.28176659      22.12986416
Ag       6.72157845      16.14856583      22.16329950
Ag       6.74399342      19.02361411      22.19244680
Ag       6.75546391      21.89933088      22.16992927
Ag       9.24498633       3.21458275      22.19157298
Ag       9.24820441       6.09140675      22.20166095
Ag       9.24392562       8.96105947      22.14383403
Ag       9.25357758      11.85408591      22.15075269
Ag       9.26963537      14.69913413      22.16616338
Ag       9.25193871      17.58142303      22.18096975
Ag       9.26076118      20.46997745      22.14980666
Ag      11.75876965       4.65955129      22.21896694
Ag      11.78848573       7.53386286      22.15184989
Ag      11.73836231      10.39865202      22.16768179
Ag      11.77104538      13.26357536      22.12698069
Ag      11.78219140      16.14806080      22.11832413
Ag      11.74272229      19.02068792      22.14936410
Ag      11.75575796      21.88506745      22.17835112
Ag      14.27203929       3.20617142      22.20136658
Ag      14.28386559       6.10284127      22.16387041
Ag      14.28487146       8.94893851      22.15661780
Ag      14.27392830      11.84069962      22.16515113
Ag      14.28084011      14.71474591      22.09535493
Ag      14.27828967      17.58731748      22.14980965
Ag      14.28283533      20.44468517      22.20906846
Ag       7.59595280       3.22278427      24.51909294
Ag       7.59304773       6.09385672      24.50933917
Ag       7.60188589       8.95981034      24.49266366
Ag       7.60529561      11.84109556      24.48548190
Ag       7.60917054      14.71087583      24.48051459
Ag       7.60310089      17.57734389      24.51681087
Ag       7.60872395      20.45779895      24.51560791
Ag      10.11039591       4.65126013      24.53867741
Ag      10.12467610       7.53528589      24.49282293
Ag      10.10640942      10.40046022      24.50096569
Ag      10.13012446      13.26868535      24.50201703
Ag      10.13142664      16.14506013      24.48356829
Ag      10.11251740      19.02596693      24.50607648
Ag      10.11068573      21.89151783      24.53184557
Ag      12.62294186       3.21118224      24.53763610
Ag      12.63415717       6.09657799      24.51969838
Ag      12.63479023       8.96849846      24.49341882
Ag      12.62816361      11.83796544      24.49208370
Ag      12.63821512      14.70832993      24.46326480
Ag      12.62911160      17.58258508      24.47897120
Ag      12.62235544      20.45260660      24.51066565
Ag      15.13101755       4.65790601      24.52874534
Ag      15.14855844       7.52844831      24.51393175
Ag      15.14480927      10.39935422      24.49176706
Ag      15.14856957      13.28389300      24.46969262
Ag      15.13701711      16.14175946      24.49260530
Ag      15.14763227      19.00655606      24.52616781
Ag      15.15010245      21.88996906      24.51925519
Ag       5.94252723       3.21742662      26.88408925
Ag       5.94566419       6.09443773      26.88328454
Ag       5.95129694       8.96863507      26.86675640
Ag       5.94969669      11.84046394      26.84056368
Ag       5.95314534      14.70754199      26.84642586
Ag       5.94956594      17.57315799      26.87918123
Ag       5.94756628      20.44982674      26.87910422
Ag       8.45452850       4.65673313      26.88462500
Ag       8.46306528       7.53069489      26.85798925
Ag       8.46033237      10.40266293      26.86002124
Ag       8.46605621      13.27228378      26.85043046
Ag       8.47027448      16.13924467      26.85410340
Ag       8.46134374      19.01553042      26.87668271
Ag       8.45580851      21.89182547      26.88874502
Ag      10.97103980       3.21717389      26.90226892
Ag      10.97343147       6.09598197      26.87450275
Ag      10.97741632       8.96669834      26.85850872
Ag      10.97965009      11.83555588      26.86506535
Ag      10.98507912      14.70813687      26.84897483
Ag      10.97768786      17.57939659      26.85138376
Ag      10.97294500      20.45233385      26.88330980
Ag      13.48327345       4.65638325      26.89262403
Ag      13.48948537       7.53287226      26.87325587
Ag      13.49240236      10.40300685      26.85541350
Ag      13.49404134      13.27578274      26.83859258
Ag      13.48893766      16.14304092      26.84898282
Ag      13.48589631      19.01176444      26.86623813
Ag      13.48758516      21.88551951      26.88125487
