 running on   64 total cores
 distrk:  each k-point on   64 cores,    1 groups
 distr:  one band on    4 cores,   16 groups
 using from now: INCAR     
 vasp.5.4.4.18Apr17-6-g9f103f2a35 (build Aug 19 2022 11:57:46) complex          
  
 POSCAR found type information on POSCAR  O  S  C  H 
 POSCAR found :  4 types and      35 ions
 scaLAPACK will be used

 ----------------------------------------------------------------------------- 
|                                                                             |
|  ADVICE TO THIS USER RUNNING 'VASP/VAMP'   (HEAR YOUR MASTER'S VOICE ...):  |
|                                                                             |
|      You have a (more or less) 'large supercell' and for larger cells       |
|      it might be more efficient to use real space projection opertators     |
|      So try LREAL= Auto  in the INCAR   file.                               |
|      Mind:          For very  accurate calculation you might also keep the  |
|      reciprocal projection scheme          (i.e. LREAL=.FALSE.)             |
|                                                                             |
 ----------------------------------------------------------------------------- 

 LDA part: xc-table for Pade appr. of Perdew
 POSCAR found type information on POSCAR  O  S  C  H 
 POSCAR found :  4 types and      35 ions
 POSCAR, INCAR and KPOINTS ok, starting setup
 FFT: planning ...
 WAVECAR not read
 entering main loop
       N       E                     dE             d eps       ncg     rms          rms(c)
DAV:   1     0.109292754732E+04    0.10929E+04   -0.18941E+04   384   0.621E+02
DAV:   2     0.505097608592E+03   -0.58783E+03   -0.56363E+03   544   0.971E+01
DAV:   3    -0.611734364695E+02   -0.56627E+03   -0.54971E+03   512   0.100E+02
DAV:   4    -0.213987039387E+03   -0.15281E+03   -0.15030E+03   384   0.732E+01
DAV:   5    -0.223729351540E+03   -0.97423E+01   -0.97092E+01   416   0.206E+01    0.431E+01
DAV:   6    -0.207429714383E+03    0.16300E+02   -0.46410E+01   416   0.194E+01    0.257E+01
DAV:   7    -0.204794242794E+03    0.26355E+01   -0.11536E+01   448   0.108E+01    0.627E+00
DAV:   8    -0.204701715851E+03    0.92527E-01   -0.10296E+00   416   0.353E+00    0.319E+00
DAV:   9    -0.204669200842E+03    0.32515E-01   -0.15157E-01   432   0.129E+00    0.199E+00
DAV:  10    -0.204653434091E+03    0.15767E-01   -0.28425E-02   448   0.583E-01    0.926E-01
DAV:  11    -0.204639155863E+03    0.14278E-01   -0.10193E-02   448   0.344E-01    0.293E-01
DAV:  12    -0.204634813386E+03    0.43425E-02   -0.54096E-03   464   0.242E-01    0.192E-01
DAV:  13    -0.204635510196E+03   -0.69681E-03   -0.29304E-03   432   0.163E-01    0.142E-01
DAV:  14    -0.204636365475E+03   -0.85528E-03   -0.43881E-03   448   0.177E-01    0.975E-02
DAV:  15    -0.204635321187E+03    0.10443E-02   -0.34796E-03   432   0.161E-01    0.760E-02
DAV:  16    -0.204637911113E+03   -0.25899E-02   -0.18689E-03   464   0.133E-01    0.602E-02
DAV:  17    -0.204643751661E+03   -0.58405E-02   -0.78530E-04   464   0.897E-02    0.498E-02
DAV:  18    -0.204651473957E+03   -0.77223E-02   -0.89679E-04   416   0.847E-02    0.392E-02
DAV:  19    -0.204656957772E+03   -0.54838E-02   -0.81156E-04   448   0.788E-02    0.324E-02
DAV:  20    -0.204660565805E+03   -0.36080E-02   -0.54218E-04   432   0.655E-02    0.267E-02
DAV:  21    -0.204663076777E+03   -0.25110E-02   -0.59107E-04   448   0.633E-02    0.229E-02
DAV:  22    -0.204664019556E+03   -0.94278E-03   -0.15719E-04   432   0.386E-02    0.202E-02
DAV:  23    -0.204664782757E+03   -0.76320E-03   -0.76501E-05   400   0.300E-02    0.170E-02
DAV:  24    -0.204665333692E+03   -0.55093E-03   -0.48575E-05   416   0.220E-02    0.152E-02
DAV:  25    -0.204665890587E+03   -0.55689E-03   -0.36852E-05   400   0.214E-02    0.138E-02
DAV:  26    -0.204666832006E+03   -0.94142E-03   -0.55481E-05   384   0.210E-02    0.107E-02
DAV:  27    -0.204667419062E+03   -0.58706E-03   -0.40097E-05   432   0.171E-02    0.861E-03
DAV:  28    -0.204668354646E+03   -0.93558E-03   -0.35790E-05   352   0.156E-02    0.779E-03
DAV:  29    -0.204668910685E+03   -0.55604E-03   -0.17194E-05   416   0.130E-02    0.712E-03
DAV:  30    -0.204669476826E+03   -0.56614E-03   -0.14201E-05   384   0.109E-02    0.556E-03
DAV:  31    -0.204670022442E+03   -0.54562E-03   -0.22484E-05   400   0.110E-02    0.538E-03
DAV:  32    -0.204670245633E+03   -0.22319E-03   -0.98302E-06   352   0.863E-03    0.489E-03
DAV:  33    -0.204670562583E+03   -0.31695E-03   -0.54673E-06   384   0.926E-03    0.387E-03
DAV:  34    -0.204670833781E+03   -0.27120E-03   -0.58140E-06   384   0.107E-02    0.339E-03
DAV:  35    -0.204671096341E+03   -0.26256E-03   -0.52250E-06   384   0.114E-02    0.293E-03
DAV:  36    -0.204671323517E+03   -0.22718E-03   -0.43258E-06   384   0.980E-03    0.230E-03
DAV:  37    -0.204671523263E+03   -0.19975E-03   -0.41363E-06   368   0.743E-03    0.174E-03
DAV:  38    -0.204671632559E+03   -0.10930E-03   -0.14169E-06   336   0.495E-03    0.148E-03
DAV:  39    -0.204671759144E+03   -0.12658E-03   -0.14051E-06   256   0.425E-03    0.126E-03
DAV:  40    -0.204671830910E+03   -0.71766E-04   -0.98721E-07   304   0.385E-03    0.113E-03
DAV:  41    -0.204671886370E+03   -0.55460E-04   -0.79377E-07   288   0.347E-03    0.898E-04
DAV:  42    -0.204671932677E+03   -0.46306E-04   -0.61080E-07   256   0.295E-03    0.856E-04
DAV:  43    -0.204671961639E+03   -0.28963E-04   -0.31599E-07   272   0.243E-03    0.722E-04
DAV:  44    -0.204671994192E+03   -0.32553E-04   -0.25177E-07   320   0.237E-03    0.774E-04
DAV:  45    -0.204672013316E+03   -0.19124E-04   -0.82636E-08   320   0.172E-03    0.547E-04
DAV:  46    -0.204672026339E+03   -0.13023E-04   -0.53126E-08   320   0.158E-03    0.562E-04
DAV:  47    -0.204672038573E+03   -0.12234E-04    0.15836E-08   320   0.122E-03    0.420E-04
DAV:  48    -0.204672046460E+03   -0.78868E-05    0.20700E-08   320   0.123E-03    0.337E-04
DAV:  49    -0.204672052999E+03   -0.65390E-05    0.67406E-08   320   0.869E-04    0.332E-04
DAV:  50    -0.204672057416E+03   -0.44170E-05    0.86038E-08   320   0.805E-04    0.275E-04
DAV:  51    -0.204672061795E+03   -0.43794E-05    0.11977E-07   320   0.688E-04    0.285E-04
DAV:  52    -0.204672065390E+03   -0.35951E-05    0.12309E-07   320   0.784E-04    0.227E-04
DAV:  53    -0.204672066448E+03   -0.10572E-05    0.12653E-07   320   0.657E-04    0.281E-04
DAV:  54    -0.204672069460E+03   -0.30126E-05    0.13243E-07   272   0.723E-04    0.183E-04
DAV:  55    -0.204672072241E+03   -0.27811E-05    0.10147E-07   320   0.703E-04    0.339E-04
DAV:  56    -0.204672073998E+03   -0.17565E-05    0.11479E-07   320   0.666E-04    0.187E-04
DAV:  57    -0.204672077727E+03   -0.37289E-05    0.90446E-08   320   0.712E-04    0.308E-04
DAV:  58    -0.204672080093E+03   -0.23668E-05    0.11658E-07   320   0.519E-04    0.195E-04
DAV:  59    -0.204672082963E+03   -0.28691E-05    0.12341E-07   304   0.491E-04    0.175E-04
DAV:  60    -0.204672084110E+03   -0.11477E-05    0.14658E-07   336   0.285E-04    0.148E-04
DAV:  61    -0.204672086688E+03   -0.25780E-05    0.15214E-07   288   0.309E-04    0.155E-04
DAV:  62    -0.204672087655E+03   -0.96639E-06    0.16612E-07   320   0.186E-04
   1 F= -.20538985E+03 E0= -.20538985E+03  d E =-.214190E-16  mag=    -0.0000
