
     Program PWSCF v.7.4.1 starts on 26Sep2026 at 19:48:38 

     This program is part of the open-source Quantum ESPRESSO suite
     for quantum simulation of materials; please cite
         "P. Giannozzi et al., J. Phys.:Condens. Matter 21 395502 (2009);
         "P. Giannozzi et al., J. Phys.:Condens. Matter 29 465901 (2017);
         "P. Giannozzi et al., J. Chem. Phys. 152 154105 (2020);
          URL http://www.quantum-espresso.org", 
     in publications or presentations arising from this work. More details at
     http://www.quantum-espresso.org/quote

     Parallel version (MPI & OpenMP), running on      16 processor cores
     Number of MPI processes:                 1
     Threads/MPI process:                    16

     MPI processes distributed on     1 nodes
     83972 MiB available memory on the printing compute node when the environment starts
 
     Reading input from pw.in

     Current dimensions of program PWSCF are:
     Max number of different atomic species (ntypx) = 10
     Max number of k-points (npk) =  40000
     Max angular momentum in pseudopotentials (lmaxx) =  4
     Presently no symmetry can be used with electric field

     file C.pbe-n-kjpaw_psl.1.0.0.UPF: wavefunction(s)  2S 2P renormalized
 
     Subspace diagonalization in iterative solution of the eigenvalue problem:
     a serial algorithm will be used

 
     G-vector sticks info
     --------------------
     sticks:   dense  smooth     PW     G-vecs:    dense   smooth      PW
     Sum        3193    1273    367               699545   177041   27695
 
     Using Slab Decomposition
 


     bravais-lattice index     =            0
     lattice parameter (alat)  =       9.4208  a.u.
     unit-cell volume          =    3493.5493 (a.u.)^3
     number of atoms/cell      =           20
     number of atomic types    =            2
     number of electrons       =       260.00
     number of Kohn-Sham states=          156
     kinetic-energy cutoff     =      52.0000  Ry
     charge density cutoff     =     520.0000  Ry
     scf convergence threshold =      1.0E-08
     mixing beta               =       0.3000
     number of iterations used =            8  local-TF  mixing
     Exchange-correlation= SLA  PW   PBX  PBC
                           (   1   4   3   4   0   0   0)

     GPU acceleration is ACTIVE.  1 visible GPUs per MPI rank


     celldm(1)=   9.420781  celldm(2)=   0.000000  celldm(3)=   0.000000
     celldm(4)=   0.000000  celldm(5)=   0.000000  celldm(6)=   0.000000

     crystal axes: (cart. coord. in units of alat)
               a(1) = (   1.000000  -0.000000   0.000000 )  
               a(2) = (   0.500000   0.866025   0.000000 )  
               a(3) = (   0.000000   0.000000   4.824757 )  

     reciprocal axes: (cart. coord. in units 2 pi/alat)
               b(1) = (  1.000000 -0.577350  0.000000 )  
               b(2) = (  0.000000  1.154701 -0.000000 )  
               b(3) = ( -0.000000  0.000000  0.207264 )  


     PseudoPot. # 1 for Ag read from file:
     /home/ubuntu/wad4l/pseudo_kgy/Ag_ONCV_PBE-1.0.oncvpsp.upf
     MD5 check sum: 94f47bd0669c641108e45594df92fabc
     Pseudo is Norm-conserving, Zval = 19.0
     Generated using ONCVPSP code by D. R. Hamann
     Using radial grid of 1398 points,  6 beta functions with: 
                l(1) =   0
                l(2) =   0
                l(3) =   1
                l(4) =   1
                l(5) =   2
                l(6) =   2

     PseudoPot. # 2 for C  read from file:
     /home/ubuntu/wad4l/pseudo_kgy/C.pbe-n-kjpaw_psl.1.0.0.UPF
     MD5 check sum: 5d2aebdfa2cae82b50a7e79e9516da0f
     Pseudo is Projector augmented-wave + core cor, Zval =  4.0
     Generated using "atomic" code by A. Dal Corso  v.5.1
     Shape of augmentation charge: PSQ
     Using radial grid of 1073 points,  4 beta functions with: 
                l(1) =   0
                l(2) =   0
                l(3) =   1
                l(4) =   1
     Q(r) pseudized with 0 coefficients 


     atomic species   valence    mass     pseudopotential
     Ag               19.00   107.86820     Ag( 1.00)
     C                 4.00    12.01100     C ( 1.00)

     No symmetry found



   Cartesian axes

     site n.     atom                  positions (alat units)
         1        Ag     tau(   1) = (   0.3337695   0.5765948   0.5717001  )
         2        Ag     tau(   2) = (   0.8337695   0.8652699   0.5717001  )
         3        Ag     tau(   3) = (   0.1686118   0.2891880   1.0412003  )
         4        Ag     tau(   4) = (   0.5004501   0.2909658   0.1002956  )
         5        Ag     tau(   5) = (   0.8337695   0.2879196   0.5717001  )
         6        Ag     tau(   6) = (   0.6682533   0.5780678   1.0411952  )
         7        Ag     tau(   7) = (   0.5010511   0.2905737   1.5138552  )
         8        Ag     tau(   8) = (   1.0004501   0.5796409   0.1002956  )
         9        Ag     tau(   9) = (   1.0010597   0.5792406   1.5110488  )
        10        Ag     tau(  10) = (   0.6686160   0.0009230   1.0411962  )
        11        Ag     tau(  11) = (   1.0004501   0.0022906   0.1002956  )
        12        Ag     tau(  12) = (   1.0010502   0.0018969   1.5138803  )
        13        C      tau(  13) = (   0.5004501   0.2909658   2.1159873  )
        14        C      tau(  14) = (   0.7504501   0.4353033   2.1171052  )
        15        C      tau(  15) = (   0.7504501   0.7239785   2.1171084  )
        16        C      tau(  16) = (   1.0004501   0.8683160   2.1171050  )
        17        C      tau(  17) = (   1.0004501   0.2909658   2.1171091  )
        18        C      tau(  18) = (   1.2504501   0.4353033   2.1171056  )
        19        C      tau(  19) = (   1.2504501   0.7239785   2.1171089  )
        20        C      tau(  20) = (   1.5004501   0.8683160   2.1159979  )

     --------------------------------------------
     DFT-D3 Dispersion Correction (no 3-body):
     --------------------------------------------
       Reference C6 values for interpolation: 

         atom   Coordination number   C6
         C          0.000            98.23
         C          0.987            86.49
         C          1.998            58.72
         C          2.999            51.56
         C          3.984            36.41
         Ag         0.000           853.49
         Ag         0.968           537.23

       Values used:

         atom   Coordination number  R0_AB[au]  C6      C8
         Ag         9.086            3.147    537.23  47741.54
         Ag         9.086            3.147    537.23  47741.54
         Ag         9.084            3.147    537.23  47741.54
         Ag         6.766            3.147    537.23  47741.54
         Ag         9.086            3.147    537.23  47741.54
         Ag         9.084            3.147    537.23  47741.54
         Ag         6.922            3.147    537.23  47741.54
         Ag         6.766            3.147    537.23  47741.54
         Ag         6.926            3.147    537.23  47741.54
         Ag         9.084            3.147    537.23  47741.54
         Ag         6.766            3.147    537.23  47741.54
         Ag         6.922            3.147    537.23  47741.54
         C          3.358            2.750     47.31   1368.20
         C          3.321            2.750     48.15   1392.63
         C          3.321            2.750     48.15   1392.63
         C          3.321            2.750     48.15   1392.63
         C          3.321            2.750     48.15   1392.64
         C          3.321            2.750     48.15   1392.64
         C          3.321            2.750     48.15   1392.63
         C          3.358            2.750     47.31   1368.19

         Molecular C6 ( Ry / a.u.^6 ) =    111290.31


     number of k points=    20  Marzari-Vanderbilt smearing, width (Ry)=  0.0100
                       cart. coord. in units 2pi/alat
        k(    1) = (   0.0000000   0.0000000   0.0000000), wk =   0.0555556
        k(    2) = (   0.0000000   0.1924501   0.0000000), wk =   0.1111111
        k(    3) = (   0.0000000   0.3849002   0.0000000), wk =   0.1111111
        k(    4) = (   0.0000000  -0.5773503   0.0000000), wk =   0.0555556
        k(    5) = (   0.1666667  -0.0962250   0.0000000), wk =   0.1111111
        k(    6) = (   0.1666667   0.0962250   0.0000000), wk =   0.1111111
        k(    7) = (   0.1666667   0.2886751   0.0000000), wk =   0.1111111
        k(    8) = (   0.1666667  -0.6735753   0.0000000), wk =   0.1111111
        k(    9) = (   0.1666667  -0.4811252   0.0000000), wk =   0.1111111
        k(   10) = (   0.1666667  -0.2886751   0.0000000), wk =   0.1111111
        k(   11) = (   0.3333333  -0.1924501   0.0000000), wk =   0.1111111
        k(   12) = (   0.3333333  -0.0000000   0.0000000), wk =   0.1111111
        k(   13) = (   0.3333333   0.1924501   0.0000000), wk =   0.1111111
        k(   14) = (   0.3333333  -0.7698004   0.0000000), wk =   0.1111111
        k(   15) = (   0.3333333  -0.5773503   0.0000000), wk =   0.1111111
        k(   16) = (   0.3333333  -0.3849002   0.0000000), wk =   0.1111111
        k(   17) = (  -0.5000000   0.2886751   0.0000000), wk =   0.0555556
        k(   18) = (  -0.5000000   0.4811252   0.0000000), wk =   0.1111111
        k(   19) = (  -0.5000000   0.6735753   0.0000000), wk =   0.1111111
        k(   20) = (  -0.5000000  -0.2886751   0.0000000), wk =   0.0555556

     Dense  grid:   699545 G-vectors     FFT dimensions: (  72,  72, 360)

     Smooth grid:   177041 G-vectors     FFT dimensions: (  45,  45, 216)

     Estimated max dynamical RAM per process >       1.34 GB

     Check: negative core charge=   -0.000001

     Initial potential from superposition of free atoms

     starting charge     259.9962, renormalised to     260.0000

     negative rho (up, down):  1.122E-04 0.000E+00
 
     Adding external electric field

     Computed dipole along edir(3) : 
        Dipole               -0.0110 Ry au,         -0.0278 Debye
        Dipole field         -0.0000 Ry au, 
 
        Potential amp.        0.0034 Ry
        Total length         43.5630 bohr
 
     Starting wfcs are  152 randomized atomic wfcs +    4 random wfcs
     Checking if some PAW data can be deallocated... 

     total cpu time spent up to now is        4.0 secs

     Self-consistent Calculation

     iteration #  1     ecut=    52.00 Ry     beta= 0.30
     Davidson diagonalization with overlap
     ethr =  1.00E-02,  avg # of iterations =  4.9

     Threshold (ethr) on eigenvalues was too large:
     Diagonalizing with lowered threshold

     Davidson diagonalization with overlap
     ethr =  6.01E-04,  avg # of iterations =  2.5

     negative rho (up, down):  3.994E-08 0.000E+00
 
     Adding external electric field

     Computed dipole along edir(3) : 
        Dipole               -0.1239 Ry au,         -0.3150 Debye
        Dipole field         -0.0004 Ry au, 
 
        Potential amp.        0.0388 Ry
        Total length         43.5630 bohr
 

     total cpu time spent up to now is       14.0 secs

     total energy              =   -3596.08790341 Ry
     estimated scf accuracy    <       1.56998367 Ry

     iteration #  2     ecut=    52.00 Ry     beta= 0.30
     Davidson diagonalization with overlap
     ethr =  6.04E-04,  avg # of iterations =  1.4
 
     Adding external electric field

     Computed dipole along edir(3) : 
        Dipole               -0.2854 Ry au,         -0.7254 Debye
        Dipole field         -0.0010 Ry au, 
 
        Potential amp.        0.0894 Ry
        Total length         43.5630 bohr
 

     total cpu time spent up to now is       18.9 secs

     total energy              =   -3595.95636654 Ry
     estimated scf accuracy    <       0.80969270 Ry

     iteration #  3     ecut=    52.00 Ry     beta= 0.30
     Davidson diagonalization with overlap
     ethr =  3.11E-04,  avg # of iterations =  5.5
 
     Adding external electric field

     Computed dipole along edir(3) : 
        Dipole               -0.6793 Ry au,         -1.7265 Debye
        Dipole field         -0.0024 Ry au, 
 
        Potential amp.        0.2129 Ry
        Total length         43.5630 bohr
 

     total cpu time spent up to now is       24.5 secs

     total energy              =   -3595.82987091 Ry
     estimated scf accuracy    <       0.45930236 Ry

     iteration #  4     ecut=    52.00 Ry     beta= 0.30
     Davidson diagonalization with overlap
     ethr =  1.77E-04,  avg # of iterations =  7.7
 
     Adding external electric field

     Computed dipole along edir(3) : 
        Dipole               -0.6673 Ry au,         -1.6962 Debye
        Dipole field         -0.0024 Ry au, 
 
        Potential amp.        0.2091 Ry
        Total length         43.5630 bohr
 

     total cpu time spent up to now is       30.4 secs

     total energy              =   -3595.86927829 Ry
     estimated scf accuracy    <       0.72406969 Ry

     iteration #  5     ecut=    52.00 Ry     beta= 0.30
     Davidson diagonalization with overlap
     ethr =  1.77E-04,  avg # of iterations =  1.0
 
     Adding external electric field

     Computed dipole along edir(3) : 
        Dipole               -0.6650 Ry au,         -1.6903 Debye
        Dipole field         -0.0024 Ry au, 
 
        Potential amp.        0.2084 Ry
        Total length         43.5630 bohr
 

     total cpu time spent up to now is       35.3 secs

     total energy              =   -3595.86839624 Ry
     estimated scf accuracy    <       0.71927751 Ry

     iteration #  6     ecut=    52.00 Ry     beta= 0.30
     Davidson diagonalization with overlap
     ethr =  1.77E-04,  avg # of iterations =  1.0

     negative rho (up, down):  7.935E-04 0.000E+00
 
     Adding external electric field

     Computed dipole along edir(3) : 
        Dipole               -0.9918 Ry au,         -2.5208 Debye
        Dipole field         -0.0036 Ry au, 
 
        Potential amp.        0.3108 Ry
        Total length         43.5630 bohr
 

     total cpu time spent up to now is       40.4 secs

     total energy              =   -3595.85743595 Ry
     estimated scf accuracy    <       0.66298089 Ry

     iteration #  7     ecut=    52.00 Ry     beta= 0.30
     Davidson diagonalization with overlap
     ethr =  1.77E-04,  avg # of iterations =  1.9
 
     Adding external electric field

     Computed dipole along edir(3) : 
        Dipole               -1.0092 Ry au,         -2.5652 Debye
        Dipole field         -0.0036 Ry au, 
 
        Potential amp.        0.3163 Ry
        Total length         43.5630 bohr
 

     total cpu time spent up to now is       45.3 secs

     total energy              =   -3595.85436383 Ry
     estimated scf accuracy    <       0.17153066 Ry

     iteration #  8     ecut=    52.00 Ry     beta= 0.30
     Davidson diagonalization with overlap
     ethr =  6.60E-05,  avg # of iterations =  4.0

     negative rho (up, down):  1.885E-06 0.000E+00
 
     Adding external electric field

     Computed dipole along edir(3) : 
        Dipole               -0.7295 Ry au,         -1.8541 Debye
        Dipole field         -0.0026 Ry au, 
 
        Potential amp.        0.2286 Ry
        Total length         43.5630 bohr
 

     total cpu time spent up to now is       50.5 secs

     total energy              =   -3595.83620352 Ry
     estimated scf accuracy    <       0.21146267 Ry

     iteration #  9     ecut=    52.00 Ry     beta= 0.30
     Davidson diagonalization with overlap
     ethr =  6.60E-05,  avg # of iterations =  2.3

     negative rho (up, down):  1.567E-06 0.000E+00
 
     Adding external electric field

     Computed dipole along edir(3) : 
        Dipole               -0.6515 Ry au,         -1.6558 Debye
        Dipole field         -0.0023 Ry au, 
 
        Potential amp.        0.2042 Ry
        Total length         43.5630 bohr
 

     total cpu time spent up to now is       55.8 secs

     total energy              =   -3595.85307003 Ry
     estimated scf accuracy    <       0.06341013 Ry

     iteration # 10     ecut=    52.00 Ry     beta= 0.30
     Davidson diagonalization with overlap
     ethr =  2.44E-05,  avg # of iterations =  6.4
 
     Adding external electric field

     Computed dipole along edir(3) : 
        Dipole               -0.3938 Ry au,         -1.0009 Debye
        Dipole field         -0.0014 Ry au, 
 
        Potential amp.        0.1234 Ry
        Total length         43.5630 bohr
 

     total cpu time spent up to now is       61.6 secs

     total energy              =   -3595.82973644 Ry
     estimated scf accuracy    <       0.05639737 Ry

     iteration # 11     ecut=    52.00 Ry     beta= 0.30
     Davidson diagonalization with overlap
     ethr =  2.17E-05,  avg # of iterations =  7.8
 
     Adding external electric field

     Computed dipole along edir(3) : 
        Dipole               -0.3074 Ry au,         -0.7812 Debye
        Dipole field         -0.0011 Ry au, 
 
        Potential amp.        0.0963 Ry
        Total length         43.5630 bohr
 

     total cpu time spent up to now is       67.6 secs

     total energy              =   -3595.83718272 Ry
     estimated scf accuracy    <       0.01872620 Ry

     iteration # 12     ecut=    52.00 Ry     beta= 0.30
     Davidson diagonalization with overlap
     c_bands:  2 eigenvalues not converged
     ethr =  7.20E-06,  avg # of iterations = 11.2

     negative rho (up, down):  9.872E-03 0.000E+00
 
     Adding external electric field

     Computed dipole along edir(3) : 
        Dipole                0.1339 Ry au,          0.3404 Debye
        Dipole field          0.0005 Ry au, 
 
        Potential amp.       -0.0420 Ry
        Total length         43.5630 bohr
 

     total cpu time spent up to now is       73.8 secs

     total energy              =   -3595.83130716 Ry
     estimated scf accuracy    <       0.02359772 Ry

     iteration # 13     ecut=    52.00 Ry     beta= 0.30
     Davidson diagonalization with overlap
     ethr =  7.20E-06,  avg # of iterations = 10.0

     negative rho (up, down):  9.245E-03 0.000E+00
 
     Adding external electric field

     Computed dipole along edir(3) : 
        Dipole                0.1365 Ry au,          0.3471 Debye
        Dipole field          0.0005 Ry au, 
 
        Potential amp.       -0.0428 Ry
        Total length         43.5630 bohr
 

     total cpu time spent up to now is       80.3 secs

     total energy              =   -3595.83256715 Ry
     estimated scf accuracy    <       0.01819661 Ry

     iteration # 14     ecut=    52.00 Ry     beta= 0.30
     Davidson diagonalization with overlap
     ethr =  7.00E-06,  avg # of iterations =  1.0

     negative rho (up, down):  1.425E-03 0.000E+00
 
     Adding external electric field

     Computed dipole along edir(3) : 
        Dipole                0.1537 Ry au,          0.3907 Debye
        Dipole field          0.0006 Ry au, 
 
        Potential amp.       -0.0482 Ry
        Total length         43.5630 bohr
 

     total cpu time spent up to now is       85.1 secs

     total energy              =   -3595.83242690 Ry
     estimated scf accuracy    <       0.00928177 Ry

     iteration # 15     ecut=    52.00 Ry     beta= 0.30
     Davidson diagonalization with overlap
     ethr =  3.57E-06,  avg # of iterations =  7.3

     negative rho (up, down):  1.413E-03 0.000E+00
 
     Adding external electric field

     Computed dipole along edir(3) : 
        Dipole                0.1914 Ry au,          0.4864 Debye
        Dipole field          0.0007 Ry au, 
 
        Potential amp.       -0.0600 Ry
        Total length         43.5630 bohr
 

     total cpu time spent up to now is       91.0 secs

     total energy              =   -3595.83230921 Ry
     estimated scf accuracy    <       0.00632245 Ry

     iteration # 16     ecut=    52.00 Ry     beta= 0.30
     Davidson diagonalization with overlap
     ethr =  2.43E-06,  avg # of iterations =  5.5

     negative rho (up, down):  6.333E-04 0.000E+00
 
     Adding external electric field

     Computed dipole along edir(3) : 
        Dipole                0.1828 Ry au,          0.4647 Debye
        Dipole field          0.0007 Ry au, 
 
        Potential amp.       -0.0573 Ry
        Total length         43.5630 bohr
 

     total cpu time spent up to now is       96.5 secs

     total energy              =   -3595.83213687 Ry
     estimated scf accuracy    <       0.00624711 Ry

     iteration # 17     ecut=    52.00 Ry     beta= 0.30
     Davidson diagonalization with overlap
     ethr =  2.40E-06,  avg # of iterations =  5.0

     negative rho (up, down):  3.710E-03 0.000E+00
 
     Adding external electric field

     Computed dipole along edir(3) : 
        Dipole                0.1426 Ry au,          0.3624 Debye
        Dipole field          0.0005 Ry au, 
 
        Potential amp.       -0.0447 Ry
        Total length         43.5630 bohr
 

     total cpu time spent up to now is      102.1 secs

     total energy              =   -3595.83157631 Ry
     estimated scf accuracy    <       0.00414102 Ry

     iteration # 18     ecut=    52.00 Ry     beta= 0.30
     Davidson diagonalization with overlap
     ethr =  1.59E-06,  avg # of iterations =  8.9

     negative rho (up, down):  3.867E-03 0.000E+00
 
     Adding external electric field

     Computed dipole along edir(3) : 
        Dipole                0.1288 Ry au,          0.3274 Debye
        Dipole field          0.0005 Ry au, 
 
        Potential amp.       -0.0404 Ry
        Total length         43.5630 bohr
 

     total cpu time spent up to now is      108.2 secs

     total energy              =   -3595.83175806 Ry
     estimated scf accuracy    <       0.00040472 Ry

     iteration # 19     ecut=    52.00 Ry     beta= 0.30
     Davidson diagonalization with overlap
     ethr =  1.56E-07,  avg # of iterations =  5.8

     negative rho (up, down):  1.459E-03 0.000E+00
 
     Adding external electric field

     Computed dipole along edir(3) : 
        Dipole                0.1404 Ry au,          0.3568 Debye
        Dipole field          0.0005 Ry au, 
 
        Potential amp.       -0.0440 Ry
        Total length         43.5630 bohr
 

     total cpu time spent up to now is      113.8 secs

     total energy              =   -3595.83177523 Ry
     estimated scf accuracy    <       0.00013322 Ry

     iteration # 20     ecut=    52.00 Ry     beta= 0.30
     Davidson diagonalization with overlap
     ethr =  5.12E-08,  avg # of iterations =  5.8

     negative rho (up, down):  9.022E-04 0.000E+00
 
     Adding external electric field

     Computed dipole along edir(3) : 
        Dipole                0.1547 Ry au,          0.3931 Debye
        Dipole field          0.0006 Ry au, 
 
        Potential amp.       -0.0485 Ry
        Total length         43.5630 bohr
 

     total cpu time spent up to now is      119.5 secs

     total energy              =   -3595.83177678 Ry
     estimated scf accuracy    <       0.00002920 Ry

     iteration # 21     ecut=    52.00 Ry     beta= 0.30
     Davidson diagonalization with overlap
     ethr =  1.12E-08,  avg # of iterations =  5.7

     negative rho (up, down):  8.477E-04 0.000E+00
 
     Adding external electric field

     Computed dipole along edir(3) : 
        Dipole                0.1495 Ry au,          0.3800 Debye
        Dipole field          0.0005 Ry au, 
 
        Potential amp.       -0.0469 Ry
        Total length         43.5630 bohr
 

     total cpu time spent up to now is      125.0 secs

     total energy              =   -3595.83177678 Ry
     estimated scf accuracy    <       0.00001352 Ry

     iteration # 22     ecut=    52.00 Ry     beta= 0.30
     Davidson diagonalization with overlap
     ethr =  5.20E-09,  avg # of iterations =  2.0

     negative rho (up, down):  2.959E-04 0.000E+00
 
     Adding external electric field

     Computed dipole along edir(3) : 
        Dipole                0.1422 Ry au,          0.3614 Debye
        Dipole field          0.0005 Ry au, 
 
        Potential amp.       -0.0446 Ry
        Total length         43.5630 bohr
 

     total cpu time spent up to now is      130.1 secs

     total energy              =   -3595.83176903 Ry
     estimated scf accuracy    <       0.00001452 Ry

     iteration # 23     ecut=    52.00 Ry     beta= 0.30
     Davidson diagonalization with overlap
     ethr =  5.20E-09,  avg # of iterations =  5.5

     negative rho (up, down):  2.081E-04 0.000E+00
 
     Adding external electric field

     Computed dipole along edir(3) : 
        Dipole                0.1479 Ry au,          0.3759 Debye
        Dipole field          0.0005 Ry au, 
 
        Potential amp.       -0.0464 Ry
        Total length         43.5630 bohr
 

     total cpu time spent up to now is      135.7 secs

     total energy              =   -3595.83177027 Ry
     estimated scf accuracy    <       0.00000322 Ry

     iteration # 24     ecut=    52.00 Ry     beta= 0.30
     Davidson diagonalization with overlap
     ethr =  1.24E-09,  avg # of iterations =  2.4

     negative rho (up, down):  2.100E-04 0.000E+00
 
     Adding external electric field

     Computed dipole along edir(3) : 
        Dipole                0.1467 Ry au,          0.3729 Debye
        Dipole field          0.0005 Ry au, 
 
        Potential amp.       -0.0460 Ry
        Total length         43.5630 bohr
 

     total cpu time spent up to now is      141.0 secs

     total energy              =   -3595.83177023 Ry
     estimated scf accuracy    <       0.00001098 Ry

     iteration # 25     ecut=    52.00 Ry     beta= 0.30
     Davidson diagonalization with overlap
     ethr =  1.24E-09,  avg # of iterations =  2.0

     negative rho (up, down):  1.826E-04 0.000E+00
 
     Adding external electric field

     Computed dipole along edir(3) : 
        Dipole                0.1456 Ry au,          0.3700 Debye
        Dipole field          0.0005 Ry au, 
 
        Potential amp.       -0.0456 Ry
        Total length         43.5630 bohr
 

     total cpu time spent up to now is      146.1 secs

     total energy              =   -3595.83177047 Ry
     estimated scf accuracy    <       0.00000116 Ry

     iteration # 26     ecut=    52.00 Ry     beta= 0.30
     Davidson diagonalization with overlap
     ethr =  4.47E-10,  avg # of iterations =  2.0

     negative rho (up, down):  1.657E-04 0.000E+00
 
     Adding external electric field

     Computed dipole along edir(3) : 
        Dipole                0.1454 Ry au,          0.3695 Debye
        Dipole field          0.0005 Ry au, 
 
        Potential amp.       -0.0456 Ry
        Total length         43.5630 bohr
 

     total cpu time spent up to now is      151.2 secs

     total energy              =   -3595.83177059 Ry
     estimated scf accuracy    <       0.00000007 Ry

     iteration # 27     ecut=    52.00 Ry     beta= 0.30
     Davidson diagonalization with overlap
     ethr =  2.73E-11,  avg # of iterations =  2.0

     negative rho (up, down):  1.414E-04 0.000E+00
 
     Adding external electric field

     Computed dipole along edir(3) : 
        Dipole                0.1451 Ry au,          0.3688 Debye
        Dipole field          0.0005 Ry au, 
 
        Potential amp.       -0.0455 Ry
        Total length         43.5630 bohr
 

     total cpu time spent up to now is      156.2 secs

     total energy              =   -3595.83177063 Ry
     estimated scf accuracy    <       0.00000005 Ry

     iteration # 28     ecut=    52.00 Ry     beta= 0.30
     Davidson diagonalization with overlap
     ethr =  1.80E-11,  avg # of iterations =  2.0

     negative rho (up, down):  1.318E-04 0.000E+00
 
     Adding external electric field

     Computed dipole along edir(3) : 
        Dipole                0.1450 Ry au,          0.3686 Debye
        Dipole field          0.0005 Ry au, 
 
        Potential amp.       -0.0454 Ry
        Total length         43.5630 bohr
 

     total cpu time spent up to now is      161.3 secs

     total energy              =   -3595.83177065 Ry
     estimated scf accuracy    <       0.00000002 Ry

     iteration # 29     ecut=    52.00 Ry     beta= 0.30
     Davidson diagonalization with overlap
     ethr =  6.89E-12,  avg # of iterations =  1.4

     negative rho (up, down):  1.201E-04 0.000E+00
 
     Adding external electric field

     Computed dipole along edir(3) : 
        Dipole                0.1451 Ry au,          0.3688 Debye
        Dipole field          0.0005 Ry au, 
 
        Potential amp.       -0.0455 Ry
        Total length         43.5630 bohr
 

     total cpu time spent up to now is      165.9 secs

     End of self-consistent calculation

          k = 0.0000 0.0000 0.0000 ( 22161 PWs)   bands (ev):

   -85.7867 -85.7752 -85.7705 -85.7705 -85.7640 -85.7640 -85.6924 -85.6798
   -85.6776 -85.5603 -85.5468 -85.5467 -49.2970 -49.2707 -49.2705 -49.2694
   -49.2691 -49.2683 -49.2683 -49.2424 -49.2424 -49.2222 -49.2222 -49.2143
   -49.2132 -49.2131 -49.1737 -49.1737 -49.1694 -49.1688 -49.1659 -49.1659
   -49.1546 -49.1543 -49.1160 -49.1103 -49.1083 -49.0842 -49.0841 -49.0430
   -49.0430 -49.0407 -49.0407 -48.9799 -48.9679 -48.9679 -48.9530 -48.9526
   -13.6132  -8.5275  -8.5044  -8.5044  -7.3888  -7.3771  -7.3771  -2.0451
    -1.1023  -0.6726  -0.6726  -0.6599  -0.2217   0.0065   0.1798   0.6670
     0.6700   0.6738   0.6748   0.6799   0.6806   1.0060   1.0060   1.0276
     1.0276   1.1924   1.2008   1.2446   1.2457   1.4602   1.5252   1.5263
     1.5742   1.5765   1.5922   1.5924   1.6388   1.6393   1.6588   1.7173
     1.7180   1.7582   1.7592   1.8444   1.8450   1.8455   1.8477   1.9923
     1.9923   2.0107   2.0107   2.4027   2.4202   2.4896   2.4897   2.5265
     2.5350   2.5853   2.5853   2.6165   2.6166   2.6534   2.6549   2.6658
     2.8917   2.9848   2.9877   3.0006   3.1016   3.1310   3.1780   3.1789
     3.2104   3.2108   3.2634   3.2677   3.4500   3.4503   3.5867   5.5204
     6.7945   7.1496   7.2453   7.2454   9.5350   9.7403   9.7472   9.9350
     9.9355   9.9525   9.9530  10.1267  10.7062  10.7079  10.7379  10.7397
    11.1233  11.1373  11.2195  12.0615  12.3823  12.3839  12.4057  12.4072
    12.6980  12.6996  12.7267  12.7320

          k = 0.0000 0.1925 0.0000 ( 22089 PWs)   bands (ev):

   -85.7855 -85.7743 -85.7713 -85.7710 -85.7645 -85.7643 -85.6914 -85.6803
   -85.6781 -85.5592 -85.5474 -85.5472 -49.2938 -49.2878 -49.2823 -49.2801
   -49.2761 -49.2513 -49.2463 -49.2367 -49.2320 -49.2206 -49.2166 -49.2159
   -49.2103 -49.2092 -49.1848 -49.1809 -49.1786 -49.1729 -49.1658 -49.1573
   -49.1496 -49.1471 -49.1153 -49.1104 -49.1085 -49.0951 -49.0871 -49.0607
   -49.0554 -49.0199 -49.0172 -48.9789 -48.9685 -48.9683 -48.9640 -48.9557
   -13.4522  -9.7135  -8.8810  -8.8671  -6.7619  -6.7527  -5.9407  -1.8502
    -1.1515  -1.1423  -0.8551  -0.5103  -0.0027   0.1842   0.3661   0.3818
     0.5126   0.5615   0.5750   0.6516   0.7812   0.8535   0.9464   0.9507
     1.0179   1.0392   1.1349   1.1729   1.1789   1.3571   1.4371   1.4470
     1.4965   1.5290   1.6523   1.6592   1.6635   1.6749   1.7028   1.7211
     1.7289   1.7532   1.7950   1.8472   1.8680   1.8925   1.9675   1.9683
     1.9831   2.1511   2.2235   2.2573   2.2769   2.2841   2.3022   2.4106
     2.4467   2.4514   2.5260   2.5385   2.5974   2.6272   2.6361   2.7901
     2.8017   2.8190   2.9386   2.9607   2.9977   3.1245   3.1795   3.2042
     3.2610   3.2696   3.3393   3.3644   3.4169   3.5370   3.7152   5.8664
     7.1826   7.2894   7.4700   7.4971   8.0022   8.3245   8.3729   8.7064
     9.2663   9.5430   9.7350   9.7552  10.3394  11.0377  11.2415  11.4340
    11.5662  11.7002  11.8340  12.2347  12.6097  12.6962  12.7384  12.8097
    12.8349  13.4458  13.4593  13.7666

          k = 0.0000 0.3849 0.0000 ( 22135 PWs)   bands (ev):

   -85.7822 -85.7739 -85.7719 -85.7718 -85.7661 -85.7648 -85.6888 -85.6818
   -85.6792 -85.5564 -85.5495 -85.5479 -49.3011 -49.2925 -49.2854 -49.2789
   -49.2728 -49.2459 -49.2431 -49.2270 -49.2241 -49.2169 -49.2093 -49.2085
   -49.1992 -49.1979 -49.1968 -49.1947 -49.1903 -49.1797 -49.1756 -49.1663
   -49.1290 -49.1259 -49.1231 -49.1135 -49.1105 -49.1092 -49.0958 -49.0734
   -49.0498 -48.9980 -48.9944 -48.9927 -48.9762 -48.9703 -48.9691 -48.9646
   -12.9709 -11.0780  -9.2782  -9.2649  -5.6346  -5.6252  -3.8828  -2.2747
    -2.2641  -1.2775  -0.2088  -0.0501   0.1327   0.2322   0.2399   0.3488
     0.4778   0.5039   0.5218   0.5333   0.6071   0.6719   0.6954   0.7510
     0.7907   0.8301   0.9424   1.0554   1.1000   1.1358   1.2021   1.2151
     1.2727   1.3558   1.4759   1.4815   1.5030   1.5173   1.5627   1.6178
     1.6629   1.7147   1.7811   1.8760   1.8962   1.9003   1.9773   2.0269
     2.0459   2.0653   2.0686   2.2156   2.2424   2.2792   2.3227   2.4289
     2.4686   2.5408   2.6098   2.6132   2.6738   2.7393   2.7435   2.8031
     2.9184   2.9567   3.0234   3.1012   3.1249   3.2089   3.2481   3.2565
     3.2865   3.3112   3.3371   3.4109   3.4269   3.5196   4.4600   4.9651
     5.6916   6.6850   7.0413   7.2257   7.6707   8.0209   8.0282   8.2532
     8.5212   8.5360   9.4053  10.3958  10.4138  10.5442  10.9795  11.1954
    11.8785  12.0326  12.0763  12.7794  12.9776  13.1179  13.2132  13.5309
    13.7280  13.7525  13.8262  14.3982

          k = 0.0000-0.5774 0.0000 ( 22116 PWs)   bands (ev):

   -85.7779 -85.7778 -85.7724 -85.7688 -85.7688 -85.7651 -85.6865 -85.6835
   -85.6798 -85.5528 -85.5527 -85.5483 -49.3058 -49.2972 -49.2767 -49.2765
   -49.2528 -49.2524 -49.2456 -49.2314 -49.2312 -49.2190 -49.2059 -49.2045
   -49.2040 -49.1955 -49.1944 -49.1940 -49.1843 -49.1811 -49.1809 -49.1559
   -49.1536 -49.1161 -49.1138 -49.1114 -49.1109 -49.1097 -49.1084 -49.0779
   -49.0260 -49.0259 -48.9852 -48.9790 -48.9790 -48.9731 -48.9730 -48.9694
   -12.1778 -12.1728  -9.4207  -9.4075  -4.8055  -4.7971  -3.1408  -3.1290
    -1.7198  -1.7140  -0.3758  -0.3567  -0.0198   0.0715   0.1373   0.3389
     0.4330   0.4348   0.5131   0.6525   0.6547   0.6624   0.6636   0.7724
     0.8291   0.8313   0.8627   0.8637   0.9604   0.9618   1.0877   1.0923
     1.2856   1.3411   1.3424   1.4251   1.4342   1.4369   1.5781   1.5842
     1.6436   1.6637   1.6655   1.7224   1.7241   1.9470   1.9521   2.0257
     2.0288   2.1172   2.1834   2.2604   2.2655   2.4129   2.4706   2.4755
     2.5769   2.5787   2.7814   2.7945   2.8480   2.8486   2.9362   2.9369
     3.0097   3.0537   3.0546   3.2147   3.2195   3.2212   3.2575   3.3615
     3.4026   3.4042   3.4306   3.4605   3.4992   3.6154   3.9031   3.9046
     5.5330   5.5335   6.4318   7.2593   7.7659   7.7998   7.8264   7.9777
     8.3706   8.3730  10.0963  10.1116  10.4177  11.0251  11.4921  11.4960
    11.7826  12.0576  12.0580  12.6505  12.6539  12.9833  13.1660  13.1668
    13.4062  13.4114  13.7858  13.7949

          k = 0.1667-0.0962 0.0000 ( 22089 PWs)   bands (ev):

   -85.7855 -85.7743 -85.7713 -85.7710 -85.7644 -85.7643 -85.6914 -85.6803
   -85.6781 -85.5592 -85.5474 -85.5472 -49.2938 -49.2884 -49.2819 -49.2800
   -49.2756 -49.2524 -49.2461 -49.2359 -49.2321 -49.2207 -49.2167 -49.2158
   -49.2108 -49.2088 -49.1849 -49.1809 -49.1783 -49.1733 -49.1659 -49.1572
   -49.1496 -49.1471 -49.1153 -49.1104 -49.1085 -49.0951 -49.0871 -49.0606
   -49.0554 -49.0198 -49.0173 -48.9789 -48.9685 -48.9683 -48.9641 -48.9556
   -13.4522  -9.7135  -8.8810  -8.8671  -6.7619  -6.7527  -5.9407  -1.8502
    -1.1515  -1.1423  -0.8551  -0.5103  -0.0032   0.1845   0.3665   0.3808
     0.5149   0.5627   0.5734   0.6523   0.7783   0.8537   0.9497   0.9514
     1.0153   1.0400   1.1341   1.1708   1.1805   1.3569   1.4376   1.4480
     1.4974   1.5283   1.6538   1.6596   1.6609   1.6739   1.7034   1.7205
     1.7259   1.7523   1.7957   1.8466   1.8730   1.8947   1.9672   1.9682
     1.9808   2.1540   2.2234   2.2512   2.2737   2.2842   2.3028   2.4111
     2.4446   2.4560   2.5222   2.5373   2.5992   2.6321   2.6353   2.7896
     2.8043   2.8178   2.9409   2.9619   2.9982   3.1234   3.1815   3.2028
     3.2615   3.2685   3.3389   3.3645   3.4176   3.5372   3.7122   5.8666
     7.1826   7.2893   7.4700   7.4971   8.0031   8.3274   8.3749   8.6979
     9.2689   9.5418   9.7313   9.7552  10.3394  11.0472  11.2448  11.4340
    11.5609  11.6973  11.8358  12.2347  12.6061  12.6998  12.7458  12.8099
    12.8347  13.4458  13.4593  13.7653

          k = 0.1667 0.0962 0.0000 ( 22089 PWs)   bands (ev):

   -85.7855 -85.7743 -85.7713 -85.7710 -85.7644 -85.7643 -85.6914 -85.6803
   -85.6781 -85.5592 -85.5474 -85.5472 -49.2938 -49.2879 -49.2823 -49.2802
   -49.2759 -49.2515 -49.2462 -49.2366 -49.2321 -49.2206 -49.2165 -49.2159
   -49.2104 -49.2091 -49.1849 -49.1808 -49.1786 -49.1730 -49.1657 -49.1574
   -49.1496 -49.1471 -49.1153 -49.1104 -49.1085 -49.0952 -49.0870 -49.0608
   -49.0552 -49.0200 -49.0171 -48.9789 -48.9685 -48.9684 -48.9638 -48.9559
   -13.4522  -9.7135  -8.8810  -8.8671  -6.7619  -6.7527  -5.9407  -1.8502
    -1.1515  -1.1423  -0.8551  -0.5103  -0.0028   0.1844   0.3659   0.3813
     0.5132   0.5619   0.5748   0.6518   0.7807   0.8541   0.9469   0.9511
     1.0166   1.0387   1.1342   1.1730   1.1800   1.3571   1.4371   1.4477
     1.4958   1.5281   1.6522   1.6599   1.6637   1.6742   1.7068   1.7205
     1.7292   1.7527   1.7946   1.8468   1.8654   1.8921   1.9673   1.9683
     1.9863   2.1499   2.2238   2.2562   2.2745   2.2842   2.3022   2.4108
     2.4478   2.4540   2.5268   2.5378   2.5964   2.6239   2.6361   2.7928
     2.8017   2.8198   2.9362   2.9614   2.9964   3.1252   3.1801   3.2039
     3.2640   3.2679   3.3392   3.3647   3.4178   3.5371   3.7144   5.8661
     7.1826   7.2893   7.4700   7.4971   8.0024   8.3256   8.3734   8.7048
     9.2658   9.5431   9.7313   9.7552  10.3394  11.0422  11.2430  11.4340
    11.5651  11.6994  11.8329  12.2347  12.6114  12.6948  12.7421  12.8097
    12.8348  13.4459  13.4593  13.7669

          k = 0.1667 0.2887 0.0000 ( 22093 PWs)   bands (ev):

   -85.7832 -85.7726 -85.7724 -85.7723 -85.7651 -85.7651 -85.6896 -85.6811
   -85.6791 -85.5573 -85.5483 -85.5482 -49.2898 -49.2897 -49.2879 -49.2834
   -49.2831 -49.2433 -49.2430 -49.2266 -49.2265 -49.2227 -49.2091 -49.2089
   -49.2016 -49.2013 -49.1935 -49.1866 -49.1854 -49.1851 -49.1782 -49.1618
   -49.1322 -49.1316 -49.1174 -49.1126 -49.1104 -49.1090 -49.0921 -49.0626
   -49.0625 -49.0012 -49.0010 -48.9846 -48.9769 -48.9693 -48.9693 -48.9610
   -13.1310 -10.3141 -10.3078  -8.0942  -7.0029  -4.8670  -4.8654  -2.4522
    -1.4666  -0.8297  -0.8225  -0.4153   0.3103   0.3193   0.3215   0.4281
     0.4283   0.4650   0.4660   0.4722   0.6476   0.7455   0.7491   0.8825
     0.8905   0.9441   0.9689   0.9712   1.1409   1.1527   1.1541   1.3164
     1.3581   1.4889   1.5140   1.5964   1.6235   1.6292   1.6442   1.6828
     1.7745   1.7976   1.8003   1.8388   1.8623   1.8701   1.8993   1.9545
     2.0384   2.0477   2.0705   2.1721   2.3146   2.3414   2.3532   2.3981
     2.4197   2.4310   2.5644   2.6048   2.6091   2.6775   2.7156   2.7319
     2.8404   2.8467   2.9305   2.9378   2.9775   2.9882   3.2190   3.2225
     3.2876   3.3145   3.3246   3.4660   3.4677   3.9936   4.2297   6.0480
     6.0552   6.4276   6.8106   6.8386   7.0513   8.1410   8.2409   8.2635
     9.2099   9.2577  10.0658  10.0914  10.1946  10.7655  11.1221  11.1273
    11.8619  11.9145  11.9205  12.5942  12.7980  12.8203  13.6044  13.6201
    13.8184  13.8361  14.1240  14.1543

          k = 0.1667-0.6736 0.0000 ( 22151 PWs)   bands (ev):

   -85.7794 -85.7754 -85.7732 -85.7699 -85.7671 -85.7657 -85.6869 -85.6826
   -85.6803 -85.5541 -85.5508 -85.5490 -49.2966 -49.2897 -49.2795 -49.2784
   -49.2726 -49.2460 -49.2446 -49.2419 -49.2202 -49.2176 -49.2118 -49.2045
   -49.2024 -49.2005 -49.1902 -49.1882 -49.1851 -49.1843 -49.1731 -49.1712
   -49.1470 -49.1164 -49.1156 -49.1135 -49.1106 -49.1097 -49.1016 -49.0688
   -49.0470 -49.0169 -48.9853 -48.9843 -48.9742 -48.9714 -48.9706 -48.9700
   -12.4926 -11.5458 -10.6166  -8.0307  -6.1833  -3.8319  -3.7631  -2.7829
    -1.7000  -0.7447  -0.7247  -0.2064   0.0932   0.1552   0.1577   0.2277
     0.2522   0.3970   0.4192   0.4405   0.4641   0.4930   0.6188   0.6284
     0.6573   0.7215   0.7997   0.8221   0.9246   0.9954   1.0258   1.1586
     1.2055   1.3093   1.3726   1.4649   1.5616   1.5763   1.6146   1.6850
     1.7037   1.7237   1.7613   1.8200   1.9174   2.0182   2.0989   2.1384
     2.1667   2.2102   2.2392   2.2857   2.3986   2.4042   2.4500   2.4535
     2.5196   2.5846   2.6246   2.7322   2.7552   2.7637   2.8705   2.8923
     2.9232   2.9877   3.1049   3.1401   3.1656   3.1887   3.2246   3.2501
     3.2774   3.3275   3.3470   3.3948   3.4664   4.0554   4.3386   4.7177
     5.0489   5.1822   5.9385   6.3605   6.8687   7.3751   7.4011   8.6466
     9.2641   9.4929   9.9292  10.8483  11.0670  11.0968  11.3782  11.5663
    11.6226  12.3268  12.3738  12.7093  12.8824  13.3232  13.3516  13.4328
    13.4750  13.7191  13.9227  13.9560

          k = 0.1667-0.4811 0.0000 ( 22151 PWs)   bands (ev):

   -85.7794 -85.7754 -85.7732 -85.7699 -85.7671 -85.7656 -85.6869 -85.6826
   -85.6803 -85.5541 -85.5508 -85.5490 -49.2965 -49.2897 -49.2797 -49.2785
   -49.2728 -49.2457 -49.2447 -49.2417 -49.2203 -49.2175 -49.2117 -49.2046
   -49.2025 -49.2005 -49.1902 -49.1884 -49.1852 -49.1842 -49.1731 -49.1711
   -49.1469 -49.1164 -49.1155 -49.1135 -49.1106 -49.1098 -49.1017 -49.0689
   -49.0468 -49.0171 -48.9853 -48.9845 -48.9743 -48.9714 -48.9704 -48.9700
   -12.4926 -11.5458 -10.6166  -8.0307  -6.1833  -3.8319  -3.7631  -2.7829
    -1.7000  -0.7447  -0.7247  -0.2064   0.0930   0.1550   0.1569   0.2279
     0.2525   0.3972   0.4192   0.4408   0.4628   0.4929   0.6190   0.6313
     0.6572   0.7216   0.8020   0.8217   0.9244   0.9942   1.0238   1.1578
     1.2062   1.3107   1.3751   1.4639   1.5602   1.5744   1.6135   1.6814
     1.7038   1.7202   1.7634   1.8190   1.9188   2.0219   2.1024   2.1376
     2.1709   2.2072   2.2394   2.2871   2.3966   2.4018   2.4495   2.4534
     2.5170   2.5865   2.6249   2.7338   2.7550   2.7647   2.8739   2.8924
     2.9203   2.9868   3.1024   3.1393   3.1656   3.1902   3.2261   3.2522
     3.2765   3.3270   3.3492   3.3956   3.4641   4.0556   4.3386   4.7165
     5.0466   5.1822   5.9386   6.3624   6.8687   7.3762   7.4011   8.6456
     9.2641   9.4930   9.9291  10.8483  11.0671  11.0967  11.3782  11.5663
    11.6225  12.3268  12.3736  12.7091  12.8834  13.3227  13.3519  13.4329
    13.4750  13.7191  13.9223  13.9552

          k = 0.1667-0.2887 0.0000 ( 22093 PWs)   bands (ev):

   -85.7832 -85.7726 -85.7724 -85.7723 -85.7651 -85.7651 -85.6896 -85.6811
   -85.6791 -85.5573 -85.5483 -85.5482 -49.2902 -49.2896 -49.2879 -49.2832
   -49.2829 -49.2438 -49.2428 -49.2263 -49.2261 -49.2224 -49.2094 -49.2092
   -49.2015 -49.2012 -49.1934 -49.1869 -49.1854 -49.1851 -49.1785 -49.1617
   -49.1322 -49.1316 -49.1173 -49.1126 -49.1104 -49.1090 -49.0922 -49.0625
   -49.0624 -49.0013 -49.0011 -48.9849 -48.9769 -48.9693 -48.9692 -48.9607
   -13.1310 -10.3141 -10.3078  -8.0942  -7.0029  -4.8670  -4.8654  -2.4522
    -1.4666  -0.8297  -0.8225  -0.4154   0.3086   0.3191   0.3215   0.4278
     0.4284   0.4650   0.4662   0.4726   0.6512   0.7465   0.7504   0.8828
     0.8907   0.9442   0.9670   0.9694   1.1414   1.1525   1.1557   1.3158
     1.3572   1.4884   1.5138   1.5943   1.6223   1.6292   1.6418   1.6802
     1.7697   1.7949   1.7999   1.8444   1.8659   1.8737   1.8992   1.9510
     2.0414   2.0503   2.0703   2.1723   2.3161   2.3423   2.3541   2.3952
     2.4171   2.4303   2.5616   2.6041   2.6090   2.6811   2.7189   2.7350
     2.8413   2.8471   2.9272   2.9358   2.9816   2.9888   3.2189   3.2227
     3.2861   3.3149   3.3248   3.4656   3.4668   3.9936   4.2269   6.0482
     6.0554   6.4287   6.8100   6.8381   7.0513   8.1410   8.2416   8.2645
     9.2101   9.2577  10.0651  10.0908  10.1946  10.7655  11.1224  11.1283
    11.8618  11.9139  11.9200  12.5943  12.8001  12.8240  13.6042  13.6200
    13.8138  13.8335  14.1250  14.1525

          k = 0.3333-0.1925 0.0000 ( 22135 PWs)   bands (ev):

   -85.7822 -85.7739 -85.7719 -85.7718 -85.7661 -85.7649 -85.6888 -85.6818
   -85.6792 -85.5564 -85.5495 -85.5479 -49.3016 -49.2926 -49.2855 -49.2786
   -49.2723 -49.2469 -49.2423 -49.2265 -49.2240 -49.2170 -49.2093 -49.2085
   -49.1993 -49.1977 -49.1969 -49.1946 -49.1904 -49.1800 -49.1755 -49.1662
   -49.1290 -49.1259 -49.1231 -49.1135 -49.1105 -49.1092 -49.0959 -49.0733
   -49.0499 -48.9979 -48.9945 -48.9928 -48.9762 -48.9703 -48.9690 -48.9644
   -12.9709 -11.0780  -9.2782  -9.2649  -5.6346  -5.6252  -3.8828  -2.2747
    -2.2641  -1.2775  -0.2091  -0.0501   0.1327   0.2326   0.2400   0.3488
     0.4756   0.5056   0.5212   0.5358   0.6093   0.6697   0.6939   0.7525
     0.7898   0.8290   0.9426   1.0548   1.0988   1.1358   1.2021   1.2200
     1.2694   1.3578   1.4743   1.4824   1.5039   1.5172   1.5618   1.6178
     1.6661   1.7092   1.7825   1.8770   1.8938   1.8974   1.9772   2.0270
     2.0445   2.0599   2.0668   2.2211   2.2469   2.2815   2.3232   2.4299
     2.4678   2.5404   2.6118   2.6147   2.6745   2.7383   2.7412   2.8026
     2.9156   2.9586   3.0212   3.1039   3.1255   3.2089   3.2492   3.2569
     3.2860   3.3097   3.3394   3.4095   3.4280   3.5197   4.4574   4.9651
     5.6923   6.6854   7.0469   7.2245   7.6570   8.0207   8.0279   8.2593
     8.5210   8.5347   9.4056  10.3961  10.4138  10.5525  10.9795  11.1923
    11.8777  12.0430  12.0763  12.7796  12.9776  13.1179  13.2002  13.5303
    13.7326  13.7529  13.8220  14.3985

          k = 0.3333-0.0000 0.0000 ( 22093 PWs)   bands (ev):

   -85.7832 -85.7726 -85.7724 -85.7723 -85.7651 -85.7651 -85.6896 -85.6811
   -85.6791 -85.5573 -85.5483 -85.5482 -49.2902 -49.2897 -49.2880 -49.2832
   -49.2829 -49.2437 -49.2430 -49.2263 -49.2261 -49.2223 -49.2094 -49.2091
   -49.2015 -49.2012 -49.1934 -49.1867 -49.1854 -49.1851 -49.1786 -49.1618
   -49.1322 -49.1316 -49.1173 -49.1126 -49.1104 -49.1090 -49.0921 -49.0626
   -49.0624 -49.0013 -49.0010 -48.9847 -48.9769 -48.9693 -48.9692 -48.9609
   -13.1310 -10.3141 -10.3078  -8.0942  -7.0029  -4.8670  -4.8654  -2.4522
    -1.4666  -0.8297  -0.8225  -0.4156   0.3080   0.3191   0.3213   0.4280
     0.4285   0.4652   0.4663   0.4735   0.6504   0.7469   0.7507   0.8822
     0.8900   0.9441   0.9674   0.9699   1.1422   1.1531   1.1558   1.3153
     1.3578   1.4874   1.5128   1.5959   1.6228   1.6292   1.6437   1.6817
     1.7714   1.7945   1.7993   1.8414   1.8642   1.8726   1.8993   1.9512
     2.0408   2.0505   2.0705   2.1719   2.3163   2.3411   2.3519   2.3954
     2.4177   2.4313   2.5627   2.6041   2.6090   2.6802   2.7187   2.7347
     2.8424   2.8483   2.9275   2.9353   2.9808   2.9881   3.2187   3.2223
     3.2884   3.3142   3.3241   3.4672   3.4678   3.9936   4.2261   6.0483
     6.0555   6.4281   6.8099   6.8379   7.0512   8.1407   8.2413   8.2641
     9.2099   9.2577  10.0640  10.0896  10.1946  10.7655  11.1249  11.1291
    11.8619  11.9138  11.9198  12.5944  12.8025  12.8252  13.6043  13.6200
    13.8140  13.8339  14.1253  14.1527

          k = 0.3333 0.1925 0.0000 ( 22135 PWs)   bands (ev):

   -85.7822 -85.7739 -85.7719 -85.7718 -85.7661 -85.7648 -85.6888 -85.6818
   -85.6792 -85.5564 -85.5495 -85.5479 -49.3012 -49.2926 -49.2854 -49.2789
   -49.2727 -49.2461 -49.2429 -49.2269 -49.2240 -49.2171 -49.2092 -49.2082
   -49.1992 -49.1980 -49.1968 -49.1945 -49.1904 -49.1797 -49.1755 -49.1664
   -49.1289 -49.1260 -49.1232 -49.1135 -49.1105 -49.1092 -49.0958 -49.0735
   -49.0497 -48.9982 -48.9942 -48.9925 -48.9762 -48.9702 -48.9691 -48.9647
   -12.9709 -11.0780  -9.2782  -9.2649  -5.6346  -5.6252  -3.8828  -2.2747
    -2.2641  -1.2775  -0.2090  -0.0501   0.1327   0.2324   0.2398   0.3488
     0.4772   0.5039   0.5217   0.5341   0.6080   0.6721   0.6955   0.7503
     0.7910   0.8302   0.9418   1.0548   1.1000   1.1368   1.2021   1.2166
     1.2713   1.3567   1.4743   1.4816   1.5024   1.5173   1.5628   1.6174
     1.6627   1.7132   1.7841   1.8752   1.8964   1.8987   1.9784   2.0247
     2.0464   2.0635   2.0716   2.2148   2.2410   2.2786   2.3236   2.4291
     2.4698   2.5412   2.6104   2.6145   2.6742   2.7377   2.7431   2.8028
     2.9160   2.9569   3.0246   3.1030   3.1253   3.2087   3.2495   3.2570
     3.2849   3.3097   3.3370   3.4114   3.4289   3.5199   4.4592   4.9651
     5.6919   6.6844   7.0433   7.2254   7.6692   8.0207   8.0304   8.2496
     8.5209   8.5316   9.4050  10.3958  10.4138  10.5495  10.9795  11.1948
    11.8776  12.0374  12.0764  12.7794  12.9775  13.1179  13.2157  13.5319
    13.7268  13.7527  13.8267  14.3982

          k = 0.3333-0.7698 0.0000 ( 22151 PWs)   bands (ev):

   -85.7794 -85.7754 -85.7732 -85.7699 -85.7671 -85.7657 -85.6869 -85.6826
   -85.6803 -85.5541 -85.5508 -85.5490 -49.2966 -49.2898 -49.2795 -49.2784
   -49.2726 -49.2460 -49.2445 -49.2419 -49.2202 -49.2176 -49.2119 -49.2045
   -49.2025 -49.2004 -49.1904 -49.1882 -49.1852 -49.1842 -49.1730 -49.1712
   -49.1470 -49.1165 -49.1155 -49.1135 -49.1106 -49.1097 -49.1015 -49.0690
   -49.0468 -49.0169 -48.9851 -48.9845 -48.9742 -48.9714 -48.9707 -48.9700
   -12.4926 -11.5458 -10.6166  -8.0307  -6.1833  -3.8319  -3.7631  -2.7829
    -1.7000  -0.7447  -0.7247  -0.2064   0.0934   0.1555   0.1576   0.2274
     0.2521   0.3966   0.4185   0.4401   0.4641   0.4943   0.6193   0.6286
     0.6573   0.7218   0.7999   0.8221   0.9243   0.9952   1.0255   1.1584
     1.2076   1.3097   1.3721   1.4599   1.5618   1.5779   1.6151   1.6837
     1.7033   1.7243   1.7622   1.8181   1.9180   2.0191   2.0993   2.1376
     2.1677   2.2092   2.2390   2.2857   2.3996   2.4037   2.4505   2.4539
     2.5195   2.5850   2.6239   2.7321   2.7556   2.7641   2.8711   2.8920
     2.9227   2.9869   3.1048   3.1399   3.1655   3.1880   3.2252   3.2522
     3.2769   3.3295   3.3472   3.3942   3.4655   4.0551   4.3387   4.7185
     5.0486   5.1831   5.9370   6.3601   6.8687   7.3748   7.4006   8.6461
     9.2622   9.4927   9.9292  10.8517  11.0670  11.0954  11.3784  11.5657
    11.6226  12.3312  12.3736  12.7094  12.8829  13.3231  13.3516  13.4343
    13.4751  13.7210  13.9224  13.9547

          k = 0.3333-0.5774 0.0000 ( 22161 PWs)   bands (ev):

   -85.7761 -85.7761 -85.7760 -85.7676 -85.7675 -85.7675 -85.6857 -85.6821
   -85.6820 -85.5513 -85.5513 -85.5512 -49.2798 -49.2797 -49.2793 -49.2746
   -49.2741 -49.2739 -49.2409 -49.2407 -49.2405 -49.2098 -49.2097 -49.2093
   -49.1968 -49.1967 -49.1964 -49.1768 -49.1768 -49.1766 -49.1743 -49.1743
   -49.1729 -49.1136 -49.1104 -49.1103 -49.1089 -49.1088 -49.1068 -49.0474
   -49.0473 -49.0472 -48.9772 -48.9771 -48.9769 -48.9719 -48.9719 -48.9718
   -11.7055 -11.7055 -11.6977  -6.8471  -6.8471  -4.6690  -2.0708  -2.0633
    -2.0633  -0.6663  -0.6663  -0.6618   0.0786   0.0790   0.0971   0.2239
     0.2241   0.2244   0.2527   0.2540   0.2609   0.4203   0.4240   0.4255
     0.5684   0.5688   0.5824   0.7514   0.7522   0.7559   1.0225   1.0226
     1.0299   1.4433   1.4437   1.4481   1.6476   1.6489   1.6532   1.7553
     1.7564   1.7598   1.8643   1.8683   1.8687   2.2312   2.2345   2.2368
     2.2989   2.3070   2.3074   2.6038   2.6050   2.6150   2.6786   2.6793
     2.6800   2.8746   2.8766   2.8776   2.9271   2.9273   2.9283   2.9742
     2.9773   2.9777   3.0615   3.0624   3.0628   3.1413   3.1421   3.1429
     3.3362   3.3381   3.3387   3.3791   3.3801   3.3849   4.1789   4.1815
     4.1831   5.6270   5.6270   5.9996   6.0110   6.0133   8.3433   8.3660
     8.3669  10.7985  10.8133  10.8143  11.8074  11.8074  11.8171  12.1322
    12.1355  12.1357  12.6510  12.6539  12.6545  13.1328  13.1781  13.1783
    13.6687  13.7418  13.7430  14.0704

          k = 0.3333-0.3849 0.0000 ( 22151 PWs)   bands (ev):

   -85.7794 -85.7754 -85.7732 -85.7699 -85.7671 -85.7657 -85.6869 -85.6826
   -85.6803 -85.5541 -85.5508 -85.5490 -49.2971 -49.2897 -49.2797 -49.2783
   -49.2724 -49.2455 -49.2440 -49.2423 -49.2204 -49.2178 -49.2117 -49.2044
   -49.2025 -49.2006 -49.1904 -49.1885 -49.1851 -49.1842 -49.1730 -49.1710
   -49.1469 -49.1163 -49.1155 -49.1135 -49.1106 -49.1098 -49.1017 -49.0688
   -49.0469 -49.0172 -48.9854 -48.9844 -48.9743 -48.9714 -48.9703 -48.9699
   -12.4926 -11.5458 -10.6166  -8.0307  -6.1833  -3.8319  -3.7631  -2.7829
    -1.7000  -0.7447  -0.7247  -0.2064   0.0933   0.1561   0.1569   0.2276
     0.2523   0.3965   0.4184   0.4400   0.4626   0.4946   0.6172   0.6325
     0.6573   0.7235   0.8016   0.8211   0.9245   0.9941   1.0228   1.1568
     1.2077   1.3113   1.3723   1.4658   1.5624   1.5763   1.6143   1.6812
     1.7055   1.7171   1.7603   1.8161   1.9185   2.0243   2.1024   2.1340
     2.1656   2.2120   2.2422   2.2854   2.3984   2.4023   2.4494   2.4563
     2.5210   2.5863   2.6226   2.7347   2.7555   2.7640   2.8726   2.8916
     2.9202   2.9870   3.1035   3.1382   3.1642   3.1901   3.2258   3.2513
     3.2776   3.3277   3.3493   3.3968   3.4639   4.0553   4.3387   4.7184
     5.0459   5.1838   5.9338   6.3599   6.8687   7.3763   7.4048   8.6464
     9.2608   9.4929   9.9291  10.8531  11.0670  11.0955  11.3780  11.5647
    11.6225  12.3375  12.3736  12.7090  12.8829  13.3230  13.3520  13.4253
    13.4749  13.7152  13.9224  13.9546

          k =-0.5000 0.2887 0.0000 ( 22116 PWs)   bands (ev):

   -85.7779 -85.7778 -85.7723 -85.7688 -85.7688 -85.7652 -85.6865 -85.6835
   -85.6798 -85.5528 -85.5527 -85.5483 -49.3064 -49.2973 -49.2768 -49.2766
   -49.2521 -49.2517 -49.2448 -49.2318 -49.2316 -49.2192 -49.2056 -49.2045
   -49.2040 -49.1958 -49.1946 -49.1943 -49.1843 -49.1810 -49.1808 -49.1559
   -49.1536 -49.1160 -49.1138 -49.1114 -49.1109 -49.1097 -49.1085 -49.0778
   -49.0261 -49.0260 -48.9853 -48.9790 -48.9789 -48.9731 -48.9730 -48.9694
   -12.1778 -12.1728  -9.4207  -9.4075  -4.8055  -4.7971  -3.1408  -3.1290
    -1.7198  -1.7140  -0.3758  -0.3567  -0.0196   0.0727   0.1374   0.3382
     0.4323   0.4341   0.5113   0.6560   0.6580   0.6627   0.6637   0.7708
     0.8267   0.8290   0.8606   0.8615   0.9640   0.9655   1.0874   1.0920
     1.2886   1.3383   1.3397   1.4277   1.4321   1.4348   1.5790   1.5858
     1.6456   1.6665   1.6673   1.7193   1.7213   1.9446   1.9496   2.0247
     2.0278   2.1112   2.1805   2.2668   2.2720   2.4165   2.4721   2.4770
     2.5788   2.5807   2.7801   2.7950   2.8450   2.8455   2.9333   2.9341
     3.0117   3.0556   3.0565   3.2150   3.2201   3.2219   3.2555   3.3593
     3.4028   3.4045   3.4323   3.4618   3.4996   3.6150   3.9036   3.9052
     5.5313   5.5318   6.4370   7.2424   7.7737   7.8000   7.8267   7.9783
     8.3706   8.3730  10.0959  10.1112  10.4262  11.0214  11.4921  11.4960
    11.7939  12.0575  12.0579  12.6504  12.6539  12.9689  13.1659  13.1667
    13.4062  13.4114  13.7862  13.7952

          k =-0.5000 0.4811 0.0000 ( 22151 PWs)   bands (ev):

   -85.7794 -85.7754 -85.7732 -85.7699 -85.7671 -85.7657 -85.6869 -85.6826
   -85.6803 -85.5541 -85.5508 -85.5490 -49.2971 -49.2896 -49.2797 -49.2784
   -49.2724 -49.2454 -49.2441 -49.2423 -49.2204 -49.2178 -49.2117 -49.2043
   -49.2025 -49.2006 -49.1904 -49.1886 -49.1850 -49.1843 -49.1730 -49.1711
   -49.1469 -49.1164 -49.1156 -49.1135 -49.1106 -49.1097 -49.1016 -49.0688
   -49.0470 -49.0170 -48.9854 -48.9842 -48.9743 -48.9714 -48.9704 -48.9699
   -12.4926 -11.5458 -10.6166  -8.0307  -6.1833  -3.8319  -3.7631  -2.7829
    -1.7000  -0.7447  -0.7247  -0.2064   0.0933   0.1559   0.1564   0.2277
     0.2523   0.3969   0.4189   0.4400   0.4621   0.4938   0.6171   0.6338
     0.6573   0.7236   0.8019   0.8211   0.9241   0.9929   1.0235   1.1572
     1.2074   1.3115   1.3736   1.4679   1.5612   1.5752   1.6142   1.6786
     1.7062   1.7167   1.7618   1.8163   1.9210   2.0222   2.1004   2.1334
     2.1648   2.2136   2.2422   2.2851   2.3985   2.4027   2.4482   2.4558
     2.5212   2.5872   2.6230   2.7347   2.7559   2.7640   2.8722   2.8920
     2.9202   2.9857   3.1042   3.1388   3.1642   3.1894   3.2238   3.2514
     3.2785   3.3282   3.3481   3.3982   3.4660   4.0555   4.3387   4.7177
     5.0455   5.1838   5.9338   6.3600   6.8687   7.3758   7.4048   8.6466
     9.2607   9.4923   9.9291  10.8531  11.0670  11.0967  11.3781  11.5647
    11.6226  12.3374  12.3738  12.7092  12.8824  13.3232  13.3520  13.4253
    13.4748  13.7152  13.9227  13.9560

          k =-0.5000 0.6736 0.0000 ( 22151 PWs)   bands (ev):

   -85.7794 -85.7754 -85.7732 -85.7699 -85.7671 -85.7657 -85.6869 -85.6826
   -85.6803 -85.5541 -85.5508 -85.5490 -49.2966 -49.2897 -49.2797 -49.2785
   -49.2727 -49.2456 -49.2446 -49.2418 -49.2202 -49.2175 -49.2117 -49.2045
   -49.2025 -49.2004 -49.1904 -49.1885 -49.1852 -49.1842 -49.1731 -49.1712
   -49.1469 -49.1165 -49.1155 -49.1135 -49.1106 -49.1097 -49.1016 -49.0690
   -49.0468 -49.0170 -48.9851 -48.9846 -48.9742 -48.9714 -48.9706 -48.9700
   -12.4926 -11.5458 -10.6166  -8.0307  -6.1833  -3.8319  -3.7631  -2.7829
    -1.7000  -0.7447  -0.7247  -0.2064   0.0932   0.1553   0.1562   0.2277
     0.2524   0.3973   0.4189   0.4405   0.4622   0.4934   0.6194   0.6327
     0.6573   0.7220   0.8025   0.8217   0.9238   0.9929   1.0243   1.1579
     1.2080   1.3113   1.3759   1.4608   1.5595   1.5749   1.6140   1.6775
     1.7043   1.7202   1.7657   1.8175   1.9219   2.0207   2.1008   2.1363
     2.1712   2.2078   2.2393   2.2868   2.3975   2.4018   2.4489   2.4533
     2.5172   2.5877   2.6246   2.7339   2.7558   2.7651   2.8741   2.8924
     2.9198   2.9847   3.1029   3.1396   3.1656   3.1888   3.2247   3.2545
     3.2769   3.3295   3.3482   3.3963   3.4653   4.0554   4.3387   4.7166
     5.0458   5.1830   5.9372   6.3621   6.8687   7.3755   7.4004   8.6453
     9.2621   9.4922   9.9292  10.8518  11.0670  11.0964  11.3784  11.5657
    11.6226  12.3311  12.3736  12.7093  12.8834  13.3228  13.3519  13.4344
    13.4751  13.7211  13.9223  13.9554

          k =-0.5000-0.2887 0.0000 ( 22116 PWs)   bands (ev):

   -85.7779 -85.7778 -85.7724 -85.7688 -85.7688 -85.7651 -85.6865 -85.6835
   -85.6798 -85.5528 -85.5527 -85.5483 -49.3059 -49.2973 -49.2768 -49.2765
   -49.2527 -49.2523 -49.2454 -49.2314 -49.2312 -49.2190 -49.2058 -49.2045
   -49.2041 -49.1958 -49.1943 -49.1939 -49.1842 -49.1812 -49.1810 -49.1559
   -49.1536 -49.1162 -49.1139 -49.1112 -49.1110 -49.1096 -49.1083 -49.0780
   -49.0258 -49.0257 -48.9850 -48.9792 -48.9791 -48.9731 -48.9730 -48.9695
   -12.1778 -12.1728  -9.4207  -9.4075  -4.8055  -4.7971  -3.1408  -3.1290
    -1.7198  -1.7140  -0.3759  -0.3567  -0.0196   0.0719   0.1371   0.3385
     0.4328   0.4346   0.5135   0.6536   0.6558   0.6624   0.6636   0.7725
     0.8286   0.8307   0.8623   0.8633   0.9608   0.9624   1.0875   1.0922
     1.2902   1.3390   1.3405   1.4189   1.4364   1.4390   1.5770   1.5835
     1.6442   1.6613   1.6631   1.7241   1.7254   1.9476   1.9526   2.0266
     2.0298   2.1163   2.1834   2.2591   2.2644   2.4118   2.4714   2.4762
     2.5776   2.5793   2.7851   2.7951   2.8464   2.8470   2.9357   2.9366
     3.0091   3.0543   3.0552   3.2145   3.2215   3.2233   3.2565   3.3613
     3.4022   3.4039   3.4309   3.4608   3.4983   3.6158   3.9034   3.9050
     5.5324   5.5328   6.4346   7.2573   7.7671   7.7992   7.8258   7.9703
     8.3706   8.3730  10.0957  10.1110  10.4228  11.0249  11.4920  11.4959
    11.7874  12.0577  12.0580  12.6505  12.6539  12.9864  13.1662  13.1670
    13.4062  13.4114  13.7858  13.7949

     the Fermi energy is     6.3566 ev

!    total energy              =   -3595.83177068 Ry
     estimated scf accuracy    <          9.2E-09 Ry
     smearing contrib. (-TS)   =      -0.00117128 Ry
     internal energy E=F+TS    =   -3595.83059940 Ry

     The total energy is F=E-TS. E is the sum of the following terms:
     one-electron contribution =  -25030.60424456 Ry
     hartree contribution      =   12546.26703273 Ry
     xc contribution           =    -362.21869521 Ry
     ewald contribution        =    9300.56658718 Ry
     DFT-D3 Dispersion         =      -0.51370206 Ry
     electric field correction =       0.00007574 Ry
     one-center paw contrib.   =     -49.32765322 Ry

     convergence has been achieved in  29 iterations

     negative rho (up, down):  1.201E-04 0.000E+00

     Forces acting on atoms (cartesian axes, Ry/au):

     atom    1 type  1   force =     0.00015534    0.00053164    0.00239541
     atom    2 type  1   force =     0.00016597    0.00052637    0.00239658
     atom    3 type  1   force =    -0.00016137   -0.00020709   -0.00023752
     atom    4 type  1   force =     0.00000285   -0.00034324   -0.00118931
     atom    5 type  1   force =     0.00016769    0.00053979    0.00239254
     atom    6 type  1   force =    -0.00043653   -0.00004597   -0.00024965
     atom    7 type  1   force =     0.00009123   -0.00012225   -0.00749686
     atom    8 type  1   force =     0.00000216   -0.00034264   -0.00120488
     atom    9 type  1   force =     0.00008781   -0.00012232   -0.00836161
     atom   10 type  1   force =    -0.00015623    0.00011415   -0.00024826
     atom   11 type  1   force =     0.00000282   -0.00034313   -0.00118920
     atom   12 type  1   force =     0.00009113   -0.00012024   -0.00751420
     atom   13 type  2   force =    -0.00000062   -0.00000861    0.00124492
     atom   14 type  2   force =     0.00186112    0.00104421    0.00300896
     atom   15 type  2   force =     0.00185799   -0.00106084    0.00300476
     atom   16 type  2   force =    -0.00001747   -0.00214777    0.00300999
     atom   17 type  2   force =    -0.00001795    0.00213771    0.00300176
     atom   18 type  2   force =    -0.00184900    0.00107708    0.00301031
     atom   19 type  2   force =    -0.00184923   -0.00109500    0.00300192
     atom   20 type  2   force =     0.00000230   -0.00001184    0.00122434

     Total force =     0.017050     Total SCF correction =     0.000739

     Writing all to output data dir ./tmp/V2_top_fcc_Ed_m03.save/ :
     XML data file, charge density, pseudopotentials, collected wavefunctions
 
     init_run     :      3.59s CPU      3.76s WALL (       1 calls)
     electrons    :    148.25s CPU    161.89s WALL (       1 calls)
     forces       :      0.71s CPU      0.83s WALL (       1 calls)
     force_dftd3  :      0.03s CPU      0.02s WALL (       1 calls)

     Called by init_run:
     wfcinit      :      1.04s CPU      1.61s WALL (       1 calls)
     potinit      :      1.63s CPU      1.22s WALL (       1 calls)
     hinit0       :      0.63s CPU      0.53s WALL (       1 calls)

     Called by electrons:
     c_bands      :     80.81s CPU    100.08s WALL (      30 calls)
     sum_band     :     16.43s CPU     24.32s WALL (      30 calls)
     v_of_rho     :      7.47s CPU      6.23s WALL (      30 calls)
     newd         :      0.43s CPU      0.45s WALL (      30 calls)
                                        0.45s GPU  (      30 calls)
     PAW_pot      :     36.21s CPU     22.76s WALL (      30 calls)
     mix_rho      :      5.17s CPU      5.50s WALL (      30 calls)
     energy_dftd3 :      0.00s CPU      0.00s WALL (       1 calls)

     Called by c_bands:
     init_us_2    :      1.14s CPU      1.44s WALL (    1240 calls)
     cegterg      :     71.11s CPU     71.44s WALL (     600 calls)

     Called by *egterg:
     cdiaghg      :     12.68s CPU     12.98s WALL (    3213 calls)
                                       12.95s GPU  (    3213 calls)
     h_psi        :     45.90s CPU     46.19s WALL (    3253 calls)
                                       46.07s GPU  (    3253 calls)
     s_psi        :      1.32s CPU      1.29s WALL (    3253 calls)
     g_psi        :      0.02s CPU      0.36s WALL (    2633 calls)
                                        0.34s GPU  (    2633 calls)

     Called by h_psi:
     h_psi:calbec :      0.13s CPU      1.98s WALL (    3253 calls)
                                        1.96s GPU  (    3253 calls)
     vloc_psi     :     40.22s CPU     40.42s WALL (    3253 calls)
                                       40.40s GPU  (    3253 calls)
     add_vuspsi   :      1.37s CPU      3.28s WALL (    3253 calls)
                                        3.26s GPU  (    3253 calls)

     General routines
     calbec       :      0.15s CPU      0.16s WALL (    3933 calls)
     fft          :      1.39s CPU      1.52s WALL (     400 calls)
                                        0.12s GPU  (     370 calls)
     ffts         :      0.29s CPU      0.51s WALL (    3112 calls)
                                        0.24s GPU  (    3082 calls)
     fftw         :      0.46s CPU     34.27s WALL (   34986 calls)
                                       34.07s GPU  (   34986 calls)
     interpolate  :      1.83s CPU      2.23s WALL (      30 calls)
     davcio       :      2.03s CPU     27.55s WALL (    2346 calls)
 
     Parallel routines
 
     PWSCF        :   2m34.95s CPU   2m48.98s WALL

 
   This run was terminated on:  19:51:27  26Sep2026            

=------------------------------------------------------------------------------=
   JOB DONE.
=------------------------------------------------------------------------------=
