
     Program PWSCF v.7.4.1 starts on  6Oct2026 at 10:16: 0 

     This program is part of the open-source Quantum ESPRESSO suite
     for quantum simulation of materials; please cite
         "P. Giannozzi et al., J. Phys.:Condens. Matter 21 395502 (2009);
         "P. Giannozzi et al., J. Phys.:Condens. Matter 29 465901 (2017);
         "P. Giannozzi et al., J. Chem. Phys. 152 154105 (2020);
          URL http://www.quantum-espresso.org", 
     in publications or presentations arising from this work. More details at
     http://www.quantum-espresso.org/quote

     Parallel version (MPI & OpenMP), running on       1 processor cores
     Number of MPI processes:                 1
     Threads/MPI process:                     1

     MPI processes distributed on     1 nodes
     12596 MiB available memory on the printing compute node when the environment starts
 
     Reading input from pw.in

     Current dimensions of program PWSCF are:
     Max number of different atomic species (ntypx) = 10
     Max number of k-points (npk) =  40000
     Max angular momentum in pseudopotentials (lmaxx) =  4
     Presently no symmetry can be used with electric field

     file C.pbe-n-kjpaw_psl.1.0.0.UPF: wavefunction(s)  2S 2P renormalized
 
     Subspace diagonalization in iterative solution of the eigenvalue problem:
     a serial algorithm will be used

 
     G-vector sticks info
     --------------------
     sticks:   dense  smooth     PW     G-vecs:    dense   smooth      PW
     Sum        3193    1273    367              1111365   281419   44513
 
     Using Slab Decomposition
 


     bravais-lattice index     =            0
     lattice parameter (alat)  =       9.4208  a.u.
     unit-cell volume          =    5549.9755 (a.u.)^3
     number of atoms/cell      =           44
     number of atomic types    =            2
     number of electrons       =       356.00
     number of Kohn-Sham states=          214
     kinetic-energy cutoff     =      52.0000  Ry
     charge density cutoff     =     520.0000  Ry
     scf convergence threshold =      1.0E-08
     mixing beta               =       0.3000
     number of iterations used =            8  local-TF  mixing
     Exchange-correlation= SLA  PW   PBX  PBC
                           (   1   4   3   4   0   0   0)

     GPU acceleration is ACTIVE.  1 visible GPUs per MPI rank


     celldm(1)=   9.420781  celldm(2)=   0.000000  celldm(3)=   0.000000
     celldm(4)=   0.000000  celldm(5)=   0.000000  celldm(6)=   0.000000

     crystal axes: (cart. coord. in units of alat)
               a(1) = (   1.000000  -0.000000   0.000000 )  
               a(2) = (   0.500000   0.866025   0.000000 )  
               a(3) = (   0.000000   0.000000   7.664780 )  

     reciprocal axes: (cart. coord. in units 2 pi/alat)
               b(1) = (  1.000000 -0.577350  0.000000 )  
               b(2) = (  0.000000  1.154701 -0.000000 )  
               b(3) = ( -0.000000  0.000000  0.130467 )  


     PseudoPot. # 1 for Ag read from file:
     /home/kgy/work/pseudo/Ag_ONCV_PBE-1.0.oncvpsp.upf
     MD5 check sum: 94f47bd0669c641108e45594df92fabc
     Pseudo is Norm-conserving, Zval = 19.0
     Generated using ONCVPSP code by D. R. Hamann
     Using radial grid of 1398 points,  6 beta functions with: 
                l(1) =   0
                l(2) =   0
                l(3) =   1
                l(4) =   1
                l(5) =   2
                l(6) =   2

     PseudoPot. # 2 for C  read from file:
     /home/kgy/work/pseudo/C.pbe-n-kjpaw_psl.1.0.0.UPF
     MD5 check sum: 5d2aebdfa2cae82b50a7e79e9516da0f
     Pseudo is Projector augmented-wave + core cor, Zval =  4.0
     Generated using "atomic" code by A. Dal Corso  v.5.1
     Shape of augmentation charge: PSQ
     Using radial grid of 1073 points,  4 beta functions with: 
                l(1) =   0
                l(2) =   0
                l(3) =   1
                l(4) =   1
     Q(r) pseudized with 0 coefficients 


     atomic species   valence    mass     pseudopotential
     Ag               19.00   107.86820     Ag( 1.00)
     C                 4.00    12.01100     C ( 1.00)

     No symmetry found



   Cartesian axes

     site n.     atom                  positions (alat units)
         1        Ag     tau(   1) = (   0.3337695   0.5765948   0.5717001  )
         2        Ag     tau(   2) = (   0.8337695   0.8652699   0.5717001  )
         3        Ag     tau(   3) = (   0.1676791   0.2875118   1.0403854  )
         4        Ag     tau(   4) = (   0.5004501   0.2909658   0.1002956  )
         5        Ag     tau(   5) = (   0.8337695   0.2879196   0.5717001  )
         6        Ag     tau(   6) = (   0.6673140   0.5763055   1.0400354  )
         7        Ag     tau(   7) = (   0.4999935   0.2876126   1.5121047  )
         8        Ag     tau(   8) = (   1.0004501   0.5796409   0.1002956  )
         9        Ag     tau(   9) = (   1.0000391   0.5762299   1.5088216  )
        10        Ag     tau(  10) = (   0.6676830  -0.0008807   1.0403239  )
        11        Ag     tau(  11) = (   1.0004501   0.0022906   0.1002956  )
        12        Ag     tau(  12) = (   0.9999999  -0.0011128   1.5120230  )
        13        C      tau(  13) = (   0.5004501   0.2909658   2.1580612  )
        14        C      tau(  14) = (   0.7504501   0.4353033   2.1590864  )
        15        C      tau(  15) = (   0.7504501   0.7239785   2.1588808  )
        16        C      tau(  16) = (   1.0004501   0.8683160   2.1590873  )
        17        C      tau(  17) = (   1.0004501   0.2909658   2.1588827  )
        18        C      tau(  18) = (   1.2504501   0.4353033   2.1590884  )
        19        C      tau(  19) = (   1.2504501   0.7239785   2.1588838  )
        20        C      tau(  20) = (   1.5004501   0.8683160   2.1582385  )
        21        C      tau(  21) = (   0.7504501   0.4353033   2.8398382  )
        22        C      tau(  22) = (   1.0004501   0.5796409   2.8398330  )
        23        C      tau(  23) = (   1.0004501   0.8683160   2.8398383  )
        24        C      tau(  24) = (   1.2504501   1.0126536   2.8398424  )
        25        C      tau(  25) = (   1.2504501   0.4353033   2.8398383  )
        26        C      tau(  26) = (   1.5004501   0.5796409   2.8398424  )
        27        C      tau(  27) = (   1.5004501   0.8683160   2.8398440  )
        28        C      tau(  28) = (   1.7504501   1.0126536   2.8398424  )
        29        C      tau(  29) = (   0.5004501   0.2909658   3.5195391  )
        30        C      tau(  30) = (   0.7504501   0.4353033   3.5195878  )
        31        C      tau(  31) = (   0.7504501   0.7239785   3.5195375  )
        32        C      tau(  32) = (   1.0004501   0.8683160   3.5195878  )
        33        C      tau(  33) = (   1.0004501   0.2909658   3.5195375  )
        34        C      tau(  34) = (   1.2504501   0.4353033   3.5195878  )
        35        C      tau(  35) = (   1.2504501   0.7239785   3.5195375  )
        36        C      tau(  36) = (   1.5004501   0.8683160   3.5195868  )
        37        C      tau(  37) = (   0.7504501   0.4353033   4.1984578  )
        38        C      tau(  38) = (   1.0004501   0.5796409   4.1986159  )
        39        C      tau(  39) = (   1.0004501   0.8683160   4.1984578  )
        40        C      tau(  40) = (   1.2504501   1.0126536   4.1986157  )
        41        C      tau(  41) = (   1.2504501   0.4353033   4.1984578  )
        42        C      tau(  42) = (   1.5004501   0.5796409   4.1986157  )
        43        C      tau(  43) = (   1.5004501   0.8683160   4.1984576  )
        44        C      tau(  44) = (   1.7504501   1.0126536   4.1986157  )

     --------------------------------------------
     DFT-D3 Dispersion Correction (no 3-body):
     --------------------------------------------
       Reference C6 values for interpolation: 

         atom   Coordination number   C6
         C          0.000            98.23
         C          0.987            86.49
         C          1.998            58.72
         C          2.999            51.56
         C          3.984            36.41
         Ag         0.000           853.49
         Ag         0.968           537.23

       Values used:

         atom   Coordination number  R0_AB[au]  C6      C8
         Ag         9.101            3.147    537.23  47741.54
         Ag         9.100            3.147    537.23  47741.54
         Ag         9.113            3.147    537.23  47741.54
         Ag         6.767            3.147    537.23  47741.54
         Ag         9.100            3.147    537.23  47741.54
         Ag         9.112            3.147    537.23  47741.54
         Ag         6.851            3.147    537.23  47741.54
         Ag         6.767            3.147    537.23  47741.54
         Ag         6.884            3.147    537.23  47741.54
         Ag         9.112            3.147    537.23  47741.54
         Ag         6.767            3.147    537.23  47741.54
         Ag         6.852            3.147    537.23  47741.54
         C          3.317            2.750     48.22   1394.62
         C          3.305            2.750     48.47   1401.87
         C          3.305            2.750     48.47   1401.94
         C          3.305            2.750     48.47   1401.86
         C          3.305            2.750     48.47   1401.94
         C          3.305            2.750     48.47   1401.87
         C          3.305            2.750     48.47   1401.93
         C          3.317            2.750     48.22   1394.61
         C          3.282            2.750     48.89   1414.05
         C          3.282            2.750     48.90   1414.23
         C          3.282            2.750     48.89   1414.05
         C          3.282            2.750     48.90   1414.23
         C          3.282            2.750     48.89   1414.05
         C          3.282            2.750     48.90   1414.23
         C          3.282            2.750     48.89   1414.05
         C          3.282            2.750     48.90   1414.23
         C          3.281            2.750     48.91   1414.57
         C          3.281            2.750     48.90   1414.38
         C          3.281            2.750     48.91   1414.57
         C          3.281            2.750     48.90   1414.38
         C          3.281            2.750     48.91   1414.57
         C          3.281            2.750     48.90   1414.38
         C          3.281            2.750     48.91   1414.57
         C          3.281            2.750     48.90   1414.38
         C          3.275            2.750     49.02   1417.74
         C          3.275            2.750     49.02   1417.84
         C          3.275            2.750     49.02   1417.74
         C          3.275            2.750     49.02   1417.83
         C          3.275            2.750     49.02   1417.74
         C          3.275            2.750     49.02   1417.83
         C          3.275            2.750     49.02   1417.74
         C          3.275            2.750     49.02   1417.83

         Molecular C6 ( Ry / a.u.^6 ) =    251387.11


     number of k points=    41  Marzari-Vanderbilt smearing, width (Ry)=  0.0100
                       cart. coord. in units 2pi/alat
        k(    1) = (   0.0000000   0.0000000   0.0000000), wk =   0.0246914
        k(    2) = (   0.0000000   0.1283001   0.0000000), wk =   0.0493827
        k(    3) = (   0.0000000   0.2566001   0.0000000), wk =   0.0493827
        k(    4) = (   0.0000000   0.3849002   0.0000000), wk =   0.0493827
        k(    5) = (   0.0000000   0.5132002   0.0000000), wk =   0.0493827
        k(    6) = (   0.1111111  -0.0641500   0.0000000), wk =   0.0493827
        k(    7) = (   0.1111111   0.0641500   0.0000000), wk =   0.0493827
        k(    8) = (   0.1111111   0.1924501   0.0000000), wk =   0.0493827
        k(    9) = (   0.1111111   0.3207501   0.0000000), wk =   0.0493827
        k(   10) = (   0.1111111   0.4490502   0.0000000), wk =   0.0493827
        k(   11) = (   0.1111111  -0.5773503   0.0000000), wk =   0.0493827
        k(   12) = (   0.1111111  -0.4490502   0.0000000), wk =   0.0493827
        k(   13) = (   0.1111111  -0.3207501   0.0000000), wk =   0.0493827
        k(   14) = (   0.1111111  -0.1924501   0.0000000), wk =   0.0493827
        k(   15) = (   0.2222222  -0.1283001   0.0000000), wk =   0.0493827
        k(   16) = (   0.2222222   0.0000000   0.0000000), wk =   0.0493827
        k(   17) = (   0.2222222   0.1283001   0.0000000), wk =   0.0493827
        k(   18) = (   0.2222222   0.2566001   0.0000000), wk =   0.0493827
        k(   19) = (   0.2222222   0.3849002   0.0000000), wk =   0.0493827
        k(   20) = (   0.2222222  -0.6415003   0.0000000), wk =   0.0493827
        k(   21) = (   0.2222222  -0.5132002   0.0000000), wk =   0.0493827
        k(   22) = (   0.2222222  -0.3849002   0.0000000), wk =   0.0493827
        k(   23) = (   0.2222222  -0.2566001   0.0000000), wk =   0.0493827
        k(   24) = (   0.3333333  -0.1924501   0.0000000), wk =   0.0493827
        k(   25) = (   0.3333333  -0.0641500   0.0000000), wk =   0.0493827
        k(   26) = (   0.3333333   0.0641500   0.0000000), wk =   0.0493827
        k(   27) = (   0.3333333   0.1924501   0.0000000), wk =   0.0493827
        k(   28) = (   0.3333333   0.3207501   0.0000000), wk =   0.0493827
        k(   29) = (   0.3333333  -0.7056503   0.0000000), wk =   0.0493827
        k(   30) = (   0.3333333  -0.5773503   0.0000000), wk =   0.0493827
        k(   31) = (   0.3333333  -0.4490502   0.0000000), wk =   0.0493827
        k(   32) = (   0.3333333  -0.3207501   0.0000000), wk =   0.0493827
        k(   33) = (   0.4444444  -0.2566001   0.0000000), wk =   0.0493827
        k(   34) = (   0.4444444  -0.1283001   0.0000000), wk =   0.0493827
        k(   35) = (   0.4444444   0.0000000   0.0000000), wk =   0.0493827
        k(   36) = (   0.4444444   0.1283001   0.0000000), wk =   0.0493827
        k(   37) = (   0.4444444   0.2566001   0.0000000), wk =   0.0493827
        k(   38) = (   0.4444444  -0.7698004   0.0000000), wk =   0.0493827
        k(   39) = (   0.4444444  -0.6415003   0.0000000), wk =   0.0493827
        k(   40) = (   0.4444444  -0.5132002   0.0000000), wk =   0.0493827
        k(   41) = (   0.4444444  -0.3849002   0.0000000), wk =   0.0493827

     Dense  grid:  1111365 G-vectors     FFT dimensions: (  72,  72, 540)

     Smooth grid:   281419 G-vectors     FFT dimensions: (  45,  45, 360)

     Estimated max dynamical RAM per process >       3.44 GB

     Check: negative core charge=   -0.000002

     Initial potential from superposition of free atoms

     starting charge     355.9952, renormalised to     356.0000

     negative rho (up, down):  2.554E-04 0.000E+00
 
     Adding external electric field

     Computed dipole along edir(3) : 
        Dipole               -0.0091 Ry au,         -0.0231 Debye
        Dipole field         -0.0000 Ry au, 
 
        Potential amp.        0.0029 Ry
        Total length         70.3185 bohr
 
     Starting wfcs are  248 randomized atomic wfcs
     Checking if some PAW data can be deallocated... 

     total cpu time spent up to now is       80.8 secs

     Self-consistent Calculation

     iteration #  1     ecut=    52.00 Ry     beta= 0.30
     Davidson diagonalization with overlap
     ethr =  1.00E-02,  avg # of iterations =  7.4

     negative rho (up, down):  2.639E-07 0.000E+00
 
     Adding external electric field

     Computed dipole along edir(3) : 
        Dipole               -0.1795 Ry au,         -0.4564 Debye
        Dipole field         -0.0004 Ry au, 
 
        Potential amp.        0.0572 Ry
        Total length         70.3185 bohr
 

     total cpu time spent up to now is      357.1 secs

     total energy              =   -4039.45583781 Ry
     estimated scf accuracy    <       6.60671623 Ry

     iteration #  2     ecut=    52.00 Ry     beta= 0.30
     Davidson diagonalization with overlap
     ethr =  1.86E-03,  avg # of iterations =  1.6

     negative rho (up, down):  4.579E-08 0.000E+00
 
     Adding external electric field

     Computed dipole along edir(3) : 
        Dipole               -0.4138 Ry au,         -1.0518 Debye
        Dipole field         -0.0009 Ry au, 
 
        Potential amp.        0.1318 Ry
        Total length         70.3185 bohr
 

     total cpu time spent up to now is      528.0 secs

     total energy              =   -4039.00170087 Ry
     estimated scf accuracy    <       2.26299815 Ry

     iteration #  3     ecut=    52.00 Ry     beta= 0.30
     Davidson diagonalization with overlap
     ethr =  6.36E-04,  avg # of iterations =  4.7

     negative rho (up, down):  1.379E-07 0.000E+00
 
     Adding external electric field

     Computed dipole along edir(3) : 
        Dipole               -0.8229 Ry au,         -2.0917 Debye
        Dipole field         -0.0019 Ry au, 
 
        Potential amp.        0.2620 Ry
        Total length         70.3185 bohr
 

     total cpu time spent up to now is      730.6 secs

     total energy              =   -4038.68274609 Ry
     estimated scf accuracy    <       0.95808942 Ry

     iteration #  4     ecut=    52.00 Ry     beta= 0.30
     Davidson diagonalization with overlap
     c_bands:  1 eigenvalues not converged
     c_bands:  1 eigenvalues not converged
     ethr =  2.69E-04,  avg # of iterations = 12.2

     negative rho (up, down):  8.005E-08 0.000E+00
 
     Adding external electric field

     Computed dipole along edir(3) : 
        Dipole               -1.0035 Ry au,         -2.5505 Debye
        Dipole field         -0.0023 Ry au, 
 
        Potential amp.        0.3195 Ry
        Total length         70.3185 bohr
 

     total cpu time spent up to now is     1030.9 secs

     total energy              =   -4038.76568416 Ry
     estimated scf accuracy    <       1.49463572 Ry

     iteration #  5     ecut=    52.00 Ry     beta= 0.30
     Davidson diagonalization with overlap
     ethr =  2.69E-04,  avg # of iterations =  1.1

     negative rho (up, down):  5.503E-08 0.000E+00
 
     Adding external electric field

     Computed dipole along edir(3) : 
        Dipole               -1.0642 Ry au,         -2.7048 Debye
        Dipole field         -0.0024 Ry au, 
 
        Potential amp.        0.3389 Ry
        Total length         70.3185 bohr
 

     total cpu time spent up to now is     1194.3 secs

     total energy              =   -4038.77054591 Ry
     estimated scf accuracy    <       2.62665912 Ry

     iteration #  6     ecut=    52.00 Ry     beta= 0.30
     Davidson diagonalization with overlap
     ethr =  2.69E-04,  avg # of iterations =  1.0

     negative rho (up, down):  4.535E-07 0.000E+00
 
     Adding external electric field

     Computed dipole along edir(3) : 
        Dipole               -1.3207 Ry au,         -3.3570 Debye
        Dipole field         -0.0030 Ry au, 
 
        Potential amp.        0.4206 Ry
        Total length         70.3185 bohr
 

     total cpu time spent up to now is     1356.6 secs

     total energy              =   -4038.74433259 Ry
     estimated scf accuracy    <       2.62358734 Ry

     iteration #  7     ecut=    52.00 Ry     beta= 0.30
     Davidson diagonalization with overlap
     ethr =  2.69E-04,  avg # of iterations =  2.0

     negative rho (up, down):  1.499E-06 0.000E+00
 
     Adding external electric field

     Computed dipole along edir(3) : 
        Dipole               -1.2574 Ry au,         -3.1960 Debye
        Dipole field         -0.0028 Ry au, 
 
        Potential amp.        0.4004 Ry
        Total length         70.3185 bohr
 

     total cpu time spent up to now is     1528.4 secs

     total energy              =   -4038.73303389 Ry
     estimated scf accuracy    <       1.46563360 Ry

     iteration #  8     ecut=    52.00 Ry     beta= 0.30
     Davidson diagonalization with overlap
     ethr =  2.69E-04,  avg # of iterations =  1.0

     negative rho (up, down):  1.166E-08 0.000E+00
 
     Adding external electric field

     Computed dipole along edir(3) : 
        Dipole               -1.0573 Ry au,         -2.6875 Debye
        Dipole field         -0.0024 Ry au, 
 
        Potential amp.        0.3367 Ry
        Total length         70.3185 bohr
 

     total cpu time spent up to now is     1691.6 secs

     total energy              =   -4038.72969000 Ry
     estimated scf accuracy    <       0.52101940 Ry

     iteration #  9     ecut=    52.00 Ry     beta= 0.30
     Davidson diagonalization with overlap
     c_bands:  1 eigenvalues not converged
     ethr =  1.46E-04,  avg # of iterations =  1.7

     negative rho (up, down):  8.263E-08 0.000E+00
 
     Adding external electric field

     Computed dipole along edir(3) : 
        Dipole               -0.8371 Ry au,         -2.1277 Debye
        Dipole field         -0.0019 Ry au, 
 
        Potential amp.        0.2666 Ry
        Total length         70.3185 bohr
 

     total cpu time spent up to now is     1860.0 secs

     total energy              =   -4038.72720208 Ry
     estimated scf accuracy    <       0.04966919 Ry

     iteration # 10     ecut=    52.00 Ry     beta= 0.30
     Davidson diagonalization with overlap
     c_bands:  1 eigenvalues not converged
     c_bands:  1 eigenvalues not converged
     ethr =  1.40E-05,  avg # of iterations = 12.0

     negative rho (up, down):  6.662E-08 0.000E+00
 
     Adding external electric field

     Computed dipole along edir(3) : 
        Dipole               -0.8224 Ry au,         -2.0904 Debye
        Dipole field         -0.0019 Ry au, 
 
        Potential amp.        0.2619 Ry
        Total length         70.3185 bohr
 

     total cpu time spent up to now is     2133.2 secs

     total energy              =   -4038.72804600 Ry
     estimated scf accuracy    <       0.03889941 Ry

     iteration # 11     ecut=    52.00 Ry     beta= 0.30
     Davidson diagonalization with overlap
     ethr =  1.09E-05,  avg # of iterations =  1.0

     negative rho (up, down):  8.587E-07 0.000E+00
 
     Adding external electric field

     Computed dipole along edir(3) : 
        Dipole               -0.6151 Ry au,         -1.5635 Debye
        Dipole field         -0.0014 Ry au, 
 
        Potential amp.        0.1959 Ry
        Total length         70.3185 bohr
 

     total cpu time spent up to now is     2295.1 secs

     total energy              =   -4038.72287535 Ry
     estimated scf accuracy    <       0.03762390 Ry

     iteration # 12     ecut=    52.00 Ry     beta= 0.30
     Davidson diagonalization with overlap
     ethr =  1.06E-05,  avg # of iterations = 10.8

     negative rho (up, down):  2.159E-06 0.000E+00
 
     Adding external electric field

     Computed dipole along edir(3) : 
        Dipole               -0.4352 Ry au,         -1.1062 Debye
        Dipole field         -0.0010 Ry au, 
 
        Potential amp.        0.1386 Ry
        Total length         70.3185 bohr
 

     total cpu time spent up to now is     2555.4 secs

     total energy              =   -4038.72345354 Ry
     estimated scf accuracy    <       0.03275779 Ry

     iteration # 13     ecut=    52.00 Ry     beta= 0.30
     Davidson diagonalization with overlap
     ethr =  9.20E-06,  avg # of iterations = 10.7

     negative rho (up, down):  1.458E-07 0.000E+00
 
     Adding external electric field

     Computed dipole along edir(3) : 
        Dipole               -0.4509 Ry au,         -1.1460 Debye
        Dipole field         -0.0010 Ry au, 
 
        Potential amp.        0.1436 Ry
        Total length         70.3185 bohr
 

     total cpu time spent up to now is     2815.2 secs

     total energy              =   -4038.72142735 Ry
     estimated scf accuracy    <       0.07444128 Ry

     iteration # 14     ecut=    52.00 Ry     beta= 0.30
     Davidson diagonalization with overlap
     ethr =  9.20E-06,  avg # of iterations =  4.5

     negative rho (up, down):  5.974E-07 0.000E+00
 
     Adding external electric field

     Computed dipole along edir(3) : 
        Dipole               -0.3934 Ry au,         -1.0000 Debye
        Dipole field         -0.0009 Ry au, 
 
        Potential amp.        0.1253 Ry
        Total length         70.3185 bohr
 

     total cpu time spent up to now is     3015.9 secs

     total energy              =   -4038.72194516 Ry
     estimated scf accuracy    <       0.02651952 Ry

     iteration # 15     ecut=    52.00 Ry     beta= 0.30
     Davidson diagonalization with overlap
     ethr =  7.45E-06,  avg # of iterations =  9.5

     negative rho (up, down):  8.115E-04 0.000E+00
 
     Adding external electric field

     Computed dipole along edir(3) : 
        Dipole               -0.3656 Ry au,         -0.9292 Debye
        Dipole field         -0.0008 Ry au, 
 
        Potential amp.        0.1164 Ry
        Total length         70.3185 bohr
 

     total cpu time spent up to now is     3263.9 secs

     total energy              =   -4038.72181315 Ry
     estimated scf accuracy    <       0.03485507 Ry

     iteration # 16     ecut=    52.00 Ry     beta= 0.30
     Davidson diagonalization with overlap
     ethr =  7.45E-06,  avg # of iterations =  7.0

     negative rho (up, down):  4.358E-03 0.000E+00
 
     Adding external electric field

     Computed dipole along edir(3) : 
        Dipole               -0.2099 Ry au,         -0.5336 Debye
        Dipole field         -0.0005 Ry au, 
 
        Potential amp.        0.0668 Ry
        Total length         70.3185 bohr
 

     total cpu time spent up to now is     3488.8 secs

     total energy              =   -4038.72121033 Ry
     estimated scf accuracy    <       0.04004763 Ry

     iteration # 17     ecut=    52.00 Ry     beta= 0.30
     Davidson diagonalization with overlap
     c_bands:  1 eigenvalues not converged
     ethr =  7.45E-06,  avg # of iterations = 11.0

     negative rho (up, down):  5.502E-03 0.000E+00
 
     Adding external electric field

     Computed dipole along edir(3) : 
        Dipole               -0.1509 Ry au,         -0.3836 Debye
        Dipole field         -0.0003 Ry au, 
 
        Potential amp.        0.0481 Ry
        Total length         70.3185 bohr
 

     total cpu time spent up to now is     3753.5 secs

     total energy              =   -4038.72080626 Ry
     estimated scf accuracy    <       0.05678553 Ry

     iteration # 18     ecut=    52.00 Ry     beta= 0.30
     Davidson diagonalization with overlap
     ethr =  7.45E-06,  avg # of iterations =  6.6

     negative rho (up, down):  1.228E-06 0.000E+00
 
     Adding external electric field

     Computed dipole along edir(3) : 
        Dipole               -0.2896 Ry au,         -0.7362 Debye
        Dipole field         -0.0007 Ry au, 
 
        Potential amp.        0.0922 Ry
        Total length         70.3185 bohr
 

     total cpu time spent up to now is     3975.4 secs

     total energy              =   -4038.71941137 Ry
     estimated scf accuracy    <       0.04449341 Ry

     iteration # 19     ecut=    52.00 Ry     beta= 0.30
     Davidson diagonalization with overlap
     ethr =  7.45E-06,  avg # of iterations =  9.6

     negative rho (up, down):  7.862E-04 0.000E+00
 
     Adding external electric field

     Computed dipole along edir(3) : 
        Dipole               -0.2091 Ry au,         -0.5315 Debye
        Dipole field         -0.0005 Ry au, 
 
        Potential amp.        0.0666 Ry
        Total length         70.3185 bohr
 

     total cpu time spent up to now is     4225.6 secs

     total energy              =   -4038.72099791 Ry
     estimated scf accuracy    <       0.02879835 Ry

     iteration # 20     ecut=    52.00 Ry     beta= 0.30
     Davidson diagonalization with overlap
     ethr =  7.45E-06,  avg # of iterations =  4.5

     negative rho (up, down):  1.440E-04 0.000E+00
 
     Adding external electric field

     Computed dipole along edir(3) : 
        Dipole               -0.2576 Ry au,         -0.6548 Debye
        Dipole field         -0.0006 Ry au, 
 
        Potential amp.        0.0820 Ry
        Total length         70.3185 bohr
 

     total cpu time spent up to now is     4428.1 secs

     total energy              =   -4038.72015878 Ry
     estimated scf accuracy    <       0.04793026 Ry

     iteration # 21     ecut=    52.00 Ry     beta= 0.30
     Davidson diagonalization with overlap
     ethr =  7.45E-06,  avg # of iterations =  2.1

     negative rho (up, down):  5.857E-05 0.000E+00
 
     Adding external electric field

     Computed dipole along edir(3) : 
        Dipole               -0.3203 Ry au,         -0.8141 Debye
        Dipole field         -0.0007 Ry au, 
 
        Potential amp.        0.1020 Ry
        Total length         70.3185 bohr
 

     total cpu time spent up to now is     4608.3 secs

     total energy              =   -4038.72032766 Ry
     estimated scf accuracy    <       0.03263325 Ry

     iteration # 22     ecut=    52.00 Ry     beta= 0.30
     Davidson diagonalization with overlap
     ethr =  7.45E-06,  avg # of iterations =  3.9

     negative rho (up, down):  1.283E-02 0.000E+00
 
     Adding external electric field

     Computed dipole along edir(3) : 
        Dipole               -0.0808 Ry au,         -0.2055 Debye
        Dipole field         -0.0002 Ry au, 
 
        Potential amp.        0.0257 Ry
        Total length         70.3185 bohr
 

     total cpu time spent up to now is     4806.0 secs

     total energy              =   -4038.72316504 Ry
     estimated scf accuracy    <       0.03682782 Ry

     iteration # 23     ecut=    52.00 Ry     beta= 0.30
     Davidson diagonalization with overlap
     c_bands:  1 eigenvalues not converged
     c_bands:  1 eigenvalues not converged
     c_bands:  2 eigenvalues not converged
     c_bands:  1 eigenvalues not converged
     c_bands:  4 eigenvalues not converged
     c_bands:  5 eigenvalues not converged
     c_bands:  2 eigenvalues not converged
     ethr =  7.45E-06,  avg # of iterations = 13.4

     negative rho (up, down):  1.085E-02 0.000E+00
 
     Adding external electric field

     Computed dipole along edir(3) : 
        Dipole               -0.0814 Ry au,         -0.2070 Debye
        Dipole field         -0.0002 Ry au, 
 
        Potential amp.        0.0259 Ry
        Total length         70.3185 bohr
 

     total cpu time spent up to now is     5096.2 secs

     total energy              =   -4038.72521570 Ry
     estimated scf accuracy    <       0.60842122 Ry

     iteration # 24     ecut=    52.00 Ry     beta= 0.30
     Davidson diagonalization with overlap
     ethr =  7.45E-06,  avg # of iterations =  2.1

     negative rho (up, down):  5.325E-03 0.000E+00
 
     Adding external electric field

     Computed dipole along edir(3) : 
        Dipole               -0.0331 Ry au,         -0.0840 Debye
        Dipole field         -0.0001 Ry au, 
 
        Potential amp.        0.0105 Ry
        Total length         70.3185 bohr
 

     total cpu time spent up to now is     5271.1 secs

     total energy              =   -4038.72079997 Ry
     estimated scf accuracy    <       0.45396153 Ry

     iteration # 25     ecut=    52.00 Ry     beta= 0.30
     Davidson diagonalization with overlap
     ethr =  7.45E-06,  avg # of iterations =  7.9

     negative rho (up, down):  1.567E-03 0.000E+00
 
     Adding external electric field

     Computed dipole along edir(3) : 
        Dipole               -0.0266 Ry au,         -0.0675 Debye
        Dipole field         -0.0001 Ry au, 
 
        Potential amp.        0.0085 Ry
        Total length         70.3185 bohr
 

     total cpu time spent up to now is     5505.1 secs

     total energy              =   -4038.72024583 Ry
     estimated scf accuracy    <       0.12420424 Ry

     iteration # 26     ecut=    52.00 Ry     beta= 0.30
     Davidson diagonalization with overlap
     ethr =  7.45E-06,  avg # of iterations =  7.6

     negative rho (up, down):  9.433E-04 0.000E+00
 
     Adding external electric field

     Computed dipole along edir(3) : 
        Dipole               -0.0338 Ry au,         -0.0860 Debye
        Dipole field         -0.0001 Ry au, 
 
        Potential amp.        0.0108 Ry
        Total length         70.3185 bohr
 

     total cpu time spent up to now is     5737.7 secs

     total energy              =   -4038.72012585 Ry
     estimated scf accuracy    <       0.05472743 Ry

     iteration # 27     ecut=    52.00 Ry     beta= 0.30
     Davidson diagonalization with overlap
     ethr =  7.45E-06,  avg # of iterations =  1.6

     negative rho (up, down):  3.042E-04 0.000E+00
 
     Adding external electric field

     Computed dipole along edir(3) : 
        Dipole               -0.0325 Ry au,         -0.0826 Debye
        Dipole field         -0.0001 Ry au, 
 
        Potential amp.        0.0104 Ry
        Total length         70.3185 bohr
 

     total cpu time spent up to now is     5907.7 secs

     total energy              =   -4038.71939646 Ry
     estimated scf accuracy    <       0.04369159 Ry

     iteration # 28     ecut=    52.00 Ry     beta= 0.30
     Davidson diagonalization with overlap
     c_bands:  1 eigenvalues not converged
     c_bands:  1 eigenvalues not converged
     c_bands:  1 eigenvalues not converged
     ethr =  7.45E-06,  avg # of iterations =  3.4

     negative rho (up, down):  3.106E-04 0.000E+00
 
     Adding external electric field

     Computed dipole along edir(3) : 
        Dipole               -0.0315 Ry au,         -0.0801 Debye
        Dipole field         -0.0001 Ry au, 
 
        Potential amp.        0.0100 Ry
        Total length         70.3185 bohr
 

     total cpu time spent up to now is     6097.1 secs

     total energy              =   -4038.71940605 Ry
     estimated scf accuracy    <       0.03137139 Ry

     iteration # 29     ecut=    52.00 Ry     beta= 0.30
     Davidson diagonalization with overlap
     c_bands:  1 eigenvalues not converged
     c_bands:  1 eigenvalues not converged
     ethr =  7.45E-06,  avg # of iterations =  2.2

     negative rho (up, down):  9.432E-05 0.000E+00
 
     Adding external electric field

     Computed dipole along edir(3) : 
        Dipole               -0.0288 Ry au,         -0.0731 Debye
        Dipole field         -0.0001 Ry au, 
 
        Potential amp.        0.0092 Ry
        Total length         70.3185 bohr
 

     total cpu time spent up to now is     6271.8 secs

     total energy              =   -4038.71974674 Ry
     estimated scf accuracy    <       0.03083359 Ry

     iteration # 30     ecut=    52.00 Ry     beta= 0.30
     Davidson diagonalization with overlap
     ethr =  7.45E-06,  avg # of iterations =  1.1

     negative rho (up, down):  1.883E-04 0.000E+00
 
     Adding external electric field

     Computed dipole along edir(3) : 
        Dipole               -0.0155 Ry au,         -0.0394 Debye
        Dipole field         -0.0000 Ry au, 
 
        Potential amp.        0.0049 Ry
        Total length         70.3185 bohr
 

     total cpu time spent up to now is     6437.2 secs

     total energy              =   -4038.72056979 Ry
     estimated scf accuracy    <       0.03598383 Ry

     iteration # 31     ecut=    52.00 Ry     beta= 0.30
     Davidson diagonalization with overlap
     ethr =  7.45E-06,  avg # of iterations =  2.0

     negative rho (up, down):  1.716E-04 0.000E+00
 
     Adding external electric field

     Computed dipole along edir(3) : 
        Dipole               -0.0121 Ry au,         -0.0307 Debye
        Dipole field         -0.0000 Ry au, 
 
        Potential amp.        0.0038 Ry
        Total length         70.3185 bohr
 

     total cpu time spent up to now is     6613.0 secs

     total energy              =   -4038.72052836 Ry
     estimated scf accuracy    <       0.07189387 Ry

     iteration # 32     ecut=    52.00 Ry     beta= 0.30
     Davidson diagonalization with overlap
     ethr =  7.45E-06,  avg # of iterations =  1.0

     negative rho (up, down):  1.392E-04 0.000E+00
 
     Adding external electric field

     Computed dipole along edir(3) : 
        Dipole               -0.0538 Ry au,         -0.1366 Debye
        Dipole field         -0.0001 Ry au, 
 
        Potential amp.        0.0171 Ry
        Total length         70.3185 bohr
 

     total cpu time spent up to now is     6775.9 secs

     total energy              =   -4038.71858237 Ry
     estimated scf accuracy    <       0.06160386 Ry

     iteration # 33     ecut=    52.00 Ry     beta= 0.30
     Davidson diagonalization with overlap
     ethr =  7.45E-06,  avg # of iterations =  6.7

     negative rho (up, down):  1.648E-04 0.000E+00
 
     Adding external electric field

     Computed dipole along edir(3) : 
        Dipole               -0.1734 Ry au,         -0.4409 Debye
        Dipole field         -0.0004 Ry au, 
 
        Potential amp.        0.0552 Ry
        Total length         70.3185 bohr
 

     total cpu time spent up to now is     6999.7 secs

     total energy              =   -4038.71735572 Ry
     estimated scf accuracy    <       0.02745002 Ry

     iteration # 34     ecut=    52.00 Ry     beta= 0.30
     Davidson diagonalization with overlap
     c_bands:  1 eigenvalues not converged
     c_bands:  1 eigenvalues not converged
     c_bands:  1 eigenvalues not converged
     c_bands:  1 eigenvalues not converged
     c_bands:  1 eigenvalues not converged
     c_bands:  1 eigenvalues not converged
     ethr =  7.45E-06,  avg # of iterations = 12.4

     negative rho (up, down):  6.938E-05 0.000E+00
 
     Adding external electric field

     Computed dipole along edir(3) : 
        Dipole               -0.1654 Ry au,         -0.4205 Debye
        Dipole field         -0.0004 Ry au, 
 
        Potential amp.        0.0527 Ry
        Total length         70.3185 bohr
 

     total cpu time spent up to now is     7277.4 secs

     total energy              =   -4038.71801135 Ry
     estimated scf accuracy    <       0.00314514 Ry

     iteration # 35     ecut=    52.00 Ry     beta= 0.30
     Davidson diagonalization with overlap
     ethr =  8.83E-07,  avg # of iterations =  7.5

     negative rho (up, down):  6.562E-05 0.000E+00
 
     Adding external electric field

     Computed dipole along edir(3) : 
        Dipole               -0.1626 Ry au,         -0.4132 Debye
        Dipole field         -0.0004 Ry au, 
 
        Potential amp.        0.0518 Ry
        Total length         70.3185 bohr
 

     total cpu time spent up to now is     7509.3 secs

     total energy              =   -4038.71804482 Ry
     estimated scf accuracy    <       0.01095824 Ry

     iteration # 36     ecut=    52.00 Ry     beta= 0.30
     Davidson diagonalization with overlap
     ethr =  8.83E-07,  avg # of iterations =  1.7

     negative rho (up, down):  1.573E-03 0.000E+00
 
     Adding external electric field

     Computed dipole along edir(3) : 
        Dipole               -0.0272 Ry au,         -0.0691 Debye
        Dipole field         -0.0001 Ry au, 
 
        Potential amp.        0.0087 Ry
        Total length         70.3185 bohr
 

     total cpu time spent up to now is     7668.9 secs

     total energy              =   -4038.71817228 Ry
     estimated scf accuracy    <       0.00692908 Ry

     iteration # 37     ecut=    52.00 Ry     beta= 0.30
     Davidson diagonalization with overlap
     ethr =  8.83E-07,  avg # of iterations =  9.6

     negative rho (up, down):  6.003E-03 0.000E+00
 
     Adding external electric field

     Computed dipole along edir(3) : 
        Dipole               -0.0475 Ry au,         -0.1207 Debye
        Dipole field         -0.0001 Ry au, 
 
        Potential amp.        0.0151 Ry
        Total length         70.3185 bohr
 

     total cpu time spent up to now is     7798.8 secs

     total energy              =   -4038.71706449 Ry
     estimated scf accuracy    <       0.01932400 Ry

     iteration # 38     ecut=    52.00 Ry     beta= 0.30
     Davidson diagonalization with overlap
     c_bands:  1 eigenvalues not converged
     ethr =  8.83E-07,  avg # of iterations = 11.2

     negative rho (up, down):  5.093E-03 0.000E+00
 
     Adding external electric field

     Computed dipole along edir(3) : 
        Dipole               -0.0366 Ry au,         -0.0931 Debye
        Dipole field         -0.0001 Ry au, 
 
        Potential amp.        0.0117 Ry
        Total length         70.3185 bohr
 

     total cpu time spent up to now is     8023.6 secs

     total energy              =   -4038.71806764 Ry
     estimated scf accuracy    <       0.00557446 Ry

     iteration # 39     ecut=    52.00 Ry     beta= 0.30
     Davidson diagonalization with overlap
     ethr =  8.83E-07,  avg # of iterations =  2.9

     negative rho (up, down):  4.471E-03 0.000E+00
 
     Adding external electric field

     Computed dipole along edir(3) : 
        Dipole                0.0102 Ry au,          0.0259 Debye
        Dipole field          0.0000 Ry au, 
 
        Potential amp.       -0.0032 Ry
        Total length         70.3185 bohr
 

     total cpu time spent up to now is     8214.1 secs

     total energy              =   -4038.71782504 Ry
     estimated scf accuracy    <       0.00534762 Ry

     iteration # 40     ecut=    52.00 Ry     beta= 0.30
     Davidson diagonalization with overlap
     ethr =  8.83E-07,  avg # of iterations =  5.9

     negative rho (up, down):  3.998E-03 0.000E+00
 
     Adding external electric field

     Computed dipole along edir(3) : 
        Dipole                0.0096 Ry au,          0.0244 Debye
        Dipole field          0.0000 Ry au, 
 
        Potential amp.       -0.0031 Ry
        Total length         70.3185 bohr
 

     total cpu time spent up to now is     8434.4 secs

     total energy              =   -4038.71789270 Ry
     estimated scf accuracy    <       0.00258053 Ry

     iteration # 41     ecut=    52.00 Ry     beta= 0.30
     Davidson diagonalization with overlap
     ethr =  7.25E-07,  avg # of iterations =  3.7

     negative rho (up, down):  4.438E-03 0.000E+00
 
     Adding external electric field

     Computed dipole along edir(3) : 
        Dipole                0.0329 Ry au,          0.0836 Debye
        Dipole field          0.0001 Ry au, 
 
        Potential amp.       -0.0105 Ry
        Total length         70.3185 bohr
 

     total cpu time spent up to now is     8632.0 secs

     total energy              =   -4038.71772384 Ry
     estimated scf accuracy    <       0.00259588 Ry

     iteration # 42     ecut=    52.00 Ry     beta= 0.30
     Davidson diagonalization with overlap
     ethr =  7.25E-07,  avg # of iterations =  5.0

     negative rho (up, down):  5.131E-03 0.000E+00
 
     Adding external electric field

     Computed dipole along edir(3) : 
        Dipole               -0.0059 Ry au,         -0.0149 Debye
        Dipole field         -0.0000 Ry au, 
 
        Potential amp.        0.0019 Ry
        Total length         70.3185 bohr
 

     total cpu time spent up to now is     8841.3 secs

     total energy              =   -4038.71800091 Ry
     estimated scf accuracy    <       0.00183456 Ry

     iteration # 43     ecut=    52.00 Ry     beta= 0.30
     Davidson diagonalization with overlap
     ethr =  5.15E-07,  avg # of iterations =  7.0

     negative rho (up, down):  6.216E-03 0.000E+00
 
     Adding external electric field

     Computed dipole along edir(3) : 
        Dipole               -0.0031 Ry au,         -0.0079 Debye
        Dipole field         -0.0000 Ry au, 
 
        Potential amp.        0.0010 Ry
        Total length         70.3185 bohr
 

     total cpu time spent up to now is     9071.0 secs

     total energy              =   -4038.71767097 Ry
     estimated scf accuracy    <       0.00316195 Ry

     iteration # 44     ecut=    52.00 Ry     beta= 0.30
     Davidson diagonalization with overlap
     c_bands:  1 eigenvalues not converged
     c_bands:  1 eigenvalues not converged
     c_bands:  1 eigenvalues not converged
     c_bands:  1 eigenvalues not converged
     c_bands:  1 eigenvalues not converged
     c_bands:  1 eigenvalues not converged
     c_bands:  1 eigenvalues not converged
     ethr =  5.15E-07,  avg # of iterations = 12.1

     negative rho (up, down):  4.599E-03 0.000E+00
 
     Adding external electric field

     Computed dipole along edir(3) : 
        Dipole                0.0272 Ry au,          0.0691 Debye
        Dipole field          0.0001 Ry au, 
 
        Potential amp.       -0.0087 Ry
        Total length         70.3185 bohr
 

     total cpu time spent up to now is     9353.9 secs

     total energy              =   -4038.71717904 Ry
     estimated scf accuracy    <       0.01264319 Ry

     iteration # 45     ecut=    52.00 Ry     beta= 0.30
     Davidson diagonalization with overlap
     ethr =  5.15E-07,  avg # of iterations =  7.7

     negative rho (up, down):  4.313E-03 0.000E+00
 
     Adding external electric field

     Computed dipole along edir(3) : 
        Dipole                0.0144 Ry au,          0.0365 Debye
        Dipole field          0.0000 Ry au, 
 
        Potential amp.       -0.0046 Ry
        Total length         70.3185 bohr
 

     total cpu time spent up to now is     9589.4 secs

     total energy              =   -4038.71747565 Ry
     estimated scf accuracy    <       0.00198691 Ry

     iteration # 46     ecut=    52.00 Ry     beta= 0.30
     Davidson diagonalization with overlap
     ethr =  5.15E-07,  avg # of iterations =  2.9

     negative rho (up, down):  6.428E-03 0.000E+00
 
     Adding external electric field

     Computed dipole along edir(3) : 
        Dipole                0.0241 Ry au,          0.0614 Debye
        Dipole field          0.0001 Ry au, 
 
        Potential amp.       -0.0077 Ry
        Total length         70.3185 bohr
 

     total cpu time spent up to now is     9777.8 secs

     total energy              =   -4038.71737513 Ry
     estimated scf accuracy    <       0.00124134 Ry

     iteration # 47     ecut=    52.00 Ry     beta= 0.30
     Davidson diagonalization with overlap
     c_bands:  1 eigenvalues not converged
     c_bands:  1 eigenvalues not converged
     ethr =  3.49E-07,  avg # of iterations =  7.8

     negative rho (up, down):  7.226E-03 0.000E+00
 
     Adding external electric field

     Computed dipole along edir(3) : 
        Dipole                0.0534 Ry au,          0.1358 Debye
        Dipole field          0.0001 Ry au, 
 
        Potential amp.       -0.0170 Ry
        Total length         70.3185 bohr
 

     total cpu time spent up to now is    10013.9 secs

     total energy              =   -4038.71742375 Ry
     estimated scf accuracy    <       0.00062779 Ry

     iteration # 48     ecut=    52.00 Ry     beta= 0.30
     Davidson diagonalization with overlap
     ethr =  1.76E-07,  avg # of iterations =  8.2

     negative rho (up, down):  5.123E-03 0.000E+00
 
     Adding external electric field

     Computed dipole along edir(3) : 
        Dipole                0.0302 Ry au,          0.0766 Debye
        Dipole field          0.0001 Ry au, 
 
        Potential amp.       -0.0096 Ry
        Total length         70.3185 bohr
 

     total cpu time spent up to now is    10254.3 secs

     total energy              =   -4038.71733718 Ry
     estimated scf accuracy    <       0.00063876 Ry

     iteration # 49     ecut=    52.00 Ry     beta= 0.30
     Davidson diagonalization with overlap
     c_bands:  1 eigenvalues not converged
     ethr =  1.76E-07,  avg # of iterations =  9.9

     negative rho (up, down):  1.562E-03 0.000E+00
 
     Adding external electric field

     Computed dipole along edir(3) : 
        Dipole                0.0222 Ry au,          0.0565 Debye
        Dipole field          0.0001 Ry au, 
 
        Potential amp.       -0.0071 Ry
        Total length         70.3185 bohr
 

     total cpu time spent up to now is    10511.3 secs

     total energy              =   -4038.71716859 Ry
     estimated scf accuracy    <       0.00994842 Ry

     iteration # 50     ecut=    52.00 Ry     beta= 0.30
     Davidson diagonalization with overlap
     c_bands:  1 eigenvalues not converged
     c_bands:  1 eigenvalues not converged
     c_bands:  1 eigenvalues not converged
     c_bands:  1 eigenvalues not converged
     c_bands:  1 eigenvalues not converged
     ethr =  1.76E-07,  avg # of iterations = 10.0

     negative rho (up, down):  7.379E-04 0.000E+00
 
     Adding external electric field

     Computed dipole along edir(3) : 
        Dipole                0.0116 Ry au,          0.0294 Debye
        Dipole field          0.0000 Ry au, 
 
        Potential amp.       -0.0037 Ry
        Total length         70.3185 bohr
 

     total cpu time spent up to now is    10769.0 secs

     total energy              =   -4038.71731622 Ry
     estimated scf accuracy    <       0.00005766 Ry

     iteration # 51     ecut=    52.00 Ry     beta= 0.30
     Davidson diagonalization with overlap
     ethr =  1.62E-08,  avg # of iterations =  5.7

     negative rho (up, down):  8.594E-04 0.000E+00
 
     Adding external electric field

     Computed dipole along edir(3) : 
        Dipole                0.0193 Ry au,          0.0490 Debye
        Dipole field          0.0000 Ry au, 
 
        Potential amp.       -0.0061 Ry
        Total length         70.3185 bohr
 

     total cpu time spent up to now is    10988.6 secs

     total energy              =   -4038.71731719 Ry
     estimated scf accuracy    <       0.00008477 Ry

     iteration # 52     ecut=    52.00 Ry     beta= 0.30
     Davidson diagonalization with overlap
     ethr =  1.62E-08,  avg # of iterations =  2.0

     negative rho (up, down):  5.698E-04 0.000E+00
 
     Adding external electric field

     Computed dipole along edir(3) : 
        Dipole                0.0247 Ry au,          0.0628 Debye
        Dipole field          0.0001 Ry au, 
 
        Potential amp.       -0.0079 Ry
        Total length         70.3185 bohr
 

     total cpu time spent up to now is    11170.7 secs

     total energy              =   -4038.71730561 Ry
     estimated scf accuracy    <       0.00070509 Ry

     iteration # 53     ecut=    52.00 Ry     beta= 0.30
     Davidson diagonalization with overlap
     ethr =  1.62E-08,  avg # of iterations =  2.0

     negative rho (up, down):  4.401E-04 0.000E+00
 
     Adding external electric field

     Computed dipole along edir(3) : 
        Dipole                0.0237 Ry au,          0.0602 Debye
        Dipole field          0.0001 Ry au, 
 
        Potential amp.       -0.0075 Ry
        Total length         70.3185 bohr
 

     total cpu time spent up to now is    11351.4 secs

     total energy              =   -4038.71731841 Ry
     estimated scf accuracy    <       0.00003890 Ry

     iteration # 54     ecut=    52.00 Ry     beta= 0.30
     Davidson diagonalization with overlap
     ethr =  1.09E-08,  avg # of iterations =  1.0

     negative rho (up, down):  4.277E-04 0.000E+00
 
     Adding external electric field

     Computed dipole along edir(3) : 
        Dipole                0.0245 Ry au,          0.0624 Debye
        Dipole field          0.0001 Ry au, 
 
        Potential amp.       -0.0078 Ry
        Total length         70.3185 bohr
 

     total cpu time spent up to now is    11514.3 secs

     total energy              =   -4038.71731924 Ry
     estimated scf accuracy    <       0.00008450 Ry

     iteration # 55     ecut=    52.00 Ry     beta= 0.30
     Davidson diagonalization with overlap
     ethr =  1.09E-08,  avg # of iterations =  1.0

     negative rho (up, down):  3.246E-04 0.000E+00
 
     Adding external electric field

     Computed dipole along edir(3) : 
        Dipole                0.0218 Ry au,          0.0555 Debye
        Dipole field          0.0000 Ry au, 
 
        Potential amp.       -0.0069 Ry
        Total length         70.3185 bohr
 

     total cpu time spent up to now is    11678.1 secs

     total energy              =   -4038.71731990 Ry
     estimated scf accuracy    <       0.00000224 Ry

     iteration # 56     ecut=    52.00 Ry     beta= 0.30
     Davidson diagonalization with overlap
     ethr =  6.29E-10,  avg # of iterations =  2.0

     negative rho (up, down):  3.159E-04 0.000E+00
 
     Adding external electric field

     Computed dipole along edir(3) : 
        Dipole                0.0226 Ry au,          0.0574 Debye
        Dipole field          0.0001 Ry au, 
 
        Potential amp.       -0.0072 Ry
        Total length         70.3185 bohr
 

     total cpu time spent up to now is    11859.7 secs

     total energy              =   -4038.71731996 Ry
     estimated scf accuracy    <       0.00000192 Ry

     iteration # 57     ecut=    52.00 Ry     beta= 0.30
     Davidson diagonalization with overlap
     ethr =  5.39E-10,  avg # of iterations =  1.0

     negative rho (up, down):  3.177E-04 0.000E+00
 
     Adding external electric field

     Computed dipole along edir(3) : 
        Dipole                0.0228 Ry au,          0.0579 Debye
        Dipole field          0.0001 Ry au, 
 
        Potential amp.       -0.0073 Ry
        Total length         70.3185 bohr
 

     total cpu time spent up to now is    12022.8 secs

     total energy              =   -4038.71731986 Ry
     estimated scf accuracy    <       0.00000068 Ry

     iteration # 58     ecut=    52.00 Ry     beta= 0.30
     Davidson diagonalization with overlap
     ethr =  1.91E-10,  avg # of iterations =  2.0

     negative rho (up, down):  2.699E-04 0.000E+00
 
     Adding external electric field

     Computed dipole along edir(3) : 
        Dipole                0.0216 Ry au,          0.0550 Debye
        Dipole field          0.0000 Ry au, 
 
        Potential amp.       -0.0069 Ry
        Total length         70.3185 bohr
 

     total cpu time spent up to now is    12202.8 secs

     total energy              =   -4038.71731992 Ry
     estimated scf accuracy    <       0.00000063 Ry

     iteration # 59     ecut=    52.00 Ry     beta= 0.30
     Davidson diagonalization with overlap
     ethr =  1.78E-10,  avg # of iterations =  1.0

     negative rho (up, down):  2.565E-04 0.000E+00
 
     Adding external electric field

     Computed dipole along edir(3) : 
        Dipole                0.0213 Ry au,          0.0542 Debye
        Dipole field          0.0000 Ry au, 
 
        Potential amp.       -0.0068 Ry
        Total length         70.3185 bohr
 

     total cpu time spent up to now is    12365.7 secs

     total energy              =   -4038.71731996 Ry
     estimated scf accuracy    <       0.00000017 Ry

     iteration # 60     ecut=    52.00 Ry     beta= 0.30
     Davidson diagonalization with overlap
     ethr =  4.68E-11,  avg # of iterations =  1.0

     negative rho (up, down):  2.604E-04 0.000E+00
 
     Adding external electric field

     Computed dipole along edir(3) : 
        Dipole                0.0215 Ry au,          0.0547 Debye
        Dipole field          0.0000 Ry au, 
 
        Potential amp.       -0.0069 Ry
        Total length         70.3185 bohr
 

     total cpu time spent up to now is    12528.3 secs

     total energy              =   -4038.71731995 Ry
     estimated scf accuracy    <       0.00000011 Ry

     iteration # 61     ecut=    52.00 Ry     beta= 0.30
     Davidson diagonalization with overlap
     ethr =  3.21E-11,  avg # of iterations =  2.0

     negative rho (up, down):  2.605E-04 0.000E+00
 
     Adding external electric field

     Computed dipole along edir(3) : 
        Dipole                0.0215 Ry au,          0.0546 Debye
        Dipole field          0.0000 Ry au, 
 
        Potential amp.       -0.0068 Ry
        Total length         70.3185 bohr
 

     total cpu time spent up to now is    12709.6 secs

     total energy              =   -4038.71731996 Ry
     estimated scf accuracy    <       0.00000003 Ry

     iteration # 62     ecut=    52.00 Ry     beta= 0.30
     Davidson diagonalization with overlap
     ethr =  9.42E-12,  avg # of iterations =  1.4

     negative rho (up, down):  2.719E-04 0.000E+00
 
     Adding external electric field

     Computed dipole along edir(3) : 
        Dipole                0.0218 Ry au,          0.0554 Debye
        Dipole field          0.0000 Ry au, 
 
        Potential amp.       -0.0069 Ry
        Total length         70.3185 bohr
 

     total cpu time spent up to now is    12880.1 secs

     total energy              =   -4038.71731993 Ry
     estimated scf accuracy    <       0.00000005 Ry

     iteration # 63     ecut=    52.00 Ry     beta= 0.30
     Davidson diagonalization with overlap
     ethr =  9.42E-12,  avg # of iterations =  1.4

     negative rho (up, down):  2.747E-04 0.000E+00
 
     Adding external electric field

     Computed dipole along edir(3) : 
        Dipole                0.0219 Ry au,          0.0556 Debye
        Dipole field          0.0000 Ry au, 
 
        Potential amp.       -0.0070 Ry
        Total length         70.3185 bohr
 

     total cpu time spent up to now is    13050.2 secs

     total energy              =   -4038.71731992 Ry
     estimated scf accuracy    <       0.00000002 Ry

     iteration # 64     ecut=    52.00 Ry     beta= 0.30
     Davidson diagonalization with overlap
     ethr =  6.56E-12,  avg # of iterations =  1.0

     negative rho (up, down):  2.771E-04 0.000E+00
 
     Adding external electric field

     Computed dipole along edir(3) : 
        Dipole                0.0218 Ry au,          0.0554 Debye
        Dipole field          0.0000 Ry au, 
 
        Potential amp.       -0.0069 Ry
        Total length         70.3185 bohr
 

     total cpu time spent up to now is    13213.0 secs

     total energy              =   -4038.71731991 Ry
     estimated scf accuracy    <       0.00000002 Ry

     iteration # 65     ecut=    52.00 Ry     beta= 0.30
     Davidson diagonalization with overlap
     ethr =  5.96E-12,  avg # of iterations =  2.0

     negative rho (up, down):  2.772E-04 0.000E+00
 
     Adding external electric field

     Computed dipole along edir(3) : 
        Dipole                0.0218 Ry au,          0.0554 Debye
        Dipole field          0.0000 Ry au, 
 
        Potential amp.       -0.0069 Ry
        Total length         70.3185 bohr
 

     total cpu time spent up to now is    13394.9 secs

     total energy              =   -4038.71731991 Ry
     estimated scf accuracy    <       0.00000001 Ry

     iteration # 66     ecut=    52.00 Ry     beta= 0.30
     Davidson diagonalization with overlap
     ethr =  3.47E-12,  avg # of iterations =  1.0

     negative rho (up, down):  2.862E-04 0.000E+00
 
     Adding external electric field

     Computed dipole along edir(3) : 
        Dipole                0.0220 Ry au,          0.0560 Debye
        Dipole field          0.0000 Ry au, 
 
        Potential amp.       -0.0070 Ry
        Total length         70.3185 bohr
 

     total cpu time spent up to now is    13555.3 secs

     End of self-consistent calculation

          k = 0.0000 0.0000 0.0000 ( 35157 PWs)   bands (ev):

   -87.0394 -87.0259 -87.0237 -87.0237 -87.0142 -87.0142 -86.8540 -86.8407
   -86.8364 -86.7721 -86.7586 -86.7586 -50.5406 -50.5244 -50.5242 -50.5232
   -50.5230 -50.5197 -50.5196 -50.4958 -50.4958 -50.4659 -50.4658 -50.4584
   -50.4583 -50.4537 -50.4250 -50.4248 -50.4086 -50.4082 -50.3401 -50.3399
   -50.3338 -50.3338 -50.2740 -50.2626 -50.2583 -50.2583 -50.2582 -50.2564
   -50.2564 -50.2481 -50.2480 -50.1866 -50.1740 -50.1740 -50.1682 -50.1678
   -14.5457 -14.2086 -14.1092 -13.9869  -9.4455  -9.4329  -9.4329  -9.0822
    -9.0822  -9.0821  -9.0003  -9.0003  -9.0003  -8.9492  -8.9492  -8.9492
    -8.3060  -8.3002  -8.3001  -7.9429  -7.9428  -7.9428  -7.8617  -7.8617
    -7.8617  -7.8209  -7.8209  -7.8209  -3.1710  -2.7422  -2.3714  -2.1261
    -1.5985  -1.5985  -1.5916  -1.5245  -1.4471  -1.2358  -1.2357  -1.2357
    -1.1983  -1.1525  -1.1525  -1.1525  -1.1258  -1.1258  -1.1258  -1.0314
    -0.5802  -0.5790  -0.5618  -0.5603  -0.5558  -0.5547  -0.2183  -0.2179
    -0.1998  -0.1996  -0.0358  -0.0312   0.0041   0.0044   0.2368   0.2752
     0.2756   0.3237   0.3242   0.3859   0.3868   0.4175   0.4183   0.4442
     0.5364   0.5369   0.6267   0.6286   0.6448   0.6452   0.6984   0.6990
     0.7801   0.7801   0.7967   0.7968   1.1714   1.1764   1.2938   1.2989
     1.3035   1.3039   1.3579   1.3579   1.4467   1.4581   1.6306   1.6850
     1.6850   1.7276   1.7662   1.7950   1.7980   1.9006   1.9262   1.9615
     1.9618   1.9796   1.9798   2.0415   2.0469   2.0469   2.0509   2.1358
     2.1358   2.1457   2.1457   2.3553   2.3553   2.4025   2.6251   2.6251
     2.6306   2.8569   2.8570   2.8575   3.0704   3.0704   3.0704   4.2739
     5.5224   6.2534   6.3130   6.3130   6.6653   6.6679   6.6679   6.8227
     6.8271   6.8271   7.1358   7.1375   7.1375   8.5007   8.5061   8.6965
     8.6974   8.7111   8.7114   8.7998   9.2060   9.4917   9.4925   9.5174
     9.5175   9.7008   9.9018   9.9139  10.0162  10.6763  11.0639  11.1708
    11.1718  11.1888  11.1894  11.4676  11.4871  11.7783

          k = 0.0000 0.1283 0.0000 ( 35117 PWs)   bands (ev):

   -87.0388 -87.0254 -87.0240 -87.0239 -87.0144 -87.0144 -86.8536 -86.8409
   -86.8367 -86.7716 -86.7589 -86.7588 -50.5392 -50.5365 -50.5339 -50.5269
   -50.5255 -50.5092 -50.5071 -50.4887 -50.4884 -50.4673 -50.4663 -50.4568
   -50.4563 -50.4549 -50.4289 -50.4264 -50.4135 -50.4097 -50.3501 -50.3478
   -50.3223 -50.3208 -50.2737 -50.2706 -50.2683 -50.2627 -50.2584 -50.2530
   -50.2494 -50.2427 -50.2413 -50.1861 -50.1743 -50.1742 -50.1731 -50.1693
   -14.4740 -14.1368 -14.0376 -13.9158 -10.1501  -9.8022  -9.7179  -9.6426
    -9.6349  -9.6277  -9.2876  -9.2876  -9.2060  -9.2060  -9.1288  -9.1288
    -7.9912  -7.9867  -7.6342  -7.6341  -7.5550  -7.5550  -7.4910  -7.4888
    -7.4888  -7.1381  -7.0582  -6.9849  -3.0839  -2.6552  -2.2610  -2.0403
    -1.8189  -1.8141  -1.5257  -1.4563  -1.4562  -1.4372  -1.3737  -1.3737
    -1.3530  -1.3441  -1.3441  -1.1652  -1.1163  -1.0819  -1.0553  -0.9458
    -0.7668  -0.6952  -0.6345  -0.5831  -0.4596  -0.4190  -0.3475  -0.2970
    -0.2862  -0.2261  -0.0693  -0.0370  -0.0227   0.0295   0.2070   0.2288
     0.2458   0.3346   0.3394   0.3468   0.3696   0.4388   0.4440   0.4910
     0.5062   0.5436   0.5862   0.5900   0.6043   0.6729   0.6827   0.7175
     0.7958   0.9183   0.9307   1.0492   1.0824   1.1276   1.1869   1.2600
     1.3192   1.3249   1.3624   1.3909   1.3951   1.4474   1.4641   1.5341
     1.5612   1.6768   1.7003   1.7520   1.7690   1.7957   1.8396   1.8408
     1.8529   1.8956   1.9111   1.9601   1.9648   1.9836   1.9958   1.9994
     2.0466   2.0688   2.1024   2.1772   2.2698   2.2756   2.3230   2.5081
     2.5504   2.5585   2.8278   2.8288   2.8489   3.0902   3.0902   4.4359
     5.7596   6.3818   6.4165   6.7094   6.7605   6.7634   6.8499   6.9502
     6.9519   7.0993   7.2674   7.2682   7.3554   7.5800   7.7039   7.7600
     7.8594   8.5004   8.8965   8.9316   9.0935   9.3012   9.6889   9.7529
     9.7954  10.0999  10.1293  10.5718  10.6675  10.7509  10.7673  10.9431
    11.1444  11.2589  11.7243  11.8235  11.8583  12.1523

          k = 0.0000 0.2566 0.0000 ( 35129 PWs)   bands (ev):

   -87.0373 -87.0251 -87.0245 -87.0242 -87.0152 -87.0148 -86.8525 -86.8413
   -86.8374 -86.7703 -86.7598 -86.7593 -50.5478 -50.5369 -50.5367 -50.5352
   -50.5285 -50.4982 -50.4898 -50.4823 -50.4766 -50.4668 -50.4606 -50.4597
   -50.4550 -50.4522 -50.4379 -50.4326 -50.4259 -50.4135 -50.3604 -50.3506
   -50.3077 -50.3040 -50.2814 -50.2731 -50.2713 -50.2670 -50.2628 -50.2590
   -50.2533 -50.2278 -50.2241 -50.1876 -50.1846 -50.1751 -50.1747 -50.1733
   -14.2593 -13.9216 -13.8233 -13.7028 -11.1224 -10.7775 -10.6898 -10.5898
    -9.9605  -9.9532  -9.6085  -9.6084  -9.5247  -9.5247  -9.4359  -9.4359
    -7.3330  -7.3282  -6.9773  -6.9772  -6.8975  -6.8975  -6.8265  -6.8265
    -6.2047  -5.8509  -5.7715  -5.7024  -2.8238  -2.4086  -2.4032  -2.3960
    -2.0463  -2.0462  -1.9652  -1.9652  -1.9461  -1.9289  -1.9289  -1.7840
    -1.3168  -1.1852  -1.0956  -0.9562  -0.9442  -0.8881  -0.8728  -0.8467
    -0.7788  -0.7571  -0.7468  -0.7208  -0.6992  -0.5038  -0.4457  -0.2882
    -0.2839  -0.2359  -0.1593  -0.1216  -0.1102  -0.0569   0.0232   0.1308
     0.1990   0.2553   0.3329   0.4162   0.4238   0.4723   0.4897   0.5014
     0.5333   0.5619   0.5731   0.5833   0.6417   0.6738   0.7030   0.7248
     0.7866   0.8289   0.9099   0.9179   0.9434   0.9471   1.0283   1.0494
     1.0821   1.1163   1.1313   1.1925   1.2032   1.2504   1.2725   1.3441
     1.3738   1.3979   1.4294   1.4933   1.5064   1.5265   1.5676   1.5797
     1.5960   1.6864   1.7139   1.7437   1.7477   1.7903   1.9419   1.9909
     1.9996   2.0342   2.0996   2.1086   2.1441   2.1610   2.1960   2.2350
     2.3975   2.4208   2.7017   2.7483   2.7523   3.0951   3.0951   4.8573
     5.1557   6.0042   6.3864   6.6033   6.6879   6.7188   7.0337   7.0368
     7.1085   7.2627   7.2674   7.4480   7.5717   7.5732   7.6447   7.9598
     8.0824   8.2454   8.5411   8.8902   9.1864   9.5031   9.5859   9.5902
    10.0788  10.2680  10.3525  10.9616  11.0300  11.0395  11.2156  11.3915
    11.7215  11.9427  11.9975  12.2704  12.3454  12.4019

          k = 0.0000 0.3849 0.0000 ( 35145 PWs)   bands (ev):

   -87.0349 -87.0269 -87.0251 -87.0224 -87.0165 -87.0152 -86.8510 -86.8419
   -86.8382 -86.7682 -86.7613 -86.7598 -50.5559 -50.5446 -50.5316 -50.5296
   -50.5244 -50.4939 -50.4833 -50.4751 -50.4740 -50.4667 -50.4579 -50.4548
   -50.4526 -50.4474 -50.4471 -50.4423 -50.4351 -50.4201 -50.3678 -50.3448
   -50.2935 -50.2914 -50.2892 -50.2860 -50.2718 -50.2654 -50.2630 -50.2598
   -50.2597 -50.2133 -50.2097 -50.2079 -50.1828 -50.1798 -50.1765 -50.1752
   -13.9027 -13.5641 -13.4672 -13.3489 -12.0080 -11.6652 -11.5747 -11.4685
   -10.2035 -10.1964  -9.8527  -9.8527  -9.7678  -9.7678  -9.6749  -9.6749
    -6.5587  -6.5539  -6.2018  -6.2018  -6.1225  -6.1225  -6.0569  -6.0569
    -4.8095  -4.4539  -4.3750  -4.3142  -3.1985  -3.1929  -2.8370  -2.8369
    -2.7567  -2.7567  -2.7146  -2.7146  -2.3950  -1.9701  -1.4812  -1.3667
    -1.1094  -1.0111  -1.0036  -0.9780  -0.7873  -0.7596  -0.7259  -0.7044
    -0.6806  -0.6172  -0.6018  -0.5764  -0.5425  -0.5336  -0.5097  -0.5083
    -0.4703  -0.3694  -0.3105  -0.2512  -0.2159  -0.1675  -0.1336  -0.1326
    -0.1029  -0.0943  -0.0299   0.0091   0.0372   0.1305   0.1970   0.2568
     0.2760   0.3035   0.3416   0.4085   0.4489   0.4859   0.5560   0.5890
     0.6472   0.6690   0.7006   0.7475   0.8001   0.8029   0.8308   0.8634
     0.8780   0.9510   1.0145   1.0182   1.0362   1.0560   1.0637   1.0990
     1.2542   1.2731   1.2836   1.3548   1.4118   1.4624   1.4729   1.5108
     1.5854   1.6217   1.7294   1.7927   1.8134   1.8805   1.8908   1.9712
     1.9973   2.0228   2.0373   2.0902   2.0998   2.1292   2.1941   2.2160
     2.2575   2.3132   2.6561   2.6645   3.0650   3.0654   3.2205   3.7292
     4.4707   5.4457   5.8070   6.0004   6.4464   6.9228   7.0535   7.1263
     7.2747   7.3134   7.3970   7.4032   7.6202   7.6239   7.8900   7.8909
     8.1740   9.3160   9.3930   9.6688   9.6871   9.9490   9.9828  10.0578
    10.2706  10.5501  10.6697  10.7787  10.7942  11.4907  11.8162  11.9874
    12.1179  12.2330  12.3961  12.4620  12.5328  12.5573

          k = 0.0000 0.5132 0.0000 ( 35172 PWs)   bands (ev):

   -87.0322 -87.0294 -87.0254 -87.0204 -87.0183 -87.0154 -86.8499 -86.8424
   -86.8389 -86.7658 -86.7634 -86.7601 -50.5602 -50.5488 -50.5242 -50.5236
   -50.5133 -50.4951 -50.4894 -50.4845 -50.4740 -50.4635 -50.4568 -50.4555
   -50.4498 -50.4464 -50.4440 -50.4393 -50.4392 -50.4291 -50.3716 -50.3309
   -50.3102 -50.2932 -50.2812 -50.2809 -50.2712 -50.2684 -50.2630 -50.2604
   -50.2510 -50.2306 -50.2015 -50.2002 -50.1889 -50.1806 -50.1784 -50.1755
   -13.4061 -13.0664 -12.9713 -12.8561 -12.7728 -12.4317 -12.3387 -12.2276
   -10.3302 -10.3232  -9.9799  -9.9799  -9.8945  -9.8945  -9.8001  -9.8001
    -5.8636  -5.8592  -5.5038  -5.5038  -5.4236  -5.4236  -5.3763  -5.3763
    -3.9233  -3.9171  -3.5607  -3.5607  -3.4789  -3.4789  -3.4431  -3.4431
    -3.3665  -3.0089  -2.9299  -2.8785  -1.9304  -1.8050  -1.5712  -1.4910
    -1.4497  -1.3834  -1.2454  -1.1542  -1.0947  -1.0712  -0.9842  -0.8335
    -0.8152  -0.7176  -0.6748  -0.6688  -0.6209  -0.5421  -0.5257  -0.4796
    -0.4764  -0.4166  -0.3823  -0.3177  -0.2561  -0.2375  -0.2031  -0.1646
    -0.1584  -0.1410  -0.0811  -0.0807  -0.0565   0.0122   0.0969   0.1051
     0.1760   0.1986   0.2232   0.2373   0.3299   0.3619   0.3737   0.4093
     0.4246   0.4581   0.4736   0.4805   0.5104   0.5146   0.6182   0.7041
     0.7536   0.7826   0.8682   0.9490   0.9920   1.0277   1.0537   1.2194
     1.2295   1.2835   1.2988   1.4368   1.5376   1.5792   1.6173   1.6639
     1.6724   1.7248   1.8091   1.8545   1.8879   1.9166   1.9286   1.9698
     1.9794   2.0533   2.0557   2.0726   2.1740   2.1775   2.2400   2.2907
     2.2938   2.3650   2.5943   2.5983   2.6103   3.0353   3.0363   3.1880
     3.8814   4.7897   5.2737   6.0750   6.1702   6.5923   6.8148   7.0466
     7.3562   7.3598   7.6617   7.6632   7.8573   7.8586   8.0787   8.0791
     8.3141   9.2113   9.4578   9.8253  10.3414  10.5729  10.7142  10.9250
    11.1404  11.2088  11.2695  11.3795  11.4390  11.5527  11.7003  11.7823
    12.0595  12.1014  12.1684  12.3769  12.3899  12.4331

          k = 0.1111-0.0642 0.0000 ( 35117 PWs)   bands (ev):

   -87.0388 -87.0254 -87.0240 -87.0239 -87.0144 -87.0144 -86.8536 -86.8409
   -86.8367 -86.7716 -86.7589 -86.7588 -50.5392 -50.5364 -50.5340 -50.5269
   -50.5256 -50.5090 -50.5072 -50.4886 -50.4885 -50.4674 -50.4662 -50.4569
   -50.4561 -50.4549 -50.4290 -50.4264 -50.4137 -50.4095 -50.3500 -50.3479
   -50.3222 -50.3209 -50.2737 -50.2704 -50.2685 -50.2627 -50.2584 -50.2531
   -50.2493 -50.2426 -50.2415 -50.1861 -50.1743 -50.1742 -50.1733 -50.1691
   -14.4740 -14.1368 -14.0376 -13.9158 -10.1501  -9.8022  -9.7179  -9.6426
    -9.6348  -9.6277  -9.2876  -9.2876  -9.2060  -9.2060  -9.1288  -9.1288
    -7.9912  -7.9867  -7.6342  -7.6341  -7.5550  -7.5550  -7.4910  -7.4888
    -7.4888  -7.1381  -7.0582  -6.9849  -3.0839  -2.6552  -2.2610  -2.0403
    -1.8189  -1.8141  -1.5257  -1.4563  -1.4562  -1.4372  -1.3737  -1.3737
    -1.3530  -1.3441  -1.3441  -1.1652  -1.1161  -1.0819  -1.0553  -0.9456
    -0.7658  -0.6950  -0.6364  -0.5841  -0.4590  -0.4188  -0.3474  -0.2967
    -0.2858  -0.2251  -0.0698  -0.0364  -0.0235   0.0289   0.2068   0.2283
     0.2455   0.3345   0.3399   0.3463   0.3704   0.4390   0.4415   0.4902
     0.5069   0.5438   0.5862   0.5904   0.6044   0.6762   0.6821   0.7165
     0.7960   0.9185   0.9323   1.0500   1.0806   1.1279   1.1831   1.2593
     1.3183   1.3256   1.3638   1.3910   1.3952   1.4520   1.4639   1.5341
     1.5609   1.6776   1.6994   1.7520   1.7718   1.7935   1.8396   1.8407
     1.8529   1.8956   1.9097   1.9606   1.9654   1.9836   1.9958   2.0006
     2.0424   2.0694   2.1008   2.1771   2.2713   2.2755   2.3230   2.5081
     2.5504   2.5585   2.8278   2.8288   2.8489   3.0902   3.0902   4.4362
     5.7599   6.3818   6.4165   6.7093   6.7606   6.7634   6.8496   6.9502
     6.9519   7.0993   7.2674   7.2682   7.3554   7.5808   7.7039   7.7601
     7.8582   8.5032   8.8965   8.9355   9.0914   9.3012   9.6877   9.7532
     9.7954  10.0999  10.1256  10.5714  10.6684  10.7488  10.7673  10.9451
    11.1444  11.2592  11.7253  11.8234  11.8566  12.1523

          k = 0.1111 0.0642 0.0000 ( 35117 PWs)   bands (ev):

   -87.0388 -87.0254 -87.0240 -87.0239 -87.0144 -87.0144 -86.8536 -86.8409
   -86.8367 -86.7716 -86.7589 -86.7588 -50.5392 -50.5367 -50.5338 -50.5270
   -50.5252 -50.5095 -50.5070 -50.4886 -50.4885 -50.4673 -50.4662 -50.4569
   -50.4563 -50.4549 -50.4288 -50.4265 -50.4134 -50.4098 -50.3501 -50.3479
   -50.3223 -50.3209 -50.2737 -50.2707 -50.2682 -50.2627 -50.2584 -50.2531
   -50.2493 -50.2429 -50.2411 -50.1861 -50.1742 -50.1742 -50.1729 -50.1695
   -14.4740 -14.1368 -14.0376 -13.9158 -10.1501  -9.8022  -9.7179  -9.6426
    -9.6348  -9.6277  -9.2876  -9.2876  -9.2060  -9.2060  -9.1288  -9.1288
    -7.9912  -7.9867  -7.6342  -7.6341  -7.5550  -7.5550  -7.4910  -7.4888
    -7.4888  -7.1381  -7.0582  -6.9849  -3.0839  -2.6552  -2.2610  -2.0403
    -1.8189  -1.8141  -1.5257  -1.4563  -1.4562  -1.4372  -1.3737  -1.3737
    -1.3530  -1.3441  -1.3441  -1.1652  -1.1163  -1.0819  -1.0553  -0.9459
    -0.7678  -0.6944  -0.6335  -0.5834  -0.4589  -0.4202  -0.3468  -0.2977
    -0.2861  -0.2263  -0.0689  -0.0376  -0.0215   0.0286   0.2074   0.2290
     0.2459   0.3346   0.3388   0.3467   0.3693   0.4381   0.4459   0.4910
     0.5066   0.5452   0.5858   0.5896   0.6034   0.6710   0.6831   0.7175
     0.7976   0.9176   0.9296   1.0485   1.0820   1.1284   1.1855   1.2637
     1.3188   1.3233   1.3617   1.3908   1.3951   1.4460   1.4653   1.5340
     1.5616   1.6784   1.7001   1.7520   1.7670   1.7950   1.8396   1.8411
     1.8529   1.8956   1.9130   1.9598   1.9638   1.9836   1.9958   1.9975
     2.0502   2.0684   2.1044   2.1772   2.2681   2.2755   2.3230   2.5081
     2.5504   2.5585   2.8278   2.8288   2.8489   3.0902   3.0902   4.4357
     5.7595   6.3818   6.4165   6.7095   6.7606   6.7634   6.8500   6.9502
     6.9519   7.0993   7.2674   7.2682   7.3554   7.5809   7.7039   7.7604
     7.8582   8.4997   8.8965   8.9275   9.0944   9.3012   9.6908   9.7515
     9.7954  10.0999  10.1349  10.5716  10.6659  10.7512  10.7673  10.9427
    11.1444  11.2589  11.7244  11.8237  11.8612  12.1523

          k = 0.1111 0.1925 0.0000 ( 35085 PWs)   bands (ev):

   -87.0378 -87.0246 -87.0245 -87.0245 -87.0148 -87.0148 -86.8528 -86.8412
   -86.8371 -86.7707 -86.7593 -86.7593 -50.5413 -50.5411 -50.5365 -50.5315
   -50.5312 -50.4976 -50.4971 -50.4817 -50.4814 -50.4648 -50.4647 -50.4583
   -50.4544 -50.4543 -50.4356 -50.4293 -50.4232 -50.4120 -50.3548 -50.3541
   -50.3102 -50.3095 -50.2754 -50.2752 -50.2732 -50.2630 -50.2625 -50.2588
   -50.2518 -50.2301 -50.2299 -50.1854 -50.1825 -50.1747 -50.1747 -50.1720
   -14.3308 -13.9933 -13.8947 -13.7737 -10.5949 -10.5908 -10.2466 -10.2464
   -10.1605 -10.1605 -10.0648 -10.0648  -9.2512  -8.8962  -8.8143  -8.7640
    -8.1279  -7.7684  -7.6869  -7.6480  -6.8299  -6.8295  -6.4766  -6.4765
    -6.3968  -6.3968  -6.3252  -6.3252  -2.9103  -2.4828  -2.4789  -2.1199
    -2.0488  -2.0389  -2.0023  -1.8693  -1.6770  -1.6727  -1.3145  -1.3145
    -1.2684  -1.2319  -1.2319  -1.2027  -1.2027  -1.1788  -0.9626  -0.8397
    -0.8379  -0.7919  -0.6803  -0.6788  -0.5838  -0.5828  -0.3637  -0.3629
    -0.2285  -0.2267  -0.1590  -0.1582  -0.0416  -0.0393   0.0734   0.1692
     0.2209   0.3063   0.3180   0.4430   0.4502   0.4540   0.4770   0.4784
     0.5022   0.5456   0.5482   0.5843   0.6915   0.6956   0.7029   0.7860
     0.8641   0.9549   0.9599   0.9731   1.0712   1.0896   1.1902   1.1914
     1.2197   1.2227   1.2353   1.2427   1.3141   1.3162   1.3274   1.3457
     1.4338   1.4579   1.4672   1.5216   1.5238   1.5426   1.5931   1.6551
     1.6644   1.6816   1.6926   1.7082   1.7946   1.7975   1.8016   1.9673
     1.9755   2.0463   2.0533   2.0603   2.1711   2.1794   2.2135   2.2369
     2.5724   2.5993   2.5994   2.6177   2.8836   3.1145   3.3265   4.7241
     5.9701   5.9770   6.1818   6.2524   6.6213   6.7354   6.8103   6.8201
     6.9902   7.2570   7.3070   7.5929   7.5993   7.8731   7.8797   8.1716
     8.1840   8.2299   8.2341   8.9964   9.0042   9.0898   9.4911   9.9844
    10.0468  10.0558  10.2681  10.6675  10.6813  10.9489  11.3084  11.5741
    11.5760  11.7167  11.7186  12.1922  12.1992  12.3200

          k = 0.1111 0.3208 0.0000 ( 35121 PWs)   bands (ev):

   -87.0358 -87.0259 -87.0252 -87.0231 -87.0158 -87.0152 -86.8515 -86.8417
   -86.8380 -86.7690 -86.7604 -86.7598 -50.5494 -50.5391 -50.5387 -50.5317
   -50.5306 -50.4918 -50.4862 -50.4769 -50.4732 -50.4694 -50.4583 -50.4549
   -50.4514 -50.4498 -50.4452 -50.4394 -50.4337 -50.4165 -50.3619 -50.3523
   -50.2973 -50.2949 -50.2830 -50.2804 -50.2732 -50.2720 -50.2629 -50.2595
   -50.2566 -50.2169 -50.2149 -50.2006 -50.1835 -50.1768 -50.1757 -50.1752
   -14.0452 -13.7069 -13.6095 -13.4903 -11.5283 -11.1844 -11.0954 -10.9924
   -10.9217 -10.5763 -10.4892 -10.3906  -9.2626  -8.9108  -8.8297  -8.7551
    -7.6637  -7.3081  -7.2290  -7.1673  -6.0738  -5.7194  -5.6402  -5.5740
    -5.4869  -5.1320  -5.0530  -4.9886  -3.3584  -2.9999  -2.9200  -2.8761
    -2.5659  -2.1861  -2.1398  -1.8264  -1.7450  -1.7099  -1.6640  -1.5326
    -1.3964  -1.0359  -0.9935  -0.9531  -0.9459  -0.9247  -0.9073  -0.8846
    -0.8745  -0.8412  -0.7504  -0.7131  -0.6730  -0.5540  -0.5432  -0.4034
    -0.3650  -0.3040  -0.2276  -0.1808  -0.0945  -0.0697  -0.0452  -0.0256
     0.0662   0.1229   0.2536   0.2936   0.3157   0.3787   0.3791   0.4001
     0.4093   0.4516   0.4566   0.4743   0.5579   0.5845   0.6147   0.6743
     0.6974   0.7000   0.7056   0.7251   0.7334   0.7929   0.9029   0.9824
     0.9895   1.0475   1.0685   1.1081   1.1113   1.1553   1.1710   1.1993
     1.2097   1.2349   1.2651   1.3461   1.3508   1.4105   1.4331   1.4778
     1.5072   1.5757   1.5938   1.6381   1.7371   1.7467   1.7854   1.8068
     1.8088   1.8974   2.0102   2.0431   2.0577   2.1012   2.1189   2.2356
     2.2379   2.3870   2.7701   3.0158   3.0527   3.3319   3.5958   4.4229
     5.2165   5.2185   5.2389   6.0098   6.2513   6.6047   6.7033   6.7263
     6.9339   6.9507   7.2603   7.8466   8.1486   8.3237   8.4136   8.5540
     8.7177   8.8272   8.9297   9.1993   9.4761   9.5193   9.6370   9.8692
    10.2861  10.3616  10.5189  10.6084  11.1485  11.2161  11.3109  11.6459
    11.8321  12.3480  12.5890  12.6517  12.6654  12.8718

          k = 0.1111 0.4491 0.0000 ( 35175 PWs)   bands (ev):

   -87.0333 -87.0279 -87.0257 -87.0212 -87.0173 -87.0156 -86.8502 -86.8421
   -86.8389 -86.7668 -86.7622 -86.7603 -50.5550 -50.5441 -50.5298 -50.5262
   -50.5233 -50.4912 -50.4885 -50.4856 -50.4664 -50.4649 -50.4623 -50.4545
   -50.4511 -50.4452 -50.4424 -50.4414 -50.4408 -50.4236 -50.3669 -50.3421
   -50.3029 -50.2882 -50.2847 -50.2832 -50.2714 -50.2636 -50.2629 -50.2627
   -50.2603 -50.2227 -50.2043 -50.2036 -50.1839 -50.1815 -50.1773 -50.1757
   -13.6186 -13.2794 -13.1835 -13.0670 -12.3544 -12.0123 -11.9208 -11.8123
   -11.1227 -10.7778 -10.6901 -10.5899  -9.3856  -9.0359  -8.9534  -8.8689
    -6.9401  -6.5845  -6.5052  -6.4450  -5.3121  -4.9555  -4.8763  -4.8213
    -4.2608  -4.0756  -3.9025  -3.8225  -3.7773  -3.7188  -3.6399  -3.5848
    -2.8626  -2.5032  -2.4221  -2.3846  -2.0564  -1.6339  -1.2829  -1.2022
    -1.1577  -1.0790  -1.0522  -1.0319  -0.9919  -0.9220  -0.8402  -0.8070
    -0.7899  -0.7681  -0.7492  -0.7224  -0.6953  -0.6312  -0.5871  -0.5804
    -0.5682  -0.5479  -0.5210  -0.4459  -0.4118  -0.3774  -0.3681  -0.2251
    -0.2100  -0.1966  -0.1276  -0.0208  -0.0125   0.0713   0.1033   0.1130
     0.2457   0.2709   0.3538   0.3660   0.4226   0.4348   0.4475   0.4657
     0.5317   0.5507   0.5717   0.5852   0.6067   0.7255   0.7373   0.7700
     0.9142   0.9192   0.9406   0.9665   0.9794   1.0043   1.0202   1.1412
     1.1520   1.1578   1.2091   1.3264   1.3536   1.3556   1.4919   1.5036
     1.5522   1.6202   1.6561   1.6793   1.7454   1.7648   1.8957   1.9392
     1.9668   1.9679   2.0133   2.0442   2.0713   2.0864   2.1316   2.1691
     2.2416   2.2806   2.7983   3.0972   3.1196   3.4543   3.5784   3.7954
     3.8062   4.6414   5.3809   5.3995   5.8558   6.3255   6.6357   6.6488
     6.8238   7.0498   7.6222   7.8038   7.8780   8.3088   8.6132   8.8256
     9.0667   9.4375  10.0053  10.0542  10.0670  10.1980  10.4028  10.4325
    10.6382  10.8590  10.9157  10.9261  11.1256  11.7817  11.8493  12.0095
    12.1639  12.2473  12.2608  12.5362  12.6368  12.6983

          k = 0.1111-0.5774 0.0000 ( 35176 PWs)   bands (ev):

   -87.0305 -87.0305 -87.0259 -87.0192 -87.0191 -87.0158 -86.8496 -86.8423
   -86.8393 -86.7644 -86.7644 -86.7605 -50.5569 -50.5460 -50.5234 -50.5232
   -50.5091 -50.5086 -50.4860 -50.4836 -50.4833 -50.4600 -50.4568 -50.4516
   -50.4515 -50.4469 -50.4468 -50.4373 -50.4327 -50.4325 -50.3686 -50.3269
   -50.3221 -50.2900 -50.2793 -50.2756 -50.2711 -50.2708 -50.2628 -50.2607
   -50.2449 -50.2447 -50.1994 -50.1933 -50.1930 -50.1794 -50.1793 -50.1759
   -13.0550 -13.0522 -12.7132 -12.7130 -12.6192 -12.6192 -12.5063 -12.5063
   -11.1902 -10.8455 -10.7575 -10.6568  -9.4362  -9.0871  -9.0041  -8.9177
    -6.4931  -6.1347  -6.0528  -6.0138  -4.8815  -4.7626  -4.5222  -4.4394
    -4.4063  -4.4023  -4.3180  -4.2905  -3.2741  -2.9135  -2.8289  -2.8037
    -2.6530  -2.6494  -2.2926  -2.2925  -2.2128  -2.2128  -2.1682  -2.1682
    -1.3964  -1.3905  -1.2337  -1.1536  -1.0713  -0.9791  -0.9766  -0.8701
    -0.8687  -0.8290  -0.6825  -0.6810  -0.6691  -0.6376  -0.6351  -0.4814
    -0.4804  -0.4292  -0.4273  -0.3982  -0.3750  -0.3734  -0.2045  -0.1997
    -0.1198  -0.1196  -0.1188  -0.1149  -0.0358  -0.0358  -0.0111  -0.0111
     0.0954   0.0966   0.1133   0.1721   0.1731   0.2220   0.2328   0.2359
     0.4175   0.4875   0.4888   0.5098   0.5167   0.6709   0.6744   0.7496
     0.8349   0.8360   0.9466   0.9542   0.9846   1.0174   1.0875   1.0901
     1.1672   1.2273   1.2325   1.3609   1.3860   1.3887   1.5984   1.6585
     1.6645   1.6716   1.7155   1.7166   1.8096   1.8359   1.8379   1.9718
     2.0238   2.0250   2.0527   2.0550   2.1521   2.1536   2.1548   2.1960
     2.2630   2.3404   2.6751   2.6757   2.7952   3.1085   3.4893   3.8785
     4.3374   4.3378   4.3812   5.1546   6.3516   6.3915   6.6454   6.6525
     6.7020   6.8824   7.1055   7.6174   8.4857   8.8032   8.9530   8.9601
     8.9886   9.1859   9.3786   9.9834  10.7554  10.8187  10.8187  11.1738
    11.1771  11.5767  11.5808  11.6768  11.6775  11.8022  11.8035  11.9434
    11.9451  12.0831  12.0845  12.1352  12.3044  12.3045

          k = 0.1111-0.4491 0.0000 ( 35175 PWs)   bands (ev):

   -87.0333 -87.0280 -87.0257 -87.0212 -87.0173 -87.0156 -86.8502 -86.8421
   -86.8389 -86.7668 -86.7622 -86.7603 -50.5550 -50.5441 -50.5297 -50.5262
   -50.5234 -50.4911 -50.4887 -50.4855 -50.4665 -50.4650 -50.4622 -50.4546
   -50.4513 -50.4453 -50.4425 -50.4414 -50.4407 -50.4234 -50.3669 -50.3421
   -50.3029 -50.2882 -50.2847 -50.2832 -50.2714 -50.2636 -50.2629 -50.2625
   -50.2603 -50.2229 -50.2045 -50.2035 -50.1837 -50.1815 -50.1773 -50.1757
   -13.6186 -13.2794 -13.1835 -13.0670 -12.3544 -12.0123 -11.9208 -11.8123
   -11.1227 -10.7778 -10.6901 -10.5899  -9.3856  -9.0359  -8.9534  -8.8689
    -6.9401  -6.5845  -6.5052  -6.4450  -5.3121  -4.9555  -4.8763  -4.8213
    -4.2608  -4.0756  -3.9025  -3.8225  -3.7773  -3.7188  -3.6399  -3.5848
    -2.8626  -2.5032  -2.4221  -2.3846  -2.0564  -1.6339  -1.2829  -1.2015
    -1.1576  -1.0792  -1.0521  -1.0321  -0.9919  -0.9220  -0.8402  -0.8070
    -0.7908  -0.7669  -0.7490  -0.7209  -0.6963  -0.6312  -0.5871  -0.5805
    -0.5678  -0.5479  -0.5210  -0.4459  -0.4117  -0.3777  -0.3669  -0.2257
    -0.2114  -0.1980  -0.1285  -0.0209  -0.0130   0.0682   0.1031   0.1122
     0.2484   0.2713   0.3531   0.3663   0.4243   0.4338   0.4442   0.4657
     0.5302   0.5507   0.5717   0.5843   0.6067   0.7319   0.7401   0.7733
     0.9136   0.9177   0.9394   0.9678   0.9828   1.0021   1.0209   1.1421
     1.1511   1.1569   1.2093   1.3234   1.3525   1.3551   1.4951   1.5034
     1.5529   1.6210   1.6525   1.6798   1.7463   1.7661   1.8933   1.9390
     1.9667   1.9695   2.0143   2.0499   2.0694   2.0835   2.1303   2.1692
     2.2409   2.2769   2.7983   3.0972   3.1196   3.4543   3.5786   3.7959
     3.8062   4.6415   5.3820   5.3995   5.8573   6.3255   6.6359   6.6489
     6.8238   7.0498   7.6215   7.8042   7.8802   8.3088   8.6132   8.8256
     9.0667   9.4374  10.0037  10.0542  10.0661  10.1961  10.4028  10.4325
    10.6382  10.8590  10.9157  10.9261  11.1257  11.7817  11.8492  12.0098
    12.1641  12.2458  12.2602  12.5380  12.6330  12.6994

          k = 0.1111-0.3208 0.0000 ( 35121 PWs)   bands (ev):

   -87.0358 -87.0259 -87.0252 -87.0231 -87.0158 -87.0152 -86.8515 -86.8417
   -86.8380 -86.7690 -86.7604 -86.7598 -50.5494 -50.5390 -50.5387 -50.5317
   -50.5306 -50.4918 -50.4859 -50.4771 -50.4732 -50.4696 -50.4586 -50.4553
   -50.4509 -50.4498 -50.4451 -50.4396 -50.4337 -50.4163 -50.3619 -50.3523
   -50.2973 -50.2949 -50.2830 -50.2804 -50.2731 -50.2720 -50.2629 -50.2595
   -50.2566 -50.2171 -50.2148 -50.2009 -50.1835 -50.1765 -50.1757 -50.1752
   -14.0452 -13.7069 -13.6095 -13.4903 -11.5283 -11.1844 -11.0954 -10.9924
   -10.9217 -10.5763 -10.4892 -10.3906  -9.2626  -8.9108  -8.8297  -8.7551
    -7.6637  -7.3081  -7.2290  -7.1673  -6.0738  -5.7194  -5.6402  -5.5740
    -5.4869  -5.1320  -5.0530  -4.9886  -3.3584  -2.9999  -2.9200  -2.8761
    -2.5658  -2.1861  -2.1398  -1.8264  -1.7450  -1.7099  -1.6637  -1.5326
    -1.3964  -1.0359  -0.9936  -0.9531  -0.9457  -0.9247  -0.9067  -0.8853
    -0.8745  -0.8397  -0.7515  -0.7124  -0.6737  -0.5515  -0.5425  -0.4034
    -0.3649  -0.3052  -0.2283  -0.1814  -0.0984  -0.0698  -0.0470  -0.0264
     0.0651   0.1233   0.2522   0.2936   0.3206   0.3787   0.3804   0.4001
     0.4075   0.4503   0.4542   0.4672   0.5584   0.5813   0.6202   0.6740
     0.6976   0.7036   0.7059   0.7301   0.7393   0.7954   0.9023   0.9815
     0.9897   1.0477   1.0685   1.1070   1.1097   1.1553   1.1710   1.1993
     1.2084   1.2362   1.2653   1.3433   1.3509   1.4108   1.4314   1.4826
     1.5096   1.5778   1.5936   1.6343   1.7358   1.7496   1.7854   1.8054
     1.8088   1.8983   2.0104   2.0447   2.0533   2.1020   2.1191   2.2327
     2.2353   2.3870   2.7701   3.0166   3.0527   3.3319   3.5958   4.4229
     5.2174   5.2198   5.2389   6.0098   6.2514   6.6047   6.7054   6.7264
     6.9355   6.9508   7.2605   7.8466   8.1486   8.3243   8.4135   8.5545
     8.7177   8.8285   8.9298   9.1993   9.4761   9.5193   9.6367   9.8692
    10.2859  10.3616  10.5133  10.6084  11.1485  11.2115  11.3108  11.6459
    11.8309  12.3479  12.5902  12.6516  12.6651  12.8718

          k = 0.1111-0.1925 0.0000 ( 35085 PWs)   bands (ev):

   -87.0378 -87.0246 -87.0245 -87.0245 -87.0148 -87.0148 -86.8528 -86.8412
   -86.8371 -86.7707 -86.7593 -86.7593 -50.5412 -50.5410 -50.5365 -50.5316
   -50.5313 -50.4975 -50.4970 -50.4817 -50.4814 -50.4651 -50.4650 -50.4584
   -50.4543 -50.4540 -50.4357 -50.4291 -50.4236 -50.4117 -50.3548 -50.3541
   -50.3102 -50.3095 -50.2753 -50.2751 -50.2732 -50.2630 -50.2625 -50.2588
   -50.2518 -50.2302 -50.2299 -50.1855 -50.1829 -50.1747 -50.1746 -50.1716
   -14.3308 -13.9933 -13.8947 -13.7737 -10.5949 -10.5908 -10.2466 -10.2464
   -10.1605 -10.1605 -10.0648 -10.0648  -9.2512  -8.8962  -8.8143  -8.7640
    -8.1279  -7.7684  -7.6869  -7.6480  -6.8299  -6.8295  -6.4766  -6.4765
    -6.3968  -6.3968  -6.3252  -6.3252  -2.9103  -2.4828  -2.4789  -2.1199
    -2.0487  -2.0389  -2.0023  -1.8693  -1.6770  -1.6727  -1.3145  -1.3145
    -1.2684  -1.2319  -1.2319  -1.2027  -1.2027  -1.1786  -0.9622  -0.8391
    -0.8372  -0.7908  -0.6817  -0.6804  -0.5840  -0.5830  -0.3634  -0.3624
    -0.2279  -0.2261  -0.1595  -0.1583  -0.0425  -0.0403   0.0702   0.1685
     0.2219   0.3065   0.3185   0.4434   0.4497   0.4537   0.4755   0.4770
     0.4988   0.5421   0.5455   0.5903   0.6936   0.6997   0.7091   0.7849
     0.8641   0.9526   0.9594   0.9735   1.0735   1.0918   1.1891   1.1909
     1.2226   1.2229   1.2352   1.2360   1.3141   1.3174   1.3274   1.3466
     1.4339   1.4661   1.4674   1.5208   1.5222   1.5410   1.5931   1.6541
     1.6631   1.6816   1.6925   1.7127   1.7936   1.7963   1.8013   1.9674
     1.9757   2.0476   2.0537   2.0547   2.1695   2.1773   2.2133   2.2364
     2.5742   2.5993   2.5994   2.6177   2.8836   3.1145   3.3265   4.7252
     5.9701   5.9767   6.1828   6.2525   6.6213   6.7354   6.8108   6.8203
     6.9902   7.2569   7.3072   7.5928   7.5994   7.8730   7.8798   8.1731
     8.1859   8.2299   8.2346   9.0004   9.0087   9.0898   9.4911   9.9844
    10.0400  10.0496  10.2681  10.6652  10.6795  10.9489  11.3083  11.5745
    11.5752  11.7166  11.7181  12.1922  12.1991  12.3199

          k = 0.2222-0.1283 0.0000 ( 35129 PWs)   bands (ev):

   -87.0373 -87.0251 -87.0245 -87.0242 -87.0152 -87.0148 -86.8525 -86.8413
   -86.8374 -86.7703 -86.7598 -86.7593 -50.5476 -50.5370 -50.5367 -50.5352
   -50.5287 -50.4981 -50.4899 -50.4820 -50.4767 -50.4669 -50.4606 -50.4598
   -50.4552 -50.4519 -50.4379 -50.4326 -50.4260 -50.4133 -50.3604 -50.3507
   -50.3077 -50.3041 -50.2813 -50.2731 -50.2715 -50.2671 -50.2628 -50.2589
   -50.2532 -50.2276 -50.2243 -50.1878 -50.1846 -50.1751 -50.1746 -50.1731
   -14.2593 -13.9216 -13.8233 -13.7028 -11.1224 -10.7775 -10.6898 -10.5898
    -9.9605  -9.9532  -9.6085  -9.6084  -9.5247  -9.5247  -9.4359  -9.4359
    -7.3330  -7.3282  -6.9773  -6.9772  -6.8975  -6.8975  -6.8265  -6.8265
    -6.2047  -5.8509  -5.7715  -5.7024  -2.8238  -2.4086  -2.4032  -2.3960
    -2.0463  -2.0462  -1.9652  -1.9652  -1.9460  -1.9289  -1.9289  -1.7840
    -1.3168  -1.1852  -1.0956  -0.9562  -0.9434  -0.8876  -0.8728  -0.8467
    -0.7791  -0.7574  -0.7469  -0.7201  -0.7009  -0.5040  -0.4466  -0.2875
    -0.2833  -0.2356  -0.1603  -0.1212  -0.1100  -0.0569   0.0221   0.1310
     0.1984   0.2575   0.3321   0.4159   0.4231   0.4738   0.4911   0.5021
     0.5301   0.5633   0.5723   0.5833   0.6383   0.6773   0.7050   0.7224
     0.7847   0.8294   0.9080   0.9198   0.9434   0.9471   1.0283   1.0494
     1.0829   1.1181   1.1313   1.1907   1.2032   1.2510   1.2741   1.3430
     1.3785   1.3952   1.4295   1.4933   1.5078   1.5267   1.5673   1.5797
     1.5960   1.6864   1.7136   1.7443   1.7472   1.7904   1.9413   1.9914
     2.0002   2.0305   2.0999   2.1085   2.1440   2.1610   2.1961   2.2330
     2.3975   2.4208   2.7025   2.7483   2.7523   3.0951   3.0951   4.8581
     5.1554   6.0042   6.3872   6.6023   6.6881   6.7189   7.0335   7.0368
     7.1054   7.2627   7.2673   7.4473   7.5719   7.5732   7.6510   7.9598
     8.0921   8.2454   8.5411   8.8902   9.1864   9.5030   9.5813   9.5859
    10.0788  10.2635  10.3525  10.9613  11.0314  11.0395  11.2150  11.3914
    11.7227  11.9427  11.9979  12.2708  12.3345  12.4019

          k = 0.2222 0.0000 0.0000 ( 35085 PWs)   bands (ev):

   -87.0378 -87.0246 -87.0245 -87.0245 -87.0148 -87.0148 -86.8528 -86.8412
   -86.8371 -86.7707 -86.7593 -86.7593 -50.5413 -50.5410 -50.5365 -50.5316
   -50.5311 -50.4976 -50.4971 -50.4816 -50.4813 -50.4650 -50.4649 -50.4583
   -50.4544 -50.4541 -50.4357 -50.4292 -50.4234 -50.4118 -50.3547 -50.3542
   -50.3103 -50.3095 -50.2754 -50.2751 -50.2732 -50.2631 -50.2625 -50.2588
   -50.2517 -50.2302 -50.2298 -50.1854 -50.1827 -50.1747 -50.1746 -50.1718
   -14.3308 -13.9933 -13.8947 -13.7737 -10.5948 -10.5908 -10.2466 -10.2464
   -10.1605 -10.1605 -10.0648 -10.0648  -9.2512  -8.8962  -8.8143  -8.7640
    -8.1279  -7.7684  -7.6869  -7.6480  -6.8299  -6.8295  -6.4765  -6.4765
    -6.3968  -6.3968  -6.3252  -6.3252  -2.9103  -2.4828  -2.4789  -2.1199
    -2.0488  -2.0389  -2.0023  -1.8693  -1.6770  -1.6727  -1.3145  -1.3145
    -1.2684  -1.2319  -1.2319  -1.2027  -1.2027  -1.1788  -0.9621  -0.8395
    -0.8373  -0.7911  -0.6816  -0.6795  -0.5839  -0.5829  -0.3629  -0.3619
    -0.2283  -0.2271  -0.1592  -0.1586  -0.0421  -0.0400   0.0716   0.1689
     0.2212   0.3058   0.3183   0.4431   0.4499   0.4540   0.4754   0.4774
     0.5002   0.5442   0.5471   0.5878   0.6930   0.6975   0.7076   0.7853
     0.8641   0.9525   0.9601   0.9740   1.0718   1.0898   1.1890   1.1911
     1.2214   1.2226   1.2353   1.2390   1.3141   1.3171   1.3274   1.3462
     1.4340   1.4639   1.4670   1.5213   1.5237   1.5421   1.5930   1.6544
     1.6634   1.6816   1.6925   1.7118   1.7930   1.7964   1.8015   1.9673
     1.9755   2.0469   2.0539   2.0566   2.1703   2.1786   2.2133   2.2365
     2.5730   2.5993   2.5994   2.6177   2.8836   3.1145   3.3265   4.7248
     5.9698   5.9771   6.1825   6.2525   6.6212   6.7354   6.8106   6.8201
     6.9902   7.2569   7.3071   7.5928   7.5994   7.8731   7.8798   8.1727
     8.1852   8.2299   8.2344   8.9977   9.0075   9.0898   9.4911   9.9844
    10.0411  10.0543  10.2681  10.6658  10.6799  10.9489  11.3083  11.5748
    11.5771  11.7167  11.7181  12.1922  12.1992  12.3200

          k = 0.2222 0.1283 0.0000 ( 35129 PWs)   bands (ev):

   -87.0373 -87.0251 -87.0245 -87.0242 -87.0152 -87.0148 -86.8525 -86.8413
   -86.8374 -86.7703 -86.7598 -86.7593 -50.5479 -50.5369 -50.5367 -50.5352
   -50.5283 -50.4986 -50.4897 -50.4821 -50.4767 -50.4666 -50.4605 -50.4596
   -50.4552 -50.4522 -50.4380 -50.4325 -50.4259 -50.4136 -50.3604 -50.3507
   -50.3077 -50.3041 -50.2816 -50.2731 -50.2712 -50.2670 -50.2628 -50.2589
   -50.2532 -50.2280 -50.2239 -50.1874 -50.1846 -50.1751 -50.1747 -50.1734
   -14.2593 -13.9216 -13.8233 -13.7028 -11.1224 -10.7775 -10.6898 -10.5898
    -9.9605  -9.9532  -9.6085  -9.6084  -9.5247  -9.5247  -9.4359  -9.4359
    -7.3330  -7.3282  -6.9773  -6.9772  -6.8975  -6.8975  -6.8265  -6.8265
    -6.2047  -5.8509  -5.7715  -5.7024  -2.8238  -2.4086  -2.4032  -2.3960
    -2.0463  -2.0462  -1.9652  -1.9652  -1.9461  -1.9289  -1.9289  -1.7840
    -1.3168  -1.1852  -1.0960  -0.9562  -0.9447  -0.8881  -0.8728  -0.8467
    -0.7790  -0.7569  -0.7460  -0.7212  -0.6979  -0.5045  -0.4455  -0.2879
    -0.2836  -0.2362  -0.1610  -0.1213  -0.1108  -0.0555   0.0238   0.1308
     0.2000   0.2543   0.3327   0.4164   0.4233   0.4731   0.4885   0.5026
     0.5340   0.5604   0.5731   0.5833   0.6426   0.6719   0.7022   0.7254
     0.7892   0.8280   0.9104   0.9167   0.9434   0.9469   1.0283   1.0494
     1.0823   1.1147   1.1313   1.1944   1.2031   1.2495   1.2722   1.3439
     1.3717   1.3986   1.4296   1.4933   1.5063   1.5269   1.5680   1.5797
     1.5960   1.6873   1.7143   1.7426   1.7474   1.7901   1.9423   1.9906
     1.9997   2.0374   2.0982   2.1087   2.1436   2.1612   2.1963   2.2368
     2.3975   2.4208   2.7004   2.7483   2.7523   3.0951   3.0952   4.8568
     5.1558   6.0046   6.3860   6.6040   6.6878   6.7204   7.0337   7.0368
     7.1069   7.2627   7.2674   7.4479   7.5717   7.5732   7.6424   7.9597
     8.0756   8.2454   8.5411   8.8902   9.1864   9.5032   9.5859   9.5983
    10.0788  10.2689  10.3525  10.9592  11.0314  11.0395  11.2199  11.3915
    11.7219  11.9429  11.9957  12.2696  12.3487  12.4020

          k = 0.2222 0.2566 0.0000 ( 35121 PWs)   bands (ev):

   -87.0358 -87.0259 -87.0252 -87.0231 -87.0158 -87.0153 -86.8515 -86.8417
   -86.8380 -86.7690 -86.7604 -86.7598 -50.5495 -50.5391 -50.5388 -50.5317
   -50.5304 -50.4922 -50.4860 -50.4769 -50.4732 -50.4694 -50.4582 -50.4550
   -50.4513 -50.4499 -50.4452 -50.4393 -50.4338 -50.4166 -50.3618 -50.3524
   -50.2973 -50.2950 -50.2831 -50.2804 -50.2731 -50.2720 -50.2629 -50.2595
   -50.2566 -50.2171 -50.2147 -50.2005 -50.1835 -50.1768 -50.1757 -50.1753
   -14.0452 -13.7069 -13.6095 -13.4903 -11.5283 -11.1844 -11.0954 -10.9924
   -10.9217 -10.5763 -10.4892 -10.3906  -9.2626  -8.9108  -8.8297  -8.7551
    -7.6637  -7.3081  -7.2290  -7.1673  -6.0738  -5.7194  -5.6402  -5.5740
    -5.4869  -5.1320  -5.0530  -4.9886  -3.3584  -2.9999  -2.9200  -2.8761
    -2.5658  -2.1861  -2.1398  -1.8263  -1.7450  -1.7099  -1.6640  -1.5326
    -1.3964  -1.0359  -0.9939  -0.9531  -0.9460  -0.9247  -0.9074  -0.8846
    -0.8745  -0.8402  -0.7499  -0.7130  -0.6734  -0.5542  -0.5431  -0.4037
    -0.3647  -0.3037  -0.2283  -0.1804  -0.0945  -0.0697  -0.0452  -0.0254
     0.0662   0.1234   0.2516   0.2936   0.3162   0.3787   0.3791   0.4001
     0.4095   0.4513   0.4567   0.4732   0.5566   0.5851   0.6154   0.6739
     0.6984   0.7006   0.7056   0.7256   0.7336   0.7931   0.9027   0.9814
     0.9895   1.0479   1.0685   1.1083   1.1125   1.1553   1.1710   1.1996
     1.2080   1.2355   1.2649   1.3456   1.3507   1.4110   1.4330   1.4773
     1.5073   1.5763   1.5936   1.6381   1.7377   1.7458   1.7854   1.8067
     1.8099   1.8973   2.0096   2.0436   2.0587   2.1020   2.1179   2.2357
     2.2385   2.3870   2.7701   3.0151   3.0527   3.3319   3.5958   4.4229
     5.2166   5.2188   5.2395   6.0087   6.2513   6.6047   6.7035   6.7264
     6.9337   6.9507   7.2586   7.8462   8.1486   8.3192   8.4135   8.5542
     8.7177   8.8275   8.9297   9.1993   9.4761   9.5193   9.6444   9.8692
    10.2873  10.3616  10.5162  10.6084  11.1524  11.2151  11.3109  11.6459
    11.8297  12.3480  12.5979  12.6517  12.6651  12.8718

          k = 0.2222 0.3849 0.0000 ( 35161 PWs)   bands (ev):

   -87.0337 -87.0266 -87.0266 -87.0215 -87.0163 -87.0163 -86.8504 -86.8419
   -86.8389 -86.7671 -86.7611 -86.7610 -50.5433 -50.5430 -50.5344 -50.5342
   -50.5271 -50.4888 -50.4886 -50.4867 -50.4665 -50.4664 -50.4611 -50.4523
   -50.4521 -50.4449 -50.4430 -50.4428 -50.4401 -50.4208 -50.3565 -50.3551
   -50.3010 -50.2851 -50.2845 -50.2768 -50.2767 -50.2715 -50.2629 -50.2613
   -50.2602 -50.2204 -50.2050 -50.2048 -50.1819 -50.1815 -50.1764 -50.1763
   -13.6895 -13.3505 -13.2543 -13.1374 -11.8039 -11.8006 -11.4590 -11.4589
   -11.3691 -11.3691 -11.2643 -11.2643  -8.6950  -8.3395  -8.2575  -8.2097
    -7.6813  -7.3211  -7.2366  -7.2086  -4.7287  -4.7272  -4.3716  -4.3715
    -4.3660  -4.2926  -4.2926  -4.2360  -4.2360  -4.0081  -3.9285  -3.8806
    -2.1407  -1.8255  -1.8220  -1.7177  -1.4637  -1.4637  -1.3818  -1.3818
    -1.3491  -1.3491  -1.2956  -1.1332  -0.9820  -0.9793  -0.9592  -0.9415
    -0.9400  -0.8961  -0.8951  -0.8212  -0.6161  -0.5975  -0.5912  -0.5904
    -0.5238  -0.5108  -0.4915  -0.4165  -0.4120  -0.4102  -0.3049  -0.3045
    -0.2200  -0.0274  -0.0246  -0.0018   0.0242   0.0648   0.1461   0.1564
     0.3469   0.3477   0.3855   0.3929   0.4331   0.4335   0.4730   0.4874
     0.5356   0.5438   0.5541   0.6039   0.6706   0.6754   0.6957   0.8386
     0.8407   0.8503   0.8874   0.9922   0.9973   1.0187   1.0543   1.1818
     1.2126   1.2225   1.2534   1.3281   1.3372   1.3537   1.5020   1.5028
     1.5118   1.5484   1.5542   1.5696   1.5742   1.6861   1.6876   1.7814
     1.7827   1.7879   1.9162   2.0079   2.0100   2.0800   2.0808   2.0825
     2.2086   2.2108   3.3501   3.4669   3.6446   3.7668   3.7783   3.8832
     4.0851   4.5223   4.5287   5.7310   5.8775   6.0596   6.0621   6.2494
     6.3554   6.3683   7.7255   8.1674   8.1838   9.2253   9.2273   9.5269
     9.5272   9.7583   9.7586   9.9584  10.0239  10.0240  10.1981  10.2021
    10.3379  10.8142  10.8195  10.8316  11.0412  11.5070  11.5297  11.7612
    12.0813  12.5359  12.5360  12.7506  12.7740  13.0710

          k = 0.2222-0.6415 0.0000 ( 35148 PWs)   bands (ev):

   -87.0312 -87.0287 -87.0271 -87.0196 -87.0178 -87.0166 -86.8495 -86.8418
   -86.8398 -86.7650 -86.7629 -86.7614 -50.5457 -50.5367 -50.5303 -50.5249
   -50.5241 -50.5078 -50.4892 -50.4888 -50.4794 -50.4587 -50.4564 -50.4531
   -50.4494 -50.4485 -50.4462 -50.4357 -50.4342 -50.4268 -50.3581 -50.3421
   -50.3223 -50.2790 -50.2779 -50.2759 -50.2711 -50.2673 -50.2628 -50.2625
   -50.2610 -50.2425 -50.1976 -50.1956 -50.1880 -50.1798 -50.1780 -50.1767
   -13.1945 -12.8544 -12.7599 -12.6461 -12.5635 -12.2219 -12.1297 -12.0199
   -11.9401 -11.5971 -11.5069 -11.4011  -8.5313  -8.1784  -8.0980  -8.0278
    -7.2820  -6.9240  -6.8432  -6.7986  -5.1820  -4.8226  -4.7403  -4.7048
    -4.0850  -3.7262  -3.6450  -3.6058  -3.3695  -3.0110  -2.9311  -2.8865
    -2.3368  -2.0798  -1.9763  -1.8930  -1.8645  -1.7196  -1.6368  -1.6066
    -1.5573  -1.3246  -1.1426  -1.1259  -1.0808  -1.0326  -0.9765  -0.9676
    -0.9639  -0.9304  -0.8809  -0.8603  -0.8526  -0.8435  -0.7798  -0.7401
    -0.6973  -0.6707  -0.5754  -0.5738  -0.5715  -0.4902  -0.4226  -0.3633
    -0.3408  -0.3362  -0.3097  -0.2509  -0.2299  -0.1991  -0.1005  -0.0910
     0.0272   0.1156   0.1647   0.2102   0.2144   0.2863   0.3637   0.3706
     0.4239   0.4713   0.5160   0.5247   0.5430   0.5780   0.7202   0.7996
     0.8415   0.8930   0.9042   0.9844   1.0277   1.1158   1.1380   1.1852
     1.2445   1.2573   1.2641   1.3794   1.4033   1.4066   1.4382   1.5028
     1.5577   1.5916   1.6054   1.6347   1.7319   1.7582   1.8154   1.8364
     1.8669   1.8919   1.9199   1.9380   2.0196   2.0760   2.0901   2.1004
     2.1961   2.3189   2.5522   3.2267   3.2592   3.7048   3.9953   4.0684
     4.0825   4.2961   4.5628   4.9368   5.5296   5.6741   5.8587   6.0095
     6.2324   6.4289   7.2551   7.8559   8.6795   9.5966   9.7277   9.9183
    10.0275  10.0952  10.2977  10.6029  10.6310  10.6632  10.9542  10.9851
    11.1382  11.3452  11.3577  11.4867  11.4990  11.6510  11.7190  12.0059
    12.0421  12.3183  12.3352  12.3466  12.3887  12.4659

          k = 0.2222-0.5132 0.0000 ( 35148 PWs)   bands (ev):

   -87.0312 -87.0287 -87.0271 -87.0196 -87.0178 -87.0166 -86.8495 -86.8418
   -86.8398 -86.7650 -86.7629 -86.7614 -50.5457 -50.5368 -50.5301 -50.5249
   -50.5241 -50.5080 -50.4890 -50.4887 -50.4797 -50.4588 -50.4565 -50.4531
   -50.4495 -50.4485 -50.4461 -50.4356 -50.4344 -50.4265 -50.3581 -50.3421
   -50.3223 -50.2790 -50.2779 -50.2759 -50.2711 -50.2673 -50.2626 -50.2624
   -50.2610 -50.2428 -50.1976 -50.1959 -50.1876 -50.1799 -50.1779 -50.1767
   -13.1945 -12.8544 -12.7599 -12.6461 -12.5635 -12.2219 -12.1297 -12.0199
   -11.9401 -11.5971 -11.5069 -11.4011  -8.5313  -8.1784  -8.0980  -8.0278
    -7.2820  -6.9240  -6.8432  -6.7986  -5.1820  -4.8226  -4.7403  -4.7048
    -4.0850  -3.7262  -3.6450  -3.6058  -3.3695  -3.0110  -2.9311  -2.8865
    -2.3368  -2.0798  -1.9763  -1.8930  -1.8645  -1.7196  -1.6368  -1.6066
    -1.5573  -1.3246  -1.1425  -1.1258  -1.0809  -1.0311  -0.9778  -0.9679
    -0.9639  -0.9316  -0.8809  -0.8587  -0.8526  -0.8431  -0.7789  -0.7398
    -0.6973  -0.6714  -0.5756  -0.5742  -0.5717  -0.4898  -0.4238  -0.3647
    -0.3410  -0.3362  -0.3069  -0.2509  -0.2299  -0.2003  -0.1010  -0.0913
     0.0273   0.1157   0.1616   0.2095   0.2127   0.2865   0.3648   0.3736
     0.4323   0.4695   0.5141   0.5186   0.5401   0.5827   0.7205   0.8011
     0.8369   0.8944   0.9094   0.9861   1.0286   1.1145   1.1401   1.1834
     1.2428   1.2556   1.2631   1.3808   1.4032   1.4065   1.4409   1.5032
     1.5572   1.5900   1.6079   1.6356   1.7320   1.7564   1.8156   1.8336
     1.8659   1.8915   1.9201   1.9430   2.0175   2.0743   2.0905   2.1002
     2.1926   2.3188   2.5521   3.2278   3.2594   3.7048   3.9953   4.0684
     4.0825   4.2961   4.5628   4.9382   5.5296   5.6745   5.8587   6.0095
     6.2324   6.4314   7.2535   7.8562   8.6842   9.5963   9.7214   9.9183
    10.0275  10.0952  10.2977  10.6029  10.6310  10.6632  10.9542  10.9852
    11.1382  11.3452  11.3576  11.4868  11.4990  11.6512  11.7191  12.0059
    12.0395  12.3179  12.3350  12.3466  12.3898  12.4648

          k = 0.2222-0.3849 0.0000 ( 35161 PWs)   bands (ev):

   -87.0337 -87.0266 -87.0266 -87.0215 -87.0163 -87.0163 -86.8504 -86.8419
   -86.8389 -86.7671 -86.7611 -86.7610 -50.5431 -50.5429 -50.5345 -50.5343
   -50.5271 -50.4887 -50.4884 -50.4870 -50.4665 -50.4665 -50.4614 -50.4525
   -50.4523 -50.4449 -50.4430 -50.4427 -50.4399 -50.4205 -50.3565 -50.3551
   -50.3010 -50.2852 -50.2845 -50.2767 -50.2766 -50.2715 -50.2629 -50.2613
   -50.2602 -50.2207 -50.2051 -50.2049 -50.1819 -50.1812 -50.1764 -50.1763
   -13.6895 -13.3505 -13.2543 -13.1374 -11.8039 -11.8006 -11.4590 -11.4589
   -11.3691 -11.3691 -11.2643 -11.2643  -8.6949  -8.3395  -8.2575  -8.2096
    -7.6813  -7.3211  -7.2366  -7.2086  -4.7287  -4.7272  -4.3716  -4.3715
    -4.3660  -4.2926  -4.2926  -4.2360  -4.2360  -4.0081  -3.9285  -3.8806
    -2.1407  -1.8255  -1.8220  -1.7177  -1.4637  -1.4637  -1.3818  -1.3818
    -1.3491  -1.3491  -1.2947  -1.1331  -0.9820  -0.9792  -0.9592  -0.9422
    -0.9409  -0.8961  -0.8950  -0.8196  -0.6150  -0.5975  -0.5914  -0.5899
    -0.5236  -0.5108  -0.4915  -0.4146  -0.4127  -0.4109  -0.3066  -0.3058
    -0.2214  -0.0291  -0.0250  -0.0033   0.0242   0.0633   0.1443   0.1547
     0.3544   0.3552   0.3855   0.3898   0.4302   0.4315   0.4730   0.4874
     0.5333   0.5417   0.5530   0.6071   0.6711   0.6769   0.6941   0.8440
     0.8469   0.8536   0.8866   0.9919   0.9972   1.0194   1.0491   1.1822
     1.2121   1.2225   1.2508   1.3273   1.3364   1.3535   1.5028   1.5037
     1.5152   1.5496   1.5552   1.5709   1.5759   1.6841   1.6854   1.7792
     1.7805   1.7878   1.9190   2.0091   2.0115   2.0762   2.0813   2.0828
     2.2042   2.2066   3.3501   3.4680   3.6446   3.7667   3.7781   3.8832
     4.0851   4.5229   4.5293   5.7331   5.8778   6.0612   6.0647   6.2494
     6.3554   6.3683   7.7289   8.1689   8.1853   9.2253   9.2273   9.5269
     9.5272   9.7583   9.7586   9.9584  10.0239  10.0240  10.1938  10.1983
    10.3379  10.8107  10.8177  10.8315  11.0412  11.5058  11.5281  11.7611
    12.0814  12.5358  12.5360  12.7418  12.7675  13.0708

          k = 0.2222-0.2566 0.0000 ( 35121 PWs)   bands (ev):

   -87.0358 -87.0259 -87.0252 -87.0231 -87.0158 -87.0153 -86.8515 -86.8417
   -86.8380 -86.7690 -86.7604 -86.7598 -50.5492 -50.5391 -50.5387 -50.5317
   -50.5307 -50.4918 -50.4858 -50.4770 -50.4733 -50.4696 -50.4586 -50.4554
   -50.4513 -50.4494 -50.4451 -50.4396 -50.4336 -50.4162 -50.3618 -50.3524
   -50.2973 -50.2950 -50.2828 -50.2804 -50.2732 -50.2720 -50.2629 -50.2595
   -50.2566 -50.2169 -50.2150 -50.2010 -50.1836 -50.1764 -50.1757 -50.1752
   -14.0452 -13.7069 -13.6095 -13.4903 -11.5283 -11.1844 -11.0954 -10.9924
   -10.9217 -10.5763 -10.4892 -10.3906  -9.2626  -8.9108  -8.8297  -8.7551
    -7.6637  -7.3081  -7.2290  -7.1673  -6.0738  -5.7194  -5.6402  -5.5740
    -5.4869  -5.1320  -5.0530  -4.9886  -3.3584  -2.9999  -2.9200  -2.8761
    -2.5658  -2.1861  -2.1398  -1.8263  -1.7450  -1.7099  -1.6636  -1.5326
    -1.3964  -1.0359  -0.9931  -0.9531  -0.9457  -0.9247  -0.9066  -0.8853
    -0.8746  -0.8407  -0.7517  -0.7120  -0.6734  -0.5513  -0.5437  -0.4021
    -0.3654  -0.3057  -0.2287  -0.1824  -0.0986  -0.0696  -0.0443  -0.0272
     0.0654   0.1230   0.2549   0.2936   0.3199   0.3787   0.3805   0.4001
     0.4069   0.4509   0.4555   0.4704   0.5594   0.5797   0.6184   0.6729
     0.6957   0.6996   0.7057   0.7300   0.7387   0.7948   0.9039   0.9832
     0.9919   1.0478   1.0685   1.1051   1.1091   1.1553   1.1710   1.1993
     1.2109   1.2357   1.2651   1.3459   1.3511   1.4102   1.4317   1.4827
     1.5083   1.5761   1.5946   1.6353   1.7356   1.7462   1.7854   1.8050
     1.8112   1.8984   2.0116   2.0438   2.0522   2.1024   2.1185   2.2325
     2.2348   2.3870   2.7701   3.0171   3.0527   3.3319   3.5958   4.4227
     5.2172   5.2202   5.2386   6.0095   6.2514   6.6047   6.7040   6.7264
     6.9358   6.9508   7.2655   7.8469   8.1487   8.3301   8.4137   8.5544
     8.7177   8.8284   8.9298   9.1993   9.4761   9.5193   9.6278   9.8692
    10.2813  10.3616  10.5162  10.6084  11.1484  11.2159  11.3108  11.6459
    11.8294  12.3480  12.5690  12.6516  12.6654  12.8718

          k = 0.3333-0.1925 0.0000 ( 35145 PWs)   bands (ev):

   -87.0349 -87.0269 -87.0251 -87.0224 -87.0165 -87.0152 -86.8510 -86.8419
   -86.8382 -86.7682 -86.7613 -86.7598 -50.5558 -50.5446 -50.5317 -50.5296
   -50.5245 -50.4939 -50.4830 -50.4752 -50.4742 -50.4667 -50.4580 -50.4550
   -50.4527 -50.4475 -50.4468 -50.4424 -50.4351 -50.4199 -50.3677 -50.3448
   -50.2935 -50.2915 -50.2890 -50.2861 -50.2718 -50.2655 -50.2630 -50.2598
   -50.2596 -50.2132 -50.2099 -50.2081 -50.1829 -50.1796 -50.1765 -50.1751
   -13.9027 -13.5641 -13.4672 -13.3489 -12.0080 -11.6652 -11.5747 -11.4685
   -10.2035 -10.1964  -9.8528  -9.8527  -9.7678  -9.7678  -9.6749  -9.6749
    -6.5587  -6.5539  -6.2018  -6.2018  -6.1225  -6.1225  -6.0570  -6.0569
    -4.8095  -4.4539  -4.3750  -4.3142  -3.1985  -3.1929  -2.8370  -2.8369
    -2.7567  -2.7567  -2.7146  -2.7146  -2.3950  -1.9701  -1.4810  -1.3667
    -1.1096  -1.0112  -1.0032  -0.9780  -0.7873  -0.7595  -0.7266  -0.7057
    -0.6815  -0.6172  -0.6006  -0.5764  -0.5423  -0.5336  -0.5108  -0.5083
    -0.4691  -0.3707  -0.3090  -0.2518  -0.2159  -0.1679  -0.1343  -0.1336
    -0.1029  -0.0941  -0.0298   0.0127   0.0354   0.1310   0.1980   0.2592
     0.2784   0.3032   0.3422   0.4082   0.4497   0.4843   0.5520   0.5891
     0.6455   0.6726   0.7019   0.7473   0.7991   0.8010   0.8302   0.8623
     0.8728   0.9510   1.0192   1.0230   1.0362   1.0560   1.0637   1.0963
     1.2580   1.2718   1.2834   1.3539   1.4142   1.4624   1.4741   1.5119
     1.5846   1.6178   1.7267   1.7938   1.8130   1.8820   1.8907   1.9714
     1.9984   2.0205   2.0375   2.0908   2.0992   2.1296   2.1913   2.2151
     2.2575   2.3134   2.6561   2.6645   3.0650   3.0654   3.2215   3.7291
     4.4706   5.4469   5.8045   6.0004   6.4404   6.9304   7.0536   7.1302
     7.2759   7.3248   7.3970   7.4035   7.6202   7.6239   7.8900   7.8909
     8.1751   9.3060   9.3924   9.6688   9.6870   9.9474   9.9787  10.0578
    10.2706  10.5501  10.6721  10.7787  10.7940  11.4906  11.8161  11.9690
    12.1179  12.2330  12.3963  12.4620  12.5323  12.5575

          k = 0.3333-0.0642 0.0000 ( 35121 PWs)   bands (ev):

   -87.0358 -87.0259 -87.0252 -87.0231 -87.0158 -87.0153 -86.8515 -86.8417
   -86.8380 -86.7690 -86.7604 -86.7598 -50.5492 -50.5392 -50.5387 -50.5317
   -50.5307 -50.4918 -50.4861 -50.4768 -50.4732 -50.4695 -50.4586 -50.4552
   -50.4514 -50.4495 -50.4452 -50.4396 -50.4337 -50.4163 -50.3618 -50.3523
   -50.2973 -50.2950 -50.2828 -50.2805 -50.2733 -50.2720 -50.2629 -50.2595
   -50.2565 -50.2168 -50.2150 -50.2008 -50.1836 -50.1765 -50.1758 -50.1752
   -14.0452 -13.7069 -13.6095 -13.4903 -11.5283 -11.1844 -11.0954 -10.9924
   -10.9217 -10.5763 -10.4892 -10.3906  -9.2626  -8.9108  -8.8297  -8.7551
    -7.6637  -7.3081  -7.2290  -7.1673  -6.0738  -5.7194  -5.6402  -5.5740
    -5.4869  -5.1320  -5.0530  -4.9886  -3.3584  -2.9999  -2.9200  -2.8761
    -2.5658  -2.1861  -2.1398  -1.8264  -1.7450  -1.7099  -1.6638  -1.5326
    -1.3964  -1.0359  -0.9932  -0.9531  -0.9459  -0.9247  -0.9071  -0.8852
    -0.8744  -0.8414  -0.7514  -0.7118  -0.6730  -0.5518  -0.5436  -0.4016
    -0.3658  -0.3053  -0.2287  -0.1824  -0.0971  -0.0695  -0.0437  -0.0267
     0.0653   0.1229   0.2557   0.2936   0.3173   0.3787   0.3801   0.4001
     0.4076   0.4507   0.4559   0.4733   0.5593   0.5815   0.6164   0.6730
     0.6954   0.6991   0.7057   0.7275   0.7369   0.7944   0.9040   0.9835
     0.9914   1.0477   1.0685   1.1060   1.1089   1.1553   1.1710   1.1987
     1.2109   1.2356   1.2652   1.3466   1.3512   1.4099   1.4321   1.4815
     1.5091   1.5756   1.5952   1.6359   1.7356   1.7465   1.7854   1.8058
     1.8099   1.8978   2.0115   2.0431   2.0543   2.1016   2.1185   2.2330
     2.2370   2.3870   2.7701   3.0163   3.0527   3.3319   3.5958   4.4227
     5.2168   5.2197   5.2386   6.0096   6.2514   6.6047   6.7034   6.7264
     6.9353   6.9507   7.2654   7.8469   8.1487   8.3298   8.4137   8.5542
     8.7177   8.8277   8.9297   9.1993   9.4761   9.5193   9.6279   9.8692
    10.2813  10.3616  10.5189  10.6084  11.1484  11.2166  11.3108  11.6459
    11.8317  12.3480  12.5687  12.6516  12.6654  12.8718

          k = 0.3333 0.0642 0.0000 ( 35121 PWs)   bands (ev):

   -87.0358 -87.0259 -87.0252 -87.0231 -87.0158 -87.0153 -86.8515 -86.8417
   -86.8380 -86.7690 -86.7604 -86.7598 -50.5495 -50.5390 -50.5388 -50.5317
   -50.5304 -50.4921 -50.4859 -50.4769 -50.4731 -50.4694 -50.4585 -50.4553
   -50.4510 -50.4499 -50.4452 -50.4394 -50.4338 -50.4164 -50.3618 -50.3523
   -50.2973 -50.2950 -50.2831 -50.2805 -50.2730 -50.2720 -50.2629 -50.2595
   -50.2565 -50.2172 -50.2146 -50.2007 -50.1836 -50.1767 -50.1757 -50.1753
   -14.0452 -13.7069 -13.6095 -13.4903 -11.5283 -11.1844 -11.0954 -10.9924
   -10.9217 -10.5763 -10.4892 -10.3906  -9.2626  -8.9108  -8.8297  -8.7551
    -7.6637  -7.3081  -7.2290  -7.1673  -6.0738  -5.7194  -5.6402  -5.5740
    -5.4869  -5.1320  -5.0530  -4.9886  -3.3584  -2.9999  -2.9200  -2.8761
    -2.5658  -2.1861  -2.1398  -1.8264  -1.7450  -1.7099  -1.6639  -1.5326
    -1.3964  -1.0359  -0.9939  -0.9531  -0.9460  -0.9247  -0.9073  -0.8852
    -0.8743  -0.8394  -0.7507  -0.7121  -0.6737  -0.5522  -0.5424  -0.4032
    -0.3650  -0.3046  -0.2291  -0.1811  -0.0969  -0.0698  -0.0464  -0.0258
     0.0650   0.1237   0.2510   0.2936   0.3187   0.3787   0.3799   0.4001
     0.4084   0.4499   0.4548   0.4688   0.5568   0.5837   0.6189   0.6738
     0.6983   0.7041   0.7058   0.7282   0.7374   0.7952   0.9021   0.9809
     0.9891   1.0479   1.0685   1.1082   1.1106   1.1553   1.1710   1.1989
     1.2069   1.2366   1.2651   1.3435   1.3508   1.4109   1.4316   1.4810
     1.5104   1.5780   1.5939   1.6349   1.7365   1.7489   1.7854   1.8059
     1.8087   1.8977   2.0097   2.0445   2.0563   2.1020   2.1180   2.2335
     2.2379   2.3870   2.7701   3.0151   3.0527   3.3319   3.5958   4.4229
     5.2172   5.2193   5.2394   6.0088   6.2513   6.6047   6.7051   6.7264
     6.9347   6.9507   7.2586   7.8462   8.1486   8.3195   8.4135   8.5543
     8.7177   8.8282   8.9298   9.1993   9.4761   9.5193   9.6443   9.8692
    10.2872  10.3616  10.5133  10.6084  11.1525  11.2112  11.3109  11.6459
    11.8308  12.3479  12.5988  12.6517  12.6654  12.8717

          k = 0.3333 0.1925 0.0000 ( 35145 PWs)   bands (ev):

   -87.0349 -87.0269 -87.0251 -87.0224 -87.0165 -87.0152 -86.8510 -86.8419
   -86.8382 -86.7682 -86.7613 -86.7598 -50.5561 -50.5447 -50.5315 -50.5296
   -50.5241 -50.4942 -50.4831 -50.4749 -50.4740 -50.4667 -50.4578 -50.4550
   -50.4526 -50.4474 -50.4471 -50.4423 -50.4352 -50.4202 -50.3678 -50.3448
   -50.2935 -50.2914 -50.2893 -50.2861 -50.2718 -50.2652 -50.2630 -50.2597
   -50.2597 -50.2135 -50.2095 -50.2078 -50.1828 -50.1800 -50.1765 -50.1752
   -13.9027 -13.5641 -13.4672 -13.3489 -12.0080 -11.6652 -11.5747 -11.4685
   -10.2035 -10.1964  -9.8528  -9.8527  -9.7678  -9.7678  -9.6749  -9.6749
    -6.5587  -6.5539  -6.2018  -6.2018  -6.1225  -6.1225  -6.0570  -6.0569
    -4.8095  -4.4539  -4.3750  -4.3142  -3.1985  -3.1929  -2.8370  -2.8369
    -2.7567  -2.7567  -2.7146  -2.7146  -2.3950  -1.9701  -1.4813  -1.3668
    -1.1092  -1.0109  -1.0038  -0.9780  -0.7877  -0.7600  -0.7250  -0.7030
    -0.6806  -0.6172  -0.6013  -0.5764  -0.5434  -0.5336  -0.5094  -0.5083
    -0.4709  -0.3689  -0.3104  -0.2513  -0.2159  -0.1682  -0.1336  -0.1323
    -0.1029  -0.0940  -0.0300   0.0095   0.0366   0.1311   0.1965   0.2548
     0.2754   0.3036   0.3411   0.4085   0.4490   0.4843   0.5597   0.5890
     0.6480   0.6658   0.6997   0.7479   0.8008   0.8039   0.8303   0.8649
     0.8781   0.9510   1.0128   1.0170   1.0362   1.0560   1.0634   1.1009
     1.2530   1.2739   1.2838   1.3552   1.4121   1.4629   1.4729   1.5091
     1.5856   1.6220   1.7285   1.7933   1.8138   1.8814   1.8913   1.9709
     1.9969   2.0250   2.0366   2.0898   2.0988   2.1296   2.1970   2.2159
     2.2575   2.3133   2.6561   2.6645   3.0650   3.0654   3.2191   3.7293
     4.4710   5.4449   5.8103   5.9999   6.4449   6.9225   7.0535   7.1218
     7.2740   7.3068   7.3970   7.4031   7.6202   7.6239   7.8900   7.8909
     8.1733   9.3242   9.3938   9.6688   9.6871   9.9495   9.9838  10.0579
    10.2706  10.5501  10.6679  10.7788  10.7989  11.4908  11.8162  11.9937
    12.1179  12.2330  12.3979  12.4623  12.5303  12.5575

          k = 0.3333 0.3208 0.0000 ( 35175 PWs)   bands (ev):

   -87.0333 -87.0280 -87.0257 -87.0212 -87.0172 -87.0156 -86.8502 -86.8421
   -86.8389 -86.7668 -86.7622 -86.7603 -50.5551 -50.5442 -50.5297 -50.5262
   -50.5232 -50.4914 -50.4884 -50.4854 -50.4664 -50.4649 -50.4623 -50.4547
   -50.4510 -50.4452 -50.4426 -50.4413 -50.4408 -50.4236 -50.3668 -50.3421
   -50.3030 -50.2883 -50.2846 -50.2832 -50.2714 -50.2637 -50.2629 -50.2625
   -50.2603 -50.2226 -50.2045 -50.2034 -50.1840 -50.1815 -50.1773 -50.1757
   -13.6186 -13.2794 -13.1835 -13.0670 -12.3544 -12.0123 -11.9208 -11.8123
   -11.1227 -10.7778 -10.6901 -10.5899  -9.3856  -9.0359  -8.9534  -8.8689
    -6.9401  -6.5845  -6.5052  -6.4450  -5.3121  -4.9555  -4.8763  -4.8213
    -4.2608  -4.0756  -3.9025  -3.8225  -3.7773  -3.7188  -3.6399  -3.5848
    -2.8626  -2.5032  -2.4221  -2.3846  -2.0564  -1.6339  -1.2829  -1.2023
    -1.1573  -1.0785  -1.0522  -1.0324  -0.9919  -0.9220  -0.8402  -0.8070
    -0.7899  -0.7671  -0.7493  -0.7226  -0.6958  -0.6312  -0.5867  -0.5801
    -0.5678  -0.5479  -0.5210  -0.4459  -0.4120  -0.3770  -0.3683  -0.2256
    -0.2101  -0.1974  -0.1274  -0.0201  -0.0127   0.0713   0.1033   0.1130
     0.2432   0.2693   0.3540   0.3667   0.4213   0.4354   0.4476   0.4657
     0.5318   0.5507   0.5717   0.5870   0.6047   0.7267   0.7375   0.7698
     0.9136   0.9192   0.9415   0.9660   0.9803   1.0035   1.0204   1.1412
     1.1518   1.1591   1.2087   1.3270   1.3533   1.3551   1.4924   1.5038
     1.5523   1.6197   1.6557   1.6805   1.7448   1.7649   1.8957   1.9390
     1.9669   1.9698   2.0125   2.0451   2.0704   2.0861   2.1341   2.1693
     2.2414   2.2799   2.7983   3.0972   3.1195   3.4543   3.5775   3.7960
     3.8062   4.6429   5.3804   5.3977   5.8553   6.3255   6.6334   6.6488
     6.8238   7.0498   7.6215   7.7986   7.8775   8.3088   8.6132   8.8256
     9.0667   9.4455  10.0049  10.0542  10.0677  10.1968  10.4028  10.4325
    10.6382  10.8632  10.9157  10.9262  11.1256  11.7817  11.8493  12.0101
    12.1640  12.2488  12.2679  12.5380  12.6333  12.6997

          k = 0.3333-0.7057 0.0000 ( 35148 PWs)   bands (ev):

   -87.0312 -87.0287 -87.0271 -87.0196 -87.0178 -87.0166 -86.8495 -86.8418
   -86.8398 -86.7650 -86.7629 -86.7615 -50.5459 -50.5368 -50.5302 -50.5248
   -50.5241 -50.5077 -50.4893 -50.4887 -50.4794 -50.4587 -50.4565 -50.4532
   -50.4494 -50.4486 -50.4462 -50.4356 -50.4343 -50.4268 -50.3580 -50.3421
   -50.3223 -50.2792 -50.2779 -50.2759 -50.2711 -50.2673 -50.2627 -50.2625
   -50.2610 -50.2425 -50.1974 -50.1958 -50.1880 -50.1798 -50.1779 -50.1768
   -13.1945 -12.8544 -12.7599 -12.6461 -12.5635 -12.2219 -12.1297 -12.0199
   -11.9401 -11.5971 -11.5069 -11.4011  -8.5313  -8.1784  -8.0980  -8.0278
    -7.2820  -6.9240  -6.8432  -6.7986  -5.1820  -4.8226  -4.7403  -4.7048
    -4.0850  -3.7262  -3.6450  -3.6058  -3.3695  -3.0110  -2.9311  -2.8865
    -2.3368  -2.0798  -1.9763  -1.8930  -1.8645  -1.7196  -1.6368  -1.6066
    -1.5573  -1.3246  -1.1426  -1.1255  -1.0801  -1.0326  -0.9770  -0.9684
    -0.9639  -0.9311  -0.8809  -0.8603  -0.8526  -0.8436  -0.7786  -0.7402
    -0.6973  -0.6705  -0.5754  -0.5737  -0.5709  -0.4901  -0.4230  -0.3636
    -0.3405  -0.3362  -0.3097  -0.2509  -0.2299  -0.1996  -0.1006  -0.0908
     0.0272   0.1158   0.1637   0.2117   0.2156   0.2837   0.3640   0.3714
     0.4225   0.4717   0.5167   0.5217   0.5425   0.5797   0.7203   0.7998
     0.8408   0.8929   0.9042   0.9851   1.0276   1.1166   1.1382   1.1847
     1.2435   1.2584   1.2639   1.3797   1.4031   1.4064   1.4395   1.5026
     1.5576   1.5910   1.6062   1.6347   1.7321   1.7579   1.8150   1.8367
     1.8669   1.8917   1.9195   1.9386   2.0187   2.0772   2.0903   2.1024
     2.1951   2.3185   2.5518   3.2278   3.2603   3.7048   3.9951   4.0671
     4.0821   4.2960   4.5628   4.9363   5.5296   5.6735   5.8587   6.0095
     6.2324   6.4287   7.2543   7.8550   8.6793   9.5965   9.7248   9.9183
    10.0320  10.0952  10.2977  10.6039  10.6310  10.6632  10.9542  10.9851
    11.1382  11.3485  11.3578  11.4867  11.4990  11.6509  11.7196  12.0060
    12.0406  12.3179  12.3351  12.3466  12.3898  12.4655

          k = 0.3333-0.5774 0.0000 ( 35157 PWs)   bands (ev):

   -87.0290 -87.0290 -87.0289 -87.0181 -87.0180 -87.0180 -86.8493 -86.8412
   -86.8407 -86.7631 -86.7631 -86.7630 -50.5308 -50.5307 -50.5303 -50.5259
   -50.5255 -50.5254 -50.4890 -50.4888 -50.4885 -50.4524 -50.4523 -50.4520
   -50.4509 -50.4508 -50.4506 -50.4308 -50.4307 -50.4305 -50.3437 -50.3435
   -50.3396 -50.2737 -50.2735 -50.2710 -50.2698 -50.2630 -50.2629 -50.2627
   -50.2621 -50.2616 -50.1925 -50.1923 -50.1921 -50.1782 -50.1782 -50.1781
   -12.6350 -12.6349 -12.6305 -12.2921 -12.2921 -12.2919 -12.1996 -12.1995
   -12.1995 -12.0893 -12.0893 -12.0893  -7.7774  -7.7687  -7.4292  -7.4061
    -7.3462  -7.3146  -7.3079  -7.2629  -5.5913  -5.2301  -5.1377  -5.1307
    -2.9948  -2.9903  -2.9902  -2.6316  -2.6316  -2.6315  -2.5474  -2.5474
    -2.5474  -2.5208  -2.5208  -2.5208  -1.5913  -1.5912  -1.5887  -1.2291
    -1.2291  -1.2290  -1.1431  -1.1431  -1.1431  -1.1234  -1.1234  -1.1234
    -1.0602  -1.0592  -1.0579  -1.0154  -1.0147  -1.0138  -0.9124  -0.9118
    -0.9049  -0.8180  -0.8156  -0.8149  -0.6484  -0.6479  -0.6448  -0.5034
    -0.5024  -0.5017  -0.4458  -0.4453  -0.4388  -0.2003  -0.1997  -0.1961
     0.0608   0.0610   0.0657   0.2283   0.2305   0.2350   0.4294   0.4311
     0.4370   0.5132   0.5153   0.5187   0.6236   0.6251   0.6266   0.6695
     0.6709   0.6714   1.0205   1.0229   1.0268   1.0942   1.1030   1.1054
     1.3951   1.3957   1.4020   1.4569   1.4571   1.4583   1.6604   1.6633
     1.6644   1.6966   1.6974   1.6978   1.7686   1.7693   1.7700   1.8610
     1.8613   1.8625   1.9212   1.9220   1.9226   2.1155   2.1176   2.1188
     2.1514   2.1522   2.1552   2.9525   2.9539   2.9543   4.4780   4.6889
     4.7668   4.7696   4.7867   4.8189   5.0677   5.1627   5.1904   5.2244
     5.6509   7.1126   7.1275   7.1289   9.5793   9.5875   9.5915  10.8578
    10.8581  10.8631  11.1799  11.1801  11.1806  11.3290  11.3291  11.3295
    11.3980  11.3981  11.3981  11.5109  11.5111  11.5112  11.6177  11.6186
    11.6194  11.9525  11.9725  11.9741  12.2359  12.2402

          k = 0.3333-0.4491 0.0000 ( 35148 PWs)   bands (ev):

   -87.0312 -87.0287 -87.0271 -87.0196 -87.0178 -87.0166 -86.8495 -86.8418
   -86.8398 -86.7650 -86.7629 -86.7614 -50.5456 -50.5368 -50.5302 -50.5249
   -50.5241 -50.5080 -50.4892 -50.4885 -50.4798 -50.4588 -50.4565 -50.4532
   -50.4494 -50.4485 -50.4461 -50.4358 -50.4342 -50.4265 -50.3580 -50.3422
   -50.3223 -50.2789 -50.2779 -50.2759 -50.2711 -50.2673 -50.2627 -50.2625
   -50.2610 -50.2428 -50.1978 -50.1957 -50.1876 -50.1799 -50.1780 -50.1767
   -13.1945 -12.8544 -12.7599 -12.6461 -12.5635 -12.2219 -12.1297 -12.0199
   -11.9401 -11.5971 -11.5069 -11.4011  -8.5313  -8.1784  -8.0980  -8.0278
    -7.2820  -6.9240  -6.8432  -6.7986  -5.1820  -4.8226  -4.7403  -4.7048
    -4.0850  -3.7262  -3.6450  -3.6058  -3.3695  -3.0110  -2.9311  -2.8865
    -2.3368  -2.0798  -1.9763  -1.8930  -1.8645  -1.7196  -1.6368  -1.6066
    -1.5573  -1.3246  -1.1425  -1.1266  -1.0813  -1.0312  -0.9772  -0.9669
    -0.9639  -0.9308  -0.8809  -0.8586  -0.8526  -0.8439  -0.7792  -0.7409
    -0.6973  -0.6715  -0.5755  -0.5735  -0.5729  -0.4897  -0.4232  -0.3639
    -0.3418  -0.3362  -0.3070  -0.2509  -0.2299  -0.2001  -0.1010  -0.0911
     0.0273   0.1144   0.1658   0.2069   0.2108   0.2896   0.3652   0.3743
     0.4321   0.4691   0.5158   0.5210   0.5395   0.5798   0.7205   0.7984
     0.8390   0.8927   0.9117   0.9831   1.0300   1.1145   1.1400   1.1827
     1.2464   1.2556   1.2630   1.3816   1.4035   1.4068   1.4387   1.5017
     1.5581   1.5916   1.6057   1.6350   1.7315   1.7563   1.8162   1.8340
     1.8649   1.8912   1.9208   1.9419   2.0187   2.0727   2.0909   2.0981
     2.1936   2.3194   2.5523   3.2277   3.2588   3.7048   3.9954   4.0687
     4.0830   4.2961   4.5628   4.9374   5.5296   5.6776   5.8587   6.0095
     6.2324   6.4318   7.2552   7.8568   8.6845   9.5965   9.7256   9.9183
    10.0223  10.0952  10.2977  10.5990  10.6310  10.6623  10.9542  10.9852
    11.1382  11.3454  11.3577  11.4867  11.4990  11.6512  11.7196  12.0059
    12.0405  12.3183  12.3347  12.3465  12.3888  12.4656

          k = 0.3333-0.3208 0.0000 ( 35175 PWs)   bands (ev):

   -87.0333 -87.0280 -87.0257 -87.0212 -87.0172 -87.0156 -86.8502 -86.8421
   -86.8389 -86.7668 -86.7622 -86.7603 -50.5548 -50.5441 -50.5298 -50.5262
   -50.5234 -50.4912 -50.4887 -50.4852 -50.4666 -50.4651 -50.4623 -50.4547
   -50.4513 -50.4453 -50.4421 -50.4415 -50.4407 -50.4233 -50.3668 -50.3422
   -50.3030 -50.2881 -50.2846 -50.2833 -50.2714 -50.2636 -50.2629 -50.2627
   -50.2603 -50.2230 -50.2043 -50.2038 -50.1836 -50.1815 -50.1773 -50.1756
   -13.6186 -13.2794 -13.1835 -13.0670 -12.3544 -12.0123 -11.9208 -11.8123
   -11.1227 -10.7778 -10.6901 -10.5899  -9.3856  -9.0359  -8.9534  -8.8689
    -6.9401  -6.5845  -6.5052  -6.4450  -5.3121  -4.9555  -4.8763  -4.8213
    -4.2608  -4.0756  -3.9025  -3.8225  -3.7773  -3.7188  -3.6399  -3.5848
    -2.8626  -2.5032  -2.4221  -2.3846  -2.0564  -1.6339  -1.2829  -1.2015
    -1.1582  -1.0794  -1.0521  -1.0313  -0.9919  -0.9220  -0.8402  -0.8070
    -0.7912  -0.7678  -0.7500  -0.7207  -0.6958  -0.6312  -0.5878  -0.5812
    -0.5673  -0.5479  -0.5210  -0.4459  -0.4101  -0.3790  -0.3675  -0.2261
    -0.2113  -0.1969  -0.1283  -0.0211  -0.0130   0.0733   0.1025   0.1102
     0.2515   0.2746   0.3528   0.3650   0.4264   0.4341   0.4438   0.4657
     0.5286   0.5507   0.5717   0.5796   0.6086   0.7318   0.7402   0.7706
     0.9131   0.9182   0.9366   0.9695   0.9787   1.0064   1.0211   1.1444
     1.1511   1.1564   1.2106   1.3241   1.3524   1.3563   1.4940   1.5035
     1.5535   1.6216   1.6528   1.6764   1.7443   1.7660   1.8940   1.9383
     1.9670   1.9688   2.0132   2.0492   2.0705   2.0846   2.1276   2.1696
     2.2410   2.2778   2.7983   3.0972   3.1196   3.4543   3.5796   3.7958
     3.8062   4.6403   5.3817   5.3990   5.8581   6.3256   6.6424   6.6493
     6.8238   7.0498   7.6230   7.8107   7.8809   8.3088   8.6132   8.8256
     9.0667   9.4276  10.0038  10.0542  10.0627  10.1975  10.4028  10.4324
    10.6382  10.8589  10.9157  10.9261  11.1257  11.7817  11.8492  12.0103
    12.1640  12.2299  12.2530  12.5363  12.6362  12.6982

          k = 0.4444-0.2566 0.0000 ( 35172 PWs)   bands (ev):

   -87.0322 -87.0294 -87.0254 -87.0204 -87.0183 -87.0154 -86.8499 -86.8424
   -86.8389 -86.7658 -86.7634 -86.7601 -50.5600 -50.5488 -50.5243 -50.5236
   -50.5134 -50.4951 -50.4895 -50.4841 -50.4742 -50.4636 -50.4570 -50.4555
   -50.4499 -50.4464 -50.4440 -50.4394 -50.4389 -50.4288 -50.3716 -50.3310
   -50.3103 -50.2931 -50.2813 -50.2808 -50.2712 -50.2683 -50.2630 -50.2604
   -50.2511 -50.2308 -50.2017 -50.2000 -50.1887 -50.1806 -50.1784 -50.1754
   -13.4061 -13.0664 -12.9713 -12.8561 -12.7728 -12.4317 -12.3387 -12.2276
   -10.3302 -10.3232  -9.9799  -9.9799  -9.8945  -9.8945  -9.8001  -9.8001
    -5.8636  -5.8592  -5.5038  -5.5038  -5.4236  -5.4236  -5.3763  -5.3763
    -3.9233  -3.9171  -3.5607  -3.5607  -3.4789  -3.4789  -3.4431  -3.4431
    -3.3665  -3.0089  -2.9299  -2.8785  -1.9304  -1.8050  -1.5712  -1.4910
    -1.4497  -1.3834  -1.2461  -1.1545  -1.0939  -1.0712  -0.9843  -0.8344
    -0.8153  -0.7186  -0.6762  -0.6691  -0.6213  -0.5417  -0.5257  -0.4789
    -0.4761  -0.4183  -0.3813  -0.3170  -0.2547  -0.2371  -0.2028  -0.1646
    -0.1581  -0.1410  -0.0809  -0.0807  -0.0565   0.0122   0.0950   0.1093
     0.1754   0.2037   0.2234   0.2380   0.3291   0.3641   0.3737   0.4081
     0.4233   0.4581   0.4739   0.4805   0.5083   0.5152   0.6165   0.7077
     0.7503   0.7814   0.8630   0.9468   0.9855   1.0352   1.0615   1.2189
     1.2294   1.2883   1.2984   1.4366   1.5357   1.5800   1.6155   1.6607
     1.6700   1.7256   1.8098   1.8551   1.8865   1.9174   1.9269   1.9669
     1.9801   2.0504   2.0573   2.0724   2.1749   2.1776   2.2406   2.2906
     2.2943   2.3646   2.5945   2.5981   2.6104   3.0353   3.0363   3.1879
     3.8825   4.7903   5.2696   6.0674   6.1717   6.6040   6.8300   7.0479
     7.3564   7.3598   7.6617   7.6632   7.8573   7.8586   8.0787   8.0791
     8.3157   9.2002   9.4598   9.8189  10.3414  10.5728  10.7142  10.9249
    11.1404  11.2087  11.2695  11.3795  11.4390  11.5528  11.7003  11.7612
    12.0595  12.1013  12.1685  12.3769  12.3899  12.4331

          k = 0.4444-0.1283 0.0000 ( 35175 PWs)   bands (ev):

   -87.0333 -87.0279 -87.0257 -87.0212 -87.0173 -87.0156 -86.8502 -86.8421
   -86.8389 -86.7668 -86.7622 -86.7603 -50.5548 -50.5441 -50.5299 -50.5262
   -50.5234 -50.4913 -50.4886 -50.4853 -50.4665 -50.4651 -50.4622 -50.4547
   -50.4513 -50.4453 -50.4421 -50.4416 -50.4407 -50.4233 -50.3668 -50.3421
   -50.3030 -50.2881 -50.2846 -50.2833 -50.2714 -50.2636 -50.2629 -50.2627
   -50.2603 -50.2229 -50.2042 -50.2038 -50.1838 -50.1814 -50.1774 -50.1756
   -13.6186 -13.2794 -13.1835 -13.0670 -12.3544 -12.0123 -11.9208 -11.8123
   -11.1227 -10.7778 -10.6901 -10.5899  -9.3856  -9.0359  -8.9534  -8.8689
    -6.9401  -6.5845  -6.5052  -6.4450  -5.3121  -4.9555  -4.8763  -4.8213
    -4.2608  -4.0756  -3.9025  -3.8225  -3.7773  -3.7188  -3.6399  -3.5848
    -2.8626  -2.5032  -2.4221  -2.3846  -2.0564  -1.6338  -1.2829  -1.2019
    -1.1583  -1.0794  -1.0522  -1.0311  -0.9919  -0.9220  -0.8402  -0.8070
    -0.7905  -0.7686  -0.7500  -0.7218  -0.6953  -0.6312  -0.5879  -0.5812
    -0.5666  -0.5479  -0.5210  -0.4459  -0.4097  -0.3789  -0.3669  -0.2262
    -0.2112  -0.1972  -0.1280  -0.0215  -0.0125   0.0745   0.1028   0.1109
     0.2502   0.2750   0.3529   0.3644   0.4245   0.4342   0.4436   0.4657
     0.5300   0.5507   0.5717   0.5807   0.6098   0.7293   0.7388   0.7705
     0.9130   0.9181   0.9370   0.9689   0.9780   1.0070   1.0206   1.1438
     1.1513   1.1567   1.2105   1.3247   1.3526   1.3566   1.4938   1.5037
     1.5536   1.6214   1.6534   1.6764   1.7438   1.7656   1.8949   1.9384
     1.9667   1.9688   2.0126   2.0466   2.0716   2.0861   2.1282   2.1690
     2.2414   2.2794   2.7983   3.0972   3.1196   3.4543   3.5791   3.7953
     3.8062   4.6403   5.3815   5.3991   5.8576   6.3256   6.6423   6.6492
     6.8238   7.0498   7.6232   7.8105   7.8801   8.3088   8.6132   8.8256
     9.0667   9.4276  10.0044  10.0542  10.0631  10.1983  10.4028  10.4325
    10.6382  10.8589  10.9157  10.9261  11.1256  11.7817  11.8492  12.0097
    12.1640  12.2298  12.2541  12.5380  12.6336  12.6997

          k = 0.4444 0.0000 0.0000 ( 35161 PWs)   bands (ev):

   -87.0337 -87.0266 -87.0266 -87.0215 -87.0163 -87.0163 -86.8504 -86.8419
   -86.8389 -86.7671 -86.7611 -86.7610 -50.5433 -50.5429 -50.5345 -50.5341
   -50.5271 -50.4887 -50.4886 -50.4869 -50.4665 -50.4664 -50.4613 -50.4524
   -50.4523 -50.4450 -50.4431 -50.4426 -50.4400 -50.4206 -50.3564 -50.3551
   -50.3010 -50.2852 -50.2845 -50.2769 -50.2765 -50.2715 -50.2629 -50.2612
   -50.2602 -50.2206 -50.2052 -50.2048 -50.1820 -50.1812 -50.1764 -50.1763
   -13.6895 -13.3505 -13.2543 -13.1374 -11.8038 -11.8006 -11.4590 -11.4589
   -11.3691 -11.3691 -11.2643 -11.2643  -8.6949  -8.3395  -8.2575  -8.2096
    -7.6813  -7.3211  -7.2367  -7.2086  -4.7287  -4.7272  -4.3716  -4.3715
    -4.3660  -4.2926  -4.2926  -4.2360  -4.2360  -4.0081  -3.9285  -3.8806
    -2.1407  -1.8255  -1.8220  -1.7177  -1.4637  -1.4637  -1.3818  -1.3818
    -1.3491  -1.3491  -1.2953  -1.1332  -0.9820  -0.9794  -0.9592  -0.9422
    -0.9403  -0.8963  -0.8944  -0.8207  -0.6143  -0.5975  -0.5913  -0.5899
    -0.5237  -0.5108  -0.4915  -0.4142  -0.4130  -0.4108  -0.3063  -0.3053
    -0.2218  -0.0285  -0.0246  -0.0027   0.0242   0.0638   0.1454   0.1559
     0.3506   0.3519   0.3855   0.3905   0.4315   0.4325   0.4730   0.4874
     0.5342   0.5428   0.5519   0.6058   0.6698   0.6766   0.6961   0.8420
     0.8455   0.8520   0.8872   0.9919   0.9973   1.0192   1.0509   1.1821
     1.2112   1.2222   1.2515   1.3278   1.3366   1.3539   1.5029   1.5038
     1.5143   1.5503   1.5550   1.5705   1.5751   1.6845   1.6866   1.7795
     1.7802   1.7869   1.9192   2.0086   2.0115   2.0782   2.0806   2.0819
     2.2052   2.2096   3.3501   3.4669   3.6446   3.7665   3.7785   3.8832
     4.0851   4.5223   4.5289   5.7324   5.8777   6.0603   6.0645   6.2494
     6.3554   6.3683   7.7276   8.1678   8.1848   9.2253   9.2273   9.5269
     9.5272   9.7583   9.7586   9.9584  10.0239  10.0240  10.1938  10.2020
    10.3380  10.8107  10.8186  10.8316  11.0412  11.5069  11.5302  11.7612
    12.0813  12.5358  12.5360  12.7433  12.7709  13.0710

          k = 0.4444 0.1283 0.0000 ( 35175 PWs)   bands (ev):

   -87.0333 -87.0280 -87.0257 -87.0212 -87.0173 -87.0156 -86.8502 -86.8421
   -86.8389 -86.7668 -86.7622 -86.7603 -50.5551 -50.5442 -50.5297 -50.5262
   -50.5232 -50.4913 -50.4885 -50.4854 -50.4664 -50.4650 -50.4622 -50.4547
   -50.4512 -50.4453 -50.4426 -50.4413 -50.4408 -50.4235 -50.3668 -50.3421
   -50.3030 -50.2883 -50.2847 -50.2832 -50.2714 -50.2636 -50.2629 -50.2624
   -50.2603 -50.2227 -50.2046 -50.2034 -50.1839 -50.1815 -50.1773 -50.1757
   -13.6186 -13.2794 -13.1835 -13.0670 -12.3544 -12.0123 -11.9208 -11.8123
   -11.1227 -10.7778 -10.6901 -10.5899  -9.3856  -9.0359  -8.9534  -8.8689
    -6.9401  -6.5845  -6.5052  -6.4450  -5.3121  -4.9555  -4.8763  -4.8213
    -4.2608  -4.0756  -3.9025  -3.8225  -3.7773  -3.7188  -3.6399  -3.5848
    -2.8626  -2.5032  -2.4221  -2.3846  -2.0564  -1.6338  -1.2829  -1.2020
    -1.1573  -1.0787  -1.0522  -1.0324  -0.9919  -0.9220  -0.8402  -0.8070
    -0.7903  -0.7666  -0.7491  -0.7221  -0.6963  -0.6312  -0.5868  -0.5802
    -0.5667  -0.5479  -0.5210  -0.4459  -0.4116  -0.3773  -0.3665  -0.2263
    -0.2114  -0.1991  -0.1280  -0.0207  -0.0126   0.0694   0.1033   0.1131
     0.2448   0.2702   0.3535   0.3664   0.4209   0.4345   0.4441   0.4657
     0.5318   0.5507   0.5717   0.5872   0.6058   0.7306   0.7390   0.7731
     0.9134   0.9172   0.9408   0.9669   0.9829   1.0018   1.0206   1.1415
     1.1511   1.1586   1.2088   1.3245   1.3524   1.3551   1.4953   1.5039
     1.5530   1.6203   1.6528   1.6809   1.7451   1.7658   1.8942   1.9389
     1.9668   1.9712   2.0130   2.0481   2.0696   2.0846   2.1335   2.1689
     2.2412   2.2778   2.7983   3.0972   3.1196   3.4543   3.5772   3.7961
     3.8062   4.6429   5.3814   5.3977   5.8563   6.3255   6.6335   6.6488
     6.8238   7.0498   7.6209   7.7988   7.8789   8.3088   8.6132   8.8256
     9.0667   9.4454  10.0039  10.0542  10.0673  10.1957  10.4028  10.4325
    10.6382  10.8632  10.9157  10.9262  11.1256  11.7817  11.8494  12.0096
    12.1640  12.2485  12.2682  12.5362  12.6361  12.6980

          k = 0.4444 0.2566 0.0000 ( 35172 PWs)   bands (ev):

   -87.0322 -87.0294 -87.0254 -87.0204 -87.0183 -87.0154 -86.8499 -86.8424
   -86.8389 -86.7658 -86.7634 -86.7601 -50.5603 -50.5489 -50.5243 -50.5235
   -50.5131 -50.4949 -50.4895 -50.4843 -50.4740 -50.4634 -50.4569 -50.4556
   -50.4496 -50.4464 -50.4440 -50.4395 -50.4391 -50.4292 -50.3716 -50.3310
   -50.3103 -50.2933 -50.2813 -50.2808 -50.2712 -50.2683 -50.2630 -50.2604
   -50.2508 -50.2304 -50.2013 -50.2003 -50.1890 -50.1806 -50.1784 -50.1756
   -13.4061 -13.0664 -12.9713 -12.8561 -12.7728 -12.4317 -12.3387 -12.2276
   -10.3302 -10.3232  -9.9799  -9.9799  -9.8945  -9.8945  -9.8001  -9.8001
    -5.8636  -5.8592  -5.5038  -5.5038  -5.4236  -5.4236  -5.3763  -5.3763
    -3.9233  -3.9171  -3.5607  -3.5607  -3.4789  -3.4789  -3.4431  -3.4431
    -3.3665  -3.0089  -2.9299  -2.8785  -1.9304  -1.8050  -1.5712  -1.4910
    -1.4497  -1.3834  -1.2450  -1.1537  -1.0951  -1.0712  -0.9844  -0.8337
    -0.8153  -0.7171  -0.6743  -0.6683  -0.6198  -0.5408  -0.5257  -0.4807
    -0.4776  -0.4162  -0.3828  -0.3182  -0.2561  -0.2375  -0.2028  -0.1646
    -0.1585  -0.1414  -0.0811  -0.0807  -0.0565   0.0122   0.0965   0.1065
     0.1745   0.1934   0.2244   0.2377   0.3294   0.3613   0.3737   0.4102
     0.4238   0.4581   0.4739   0.4805   0.5112   0.5150   0.6177   0.7016
     0.7556   0.7837   0.8705   0.9498   0.9920   1.0248   1.0514   1.2201
     1.2309   1.2823   1.2997   1.4376   1.5375   1.5796   1.6170   1.6660
     1.6719   1.7254   1.8088   1.8539   1.8878   1.9161   1.9292   1.9724
     1.9792   2.0546   2.0563   2.0722   2.1738   2.1774   2.2399   2.2905
     2.2938   2.3654   2.5942   2.5984   2.6103   3.0353   3.0364   3.1883
     3.8802   4.7888   5.2779   6.0736   6.1693   6.5901   6.8043   7.0458
     7.3561   7.3599   7.6617   7.6632   7.8573   7.8586   8.0787   8.0791
     8.3131   9.2204   9.4564   9.8273  10.3414  10.5775  10.7143  10.9250
    11.1404  11.2088  11.2695  11.3794  11.4390  11.5528  11.7003  11.7898
    12.0596  12.1015  12.1684  12.3769  12.3899  12.4331

          k = 0.4444-0.7698 0.0000 ( 35176 PWs)   bands (ev):

   -87.0306 -87.0305 -87.0259 -87.0192 -87.0191 -87.0158 -86.8496 -86.8423
   -86.8393 -86.7644 -86.7644 -86.7605 -50.5571 -50.5461 -50.5235 -50.5231
   -50.5089 -50.5086 -50.4859 -50.4836 -50.4834 -50.4600 -50.4569 -50.4517
   -50.4515 -50.4469 -50.4467 -50.4371 -50.4328 -50.4326 -50.3686 -50.3270
   -50.3221 -50.2902 -50.2794 -50.2755 -50.2711 -50.2708 -50.2628 -50.2607
   -50.2447 -50.2446 -50.1993 -50.1934 -50.1932 -50.1793 -50.1793 -50.1759
   -13.0550 -13.0522 -12.7132 -12.7130 -12.6192 -12.6192 -12.5063 -12.5063
   -11.1902 -10.8455 -10.7575 -10.6568  -9.4362  -9.0871  -9.0041  -8.9177
    -6.4931  -6.1347  -6.0528  -6.0138  -4.8815  -4.7626  -4.5222  -4.4394
    -4.4063  -4.4023  -4.3180  -4.2905  -3.2741  -2.9135  -2.8289  -2.8037
    -2.6530  -2.6494  -2.2926  -2.2925  -2.2128  -2.2128  -2.1682  -2.1682
    -1.3964  -1.3905  -1.2333  -1.1530  -1.0717  -0.9791  -0.9765  -0.8704
    -0.8690  -0.8292  -0.6829  -0.6818  -0.6686  -0.6360  -0.6341  -0.4814
    -0.4804  -0.4292  -0.4275  -0.3978  -0.3749  -0.3731  -0.2056  -0.2006
    -0.1198  -0.1196  -0.1189  -0.1145  -0.0358  -0.0358  -0.0111  -0.0111
     0.0952   0.0959   0.1149   0.1722   0.1731   0.2169   0.2334   0.2365
     0.4187   0.4858   0.4875   0.5104   0.5155   0.6720   0.6758   0.7496
     0.8344   0.8357   0.9470   0.9540   0.9853   1.0175   1.0861   1.0892
     1.1668   1.2287   1.2333   1.3606   1.3870   1.3890   1.5986   1.6587
     1.6636   1.6723   1.7154   1.7164   1.8108   1.8361   1.8379   1.9717
     2.0262   2.0272   2.0522   2.0544   2.1516   2.1534   2.1545   2.1960
     2.2627   2.3407   2.6755   2.6759   2.7953   3.1085   3.4893   3.8786
     4.3363   4.3370   4.3832   5.1524   6.3515   6.3888   6.6450   6.6517
     6.7016   6.8824   7.1055   7.6122   8.4857   8.8032   8.9524   8.9586
     8.9884   9.1859   9.3867   9.9852  10.7598  10.8187  10.8187  11.1742
    11.1769  11.5767  11.5808  11.6767  11.6777  11.8021  11.8036  11.9434
    11.9451  12.0831  12.0845  12.1454  12.3044  12.3045

          k = 0.4444-0.6415 0.0000 ( 35148 PWs)   bands (ev):

   -87.0312 -87.0287 -87.0271 -87.0196 -87.0178 -87.0166 -86.8495 -86.8418
   -86.8398 -86.7650 -86.7629 -86.7615 -50.5459 -50.5368 -50.5301 -50.5248
   -50.5241 -50.5078 -50.4891 -50.4887 -50.4796 -50.4587 -50.4565 -50.4532
   -50.4495 -50.4485 -50.4461 -50.4355 -50.4345 -50.4267 -50.3580 -50.3421
   -50.3223 -50.2792 -50.2779 -50.2759 -50.2711 -50.2672 -50.2626 -50.2624
   -50.2610 -50.2426 -50.1974 -50.1960 -50.1878 -50.1799 -50.1779 -50.1768
   -13.1945 -12.8544 -12.7599 -12.6461 -12.5635 -12.2219 -12.1297 -12.0199
   -11.9401 -11.5971 -11.5069 -11.4011  -8.5313  -8.1784  -8.0980  -8.0278
    -7.2820  -6.9240  -6.8432  -6.7986  -5.1820  -4.8226  -4.7403  -4.7048
    -4.0850  -3.7262  -3.6450  -3.6058  -3.3695  -3.0110  -2.9311  -2.8865
    -2.3368  -2.0798  -1.9763  -1.8930  -1.8645  -1.7196  -1.6368  -1.6066
    -1.5573  -1.3246  -1.1425  -1.1254  -1.0802  -1.0322  -0.9777  -0.9685
    -0.9639  -0.9317  -0.8809  -0.8597  -0.8526  -0.8430  -0.7785  -0.7400
    -0.6973  -0.6699  -0.5755  -0.5742  -0.5710  -0.4897  -0.4238  -0.3647
    -0.3407  -0.3362  -0.3081  -0.2509  -0.2299  -0.2003  -0.1011  -0.0910
     0.0273   0.1161   0.1619   0.2116   0.2149   0.2840   0.3645   0.3728
     0.4276   0.4706   0.5145   0.5176   0.5408   0.5823   0.7205   0.8010
     0.8387   0.8939   0.9073   0.9863   1.0287   1.1151   1.1396   1.1836
     1.2421   1.2566   1.2635   1.3804   1.4028   1.4064   1.4418   1.5032
     1.5574   1.5900   1.6084   1.6355   1.7321   1.7562   1.8144   1.8343
     1.8664   1.8915   1.9198   1.9417   2.0179   2.0764   2.0899   2.1022
     2.1933   2.3195   2.5518   3.2279   3.2604   3.7048   3.9951   4.0671
     4.0815   4.2960   4.5628   4.9378   5.5296   5.6737   5.8587   6.0095
     6.2324   6.4304   7.2532   7.8552   8.6822   9.5963   9.7211   9.9183
    10.0320  10.0952  10.2977  10.6039  10.6310  10.6633  10.9542  10.9853
    11.1382  11.3485  11.3578  11.4868  11.4990  11.6511  11.7190  12.0059
    12.0398  12.3183  12.3348  12.3466  12.3888  12.4650

          k = 0.4444-0.5132 0.0000 ( 35148 PWs)   bands (ev):

   -87.0312 -87.0287 -87.0271 -87.0196 -87.0178 -87.0166 -86.8495 -86.8418
   -86.8398 -86.7650 -86.7629 -86.7614 -50.5456 -50.5367 -50.5303 -50.5249
   -50.5241 -50.5079 -50.4893 -50.4885 -50.4797 -50.4588 -50.4564 -50.4532
   -50.4495 -50.4485 -50.4461 -50.4358 -50.4341 -50.4266 -50.3580 -50.3421
   -50.3223 -50.2789 -50.2779 -50.2759 -50.2711 -50.2672 -50.2628 -50.2626
   -50.2610 -50.2427 -50.1978 -50.1956 -50.1878 -50.1799 -50.1780 -50.1767
   -13.1945 -12.8544 -12.7599 -12.6461 -12.5635 -12.2219 -12.1297 -12.0199
   -11.9401 -11.5971 -11.5069 -11.4011  -8.5313  -8.1784  -8.0980  -8.0278
    -7.2820  -6.9240  -6.8432  -6.7986  -5.1820  -4.8226  -4.7403  -4.7048
    -4.0850  -3.7262  -3.6450  -3.6058  -3.3695  -3.0110  -2.9311  -2.8865
    -2.3368  -2.0798  -1.9763  -1.8930  -1.8645  -1.7196  -1.6368  -1.6066
    -1.5573  -1.3246  -1.1425  -1.1267  -1.0813  -1.0323  -0.9766  -0.9667
    -0.9639  -0.9302  -0.8809  -0.8595  -0.8526  -0.8437  -0.7801  -0.7409
    -0.6973  -0.6702  -0.5754  -0.5735  -0.5728  -0.4897  -0.4228  -0.3636
    -0.3418  -0.3362  -0.3082  -0.2509  -0.2299  -0.1996  -0.1010  -0.0910
     0.0273   0.1147   0.1672   0.2076   0.2118   0.2897   0.3647   0.3724
     0.4289   0.4700   0.5160   0.5223   0.5405   0.5779   0.7204   0.7981
     0.8414   0.8922   0.9097   0.9825   1.0302   1.1144   1.1394   1.1834
     1.2468   1.2555   1.2636   1.3809   1.4034   1.4068   1.4385   1.5019
     1.5583   1.5922   1.6053   1.6349   1.7314   1.7564   1.8154   1.8344
     1.8654   1.8914   1.9209   1.9400   2.0199   2.0736   2.0901   2.0981
     2.1953   2.3204   2.5525   3.2267   3.2587   3.7048   3.9954   4.0687
     4.0823   4.2961   4.5628   4.9374   5.5296   5.6775   5.8587   6.0095
     6.2324   6.4310   7.2557   7.8566   8.6826   9.5967   9.7281   9.9183
    10.0222  10.0952  10.2977  10.5990  10.6310  10.6623  10.9542  10.9852
    11.1382  11.3454  11.3577  11.4868  11.4990  11.6510  11.7190  12.0060
    12.0419  12.3179  12.3355  12.3465  12.3898  12.4656

          k = 0.4444-0.3849 0.0000 ( 35176 PWs)   bands (ev):

   -87.0306 -87.0305 -87.0259 -87.0192 -87.0191 -87.0158 -86.8496 -86.8423
   -86.8393 -86.7644 -86.7644 -86.7605 -50.5568 -50.5460 -50.5235 -50.5231
   -50.5091 -50.5087 -50.4857 -50.4838 -50.4835 -50.4601 -50.4570 -50.4517
   -50.4515 -50.4469 -50.4468 -50.4374 -50.4324 -50.4323 -50.3685 -50.3270
   -50.3222 -50.2899 -50.2794 -50.2755 -50.2710 -50.2708 -50.2628 -50.2607
   -50.2450 -50.2449 -50.1996 -50.1930 -50.1929 -50.1794 -50.1793 -50.1758
   -13.0550 -13.0522 -12.7132 -12.7130 -12.6192 -12.6192 -12.5063 -12.5063
   -11.1902 -10.8455 -10.7575 -10.6568  -9.4362  -9.0871  -9.0041  -8.9177
    -6.4931  -6.1347  -6.0528  -6.0138  -4.8815  -4.7626  -4.5222  -4.4394
    -4.4063  -4.4023  -4.3180  -4.2905  -3.2741  -2.9135  -2.8289  -2.8037
    -2.6530  -2.6494  -2.2926  -2.2925  -2.2128  -2.2128  -2.1682  -2.1682
    -1.3964  -1.3905  -1.2344  -1.1539  -1.0704  -0.9791  -0.9765  -0.8705
    -0.8689  -0.8299  -0.6817  -0.6805  -0.6707  -0.6379  -0.6356  -0.4814
    -0.4804  -0.4290  -0.4271  -0.3997  -0.3740  -0.3724  -0.2048  -0.2002
    -0.1198  -0.1196  -0.1189  -0.1147  -0.0358  -0.0358  -0.0111  -0.0111
     0.0974   0.0978   0.1178   0.1718   0.1727   0.2276   0.2303   0.2339
     0.4157   0.4864   0.4878   0.5124   0.5159   0.6703   0.6745   0.7490
     0.8338   0.8353   0.9491   0.9555   0.9822   1.0124   1.0904   1.0935
     1.1682   1.2266   1.2310   1.3647   1.3870   1.3885   1.5994   1.6574
     1.6625   1.6701   1.7135   1.7143   1.8063   1.8373   1.8391   1.9725
     2.0211   2.0223   2.0532   2.0562   2.1523   2.1540   2.1561   2.1960
     2.2628   2.3401   2.6753   2.6759   2.7953   3.1085   3.4893   3.8785
     4.3381   4.3386   4.3794   5.1541   6.3516   6.3992   6.6472   6.6531
     6.7024   6.8824   7.1055   7.6241   8.4858   8.8032   8.9556   8.9612
     8.9889   9.1859   9.3686   9.9776  10.7554  10.8187  10.8187  11.1741
    11.1769  11.5766  11.5808  11.6768  11.6775  11.8021  11.8037  11.9434
    11.9451  12.0828  12.0845  12.1109  12.3044  12.3045

     the Fermi energy is     5.2136 ev

!    total energy              =   -4038.71731989 Ry
     estimated scf accuracy    <          2.1E-09 Ry
     smearing contrib. (-TS)   =      -0.00190731 Ry
     internal energy E=F+TS    =   -4038.71541259 Ry

     The total energy is F=E-TS. E is the sum of the following terms:
     one-electron contribution =  -52047.83687137 Ry
     hartree contribution      =   26088.03930099 Ry
     xc contribution           =    -472.96771697 Ry
     ewald contribution        =   22592.13923603 Ry
     DFT-D3 Dispersion         =      -0.77998927 Ry
     electric field correction =       0.00000110 Ry
     one-center paw contrib.   =    -197.30937309 Ry

     convergence has been achieved in  66 iterations

     negative rho (up, down):  2.862E-04 0.000E+00

     Forces acting on atoms (cartesian axes, Ry/au):

     atom    1 type  1   force =    -0.00000900    0.00032368    0.00220937
     atom    2 type  1   force =     0.00007715    0.00037448    0.00224298
     atom    3 type  1   force =    -0.00005389   -0.00024458   -0.00119227
     atom    4 type  1   force =     0.00000572   -0.00033151   -0.00310290
     atom    5 type  1   force =     0.00008975    0.00029803    0.00223531
     atom    6 type  1   force =    -0.00032258    0.00003791   -0.00081778
     atom    7 type  1   force =     0.00015695   -0.00000042    0.00114273
     atom    8 type  1   force =     0.00000605   -0.00032878   -0.00313904
     atom    9 type  1   force =     0.00001206    0.00004550    0.00160828
     atom   10 type  1   force =    -0.00008192    0.00027967   -0.00111256
     atom   11 type  1   force =     0.00000566   -0.00032899   -0.00310363
     atom   12 type  1   force =     0.00013876    0.00000187    0.00115713
     atom   13 type  2   force =    -0.00000260   -0.00001065    0.00029203
     atom   14 type  2   force =     0.00110723    0.00062584    0.00029065
     atom   15 type  2   force =     0.00106658   -0.00062001    0.00075862
     atom   16 type  2   force =    -0.00000137   -0.00126621    0.00028946
     atom   17 type  2   force =    -0.00000371    0.00124546    0.00075762
     atom   18 type  2   force =    -0.00110445    0.00062745    0.00028733
     atom   19 type  2   force =    -0.00106727   -0.00062174    0.00075458
     atom   20 type  2   force =    -0.00000085   -0.00001269   -0.00002752
     atom   21 type  2   force =     0.00002087    0.00000995    0.00004904
     atom   22 type  2   force =     0.00000004   -0.00000651   -0.00023707
     atom   23 type  2   force =    -0.00000241   -0.00002704    0.00004896
     atom   24 type  2   force =     0.00001521   -0.00001399   -0.00029610
     atom   25 type  2   force =    -0.00002340    0.00001124    0.00004905
     atom   26 type  2   force =    -0.00000087    0.00001133   -0.00029604
     atom   27 type  2   force =    -0.00000173   -0.00000225    0.00004744
     atom   28 type  2   force =    -0.00001422   -0.00001539   -0.00029611
     atom   29 type  2   force =    -0.00000165   -0.00000212   -0.00004302
     atom   30 type  2   force =     0.00000048   -0.00000588   -0.00023859
     atom   31 type  2   force =    -0.00000233   -0.00000173   -0.00003826
     atom   32 type  2   force =     0.00000005   -0.00000656   -0.00023853
     atom   33 type  2   force =    -0.00000165   -0.00000290   -0.00003821
     atom   34 type  2   force =    -0.00000035   -0.00000585   -0.00023868
     atom   35 type  2   force =    -0.00000094   -0.00000176   -0.00003822
     atom   36 type  2   force =     0.00000007   -0.00000612   -0.00023499
     atom   37 type  2   force =    -0.00000153   -0.00000167    0.00028343
     atom   38 type  2   force =     0.00000022   -0.00000556   -0.00015647
     atom   39 type  2   force =    -0.00000156   -0.00000164    0.00028344
     atom   40 type  2   force =     0.00000019   -0.00000554   -0.00015621
     atom   41 type  2   force =    -0.00000160   -0.00000166    0.00028341
     atom   42 type  2   force =     0.00000018   -0.00000556   -0.00015614
     atom   43 type  2   force =    -0.00000156   -0.00000156    0.00028359
     atom   44 type  2   force =     0.00000021   -0.00000554   -0.00015611

     Total force =     0.008126     Total SCF correction =     0.000140

     Writing all to output data dir ./tmp/AGC_N4_top_fcc_K9_bound.save/ :
     XML data file, charge density, pseudopotentials, collected wavefunctions
 
     init_run     :     78.37s CPU     80.62s WALL (       1 calls)
     electrons    :  13323.69s CPU  13474.60s WALL (       1 calls)
     forces       :     38.72s CPU     39.38s WALL (       1 calls)
     force_dftd3  :      0.02s CPU      0.02s WALL (       1 calls)

     Called by init_run:
     wfcinit      :     65.99s CPU     68.03s WALL (       1 calls)
     potinit      :     11.23s CPU     11.31s WALL (       1 calls)
     hinit0       :      0.50s CPU      0.53s WALL (       1 calls)

     Called by electrons:
     c_bands      :  10376.85s CPU  10482.73s WALL (      66 calls)
     sum_band     :   2126.40s CPU   2167.88s WALL (      66 calls)
     v_of_rho     :     12.30s CPU     13.52s WALL (      67 calls)
     newd         :     14.94s CPU     15.02s WALL (      67 calls)
                                       15.02s GPU  (      67 calls)
     PAW_pot      :    612.81s CPU    612.78s WALL (      67 calls)
     mix_rho      :    185.61s CPU    187.24s WALL (      66 calls)
     energy_dftd3 :      0.01s CPU      0.01s WALL (       1 calls)

     Called by c_bands:
     init_us_2    :    565.34s CPU    566.04s WALL (    5494 calls)
     cegterg      :   9667.12s CPU   9670.19s WALL (    2706 calls)

     Called by *egterg:
     cdiaghg      :    496.80s CPU    497.55s WALL (   16147 calls)
                                      478.03s GPU  (   16147 calls)
     h_psi        :   4960.20s CPU   4981.18s WALL (   16188 calls)
                                     4968.23s GPU  (   16188 calls)
     s_psi        :    979.17s CPU    979.33s WALL (   16188 calls)
     g_psi        :      0.06s CPU     16.30s WALL (   13441 calls)
                                        4.75s GPU  (   13441 calls)

     Called by h_psi:
     h_psi:calbec :      0.95s CPU    872.89s WALL (   16188 calls)
                                      858.29s GPU  (   16188 calls)
     vloc_psi     :   2721.79s CPU   2737.37s WALL (   16188 calls)
                                     2725.15s GPU  (   16188 calls)
     add_vuspsi   :    707.85s CPU   1304.40s WALL (   16188 calls)
                                     1287.55s GPU  (   16188 calls)

     General routines
     calbec       :      1.05s CPU      1.07s WALL (   19058 calls)
     fft          :      3.00s CPU      5.14s WALL (     880 calls)
                                        1.19s GPU  (     813 calls)
     ffts         :      1.17s CPU     11.19s WALL (    7998 calls)
                                        3.05s GPU  (    7931 calls)
     fftw         :      3.76s CPU   1585.15s WALL (  213498 calls)
                                     1376.09s GPU  (  213498 calls)
     interpolate  :      4.36s CPU      5.05s WALL (      67 calls)
     davcio       :      6.18s CPU    148.25s WALL (    9467 calls)
 
     Parallel routines
 
     PWSCF        :      3h44m CPU      3h46m WALL

 
   This run was terminated on:  14: 2:37   6Oct2026            

=------------------------------------------------------------------------------=
   JOB DONE.
=------------------------------------------------------------------------------=
