
     Program PWSCF v.7.4.1 starts on 26Sep2026 at 22: 4:15 

     This program is part of the open-source Quantum ESPRESSO suite
     for quantum simulation of materials; please cite
         "P. Giannozzi et al., J. Phys.:Condens. Matter 21 395502 (2009);
         "P. Giannozzi et al., J. Phys.:Condens. Matter 29 465901 (2017);
         "P. Giannozzi et al., J. Chem. Phys. 152 154105 (2020);
          URL http://www.quantum-espresso.org", 
     in publications or presentations arising from this work. More details at
     http://www.quantum-espresso.org/quote

     Parallel version (MPI & OpenMP), running on      16 processor cores
     Number of MPI processes:                 1
     Threads/MPI process:                    16

     MPI processes distributed on     1 nodes
     83299 MiB available memory on the printing compute node when the environment starts
 
     Reading input from pw.in

     Current dimensions of program PWSCF are:
     Max number of different atomic species (ntypx) = 10
     Max number of k-points (npk) =  40000
     Max angular momentum in pseudopotentials (lmaxx) =  4
     Presently no symmetry can be used with electric field

     file C.pbe-n-kjpaw_psl.1.0.0.UPF: wavefunction(s)  2S 2P renormalized
 
     Subspace diagonalization in iterative solution of the eigenvalue problem:
     a serial algorithm will be used

 
     G-vector sticks info
     --------------------
     sticks:   dense  smooth     PW     G-vecs:    dense   smooth      PW
     Sum        3193    1273    367               699545   177041   27695
 
     Using Slab Decomposition
 


     bravais-lattice index     =            0
     lattice parameter (alat)  =       9.4208  a.u.
     unit-cell volume          =    3493.5493 (a.u.)^3
     number of atoms/cell      =           20
     number of atomic types    =            2
     number of electrons       =       260.00
     number of Kohn-Sham states=          156
     kinetic-energy cutoff     =      52.0000  Ry
     charge density cutoff     =     520.0000  Ry
     scf convergence threshold =      1.0E-08
     mixing beta               =       0.3000
     number of iterations used =            8  local-TF  mixing
     Exchange-correlation= SLA  PW   PBX  PBC
                           (   1   4   3   4   0   0   0)

     GPU acceleration is ACTIVE.  1 visible GPUs per MPI rank


     celldm(1)=   9.420781  celldm(2)=   0.000000  celldm(3)=   0.000000
     celldm(4)=   0.000000  celldm(5)=   0.000000  celldm(6)=   0.000000

     crystal axes: (cart. coord. in units of alat)
               a(1) = (   1.000000  -0.000000   0.000000 )  
               a(2) = (   0.500000   0.866025   0.000000 )  
               a(3) = (   0.000000   0.000000   4.824757 )  

     reciprocal axes: (cart. coord. in units 2 pi/alat)
               b(1) = (  1.000000 -0.577350  0.000000 )  
               b(2) = (  0.000000  1.154701 -0.000000 )  
               b(3) = ( -0.000000  0.000000  0.207264 )  


     PseudoPot. # 1 for Ag read from file:
     /home/ubuntu/wad4l/pseudo_kgy/Ag_ONCV_PBE-1.0.oncvpsp.upf
     MD5 check sum: 94f47bd0669c641108e45594df92fabc
     Pseudo is Norm-conserving, Zval = 19.0
     Generated using ONCVPSP code by D. R. Hamann
     Using radial grid of 1398 points,  6 beta functions with: 
                l(1) =   0
                l(2) =   0
                l(3) =   1
                l(4) =   1
                l(5) =   2
                l(6) =   2

     PseudoPot. # 2 for C  read from file:
     /home/ubuntu/wad4l/pseudo_kgy/C.pbe-n-kjpaw_psl.1.0.0.UPF
     MD5 check sum: 5d2aebdfa2cae82b50a7e79e9516da0f
     Pseudo is Projector augmented-wave + core cor, Zval =  4.0
     Generated using "atomic" code by A. Dal Corso  v.5.1
     Shape of augmentation charge: PSQ
     Using radial grid of 1073 points,  4 beta functions with: 
                l(1) =   0
                l(2) =   0
                l(3) =   1
                l(4) =   1
     Q(r) pseudized with 0 coefficients 


     atomic species   valence    mass     pseudopotential
     Ag               19.00   107.86820     Ag( 1.00)
     C                 4.00    12.01100     C ( 1.00)

     No symmetry found



   Cartesian axes

     site n.     atom                  positions (alat units)
         1        Ag     tau(   1) = (   0.3337695   0.5765948   0.5717001  )
         2        Ag     tau(   2) = (   0.8337695   0.8652699   0.5717001  )
         3        Ag     tau(   3) = (   0.1686118   0.2891880   1.0412003  )
         4        Ag     tau(   4) = (   0.5004501   0.2909658   0.1002956  )
         5        Ag     tau(   5) = (   0.8337695   0.2879196   0.5717001  )
         6        Ag     tau(   6) = (   0.6682533   0.5780678   1.0411952  )
         7        Ag     tau(   7) = (   0.5010511   0.2905737   1.5138552  )
         8        Ag     tau(   8) = (   1.0004501   0.5796409   0.1002956  )
         9        Ag     tau(   9) = (   1.0010597   0.5792406   1.5110488  )
        10        Ag     tau(  10) = (   0.6686160   0.0009230   1.0411962  )
        11        Ag     tau(  11) = (   1.0004501   0.0022906   0.1002956  )
        12        Ag     tau(  12) = (   1.0010502   0.0018969   1.5138803  )
        13        C      tau(  13) = (   0.5004501   0.2909658   3.1186101  )
        14        C      tau(  14) = (   0.7504501   0.4353033   3.1197280  )
        15        C      tau(  15) = (   0.7504501   0.7239785   3.1197312  )
        16        C      tau(  16) = (   1.0004501   0.8683160   3.1197278  )
        17        C      tau(  17) = (   1.0004501   0.2909658   3.1197319  )
        18        C      tau(  18) = (   1.2504501   0.4353033   3.1197284  )
        19        C      tau(  19) = (   1.2504501   0.7239785   3.1197317  )
        20        C      tau(  20) = (   1.5004501   0.8683160   3.1186207  )

     --------------------------------------------
     DFT-D3 Dispersion Correction (no 3-body):
     --------------------------------------------
       Reference C6 values for interpolation: 

         atom   Coordination number   C6
         C          0.000            98.23
         C          0.987            86.49
         C          1.998            58.72
         C          2.999            51.56
         C          3.984            36.41
         Ag         0.000           853.49
         Ag         0.968           537.23

       Values used:

         atom   Coordination number  R0_AB[au]  C6      C8
         Ag         9.085            3.147    537.23  47741.54
         Ag         9.085            3.147    537.23  47741.54
         Ag         9.081            3.147    537.23  47741.54
         Ag         6.766            3.147    537.23  47741.54
         Ag         9.085            3.147    537.23  47741.54
         Ag         9.081            3.147    537.23  47741.54
         Ag         6.750            3.147    537.23  47741.54
         Ag         6.766            3.147    537.23  47741.54
         Ag         6.787            3.147    537.23  47741.54
         Ag         9.081            3.147    537.23  47741.54
         Ag         6.766            3.147    537.23  47741.54
         Ag         6.749            3.147    537.23  47741.54
         C          3.268            2.750     49.13   1420.95
         C          3.268            2.750     49.13   1420.95
         C          3.268            2.750     49.13   1420.95
         C          3.268            2.750     49.13   1420.95
         C          3.268            2.750     49.13   1420.95
         C          3.268            2.750     49.13   1420.95
         C          3.268            2.750     49.13   1420.95
         C          3.268            2.750     49.13   1420.95

         Molecular C6 ( Ry / a.u.^6 ) =    111572.13


     number of k points=    20  Marzari-Vanderbilt smearing, width (Ry)=  0.0050
                       cart. coord. in units 2pi/alat
        k(    1) = (   0.0000000   0.0000000   0.0000000), wk =   0.0555556
        k(    2) = (   0.0000000   0.1924501   0.0000000), wk =   0.1111111
        k(    3) = (   0.0000000   0.3849002   0.0000000), wk =   0.1111111
        k(    4) = (   0.0000000  -0.5773503   0.0000000), wk =   0.0555556
        k(    5) = (   0.1666667  -0.0962250   0.0000000), wk =   0.1111111
        k(    6) = (   0.1666667   0.0962250   0.0000000), wk =   0.1111111
        k(    7) = (   0.1666667   0.2886751   0.0000000), wk =   0.1111111
        k(    8) = (   0.1666667  -0.6735753   0.0000000), wk =   0.1111111
        k(    9) = (   0.1666667  -0.4811252   0.0000000), wk =   0.1111111
        k(   10) = (   0.1666667  -0.2886751   0.0000000), wk =   0.1111111
        k(   11) = (   0.3333333  -0.1924501   0.0000000), wk =   0.1111111
        k(   12) = (   0.3333333  -0.0000000   0.0000000), wk =   0.1111111
        k(   13) = (   0.3333333   0.1924501   0.0000000), wk =   0.1111111
        k(   14) = (   0.3333333  -0.7698004   0.0000000), wk =   0.1111111
        k(   15) = (   0.3333333  -0.5773503   0.0000000), wk =   0.1111111
        k(   16) = (   0.3333333  -0.3849002   0.0000000), wk =   0.1111111
        k(   17) = (  -0.5000000   0.2886751   0.0000000), wk =   0.0555556
        k(   18) = (  -0.5000000   0.4811252   0.0000000), wk =   0.1111111
        k(   19) = (  -0.5000000   0.6735753   0.0000000), wk =   0.1111111
        k(   20) = (  -0.5000000  -0.2886751   0.0000000), wk =   0.0555556

     Dense  grid:   699545 G-vectors     FFT dimensions: (  72,  72, 360)

     Smooth grid:   177041 G-vectors     FFT dimensions: (  45,  45, 216)

     Estimated max dynamical RAM per process >       1.34 GB

     Check: negative core charge=   -0.000001

     Initial potential from superposition of free atoms

     starting charge     259.9962, renormalised to     260.0000
 
     Adding external electric field

     Computed dipole along edir(3) : 
        Dipole               -0.0083 Ry au,         -0.0211 Debye
        Dipole field         -0.0000 Ry au, 
 
        Potential amp.        0.0026 Ry
        Total length         43.5630 bohr
 
     Starting wfcs are  152 randomized atomic wfcs +    4 random wfcs
     Checking if some PAW data can be deallocated... 

     total cpu time spent up to now is        4.1 secs

     Self-consistent Calculation

     iteration #  1     ecut=    52.00 Ry     beta= 0.30
     Davidson diagonalization with overlap
     ethr =  1.00E-02,  avg # of iterations =  4.3

     Threshold (ethr) on eigenvalues was too large:
     Diagonalizing with lowered threshold

     Davidson diagonalization with overlap
     ethr =  5.88E-04,  avg # of iterations =  2.5
 
     Adding external electric field

     Computed dipole along edir(3) : 
        Dipole               -0.0123 Ry au,         -0.0312 Debye
        Dipole field         -0.0000 Ry au, 
 
        Potential amp.        0.0039 Ry
        Total length         43.5630 bohr
 

     total cpu time spent up to now is       13.7 secs

     total energy              =   -3596.11383862 Ry
     estimated scf accuracy    <       1.55044935 Ry

     iteration #  2     ecut=    52.00 Ry     beta= 0.30
     Davidson diagonalization with overlap
     ethr =  5.96E-04,  avg # of iterations =  1.6
 
     Adding external electric field

     Computed dipole along edir(3) : 
        Dipole               -0.0266 Ry au,         -0.0677 Debye
        Dipole field         -0.0001 Ry au, 
 
        Potential amp.        0.0083 Ry
        Total length         43.5630 bohr
 

     total cpu time spent up to now is       18.7 secs

     total energy              =   -3595.74345467 Ry
     estimated scf accuracy    <       0.95444148 Ry

     iteration #  3     ecut=    52.00 Ry     beta= 0.30
     Davidson diagonalization with overlap
     ethr =  3.67E-04,  avg # of iterations =  7.3
 
     Adding external electric field

     Computed dipole along edir(3) : 
        Dipole               -0.0366 Ry au,         -0.0930 Debye
        Dipole field         -0.0001 Ry au, 
 
        Potential amp.        0.0115 Ry
        Total length         43.5630 bohr
 

     total cpu time spent up to now is       24.6 secs

     total energy              =   -3595.81392409 Ry
     estimated scf accuracy    <       0.15026911 Ry

     iteration #  4     ecut=    52.00 Ry     beta= 0.30
     Davidson diagonalization with overlap
     ethr =  5.78E-05,  avg # of iterations =  3.4
 
     Adding external electric field

     Computed dipole along edir(3) : 
        Dipole               -0.0847 Ry au,         -0.2154 Debye
        Dipole field         -0.0003 Ry au, 
 
        Potential amp.        0.0266 Ry
        Total length         43.5630 bohr
 

     total cpu time spent up to now is       29.9 secs

     total energy              =   -3595.78186792 Ry
     estimated scf accuracy    <       0.10206410 Ry

     iteration #  5     ecut=    52.00 Ry     beta= 0.30
     Davidson diagonalization with overlap
     ethr =  3.93E-05,  avg # of iterations = 10.6
 
     Adding external electric field

     Computed dipole along edir(3) : 
        Dipole               -0.0776 Ry au,         -0.1971 Debye
        Dipole field         -0.0003 Ry au, 
 
        Potential amp.        0.0243 Ry
        Total length         43.5630 bohr
 

     total cpu time spent up to now is       36.3 secs

     total energy              =   -3595.79492465 Ry
     estimated scf accuracy    <       0.07266569 Ry

     iteration #  6     ecut=    52.00 Ry     beta= 0.30
     Davidson diagonalization with overlap
     ethr =  2.79E-05,  avg # of iterations =  1.0
 
     Adding external electric field

     Computed dipole along edir(3) : 
        Dipole               -0.0411 Ry au,         -0.1046 Debye
        Dipole field         -0.0001 Ry au, 
 
        Potential amp.        0.0129 Ry
        Total length         43.5630 bohr
 

     total cpu time spent up to now is       41.2 secs

     total energy              =   -3595.79070352 Ry
     estimated scf accuracy    <       0.06691775 Ry

     iteration #  7     ecut=    52.00 Ry     beta= 0.30
     Davidson diagonalization with overlap
     ethr =  2.57E-05,  avg # of iterations =  4.7
 
     Adding external electric field

     Computed dipole along edir(3) : 
        Dipole               -0.0298 Ry au,         -0.0758 Debye
        Dipole field         -0.0001 Ry au, 
 
        Potential amp.        0.0093 Ry
        Total length         43.5630 bohr
 

     total cpu time spent up to now is       46.7 secs

     total energy              =   -3595.79102564 Ry
     estimated scf accuracy    <       0.03585719 Ry

     iteration #  8     ecut=    52.00 Ry     beta= 0.30
     Davidson diagonalization with overlap
     ethr =  1.38E-05,  avg # of iterations =  5.8
 
     Adding external electric field

     Computed dipole along edir(3) : 
        Dipole               -0.0405 Ry au,         -0.1029 Debye
        Dipole field         -0.0001 Ry au, 
 
        Potential amp.        0.0127 Ry
        Total length         43.5630 bohr
 

     total cpu time spent up to now is       52.2 secs

     total energy              =   -3595.79125174 Ry
     estimated scf accuracy    <       0.03292749 Ry

     iteration #  9     ecut=    52.00 Ry     beta= 0.30
     Davidson diagonalization with overlap
     ethr =  1.27E-05,  avg # of iterations =  1.1
 
     Adding external electric field

     Computed dipole along edir(3) : 
        Dipole                0.0529 Ry au,          0.1344 Debye
        Dipole field          0.0002 Ry au, 
 
        Potential amp.       -0.0166 Ry
        Total length         43.5630 bohr
 

     total cpu time spent up to now is       57.1 secs

     total energy              =   -3595.78987222 Ry
     estimated scf accuracy    <       0.03399239 Ry

     iteration # 10     ecut=    52.00 Ry     beta= 0.30
     Davidson diagonalization with overlap
     ethr =  1.27E-05,  avg # of iterations =  7.5

     negative rho (up, down):  5.052E-07 0.000E+00
 
     Adding external electric field

     Computed dipole along edir(3) : 
        Dipole                0.1338 Ry au,          0.3400 Debye
        Dipole field          0.0005 Ry au, 
 
        Potential amp.       -0.0419 Ry
        Total length         43.5630 bohr
 

     total cpu time spent up to now is       62.9 secs

     total energy              =   -3595.79361611 Ry
     estimated scf accuracy    <       0.05054106 Ry

     iteration # 11     ecut=    52.00 Ry     beta= 0.30
     Davidson diagonalization with overlap
     c_bands:  1 eigenvalues not converged
     c_bands:  1 eigenvalues not converged
     c_bands:  1 eigenvalues not converged
     c_bands:  1 eigenvalues not converged
     c_bands:  1 eigenvalues not converged
     c_bands:  1 eigenvalues not converged
     ethr =  1.27E-05,  avg # of iterations =  9.4

     negative rho (up, down):  6.287E-04 0.000E+00
 
     Adding external electric field

     Computed dipole along edir(3) : 
        Dipole                0.1252 Ry au,          0.3182 Debye
        Dipole field          0.0005 Ry au, 
 
        Potential amp.       -0.0392 Ry
        Total length         43.5630 bohr
 

     total cpu time spent up to now is       69.1 secs

     total energy              =   -3595.79412051 Ry
     estimated scf accuracy    <       0.04276766 Ry

     iteration # 12     ecut=    52.00 Ry     beta= 0.30
     Davidson diagonalization with overlap
     ethr =  1.27E-05,  avg # of iterations =  1.7
 
     Adding external electric field

     Computed dipole along edir(3) : 
        Dipole                0.0828 Ry au,          0.2105 Debye
        Dipole field          0.0003 Ry au, 
 
        Potential amp.       -0.0260 Ry
        Total length         43.5630 bohr
 

     total cpu time spent up to now is       74.3 secs

     total energy              =   -3595.79261564 Ry
     estimated scf accuracy    <       0.04242572 Ry

     iteration # 13     ecut=    52.00 Ry     beta= 0.30
     Davidson diagonalization with overlap
     ethr =  1.27E-05,  avg # of iterations =  3.5
 
     Adding external electric field

     Computed dipole along edir(3) : 
        Dipole                0.0774 Ry au,          0.1967 Debye
        Dipole field          0.0003 Ry au, 
 
        Potential amp.       -0.0242 Ry
        Total length         43.5630 bohr
 

     total cpu time spent up to now is       79.5 secs

     total energy              =   -3595.79237540 Ry
     estimated scf accuracy    <       0.03980308 Ry

     iteration # 14     ecut=    52.00 Ry     beta= 0.30
     Davidson diagonalization with overlap
     ethr =  1.27E-05,  avg # of iterations =  1.1
 
     Adding external electric field

     Computed dipole along edir(3) : 
        Dipole                0.1395 Ry au,          0.3547 Debye
        Dipole field          0.0005 Ry au, 
 
        Potential amp.       -0.0437 Ry
        Total length         43.5630 bohr
 

     total cpu time spent up to now is       84.4 secs

     total energy              =   -3595.79481218 Ry
     estimated scf accuracy    <       0.04043404 Ry

     iteration # 15     ecut=    52.00 Ry     beta= 0.30
     Davidson diagonalization with overlap
     ethr =  1.27E-05,  avg # of iterations =  2.8
 
     Adding external electric field

     Computed dipole along edir(3) : 
        Dipole                0.0429 Ry au,          0.1090 Debye
        Dipole field          0.0002 Ry au, 
 
        Potential amp.       -0.0134 Ry
        Total length         43.5630 bohr
 

     total cpu time spent up to now is       89.5 secs

     total energy              =   -3595.79115811 Ry
     estimated scf accuracy    <       0.04396436 Ry

     iteration # 16     ecut=    52.00 Ry     beta= 0.30
     Davidson diagonalization with overlap
     ethr =  1.27E-05,  avg # of iterations =  3.5
 
     Adding external electric field

     Computed dipole along edir(3) : 
        Dipole                0.1159 Ry au,          0.2945 Debye
        Dipole field          0.0004 Ry au, 
 
        Potential amp.       -0.0363 Ry
        Total length         43.5630 bohr
 

     total cpu time spent up to now is       94.9 secs

     total energy              =   -3595.79363272 Ry
     estimated scf accuracy    <       0.03178771 Ry

     iteration # 17     ecut=    52.00 Ry     beta= 0.30
     Davidson diagonalization with overlap
     ethr =  1.22E-05,  avg # of iterations =  3.4
 
     Adding external electric field

     Computed dipole along edir(3) : 
        Dipole               -0.2099 Ry au,         -0.5335 Debye
        Dipole field         -0.0008 Ry au, 
 
        Potential amp.        0.0658 Ry
        Total length         43.5630 bohr
 

     total cpu time spent up to now is      100.0 secs

     total energy              =   -3595.78258269 Ry
     estimated scf accuracy    <       0.04282851 Ry

     iteration # 18     ecut=    52.00 Ry     beta= 0.30
     Davidson diagonalization with overlap
     c_bands:  1 eigenvalues not converged
     c_bands:  1 eigenvalues not converged
     c_bands:  1 eigenvalues not converged
     ethr =  1.22E-05,  avg # of iterations = 11.1
 
     Adding external electric field

     Computed dipole along edir(3) : 
        Dipole               -0.1924 Ry au,         -0.4889 Debye
        Dipole field         -0.0007 Ry au, 
 
        Potential amp.        0.0603 Ry
        Total length         43.5630 bohr
 

     total cpu time spent up to now is      106.3 secs

     total energy              =   -3595.79901023 Ry
     estimated scf accuracy    <       0.04853493 Ry

     iteration # 19     ecut=    52.00 Ry     beta= 0.30
     Davidson diagonalization with overlap
     ethr =  1.22E-05,  avg # of iterations =  1.4

     negative rho (up, down):  5.763E-07 0.000E+00
 
     Adding external electric field

     Computed dipole along edir(3) : 
        Dipole               -0.0816 Ry au,         -0.2074 Debye
        Dipole field         -0.0003 Ry au, 
 
        Potential amp.        0.0256 Ry
        Total length         43.5630 bohr
 

     total cpu time spent up to now is      111.3 secs

     total energy              =   -3595.79461581 Ry
     estimated scf accuracy    <       0.04768874 Ry

     iteration # 20     ecut=    52.00 Ry     beta= 0.30
     Davidson diagonalization with overlap
     ethr =  1.22E-05,  avg # of iterations =  6.8

     negative rho (up, down):  1.108E-05 0.000E+00
 
     Adding external electric field

     Computed dipole along edir(3) : 
        Dipole               -0.2759 Ry au,         -0.7014 Debye
        Dipole field         -0.0010 Ry au, 
 
        Potential amp.        0.0865 Ry
        Total length         43.5630 bohr
 

     total cpu time spent up to now is      117.0 secs

     total energy              =   -3595.80252650 Ry
     estimated scf accuracy    <       0.04036935 Ry

     iteration # 21     ecut=    52.00 Ry     beta= 0.30
     Davidson diagonalization with overlap
     ethr =  1.22E-05,  avg # of iterations =  7.2

     negative rho (up, down):  4.223E-05 0.000E+00
 
     Adding external electric field

     Computed dipole along edir(3) : 
        Dipole               -0.2393 Ry au,         -0.6083 Debye
        Dipole field         -0.0009 Ry au, 
 
        Potential amp.        0.0750 Ry
        Total length         43.5630 bohr
 

     total cpu time spent up to now is      122.8 secs

     total energy              =   -3595.79863917 Ry
     estimated scf accuracy    <       0.35586344 Ry

     iteration # 22     ecut=    52.00 Ry     beta= 0.30
     Davidson diagonalization with overlap
     ethr =  1.22E-05,  avg # of iterations =  3.0

     negative rho (up, down):  2.014E-07 0.000E+00
 
     Adding external electric field

     Computed dipole along edir(3) : 
        Dipole               -0.2855 Ry au,         -0.7256 Debye
        Dipole field         -0.0010 Ry au, 
 
        Potential amp.        0.0895 Ry
        Total length         43.5630 bohr
 

     total cpu time spent up to now is      127.9 secs

     total energy              =   -3595.80280797 Ry
     estimated scf accuracy    <       0.04498716 Ry

     iteration # 23     ecut=    52.00 Ry     beta= 0.30
     Davidson diagonalization with overlap
     c_bands:  1 eigenvalues not converged
     c_bands:  1 eigenvalues not converged
     ethr =  1.22E-05,  avg # of iterations =  4.0

     negative rho (up, down):  7.848E-07 0.000E+00
 
     Adding external electric field

     Computed dipole along edir(3) : 
        Dipole               -0.2598 Ry au,         -0.6605 Debye
        Dipole field         -0.0009 Ry au, 
 
        Potential amp.        0.0814 Ry
        Total length         43.5630 bohr
 

     total cpu time spent up to now is      132.9 secs

     total energy              =   -3595.79988535 Ry
     estimated scf accuracy    <       0.67465375 Ry

     iteration # 24     ecut=    52.00 Ry     beta= 0.30
     Davidson diagonalization with overlap
     ethr =  1.22E-05,  avg # of iterations =  1.1

     negative rho (up, down):  8.523E-07 0.000E+00
 
     Adding external electric field

     Computed dipole along edir(3) : 
        Dipole               -0.2528 Ry au,         -0.6425 Debye
        Dipole field         -0.0009 Ry au, 
 
        Potential amp.        0.0792 Ry
        Total length         43.5630 bohr
 

     total cpu time spent up to now is      137.8 secs

     total energy              =   -3595.80140095 Ry
     estimated scf accuracy    <       0.02584837 Ry

     iteration # 25     ecut=    52.00 Ry     beta= 0.30
     Davidson diagonalization with overlap
     ethr =  9.94E-06,  avg # of iterations =  1.0

     negative rho (up, down):  1.272E-06 0.000E+00
 
     Adding external electric field

     Computed dipole along edir(3) : 
        Dipole               -0.2756 Ry au,         -0.7004 Debye
        Dipole field         -0.0010 Ry au, 
 
        Potential amp.        0.0864 Ry
        Total length         43.5630 bohr
 

     total cpu time spent up to now is      142.8 secs

     total energy              =   -3595.80204210 Ry
     estimated scf accuracy    <       0.02040002 Ry

     iteration # 26     ecut=    52.00 Ry     beta= 0.30
     Davidson diagonalization with overlap
     ethr =  7.85E-06,  avg # of iterations =  1.1

     negative rho (up, down):  1.124E-07 0.000E+00
 
     Adding external electric field

     Computed dipole along edir(3) : 
        Dipole               -0.2688 Ry au,         -0.6833 Debye
        Dipole field         -0.0010 Ry au, 
 
        Potential amp.        0.0843 Ry
        Total length         43.5630 bohr
 

     total cpu time spent up to now is      147.7 secs

     total energy              =   -3595.80182406 Ry
     estimated scf accuracy    <       0.28790799 Ry

     iteration # 27     ecut=    52.00 Ry     beta= 0.30
     Davidson diagonalization with overlap
     ethr =  7.85E-06,  avg # of iterations =  1.6

     negative rho (up, down):  4.041E-07 0.000E+00
 
     Adding external electric field

     Computed dipole along edir(3) : 
        Dipole               -0.2635 Ry au,         -0.6698 Debye
        Dipole field         -0.0009 Ry au, 
 
        Potential amp.        0.0826 Ry
        Total length         43.5630 bohr
 

     total cpu time spent up to now is      152.7 secs

     total energy              =   -3595.80162197 Ry
     estimated scf accuracy    <       0.10349954 Ry

     iteration # 28     ecut=    52.00 Ry     beta= 0.30
     Davidson diagonalization with overlap
     ethr =  7.85E-06,  avg # of iterations =  1.0

     negative rho (up, down):  6.835E-07 0.000E+00
 
     Adding external electric field

     Computed dipole along edir(3) : 
        Dipole               -0.2780 Ry au,         -0.7065 Debye
        Dipole field         -0.0010 Ry au, 
 
        Potential amp.        0.0871 Ry
        Total length         43.5630 bohr
 

     total cpu time spent up to now is      157.6 secs

     total energy              =   -3595.80222667 Ry
     estimated scf accuracy    <       0.03774953 Ry

     iteration # 29     ecut=    52.00 Ry     beta= 0.30
     Davidson diagonalization with overlap
     ethr =  7.85E-06,  avg # of iterations =  1.9

     negative rho (up, down):  8.808E-07 0.000E+00
 
     Adding external electric field

     Computed dipole along edir(3) : 
        Dipole               -0.2598 Ry au,         -0.6603 Debye
        Dipole field         -0.0009 Ry au, 
 
        Potential amp.        0.0814 Ry
        Total length         43.5630 bohr
 

     total cpu time spent up to now is      162.6 secs

     total energy              =   -3595.80074129 Ry
     estimated scf accuracy    <       0.32465645 Ry

     iteration # 30     ecut=    52.00 Ry     beta= 0.30
     Davidson diagonalization with overlap
     ethr =  7.85E-06,  avg # of iterations =  1.0

     negative rho (up, down):  1.465E-06 0.000E+00
 
     Adding external electric field

     Computed dipole along edir(3) : 
        Dipole               -0.2422 Ry au,         -0.6155 Debye
        Dipole field         -0.0009 Ry au, 
 
        Potential amp.        0.0759 Ry
        Total length         43.5630 bohr
 

     total cpu time spent up to now is      167.5 secs

     total energy              =   -3595.80105706 Ry
     estimated scf accuracy    <       0.02209544 Ry

     iteration # 31     ecut=    52.00 Ry     beta= 0.30
     Davidson diagonalization with overlap
     ethr =  7.85E-06,  avg # of iterations =  1.4

     negative rho (up, down):  1.983E-06 0.000E+00
 
     Adding external electric field

     Computed dipole along edir(3) : 
        Dipole               -0.3266 Ry au,         -0.8301 Debye
        Dipole field         -0.0012 Ry au, 
 
        Potential amp.        0.1023 Ry
        Total length         43.5630 bohr
 

     total cpu time spent up to now is      172.3 secs

     total energy              =   -3595.80447765 Ry
     estimated scf accuracy    <       0.04565566 Ry

     iteration # 32     ecut=    52.00 Ry     beta= 0.30
     Davidson diagonalization with overlap
     ethr =  7.85E-06,  avg # of iterations =  7.6

     negative rho (up, down):  6.572E-06 0.000E+00
 
     Adding external electric field

     Computed dipole along edir(3) : 
        Dipole               -0.2903 Ry au,         -0.7379 Debye
        Dipole field         -0.0010 Ry au, 
 
        Potential amp.        0.0910 Ry
        Total length         43.5630 bohr
 

     total cpu time spent up to now is      178.0 secs

     total energy              =   -3595.80346401 Ry
     estimated scf accuracy    <       1.64330001 Ry

     iteration # 33     ecut=    52.00 Ry     beta= 0.30
     Davidson diagonalization with overlap
     ethr =  7.85E-06,  avg # of iterations =  4.5

     negative rho (up, down):  8.635E-06 0.000E+00
 
     Adding external electric field

     Computed dipole along edir(3) : 
        Dipole               -0.2890 Ry au,         -0.7347 Debye
        Dipole field         -0.0010 Ry au, 
 
        Potential amp.        0.0906 Ry
        Total length         43.5630 bohr
 

     total cpu time spent up to now is      183.3 secs

     total energy              =   -3595.80401143 Ry
     estimated scf accuracy    <       0.81066055 Ry

     iteration # 34     ecut=    52.00 Ry     beta= 0.30
     Davidson diagonalization with overlap
     ethr =  7.85E-06,  avg # of iterations =  1.0

     negative rho (up, down):  5.204E-06 0.000E+00
 
     Adding external electric field

     Computed dipole along edir(3) : 
        Dipole               -0.2625 Ry au,         -0.6673 Debye
        Dipole field         -0.0009 Ry au, 
 
        Potential amp.        0.0823 Ry
        Total length         43.5630 bohr
 

     total cpu time spent up to now is      188.2 secs

     total energy              =   -3595.79964522 Ry
     estimated scf accuracy    <       0.74218691 Ry

     iteration # 35     ecut=    52.00 Ry     beta= 0.30
     Davidson diagonalization with overlap
     ethr =  7.85E-06,  avg # of iterations =  2.5

     negative rho (up, down):  5.843E-07 0.000E+00
 
     Adding external electric field

     Computed dipole along edir(3) : 
        Dipole               -0.2704 Ry au,         -0.6872 Debye
        Dipole field         -0.0010 Ry au, 
 
        Potential amp.        0.0847 Ry
        Total length         43.5630 bohr
 

     total cpu time spent up to now is      193.3 secs

     total energy              =   -3595.80183691 Ry
     estimated scf accuracy    <       0.02465880 Ry

     iteration # 36     ecut=    52.00 Ry     beta= 0.30
     Davidson diagonalization with overlap
     ethr =  7.85E-06,  avg # of iterations =  1.1

     negative rho (up, down):  1.105E-07 0.000E+00
 
     Adding external electric field

     Computed dipole along edir(3) : 
        Dipole               -0.2649 Ry au,         -0.6733 Debye
        Dipole field         -0.0010 Ry au, 
 
        Potential amp.        0.0830 Ry
        Total length         43.5630 bohr
 

     total cpu time spent up to now is      198.2 secs

     total energy              =   -3595.80165328 Ry
     estimated scf accuracy    <       0.08641542 Ry

     iteration # 37     ecut=    52.00 Ry     beta= 0.30
     Davidson diagonalization with overlap
     ethr =  7.85E-06,  avg # of iterations =  1.0

     negative rho (up, down):  1.366E-07 0.000E+00
 
     Adding external electric field

     Computed dipole along edir(3) : 
        Dipole               -0.2654 Ry au,         -0.6745 Debye
        Dipole field         -0.0010 Ry au, 
 
        Potential amp.        0.0832 Ry
        Total length         43.5630 bohr
 

     total cpu time spent up to now is      203.0 secs

     total energy              =   -3595.80172671 Ry
     estimated scf accuracy    <       0.03751629 Ry

     iteration # 38     ecut=    52.00 Ry     beta= 0.30
     Davidson diagonalization with overlap
     ethr =  7.85E-06,  avg # of iterations =  1.0

     negative rho (up, down):  1.482E-07 0.000E+00
 
     Adding external electric field

     Computed dipole along edir(3) : 
        Dipole               -0.2653 Ry au,         -0.6743 Debye
        Dipole field         -0.0010 Ry au, 
 
        Potential amp.        0.0831 Ry
        Total length         43.5630 bohr
 

     total cpu time spent up to now is      207.9 secs

     total energy              =   -3595.80172666 Ry
     estimated scf accuracy    <       0.04220858 Ry

     iteration # 39     ecut=    52.00 Ry     beta= 0.30
     Davidson diagonalization with overlap
     ethr =  7.85E-06,  avg # of iterations =  1.0

     negative rho (up, down):  1.189E-07 0.000E+00
 
     Adding external electric field

     Computed dipole along edir(3) : 
        Dipole               -0.2577 Ry au,         -0.6551 Debye
        Dipole field         -0.0009 Ry au, 
 
        Potential amp.        0.0808 Ry
        Total length         43.5630 bohr
 

     total cpu time spent up to now is      212.8 secs

     total energy              =   -3595.80143707 Ry
     estimated scf accuracy    <       0.04206621 Ry

     iteration # 40     ecut=    52.00 Ry     beta= 0.30
     Davidson diagonalization with overlap
     ethr =  7.85E-06,  avg # of iterations =  1.3

     negative rho (up, down):  1.118E-07 0.000E+00
 
     Adding external electric field

     Computed dipole along edir(3) : 
        Dipole               -0.2532 Ry au,         -0.6436 Debye
        Dipole field         -0.0009 Ry au, 
 
        Potential amp.        0.0794 Ry
        Total length         43.5630 bohr
 

     total cpu time spent up to now is      217.8 secs

     total energy              =   -3595.80138728 Ry
     estimated scf accuracy    <       0.01824048 Ry

     iteration # 41     ecut=    52.00 Ry     beta= 0.30
     Davidson diagonalization with overlap
     ethr =  7.02E-06,  avg # of iterations =  1.1

     negative rho (up, down):  7.907E-08 0.000E+00
 
     Adding external electric field

     Computed dipole along edir(3) : 
        Dipole               -0.2401 Ry au,         -0.6103 Debye
        Dipole field         -0.0009 Ry au, 
 
        Potential amp.        0.0752 Ry
        Total length         43.5630 bohr
 

     total cpu time spent up to now is      222.6 secs

     total energy              =   -3595.80102941 Ry
     estimated scf accuracy    <       0.02268939 Ry

     iteration # 42     ecut=    52.00 Ry     beta= 0.30
     Davidson diagonalization with overlap
     ethr =  7.02E-06,  avg # of iterations =  1.7

     negative rho (up, down):  5.027E-08 0.000E+00
 
     Adding external electric field

     Computed dipole along edir(3) : 
        Dipole               -0.2270 Ry au,         -0.5770 Debye
        Dipole field         -0.0008 Ry au, 
 
        Potential amp.        0.0711 Ry
        Total length         43.5630 bohr
 

     total cpu time spent up to now is      227.6 secs

     total energy              =   -3595.80042599 Ry
     estimated scf accuracy    <       0.04659989 Ry

     iteration # 43     ecut=    52.00 Ry     beta= 0.30
     Davidson diagonalization with overlap
     ethr =  7.02E-06,  avg # of iterations =  2.7

     negative rho (up, down):  8.701E-08 0.000E+00
 
     Adding external electric field

     Computed dipole along edir(3) : 
        Dipole               -0.2059 Ry au,         -0.5233 Debye
        Dipole field         -0.0007 Ry au, 
 
        Potential amp.        0.0645 Ry
        Total length         43.5630 bohr
 

     total cpu time spent up to now is      232.6 secs

     total energy              =   -3595.79952201 Ry
     estimated scf accuracy    <       0.05004683 Ry

     iteration # 44     ecut=    52.00 Ry     beta= 0.30
     Davidson diagonalization with overlap
     ethr =  7.02E-06,  avg # of iterations =  2.6

     negative rho (up, down):  1.347E-07 0.000E+00
 
     Adding external electric field

     Computed dipole along edir(3) : 
        Dipole               -0.1942 Ry au,         -0.4935 Debye
        Dipole field         -0.0007 Ry au, 
 
        Potential amp.        0.0608 Ry
        Total length         43.5630 bohr
 

     total cpu time spent up to now is      237.8 secs

     total energy              =   -3595.79902949 Ry
     estimated scf accuracy    <       0.04859261 Ry

     iteration # 45     ecut=    52.00 Ry     beta= 0.30
     Davidson diagonalization with overlap
     ethr =  7.02E-06,  avg # of iterations =  2.4

     negative rho (up, down):  2.441E-07 0.000E+00
 
     Adding external electric field

     Computed dipole along edir(3) : 
        Dipole               -0.1892 Ry au,         -0.4810 Debye
        Dipole field         -0.0007 Ry au, 
 
        Potential amp.        0.0593 Ry
        Total length         43.5630 bohr
 

     total cpu time spent up to now is      242.9 secs

     total energy              =   -3595.79882478 Ry
     estimated scf accuracy    <       0.04772686 Ry

     iteration # 46     ecut=    52.00 Ry     beta= 0.30
     Davidson diagonalization with overlap
     ethr =  7.02E-06,  avg # of iterations =  1.0

     negative rho (up, down):  2.100E-07 0.000E+00
 
     Adding external electric field

     Computed dipole along edir(3) : 
        Dipole               -0.1874 Ry au,         -0.4764 Debye
        Dipole field         -0.0007 Ry au, 
 
        Potential amp.        0.0587 Ry
        Total length         43.5630 bohr
 

     total cpu time spent up to now is      247.8 secs

     total energy              =   -3595.79875312 Ry
     estimated scf accuracy    <       0.04739744 Ry

     iteration # 47     ecut=    52.00 Ry     beta= 0.30
     Davidson diagonalization with overlap
     ethr =  7.02E-06,  avg # of iterations =  1.0

     negative rho (up, down):  4.261E-07 0.000E+00
 
     Adding external electric field

     Computed dipole along edir(3) : 
        Dipole               -0.1741 Ry au,         -0.4426 Debye
        Dipole field         -0.0006 Ry au, 
 
        Potential amp.        0.0546 Ry
        Total length         43.5630 bohr
 

     total cpu time spent up to now is      252.6 secs

     total energy              =   -3595.79821221 Ry
     estimated scf accuracy    <       0.04725636 Ry

     iteration # 48     ecut=    52.00 Ry     beta= 0.30
     Davidson diagonalization with overlap
     ethr =  7.02E-06,  avg # of iterations =  1.7

     negative rho (up, down):  4.499E-07 0.000E+00
 
     Adding external electric field

     Computed dipole along edir(3) : 
        Dipole               -0.1636 Ry au,         -0.4159 Debye
        Dipole field         -0.0006 Ry au, 
 
        Potential amp.        0.0513 Ry
        Total length         43.5630 bohr
 

     total cpu time spent up to now is      257.6 secs

     total energy              =   -3595.79778650 Ry
     estimated scf accuracy    <       0.04637269 Ry

     iteration # 49     ecut=    52.00 Ry     beta= 0.30
     Davidson diagonalization with overlap
     ethr =  7.02E-06,  avg # of iterations =  2.1

     negative rho (up, down):  3.589E-07 0.000E+00
 
     Adding external electric field

     Computed dipole along edir(3) : 
        Dipole               -0.1611 Ry au,         -0.4094 Debye
        Dipole field         -0.0006 Ry au, 
 
        Potential amp.        0.0505 Ry
        Total length         43.5630 bohr
 

     total cpu time spent up to now is      262.8 secs

     total energy              =   -3595.79768577 Ry
     estimated scf accuracy    <       0.04561843 Ry

     iteration # 50     ecut=    52.00 Ry     beta= 0.30
     Davidson diagonalization with overlap
     ethr =  7.02E-06,  avg # of iterations =  1.1

     negative rho (up, down):  4.720E-05 0.000E+00
 
     Adding external electric field

     Computed dipole along edir(3) : 
        Dipole                1.0715 Ry au,          2.7236 Debye
        Dipole field          0.0039 Ry au, 
 
        Potential amp.       -0.3358 Ry
        Total length         43.5630 bohr
 

     total cpu time spent up to now is      267.6 secs

     total energy              =   -3595.76838227 Ry
     estimated scf accuracy    <       0.04535647 Ry

     iteration # 51     ecut=    52.00 Ry     beta= 0.30
     Davidson diagonalization with overlap
     c_bands:  1 eigenvalues not converged
     ethr =  7.02E-06,  avg # of iterations = 13.8

     negative rho (up, down):  2.149E-06 0.000E+00
 
     Adding external electric field

     Computed dipole along edir(3) : 
        Dipole                0.4516 Ry au,          1.1477 Debye
        Dipole field          0.0016 Ry au, 
 
        Potential amp.       -0.1415 Ry
        Total length         43.5630 bohr
 

     total cpu time spent up to now is      275.1 secs

     total energy              =   -3595.66502618 Ry
     estimated scf accuracy    <      32.77817258 Ry

     iteration # 52     ecut=    52.00 Ry     beta= 0.30
     Davidson diagonalization with overlap
     ethr =  7.02E-06,  avg # of iterations = 15.6

     negative rho (up, down):  1.212E-07 0.000E+00
 
     Adding external electric field

     Computed dipole along edir(3) : 
        Dipole                0.2590 Ry au,          0.6583 Debye
        Dipole field          0.0009 Ry au, 
 
        Potential amp.       -0.0812 Ry
        Total length         43.5630 bohr
 

     total cpu time spent up to now is      282.5 secs

     total energy              =   -3595.76124227 Ry
     estimated scf accuracy    <       4.10479035 Ry

     iteration # 53     ecut=    52.00 Ry     beta= 0.30
     Davidson diagonalization with overlap
     ethr =  7.02E-06,  avg # of iterations =  8.5

     negative rho (up, down):  2.207E-06 0.000E+00
 
     Adding external electric field

     Computed dipole along edir(3) : 
        Dipole               -0.1098 Ry au,         -0.2792 Debye
        Dipole field         -0.0004 Ry au, 
 
        Potential amp.        0.0344 Ry
        Total length         43.5630 bohr
 

     total cpu time spent up to now is      288.6 secs

     total energy              =   -3595.78562929 Ry
     estimated scf accuracy    <       0.05416066 Ry

     iteration # 54     ecut=    52.00 Ry     beta= 0.30
     Davidson diagonalization with overlap
     c_bands:  3 eigenvalues not converged
     c_bands:  3 eigenvalues not converged
     c_bands:  3 eigenvalues not converged
     c_bands:  2 eigenvalues not converged
     c_bands:  1 eigenvalues not converged
     c_bands:  1 eigenvalues not converged
     ethr =  7.02E-06,  avg # of iterations = 13.7

     negative rho (up, down):  6.185E-07 0.000E+00
 
     Adding external electric field

     Computed dipole along edir(3) : 
        Dipole               -0.0161 Ry au,         -0.0409 Debye
        Dipole field         -0.0001 Ry au, 
 
        Potential amp.        0.0050 Ry
        Total length         43.5630 bohr
 

     total cpu time spent up to now is      295.4 secs

     total energy              =   -3595.79217892 Ry
     estimated scf accuracy    <       0.04175841 Ry

     iteration # 55     ecut=    52.00 Ry     beta= 0.30
     Davidson diagonalization with overlap
     ethr =  7.02E-06,  avg # of iterations =  9.5

     negative rho (up, down):  2.051E-07 0.000E+00
 
     Adding external electric field

     Computed dipole along edir(3) : 
        Dipole                0.0529 Ry au,          0.1345 Debye
        Dipole field          0.0002 Ry au, 
 
        Potential amp.       -0.0166 Ry
        Total length         43.5630 bohr
 

     total cpu time spent up to now is      301.4 secs

     total energy              =   -3595.78980462 Ry
     estimated scf accuracy    <       0.03559521 Ry

     iteration # 56     ecut=    52.00 Ry     beta= 0.30
     Davidson diagonalization with overlap
     ethr =  7.02E-06,  avg # of iterations =  7.0

     negative rho (up, down):  8.461E-07 0.000E+00
 
     Adding external electric field

     Computed dipole along edir(3) : 
        Dipole               -0.0041 Ry au,         -0.0104 Debye
        Dipole field         -0.0000 Ry au, 
 
        Potential amp.        0.0013 Ry
        Total length         43.5630 bohr
 

     total cpu time spent up to now is      307.1 secs

     total energy              =   -3595.78912968 Ry
     estimated scf accuracy    <       0.05174509 Ry

     iteration # 57     ecut=    52.00 Ry     beta= 0.30
     Davidson diagonalization with overlap
     ethr =  7.02E-06,  avg # of iterations =  3.9

     negative rho (up, down):  8.407E-07 0.000E+00
 
     Adding external electric field

     Computed dipole along edir(3) : 
        Dipole                0.0073 Ry au,          0.0184 Debye
        Dipole field          0.0000 Ry au, 
 
        Potential amp.       -0.0023 Ry
        Total length         43.5630 bohr
 

     total cpu time spent up to now is      312.1 secs

     total energy              =   -3595.79137828 Ry
     estimated scf accuracy    <       0.03466805 Ry

     iteration # 58     ecut=    52.00 Ry     beta= 0.30
     Davidson diagonalization with overlap
     ethr =  7.02E-06,  avg # of iterations =  1.0

     negative rho (up, down):  1.001E-06 0.000E+00
 
     Adding external electric field

     Computed dipole along edir(3) : 
        Dipole                0.0039 Ry au,          0.0098 Debye
        Dipole field          0.0000 Ry au, 
 
        Potential amp.       -0.0012 Ry
        Total length         43.5630 bohr
 

     total cpu time spent up to now is      317.1 secs

     total energy              =   -3595.79149431 Ry
     estimated scf accuracy    <       0.03170111 Ry

     iteration # 59     ecut=    52.00 Ry     beta= 0.30
     Davidson diagonalization with overlap
     ethr =  7.02E-06,  avg # of iterations =  1.1

     negative rho (up, down):  9.591E-07 0.000E+00
 
     Adding external electric field

     Computed dipole along edir(3) : 
        Dipole               -0.0034 Ry au,         -0.0087 Debye
        Dipole field         -0.0000 Ry au, 
 
        Potential amp.        0.0011 Ry
        Total length         43.5630 bohr
 

     total cpu time spent up to now is      321.9 secs

     total energy              =   -3595.79174712 Ry
     estimated scf accuracy    <       0.03320826 Ry

     iteration # 60     ecut=    52.00 Ry     beta= 0.30
     Davidson diagonalization with overlap
     ethr =  7.02E-06,  avg # of iterations =  1.4

     negative rho (up, down):  1.419E-06 0.000E+00
 
     Adding external electric field

     Computed dipole along edir(3) : 
        Dipole               -0.0565 Ry au,         -0.1435 Debye
        Dipole field         -0.0002 Ry au, 
 
        Potential amp.        0.0177 Ry
        Total length         43.5630 bohr
 

     total cpu time spent up to now is      326.9 secs

     total energy              =   -3595.79364757 Ry
     estimated scf accuracy    <       0.03457528 Ry

     iteration # 61     ecut=    52.00 Ry     beta= 0.30
     Davidson diagonalization with overlap
     ethr =  7.02E-06,  avg # of iterations =  5.5

     negative rho (up, down):  3.584E-07 0.000E+00
 
     Adding external electric field

     Computed dipole along edir(3) : 
        Dipole                0.0273 Ry au,          0.0694 Debye
        Dipole field          0.0001 Ry au, 
 
        Potential amp.       -0.0086 Ry
        Total length         43.5630 bohr
 

     total cpu time spent up to now is      332.4 secs

     total energy              =   -3595.79065860 Ry
     estimated scf accuracy    <       0.03814814 Ry

     iteration # 62     ecut=    52.00 Ry     beta= 0.30
     Davidson diagonalization with overlap
     ethr =  7.02E-06,  avg # of iterations =  6.7

     negative rho (up, down):  3.762E-07 0.000E+00
 
     Adding external electric field

     Computed dipole along edir(3) : 
        Dipole                0.0453 Ry au,          0.1152 Debye
        Dipole field          0.0002 Ry au, 
 
        Potential amp.       -0.0142 Ry
        Total length         43.5630 bohr
 

     total cpu time spent up to now is      338.1 secs

     total energy              =   -3595.79081946 Ry
     estimated scf accuracy    <       0.00071080 Ry

     iteration # 63     ecut=    52.00 Ry     beta= 0.30
     Davidson diagonalization with overlap
     c_bands:  1 eigenvalues not converged
     c_bands:  1 eigenvalues not converged
     c_bands:  1 eigenvalues not converged
     c_bands:  1 eigenvalues not converged
     c_bands:  1 eigenvalues not converged
     c_bands:  1 eigenvalues not converged
     ethr =  2.73E-07,  avg # of iterations =  8.9

     negative rho (up, down):  5.523E-07 0.000E+00
 
     Adding external electric field

     Computed dipole along edir(3) : 
        Dipole                0.0604 Ry au,          0.1535 Debye
        Dipole field          0.0002 Ry au, 
 
        Potential amp.       -0.0189 Ry
        Total length         43.5630 bohr
 

     total cpu time spent up to now is      344.1 secs

     total energy              =   -3595.79179833 Ry
     estimated scf accuracy    <       0.03956347 Ry

     iteration # 64     ecut=    52.00 Ry     beta= 0.30
     Davidson diagonalization with overlap
     ethr =  2.73E-07,  avg # of iterations =  4.5

     negative rho (up, down):  5.391E-07 0.000E+00
 
     Adding external electric field

     Computed dipole along edir(3) : 
        Dipole                0.0565 Ry au,          0.1436 Debye
        Dipole field          0.0002 Ry au, 
 
        Potential amp.       -0.0177 Ry
        Total length         43.5630 bohr
 

     total cpu time spent up to now is      349.5 secs

     total energy              =   -3595.79169558 Ry
     estimated scf accuracy    <       0.04686120 Ry

     iteration # 65     ecut=    52.00 Ry     beta= 0.30
     Davidson diagonalization with overlap
     ethr =  2.73E-07,  avg # of iterations =  1.0

     negative rho (up, down):  6.006E-07 0.000E+00
 
     Adding external electric field

     Computed dipole along edir(3) : 
        Dipole                0.0443 Ry au,          0.1126 Debye
        Dipole field          0.0002 Ry au, 
 
        Potential amp.       -0.0139 Ry
        Total length         43.5630 bohr
 

     total cpu time spent up to now is      354.4 secs

     total energy              =   -3595.79118317 Ry
     estimated scf accuracy    <       0.05036401 Ry

     iteration # 66     ecut=    52.00 Ry     beta= 0.30
     Davidson diagonalization with overlap
     ethr =  2.73E-07,  avg # of iterations =  1.1

     negative rho (up, down):  5.074E-07 0.000E+00
 
     Adding external electric field

     Computed dipole along edir(3) : 
        Dipole                0.0591 Ry au,          0.1502 Debye
        Dipole field          0.0002 Ry au, 
 
        Potential amp.       -0.0185 Ry
        Total length         43.5630 bohr
 

     total cpu time spent up to now is      359.3 secs

     total energy              =   -3595.79173330 Ry
     estimated scf accuracy    <       0.03674366 Ry

     iteration # 67     ecut=    52.00 Ry     beta= 0.30
     Davidson diagonalization with overlap
     ethr =  2.73E-07,  avg # of iterations =  1.0

     negative rho (up, down):  6.650E-07 0.000E+00
 
     Adding external electric field

     Computed dipole along edir(3) : 
        Dipole                0.0319 Ry au,          0.0810 Debye
        Dipole field          0.0001 Ry au, 
 
        Potential amp.       -0.0100 Ry
        Total length         43.5630 bohr
 

     total cpu time spent up to now is      364.2 secs

     total energy              =   -3595.79068588 Ry
     estimated scf accuracy    <       0.04801383 Ry

     iteration # 68     ecut=    52.00 Ry     beta= 0.30
     Davidson diagonalization with overlap
     ethr =  2.73E-07,  avg # of iterations =  2.9

     negative rho (up, down):  3.283E-07 0.000E+00
 
     Adding external electric field

     Computed dipole along edir(3) : 
        Dipole                0.0501 Ry au,          0.1274 Debye
        Dipole field          0.0002 Ry au, 
 
        Potential amp.       -0.0157 Ry
        Total length         43.5630 bohr
 

     total cpu time spent up to now is      369.3 secs

     total energy              =   -3595.79103909 Ry
     estimated scf accuracy    <       0.00132935 Ry

     iteration # 69     ecut=    52.00 Ry     beta= 0.30
     Davidson diagonalization with overlap
     ethr =  2.73E-07,  avg # of iterations =  1.3

     negative rho (up, down):  4.323E-07 0.000E+00
 
     Adding external electric field

     Computed dipole along edir(3) : 
        Dipole                0.0192 Ry au,          0.0487 Debye
        Dipole field          0.0001 Ry au, 
 
        Potential amp.       -0.0060 Ry
        Total length         43.5630 bohr
 

     total cpu time spent up to now is      374.2 secs

     total energy              =   -3595.79012455 Ry
     estimated scf accuracy    <       0.04976257 Ry

     iteration # 70     ecut=    52.00 Ry     beta= 0.30
     Davidson diagonalization with overlap
     ethr =  2.73E-07,  avg # of iterations =  2.8

     negative rho (up, down):  9.276E-07 0.000E+00
 
     Adding external electric field

     Computed dipole along edir(3) : 
        Dipole               -0.0063 Ry au,         -0.0161 Debye
        Dipole field         -0.0000 Ry au, 
 
        Potential amp.        0.0020 Ry
        Total length         43.5630 bohr
 

     total cpu time spent up to now is      379.5 secs

     total energy              =   -3595.79161913 Ry
     estimated scf accuracy    <       0.01485262 Ry

     iteration # 71     ecut=    52.00 Ry     beta= 0.30
     Davidson diagonalization with overlap
     ethr =  2.73E-07,  avg # of iterations =  6.4

     negative rho (up, down):  6.718E-07 0.000E+00
 
     Adding external electric field

     Computed dipole along edir(3) : 
        Dipole                0.0017 Ry au,          0.0044 Debye
        Dipole field          0.0000 Ry au, 
 
        Potential amp.       -0.0005 Ry
        Total length         43.5630 bohr
 

     total cpu time spent up to now is      384.8 secs

     total energy              =   -3595.79156502 Ry
     estimated scf accuracy    <       0.03492327 Ry

     iteration # 72     ecut=    52.00 Ry     beta= 0.30
     Davidson diagonalization with overlap
     ethr =  2.73E-07,  avg # of iterations =  1.0

     negative rho (up, down):  5.890E-07 0.000E+00
 
     Adding external electric field

     Computed dipole along edir(3) : 
        Dipole                0.0235 Ry au,          0.0597 Debye
        Dipole field          0.0001 Ry au, 
 
        Potential amp.       -0.0074 Ry
        Total length         43.5630 bohr
 

     total cpu time spent up to now is      389.6 secs

     total energy              =   -3595.79081677 Ry
     estimated scf accuracy    <       0.03387865 Ry

     iteration # 73     ecut=    52.00 Ry     beta= 0.30
     Davidson diagonalization with overlap
     ethr =  2.73E-07,  avg # of iterations =  4.5

     negative rho (up, down):  5.002E-07 0.000E+00
 
     Adding external electric field

     Computed dipole along edir(3) : 
        Dipole                0.0374 Ry au,          0.0952 Debye
        Dipole field          0.0001 Ry au, 
 
        Potential amp.       -0.0117 Ry
        Total length         43.5630 bohr
 

     total cpu time spent up to now is      394.9 secs

     total energy              =   -3595.79074507 Ry
     estimated scf accuracy    <       0.00584460 Ry

     iteration # 74     ecut=    52.00 Ry     beta= 0.30
     Davidson diagonalization with overlap
     ethr =  2.73E-07,  avg # of iterations =  2.5

     negative rho (up, down):  5.932E-07 0.000E+00
 
     Adding external electric field

     Computed dipole along edir(3) : 
        Dipole                0.0249 Ry au,          0.0634 Debye
        Dipole field          0.0001 Ry au, 
 
        Potential amp.       -0.0078 Ry
        Total length         43.5630 bohr
 

     total cpu time spent up to now is      399.9 secs

     total energy              =   -3595.79071992 Ry
     estimated scf accuracy    <       0.01321369 Ry

     iteration # 75     ecut=    52.00 Ry     beta= 0.30
     Davidson diagonalization with overlap
     ethr =  2.73E-07,  avg # of iterations =  1.1

     negative rho (up, down):  4.723E-07 0.000E+00
 
     Adding external electric field

     Computed dipole along edir(3) : 
        Dipole                0.0499 Ry au,          0.1268 Debye
        Dipole field          0.0002 Ry au, 
 
        Potential amp.       -0.0156 Ry
        Total length         43.5630 bohr
 

     total cpu time spent up to now is      404.8 secs

     total energy              =   -3595.79065630 Ry
     estimated scf accuracy    <       0.00347289 Ry

     iteration # 76     ecut=    52.00 Ry     beta= 0.30
     Davidson diagonalization with overlap
     ethr =  2.73E-07,  avg # of iterations =  3.5

     negative rho (up, down):  5.414E-07 0.000E+00
 
     Adding external electric field

     Computed dipole along edir(3) : 
        Dipole                0.0169 Ry au,          0.0429 Debye
        Dipole field          0.0001 Ry au, 
 
        Potential amp.       -0.0053 Ry
        Total length         43.5630 bohr
 

     total cpu time spent up to now is      410.1 secs

     total energy              =   -3595.79003331 Ry
     estimated scf accuracy    <       0.04952912 Ry

     iteration # 77     ecut=    52.00 Ry     beta= 0.30
     Davidson diagonalization with overlap
     ethr =  2.73E-07,  avg # of iterations =  4.1

     negative rho (up, down):  4.900E-07 0.000E+00
 
     Adding external electric field

     Computed dipole along edir(3) : 
        Dipole                0.0211 Ry au,          0.0536 Debye
        Dipole field          0.0001 Ry au, 
 
        Potential amp.       -0.0066 Ry
        Total length         43.5630 bohr
 

     total cpu time spent up to now is      415.5 secs

     total energy              =   -3595.79097209 Ry
     estimated scf accuracy    <       0.01949546 Ry

     iteration # 78     ecut=    52.00 Ry     beta= 0.30
     Davidson diagonalization with overlap
     ethr =  2.73E-07,  avg # of iterations =  1.0

     negative rho (up, down):  6.734E-07 0.000E+00
 
     Adding external electric field

     Computed dipole along edir(3) : 
        Dipole                0.0088 Ry au,          0.0224 Debye
        Dipole field          0.0000 Ry au, 
 
        Potential amp.       -0.0028 Ry
        Total length         43.5630 bohr
 

     total cpu time spent up to now is      420.4 secs

     total energy              =   -3595.79122790 Ry
     estimated scf accuracy    <       0.01064938 Ry

     iteration # 79     ecut=    52.00 Ry     beta= 0.30
     Davidson diagonalization with overlap
     ethr =  2.73E-07,  avg # of iterations =  1.4

     negative rho (up, down):  6.197E-07 0.000E+00
 
     Adding external electric field

     Computed dipole along edir(3) : 
        Dipole                0.0267 Ry au,          0.0678 Debye
        Dipole field          0.0001 Ry au, 
 
        Potential amp.       -0.0084 Ry
        Total length         43.5630 bohr
 

     total cpu time spent up to now is      425.3 secs

     total energy              =   -3595.79074028 Ry
     estimated scf accuracy    <       0.03065922 Ry

     iteration # 80     ecut=    52.00 Ry     beta= 0.30
     Davidson diagonalization with overlap
     ethr =  2.73E-07,  avg # of iterations =  1.0

     negative rho (up, down):  7.020E-07 0.000E+00
 
     Adding external electric field

     Computed dipole along edir(3) : 
        Dipole                0.0320 Ry au,          0.0812 Debye
        Dipole field          0.0001 Ry au, 
 
        Potential amp.       -0.0100 Ry
        Total length         43.5630 bohr
 

     total cpu time spent up to now is      430.3 secs

     total energy              =   -3595.79087357 Ry
     estimated scf accuracy    <       0.00136557 Ry

     iteration # 81     ecut=    52.00 Ry     beta= 0.30
     Davidson diagonalization with overlap
     ethr =  2.73E-07,  avg # of iterations =  1.0

     negative rho (up, down):  7.650E-07 0.000E+00
 
     Adding external electric field

     Computed dipole along edir(3) : 
        Dipole                0.0086 Ry au,          0.0217 Debye
        Dipole field          0.0000 Ry au, 
 
        Potential amp.       -0.0027 Ry
        Total length         43.5630 bohr
 

     total cpu time spent up to now is      435.0 secs

     total energy              =   -3595.79075245 Ry
     estimated scf accuracy    <       0.00137711 Ry

     iteration # 82     ecut=    52.00 Ry     beta= 0.30
     Davidson diagonalization with overlap
     ethr =  2.73E-07,  avg # of iterations =  2.0

     negative rho (up, down):  6.738E-07 0.000E+00
 
     Adding external electric field

     Computed dipole along edir(3) : 
        Dipole                0.0238 Ry au,          0.0604 Debye
        Dipole field          0.0001 Ry au, 
 
        Potential amp.       -0.0074 Ry
        Total length         43.5630 bohr
 

     total cpu time spent up to now is      440.0 secs

     total energy              =   -3595.79083308 Ry
     estimated scf accuracy    <       0.03080838 Ry

     iteration # 83     ecut=    52.00 Ry     beta= 0.30
     Davidson diagonalization with overlap
     ethr =  2.73E-07,  avg # of iterations =  1.0

     negative rho (up, down):  5.679E-07 0.000E+00
 
     Adding external electric field

     Computed dipole along edir(3) : 
        Dipole                0.0371 Ry au,          0.0943 Debye
        Dipole field          0.0001 Ry au, 
 
        Potential amp.       -0.0116 Ry
        Total length         43.5630 bohr
 

     total cpu time spent up to now is      445.0 secs

     total energy              =   -3595.79075752 Ry
     estimated scf accuracy    <       0.00537293 Ry

     iteration # 84     ecut=    52.00 Ry     beta= 0.30
     Davidson diagonalization with overlap
     ethr =  2.73E-07,  avg # of iterations =  2.1

     negative rho (up, down):  6.212E-07 0.000E+00
 
     Adding external electric field

     Computed dipole along edir(3) : 
        Dipole                0.0264 Ry au,          0.0672 Debye
        Dipole field          0.0001 Ry au, 
 
        Potential amp.       -0.0083 Ry
        Total length         43.5630 bohr
 

     total cpu time spent up to now is      450.1 secs

     total energy              =   -3595.79076119 Ry
     estimated scf accuracy    <       0.01219803 Ry

     iteration # 85     ecut=    52.00 Ry     beta= 0.30
     Davidson diagonalization with overlap
     ethr =  2.73E-07,  avg # of iterations =  1.0

     negative rho (up, down):  5.992E-07 0.000E+00
 
     Adding external electric field

     Computed dipole along edir(3) : 
        Dipole                0.0272 Ry au,          0.0692 Debye
        Dipole field          0.0001 Ry au, 
 
        Potential amp.       -0.0085 Ry
        Total length         43.5630 bohr
 

     total cpu time spent up to now is      455.0 secs

     total energy              =   -3595.79090547 Ry
     estimated scf accuracy    <       0.00156959 Ry

     iteration # 86     ecut=    52.00 Ry     beta= 0.30
     Davidson diagonalization with overlap
     ethr =  2.73E-07,  avg # of iterations =  1.0

     negative rho (up, down):  5.664E-07 0.000E+00
 
     Adding external electric field

     Computed dipole along edir(3) : 
        Dipole                0.0287 Ry au,          0.0730 Debye
        Dipole field          0.0001 Ry au, 
 
        Potential amp.       -0.0090 Ry
        Total length         43.5630 bohr
 

     total cpu time spent up to now is      459.9 secs

     total energy              =   -3595.79089813 Ry
     estimated scf accuracy    <       0.00083379 Ry

     iteration # 87     ecut=    52.00 Ry     beta= 0.30
     Davidson diagonalization with overlap
     ethr =  2.73E-07,  avg # of iterations =  1.0

     negative rho (up, down):  5.772E-07 0.000E+00
 
     Adding external electric field

     Computed dipole along edir(3) : 
        Dipole                0.0284 Ry au,          0.0723 Debye
        Dipole field          0.0001 Ry au, 
 
        Potential amp.       -0.0089 Ry
        Total length         43.5630 bohr
 

     total cpu time spent up to now is      464.6 secs

     total energy              =   -3595.79090146 Ry
     estimated scf accuracy    <       0.00006785 Ry

     iteration # 88     ecut=    52.00 Ry     beta= 0.30
     Davidson diagonalization with overlap
     ethr =  2.61E-08,  avg # of iterations =  1.0

     negative rho (up, down):  5.831E-07 0.000E+00
 
     Adding external electric field

     Computed dipole along edir(3) : 
        Dipole                0.0292 Ry au,          0.0741 Debye
        Dipole field          0.0001 Ry au, 
 
        Potential amp.       -0.0091 Ry
        Total length         43.5630 bohr
 

     total cpu time spent up to now is      469.3 secs

     total energy              =   -3595.79089992 Ry
     estimated scf accuracy    <       0.00015156 Ry

     iteration # 89     ecut=    52.00 Ry     beta= 0.30
     Davidson diagonalization with overlap
     ethr =  2.61E-08,  avg # of iterations =  1.0

     negative rho (up, down):  5.836E-07 0.000E+00
 
     Adding external electric field

     Computed dipole along edir(3) : 
        Dipole                0.0290 Ry au,          0.0738 Debye
        Dipole field          0.0001 Ry au, 
 
        Potential amp.       -0.0091 Ry
        Total length         43.5630 bohr
 

     total cpu time spent up to now is      474.1 secs

     total energy              =   -3595.79090064 Ry
     estimated scf accuracy    <       0.00000536 Ry

     iteration # 90     ecut=    52.00 Ry     beta= 0.30
     Davidson diagonalization with overlap
     ethr =  2.06E-09,  avg # of iterations =  1.0

     negative rho (up, down):  5.831E-07 0.000E+00
 
     Adding external electric field

     Computed dipole along edir(3) : 
        Dipole                0.0288 Ry au,          0.0733 Debye
        Dipole field          0.0001 Ry au, 
 
        Potential amp.       -0.0090 Ry
        Total length         43.5630 bohr
 

     total cpu time spent up to now is      479.0 secs

     total energy              =   -3595.79090082 Ry
     estimated scf accuracy    <       0.00001814 Ry

     iteration # 91     ecut=    52.00 Ry     beta= 0.30
     Davidson diagonalization with overlap
     ethr =  2.06E-09,  avg # of iterations =  1.0

     negative rho (up, down):  5.904E-07 0.000E+00
 
     Adding external electric field

     Computed dipole along edir(3) : 
        Dipole                0.0294 Ry au,          0.0747 Debye
        Dipole field          0.0001 Ry au, 
 
        Potential amp.       -0.0092 Ry
        Total length         43.5630 bohr
 

     total cpu time spent up to now is      484.0 secs

     total energy              =   -3595.79090017 Ry
     estimated scf accuracy    <       0.00004634 Ry

     iteration # 92     ecut=    52.00 Ry     beta= 0.30
     Davidson diagonalization with overlap
     ethr =  2.06E-09,  avg # of iterations =  1.0

     negative rho (up, down):  5.886E-07 0.000E+00
 
     Adding external electric field

     Computed dipole along edir(3) : 
        Dipole                0.0293 Ry au,          0.0745 Debye
        Dipole field          0.0001 Ry au, 
 
        Potential amp.       -0.0092 Ry
        Total length         43.5630 bohr
 

     total cpu time spent up to now is      488.9 secs

     total energy              =   -3595.79090054 Ry
     estimated scf accuracy    <       0.00000057 Ry

     iteration # 93     ecut=    52.00 Ry     beta= 0.30
     Davidson diagonalization with overlap
     ethr =  2.17E-10,  avg # of iterations =  1.0

     negative rho (up, down):  5.835E-07 0.000E+00
 
     Adding external electric field

     Computed dipole along edir(3) : 
        Dipole                0.0293 Ry au,          0.0746 Debye
        Dipole field          0.0001 Ry au, 
 
        Potential amp.       -0.0092 Ry
        Total length         43.5630 bohr
 

     total cpu time spent up to now is      493.8 secs

     total energy              =   -3595.79090055 Ry
     estimated scf accuracy    <       0.00000002 Ry

     iteration # 94     ecut=    52.00 Ry     beta= 0.30
     Davidson diagonalization with overlap
     ethr =  6.96E-12,  avg # of iterations =  1.0

     negative rho (up, down):  5.822E-07 0.000E+00
 
     Adding external electric field

     Computed dipole along edir(3) : 
        Dipole                0.0291 Ry au,          0.0739 Debye
        Dipole field          0.0001 Ry au, 
 
        Potential amp.       -0.0091 Ry
        Total length         43.5630 bohr
 

     total cpu time spent up to now is      498.6 secs

     End of self-consistent calculation

          k = 0.0000 0.0000 0.0000 ( 22161 PWs)   bands (ev):

   -86.0708 -86.0613 -86.0528 -86.0527 -86.0520 -86.0520 -85.8428 -85.8428
   -85.8298 -85.8294 -85.8292 -85.8260 -49.5780 -49.5547 -49.5544 -49.5541
   -49.5537 -49.5530 -49.5528 -49.5280 -49.5278 -49.4999 -49.4996 -49.4990
   -49.4987 -49.4929 -49.4546 -49.4541 -49.4410 -49.4409 -49.3271 -49.3270
   -49.3265 -49.3265 -49.3243 -49.3243 -49.3221 -49.3220 -49.2627 -49.2605
   -49.2498 -49.2495 -49.2492 -49.2457 -49.2364 -49.2361 -49.2353 -49.2351
   -13.2456  -8.1512  -8.1512  -8.1512  -7.0208  -7.0207  -7.0207  -1.4109
    -1.3794  -0.5166  -0.3192  -0.3191  -0.3191  -0.2365  -0.0693   0.3897
     0.3912   0.4119   0.4134   0.4140   0.4156   0.7628   0.7638   0.7658
     0.7667   0.9497   0.9521   0.9655   0.9708   1.1971   1.2473   1.2485
     1.2940   1.2964   1.3729   1.3742   1.3774   1.3788   1.3899   1.5301
     1.5312   1.5834   1.5846   1.7055   1.7058   1.7084   1.7084   1.7297
     1.7297   1.7332   1.7334   2.1377   2.1400   2.2605   2.2674   2.3004
     2.3024   2.3030   2.3050   2.4171   2.4288   2.6611   2.7199   2.7209
     2.7672   2.7716   2.8910   2.8922   2.9331   2.9335   2.9367   2.9370
     2.9607   2.9607   3.0064   3.0081   3.7288   3.7288   3.7288   5.0652
     6.2762   7.6924   7.6929   7.6929   9.3153   9.4677   9.4719   9.6605
     9.6610   9.6650   9.6654   9.8236  10.4534  10.4559  10.4569  10.4595
    10.8550  10.8572  11.0228  11.3205  12.1171  12.1213  12.1242  12.1283
    12.3616  12.3624  13.0976  13.1585

          k = 0.0000 0.1925 0.0000 ( 22089 PWs)   bands (ev):

   -86.0695 -86.0604 -86.0541 -86.0538 -86.0520 -86.0518 -85.8419 -85.8417
   -85.8302 -85.8300 -85.8296 -85.8265 -49.5749 -49.5720 -49.5667 -49.5652
   -49.5610 -49.5349 -49.5296 -49.5186 -49.5141 -49.5035 -49.4984 -49.4951
   -49.4938 -49.4922 -49.4636 -49.4582 -49.4518 -49.4438 -49.3443 -49.3435
   -49.3389 -49.3381 -49.3034 -49.3024 -49.3008 -49.2997 -49.2616 -49.2599
   -49.2501 -49.2500 -49.2497 -49.2475 -49.2463 -49.2462 -49.2392 -49.2382
   -13.0848  -9.3509  -8.5126  -8.5126  -6.3980  -6.3980  -5.5824  -1.1885
    -1.1601  -0.7962  -0.7961  -0.2963  -0.1612  -0.0575   0.1129   0.1182
     0.2382   0.2986   0.3067   0.3784   0.5172   0.6177   0.6898   0.7138
     0.7485   0.8116   0.9073   0.9271   0.9304   1.0826   1.1604   1.1933
     1.2755   1.3254   1.3788   1.3956   1.4145   1.4468   1.4732   1.4958
     1.5083   1.5351   1.5832   1.6374   1.6478   1.7099   1.7273   1.8206
     1.9128   1.9773   2.0392   2.0779   2.0954   2.1951   2.2009   2.2682
     2.3126   2.3172   2.3723   2.3828   2.4051   2.5369   2.5771   2.6018
     2.6336   2.6937   2.7529   2.7642   2.9037   2.9056   2.9143   2.9616
     3.0016   3.0284   3.0793   3.1435   3.3785   3.6277   3.6278   5.4267
     6.8021   6.9237   7.8059   7.9532   7.9535   8.0642   8.4180   8.7493
     8.9892   9.2233   9.4644   9.5365  10.0252  10.7529  10.9275  11.2255
    11.2919  11.3702  11.5078  11.5277  12.3319  12.3608  12.4062  12.5549
    13.1823  13.2966  13.3652  13.5156

          k = 0.0000 0.3849 0.0000 ( 22135 PWs)   bands (ev):

   -86.0661 -86.0581 -86.0573 -86.0550 -86.0530 -86.0521 -85.8396 -85.8389
   -85.8320 -85.8312 -85.8304 -85.8277 -49.5853 -49.5779 -49.5669 -49.5632
   -49.5570 -49.5286 -49.5194 -49.5086 -49.5068 -49.4959 -49.4951 -49.4912
   -49.4842 -49.4823 -49.4797 -49.4785 -49.4647 -49.4526 -49.3570 -49.3562
   -49.3334 -49.3326 -49.2815 -49.2807 -49.2783 -49.2779 -49.2762 -49.2737
   -49.2591 -49.2576 -49.2518 -49.2507 -49.2505 -49.2480 -49.2474 -49.2470
   -12.6042 -10.7138  -8.9096  -8.9096  -5.2722  -5.2722  -3.5268  -1.9159
    -1.9159  -0.6212  -0.5030  -0.1363  -0.0382  -0.0318   0.1941   0.2454
     0.2665   0.2990   0.3013   0.3514   0.4352   0.4651   0.5001   0.6090
     0.6777   0.7017   0.8051   0.8292   0.8381   0.9415   0.9871   1.0045
     1.0949   1.2134   1.2279   1.2794   1.3113   1.3829   1.4241   1.4443
     1.5206   1.5356   1.6325   1.6416   1.6837   1.7670   1.7717   1.7874
     1.8239   1.8660   1.8677   1.9695   1.9889   2.0336   2.0563   2.2353
     2.2469   2.3046   2.3798   2.4298   2.4687   2.4776   2.5167   2.6809
     2.7014   2.7790   2.8168   2.8456   2.9382   2.9651   2.9725   3.0436
     3.0644   3.0991   3.1550   3.1923   3.4492   3.4492   4.1165   4.6960
     5.4185   6.2765   6.7692   6.9205   7.4153   7.9234   8.0435   8.2572
     8.4856   8.4860   9.0525  10.1997  10.2569  10.6274  10.8094  10.8681
    11.4272  11.6568  11.8178  12.1123  12.8141  12.8947  13.0576  13.4474
    13.4628  13.5288  13.9879  14.1930

          k = 0.0000-0.5774 0.0000 ( 22116 PWs)   bands (ev):

   -86.0616 -86.0616 -86.0556 -86.0553 -86.0553 -86.0522 -85.8381 -85.8354
   -85.8351 -85.8320 -85.8308 -85.8285 -49.5900 -49.5826 -49.5592 -49.5589
   -49.5359 -49.5357 -49.5210 -49.5163 -49.5161 -49.4970 -49.4910 -49.4862
   -49.4859 -49.4789 -49.4788 -49.4704 -49.4670 -49.4668 -49.3615 -49.3607
   -49.3109 -49.3095 -49.3094 -49.3063 -49.2687 -49.2675 -49.2637 -49.2626
   -49.2624 -49.2593 -49.2579 -49.2547 -49.2545 -49.2510 -49.2509 -49.2481
   -11.8096 -11.8096  -9.0520  -9.0520  -4.4452  -4.4451  -2.7794  -2.7793
    -1.3631  -1.3630  -0.2912  -0.2011  -0.1330   0.1301   0.1618   0.1636
     0.2750   0.3035   0.3035   0.3742   0.3763   0.5554   0.5560   0.5595
     0.5960   0.5977   0.6857   0.6861   0.8296   0.8322   1.0119   1.0120
     1.1120   1.1152   1.1160   1.1500   1.1893   1.1922   1.3614   1.3638
     1.3738   1.4109   1.4133   1.4646   1.4710   1.7039   1.7047   1.7664
     1.7692   1.9496   2.0024   2.0063   2.0213   2.2022   2.2061   2.3127
     2.3264   2.3276   2.5743   2.6080   2.6084   2.6957   2.6962   2.7931
     2.7957   2.7970   2.9537   2.9591   2.9605   3.0611   3.0785   3.1431
     3.1448   3.1642   3.3238   3.3373   3.3690   3.3691   3.6111   3.6124
     5.2005   5.2019   6.1524   6.9827   7.4484   7.4520   7.5006   7.7090
     8.7647   8.7651   9.6372   9.6426  10.1390  10.7122  11.3022  11.3028
    11.4220  11.6332  11.6360  12.6637  12.7458  12.7494  13.1129  13.1216
    13.1821  13.1903  13.8067  13.8069

          k = 0.1667-0.0962 0.0000 ( 22089 PWs)   bands (ev):

   -86.0695 -86.0604 -86.0542 -86.0536 -86.0520 -86.0519 -85.8419 -85.8417
   -85.8302 -85.8300 -85.8296 -85.8265 -49.5749 -49.5726 -49.5664 -49.5652
   -49.5604 -49.5360 -49.5293 -49.5177 -49.5143 -49.5037 -49.4982 -49.4950
   -49.4946 -49.4917 -49.4632 -49.4586 -49.4519 -49.4437 -49.3442 -49.3435
   -49.3390 -49.3381 -49.3033 -49.3025 -49.3009 -49.2997 -49.2616 -49.2599
   -49.2501 -49.2500 -49.2497 -49.2476 -49.2463 -49.2462 -49.2391 -49.2382
   -13.0848  -9.3509  -8.5126  -8.5126  -6.3980  -6.3980  -5.5824  -1.1885
    -1.1602  -0.7962  -0.7961  -0.2968  -0.1612  -0.0571   0.1120   0.1185
     0.2405   0.2996   0.3050   0.3792   0.5146   0.6178   0.6942   0.7161
     0.7436   0.8123   0.9059   0.9273   0.9303   1.0821   1.1611   1.1946
     1.2765   1.3239   1.3800   1.3955   1.4111   1.4460   1.4722   1.4956
     1.5087   1.5353   1.5835   1.6421   1.6466   1.7099   1.7258   1.8232
     1.9142   1.9714   2.0352   2.0802   2.0953   2.1980   2.2010   2.2640
     2.3099   2.3172   2.3722   2.3873   2.4065   2.5399   2.5775   2.6039
     2.6336   2.6992   2.7485   2.7617   2.9042   2.9059   2.9143   2.9613
     3.0026   3.0267   3.0789   3.1453   3.3755   3.6277   3.6278   5.4269
     6.8020   6.9237   7.8069   7.9532   7.9535   8.0689   8.4095   8.7493
     8.9920   9.2222   9.4604   9.5365  10.0252  10.7622  10.9304  11.2255
    11.2867  11.3670  11.5078  11.5297  12.3290  12.3691  12.4092  12.5545
    13.1823  13.2910  13.3652  13.5069

          k = 0.1667 0.0962 0.0000 ( 22089 PWs)   bands (ev):

   -86.0695 -86.0604 -86.0541 -86.0537 -86.0520 -86.0519 -85.8419 -85.8417
   -85.8302 -85.8300 -85.8296 -85.8265 -49.5749 -49.5723 -49.5665 -49.5652
   -49.5608 -49.5353 -49.5295 -49.5184 -49.5142 -49.5035 -49.4984 -49.4951
   -49.4940 -49.4921 -49.4635 -49.4584 -49.4518 -49.4438 -49.3444 -49.3434
   -49.3388 -49.3382 -49.3036 -49.3023 -49.3006 -49.2998 -49.2616 -49.2599
   -49.2501 -49.2500 -49.2497 -49.2473 -49.2464 -49.2462 -49.2394 -49.2381
   -13.0848  -9.3509  -8.5126  -8.5126  -6.3980  -6.3980  -5.5824  -1.1885
    -1.1601  -0.7962  -0.7961  -0.2965  -0.1612  -0.0575   0.1124   0.1182
     0.2389   0.2995   0.3064   0.3787   0.5165   0.6179   0.6907   0.7141
     0.7471   0.8119   0.9067   0.9281   0.9300   1.0828   1.1605   1.1940
     1.2753   1.3256   1.3790   1.3951   1.4137   1.4470   1.4730   1.4973
     1.5075   1.5346   1.5833   1.6374   1.6477   1.7101   1.7273   1.8208
     1.9128   1.9769   2.0375   2.0784   2.0955   2.1968   2.2008   2.2664
     2.3122   2.3172   2.3721   2.3832   2.4050   2.5378   2.5769   2.6025
     2.6336   2.6940   2.7527   2.7639   2.9048   2.9050   2.9143   2.9611
     3.0031   3.0278   3.0791   3.1446   3.3774   3.6277   3.6278   5.4266
     6.8019   6.9238   7.8061   7.9532   7.9535   8.0655   8.4163   8.7493
     8.9885   9.2234   9.4612   9.5365  10.0252  10.7574  10.9292  11.2255
    11.2906  11.3703  11.5078  11.5270  12.3311  12.3634  12.4068  12.5547
    13.1823  13.2944  13.3652  13.5170

          k = 0.1667 0.2887 0.0000 ( 22093 PWs)   bands (ev):

   -86.0672 -86.0588 -86.0555 -86.0555 -86.0523 -86.0523 -85.8403 -85.8398
   -85.8309 -85.8308 -85.8307 -85.8275 -49.5741 -49.5738 -49.5693 -49.5683
   -49.5681 -49.5240 -49.5237 -49.5083 -49.5083 -49.5036 -49.4921 -49.4918
   -49.4857 -49.4853 -49.4772 -49.4724 -49.4634 -49.4482 -49.3462 -49.3461
   -49.3457 -49.3449 -49.2847 -49.2846 -49.2844 -49.2833 -49.2681 -49.2670
   -49.2597 -49.2582 -49.2509 -49.2506 -49.2505 -49.2471 -49.2445 -49.2432
   -12.7641  -9.9477  -9.9477  -7.7339  -6.6433  -4.5092  -4.5091  -2.0986
    -0.8093  -0.7132  -0.4755  -0.4754   0.0244   0.0518   0.0536   0.1600
     0.1615   0.1942   0.1946   0.2250   0.3987   0.5063   0.5079   0.7048
     0.7056   0.7185   0.7196   0.8777   0.9307   0.9311   1.0528   1.0946
     1.2941   1.3088   1.3121   1.3808   1.4549   1.4761   1.4788   1.5278
     1.5602   1.5612   1.6073   1.6228   1.6911   1.7154   1.7157   1.8409
     1.9304   1.9781   2.0754   2.0963   2.0999   2.1879   2.1926   2.1958
     2.3147   2.3616   2.3617   2.3645   2.3659   2.4344   2.4633   2.4634
     2.5723   2.5730   2.6456   2.6483   2.6757   2.7652   2.9401   2.9406
     3.0276   3.0769   3.0781   3.2006   3.2018   3.8839   4.3110   5.7814
     5.7815   6.0129   6.5711   6.5723   7.4567   7.6640   7.9741   7.9773
     9.6576   9.6584   9.7432   9.7466   9.9794  10.4265  10.8252  10.8292
    11.6124  11.6162  11.6221  11.9048  12.4173  12.4223  13.5150  13.5165
    13.7805  13.8720  13.8723  14.0657

          k = 0.1667-0.6736 0.0000 ( 22151 PWs)   bands (ev):

   -86.0633 -86.0590 -86.0566 -86.0563 -86.0538 -86.0526 -85.8383 -85.8366
   -85.8333 -85.8315 -85.8315 -85.8288 -49.5807 -49.5748 -49.5623 -49.5615
   -49.5565 -49.5292 -49.5248 -49.5235 -49.5052 -49.4965 -49.4927 -49.4887
   -49.4848 -49.4844 -49.4733 -49.4708 -49.4707 -49.4573 -49.3525 -49.3516
   -49.3306 -49.3296 -49.3005 -49.2997 -49.2688 -49.2679 -49.2678 -49.2669
   -49.2581 -49.2558 -49.2541 -49.2529 -49.2527 -49.2514 -49.2507 -49.2483
   -12.1265 -11.1810 -10.2529  -7.6705  -5.8252  -3.4757  -3.4078  -2.4282
    -1.3468  -0.3917  -0.1782  -0.1261  -0.1147  -0.0622  -0.0385   0.0980
     0.1373   0.1442   0.1913   0.1961   0.2292   0.3593   0.3855   0.4798
     0.5584   0.6249   0.6816   0.7299   0.7586   0.9036   1.0082   1.0229
     1.0462   1.0924   1.1006   1.2388   1.3166   1.3516   1.4182   1.4208
     1.4708   1.4891   1.5559   1.6865   1.7837   1.8644   1.8671   1.9233
     1.9678   2.0066   2.0165   2.0661   2.1239   2.1825   2.1851   2.1925
     2.2299   2.3075   2.3921   2.4856   2.5317   2.5364   2.6338   2.6434
     2.6696   2.7464   2.8353   2.8923   2.8996   2.9246   2.9578   2.9871
     3.0281   3.0651   3.0866   3.1174   3.2080   3.7941   4.4357   4.7084
     4.7113   4.8980   5.6615   6.0409   6.9714   7.1024   7.2922   8.2820
     8.9529   9.0312  10.3320  10.5564  10.6557  10.8622  11.2277  11.2487
    11.7806  11.9485  12.1693  12.3974  12.4280  12.7490  13.0338  13.1453
    13.4921  13.5842  13.8655  13.8763

          k = 0.1667-0.4811 0.0000 ( 22151 PWs)   bands (ev):

   -86.0633 -86.0590 -86.0566 -86.0563 -86.0539 -86.0526 -85.8383 -85.8366
   -85.8333 -85.8315 -85.8315 -85.8288 -49.5807 -49.5747 -49.5625 -49.5616
   -49.5566 -49.5289 -49.5247 -49.5236 -49.5052 -49.4964 -49.4925 -49.4888
   -49.4849 -49.4844 -49.4735 -49.4708 -49.4707 -49.4573 -49.3525 -49.3516
   -49.3305 -49.3297 -49.3007 -49.2996 -49.2688 -49.2680 -49.2679 -49.2668
   -49.2581 -49.2558 -49.2539 -49.2529 -49.2528 -49.2515 -49.2507 -49.2483
   -12.1265 -11.1810 -10.2529  -7.6705  -5.8252  -3.4757  -3.4078  -2.4282
    -1.3468  -0.3917  -0.1783  -0.1270  -0.1149  -0.0622  -0.0381   0.0988
     0.1370   0.1442   0.1899   0.1959   0.2296   0.3630   0.3854   0.4799
     0.5601   0.6246   0.6796   0.7284   0.7583   0.9033   1.0082   1.0229
     1.0467   1.0930   1.1036   1.2373   1.3154   1.3515   1.4140   1.4196
     1.4661   1.4914   1.5563   1.6897   1.7864   1.8673   1.8710   1.9200
     1.9654   2.0076   2.0174   2.0661   2.1222   2.1805   2.1840   2.1918
     2.2283   2.3095   2.3933   2.4873   2.5328   2.5373   2.6355   2.6440
     2.6663   2.7446   2.8333   2.8925   2.8998   2.9250   2.9583   2.9892
     3.0286   3.0650   3.0876   3.1166   3.2076   3.7943   4.4344   4.7063
     4.7113   4.8980   5.6616   6.0427   6.9722   7.1023   7.2922   8.2812
     8.9529   9.0315  10.3320  10.5564  10.6554  10.8622  11.2277  11.2486
    11.7806  11.9485  12.1692  12.3973  12.4279  12.7493  13.0340  13.1454
    13.4921  13.5844  13.8655  13.8764

          k = 0.1667-0.2887 0.0000 ( 22093 PWs)   bands (ev):

   -86.0672 -86.0588 -86.0556 -86.0554 -86.0523 -86.0522 -85.8403 -85.8398
   -85.8309 -85.8308 -85.8307 -85.8275 -49.5744 -49.5738 -49.5694 -49.5682
   -49.5680 -49.5246 -49.5235 -49.5080 -49.5077 -49.5033 -49.4926 -49.4922
   -49.4855 -49.4851 -49.4771 -49.4725 -49.4637 -49.4481 -49.3462 -49.3461
   -49.3457 -49.3449 -49.2848 -49.2847 -49.2844 -49.2833 -49.2684 -49.2668
   -49.2597 -49.2582 -49.2509 -49.2506 -49.2505 -49.2471 -49.2442 -49.2434
   -12.7641  -9.9477  -9.9477  -7.7339  -6.6433  -4.5092  -4.5091  -2.0986
    -0.8093  -0.7134  -0.4755  -0.4754   0.0227   0.0517   0.0535   0.1596
     0.1611   0.1946   0.1950   0.2269   0.4010   0.5074   0.5100   0.7016
     0.7039   0.7185   0.7194   0.8772   0.9306   0.9335   1.0518   1.0942
     1.2941   1.3071   1.3102   1.3792   1.4552   1.4747   1.4791   1.5277
     1.5577   1.5610   1.6082   1.6226   1.6887   1.7203   1.7210   1.8408
     1.9300   1.9781   2.0749   2.0953   2.0991   2.1871   2.1925   2.1943
     2.3138   2.3616   2.3617   2.3638   2.3661   2.4380   2.4665   2.4674
     2.5726   2.5747   2.6415   2.6455   2.6808   2.7623   2.9401   2.9410
     3.0275   3.0756   3.0781   3.2005   3.2023   3.8814   4.3110   5.7813
     5.7818   6.0136   6.5700   6.5725   7.4567   7.6642   7.9746   7.9785
     9.6576   9.6584   9.7424   9.7464   9.9794  10.4265  10.8254  10.8303
    11.6109  11.6151  11.6220  11.9050  12.4178  12.4291  13.5077  13.5165
    13.7805  13.8709  13.8721  14.0652

          k = 0.3333-0.1925 0.0000 ( 22135 PWs)   bands (ev):

   -86.0661 -86.0581 -86.0573 -86.0549 -86.0530 -86.0522 -85.8396 -85.8389
   -85.8320 -85.8312 -85.8304 -85.8277 -49.5858 -49.5779 -49.5670 -49.5629
   -49.5564 -49.5296 -49.5182 -49.5080 -49.5069 -49.4960 -49.4952 -49.4917
   -49.4844 -49.4820 -49.4796 -49.4785 -49.4651 -49.4526 -49.3569 -49.3562
   -49.3335 -49.3326 -49.2815 -49.2807 -49.2782 -49.2780 -49.2763 -49.2736
   -49.2591 -49.2577 -49.2518 -49.2507 -49.2504 -49.2479 -49.2474 -49.2470
   -12.6042 -10.7138  -8.9096  -8.9096  -5.2722  -5.2722  -3.5267  -1.9159
    -1.9159  -0.6212  -0.5033  -0.1363  -0.0376  -0.0317   0.1919   0.2469
     0.2690   0.2990   0.3001   0.3544   0.4327   0.4638   0.5011   0.6080
     0.6791   0.7017   0.8040   0.8275   0.8365   0.9416   0.9929   1.0007
     1.0972   1.2161   1.2262   1.2801   1.3094   1.3835   1.4274   1.4375
     1.5229   1.5356   1.6322   1.6376   1.6838   1.7666   1.7704   1.7883
     1.8234   1.8595   1.8660   1.9733   1.9957   2.0349   2.0558   2.2345
     2.2501   2.3052   2.3826   2.4307   2.4668   2.4787   2.5155   2.6761
     2.6973   2.7802   2.8208   2.8472   2.9387   2.9643   2.9738   3.0443
     3.0613   3.1012   3.1571   3.1907   3.4492   3.4492   4.1140   4.6961
     5.4192   6.2768   6.7747   6.9193   7.4003   7.9308   8.0433   8.2554
     8.4856   8.4859   9.0527  10.1997  10.2653  10.6274  10.8094  10.8645
    11.4263  11.6682  11.8178  12.1123  12.8140  12.8818  13.0578  13.4470
    13.4677  13.5241  13.9881  14.1926

          k = 0.3333-0.0000 0.0000 ( 22093 PWs)   bands (ev):

   -86.0672 -86.0588 -86.0555 -86.0555 -86.0523 -86.0523 -85.8403 -85.8398
   -85.8309 -85.8308 -85.8307 -85.8275 -49.5744 -49.5740 -49.5694 -49.5681
   -49.5679 -49.5246 -49.5238 -49.5078 -49.5076 -49.5032 -49.4927 -49.4923
   -49.4855 -49.4851 -49.4771 -49.4725 -49.4638 -49.4481 -49.3462 -49.3460
   -49.3457 -49.3449 -49.2848 -49.2845 -49.2844 -49.2833 -49.2682 -49.2670
   -49.2597 -49.2582 -49.2509 -49.2506 -49.2505 -49.2471 -49.2444 -49.2432
   -12.7641  -9.9477  -9.9477  -7.7339  -6.6433  -4.5092  -4.5091  -2.0986
    -0.8093  -0.7135  -0.4755  -0.4754   0.0220   0.0516   0.0534   0.1598
     0.1613   0.1948   0.1952   0.2270   0.4011   0.5078   0.5102   0.7018
     0.7039   0.7181   0.7192   0.8783   0.9313   0.9340   1.0520   1.0940
     1.2941   1.3056   1.3089   1.3797   1.4552   1.4755   1.4806   1.5270
     1.5574   1.5610   1.6072   1.6226   1.6886   1.7194   1.7203   1.8407
     1.9301   1.9781   2.0763   2.0949   2.0984   2.1870   2.1922   2.1941
     2.3137   2.3616   2.3617   2.3637   2.3658   2.4375   2.4669   2.4678
     2.5735   2.5751   2.6415   2.6453   2.6813   2.7620   2.9400   2.9404
     3.0287   3.0757   3.0778   3.2017   3.2026   3.8804   4.3110   5.7815
     5.7819   6.0133   6.5700   6.5720   7.4567   7.6637   7.9743   7.9783
     9.6576   9.6584   9.7418   9.7447   9.9794  10.4265  10.8280  10.8308
    11.6111  11.6156  11.6221  11.9049  12.4204  12.4291  13.5076  13.5171
    13.7807  13.8709  13.8723  14.0653

          k = 0.3333 0.1925 0.0000 ( 22135 PWs)   bands (ev):

   -86.0661 -86.0581 -86.0573 -86.0550 -86.0530 -86.0521 -85.8396 -85.8389
   -85.8320 -85.8312 -85.8304 -85.8277 -49.5855 -49.5779 -49.5669 -49.5631
   -49.5568 -49.5289 -49.5192 -49.5084 -49.5068 -49.4959 -49.4952 -49.4913
   -49.4842 -49.4823 -49.4796 -49.4785 -49.4648 -49.4527 -49.3571 -49.3561
   -49.3333 -49.3327 -49.2817 -49.2806 -49.2784 -49.2777 -49.2760 -49.2738
   -49.2591 -49.2576 -49.2517 -49.2507 -49.2506 -49.2482 -49.2473 -49.2468
   -12.6042 -10.7138  -8.9096  -8.9096  -5.2722  -5.2722  -3.5268  -1.9159
    -1.9159  -0.6212  -0.5031  -0.1362  -0.0380  -0.0319   0.1934   0.2460
     0.2676   0.2990   0.3012   0.3518   0.4344   0.4651   0.5001   0.6091
     0.6777   0.7017   0.8049   0.8288   0.8382   0.9415   0.9877   1.0040
     1.0954   1.2130   1.2268   1.2797   1.3107   1.3830   1.4248   1.4429
     1.5225   1.5356   1.6329   1.6394   1.6835   1.7668   1.7721   1.7876
     1.8240   1.8660   1.8672   1.9692   1.9891   2.0340   2.0572   2.2355
     2.2465   2.3052   2.3797   2.4300   2.4678   2.4776   2.5166   2.6813
     2.7012   2.7789   2.8173   2.8460   2.9378   2.9648   2.9737   3.0434
     3.0638   3.0996   3.1564   3.1920   3.4492   3.4492   4.1155   4.6961
     5.4187   6.2762   6.7715   6.9201   7.4130   7.9220   8.0431   8.2532
     8.4856   8.4859   9.0522  10.1997  10.2622  10.6274  10.8094  10.8688
    11.4262  11.6601  11.8179  12.1121  12.8139  12.8968  13.0576  13.4473
    13.4642  13.5278  13.9881  14.1923

          k = 0.3333-0.7698 0.0000 ( 22151 PWs)   bands (ev):

   -86.0633 -86.0590 -86.0566 -86.0563 -86.0538 -86.0527 -85.8383 -85.8366
   -85.8333 -85.8315 -85.8315 -85.8288 -49.5809 -49.5748 -49.5622 -49.5615
   -49.5564 -49.5291 -49.5249 -49.5233 -49.5052 -49.4966 -49.4927 -49.4887
   -49.4848 -49.4844 -49.4734 -49.4708 -49.4707 -49.4573 -49.3526 -49.3516
   -49.3305 -49.3297 -49.3005 -49.2997 -49.2686 -49.2680 -49.2680 -49.2668
   -49.2581 -49.2558 -49.2542 -49.2529 -49.2527 -49.2515 -49.2507 -49.2483
   -12.1265 -11.1810 -10.2529  -7.6705  -5.8252  -3.4757  -3.4078  -2.4282
    -1.3468  -0.3917  -0.1779  -0.1261  -0.1143  -0.0622  -0.0388   0.0975
     0.1370   0.1442   0.1912   0.1971   0.2290   0.3596   0.3855   0.4800
     0.5584   0.6251   0.6815   0.7297   0.7581   0.9033   1.0082   1.0229
     1.0465   1.0917   1.1009   1.2387   1.3175   1.3507   1.4176   1.4215
     1.4696   1.4900   1.5552   1.6863   1.7841   1.8638   1.8671   1.9234
     1.9677   2.0065   2.0166   2.0661   2.1247   2.1831   2.1849   2.1929
     2.2297   2.3076   2.3918   2.4857   2.5317   2.5364   2.6342   2.6433
     2.6696   2.7464   2.8356   2.8921   2.8992   2.9242   2.9582   2.9879
     3.0278   3.0662   3.0864   3.1175   3.2075   3.7940   4.4363   4.7080
     4.7113   4.8987   5.6601   6.0404   6.9712   7.1020   7.2922   8.2817
     8.9509   9.0310  10.3320  10.5598  10.6542  10.8622  11.2277  11.2495
    11.7806  11.9517  12.1691  12.3975  12.4280  12.7489  13.0337  13.1472
    13.4929  13.5834  13.8653  13.8748

          k = 0.3333-0.5774 0.0000 ( 22161 PWs)   bands (ev):

   -86.0597 -86.0597 -86.0596 -86.0542 -86.0542 -86.0542 -85.8376 -85.8340
   -85.8337 -85.8336 -85.8305 -85.8304 -49.5634 -49.5632 -49.5628 -49.5583
   -49.5580 -49.5579 -49.5238 -49.5237 -49.5234 -49.4896 -49.4894 -49.4893
   -49.4820 -49.4819 -49.4817 -49.4629 -49.4629 -49.4629 -49.3314 -49.3314
   -49.3308 -49.3307 -49.3306 -49.3277 -49.2607 -49.2607 -49.2606 -49.2606
   -49.2604 -49.2577 -49.2574 -49.2537 -49.2533 -49.2532 -49.2498 -49.2497
   -11.3379 -11.3378 -11.3378  -6.4885  -6.4885  -4.3111  -1.7124  -1.7124
    -1.7123  -0.3125  -0.3124  -0.3124  -0.0762  -0.0756  -0.0747  -0.0386
    -0.0379  -0.0369   0.1427   0.1440   0.1448   0.3283   0.3292   0.3302
     0.4960   0.4972   0.4975   0.7633   0.7636   0.7655   0.8490   0.8490
     0.8490   1.1835   1.1845   1.1860   1.3833   1.3843   1.3884   1.4852
     1.4864   1.4894   1.6077   1.6121   1.6125   1.9924   1.9954   1.9987
     2.0329   2.0378   2.0385   2.3603   2.3609   2.3640   2.4295   2.4296
     2.4308   2.6177   2.6192   2.6199   2.6675   2.6689   2.6695   2.7447
     2.7455   2.7462   2.8448   2.8449   2.8457   2.8792   2.8793   2.8801
     3.0772   3.0792   3.0797   3.1138   3.1146   3.1165   3.8838   3.8867
     3.8880   5.6730   5.6744   5.6781   6.0278   6.0278   7.9869   7.9888
     7.9894  10.3587  10.3597  10.3668  11.9474  11.9475  11.9482  12.1893
    12.1893  12.1960  12.2132  12.2147  12.2147  12.8706  12.8709  12.8731
    13.3508  13.3516  13.3591  13.7540

          k = 0.3333-0.3849 0.0000 ( 22151 PWs)   bands (ev):

   -86.0633 -86.0590 -86.0565 -86.0563 -86.0538 -86.0527 -85.8383 -85.8366
   -85.8333 -85.8315 -85.8315 -85.8288 -49.5813 -49.5748 -49.5622 -49.5616
   -49.5562 -49.5287 -49.5252 -49.5227 -49.5053 -49.4968 -49.4926 -49.4887
   -49.4849 -49.4844 -49.4736 -49.4707 -49.4706 -49.4573 -49.3525 -49.3516
   -49.3306 -49.3296 -49.3007 -49.2996 -49.2689 -49.2679 -49.2679 -49.2668
   -49.2581 -49.2559 -49.2538 -49.2529 -49.2528 -49.2514 -49.2507 -49.2483
   -12.1265 -11.1810 -10.2529  -7.6705  -5.8252  -3.4757  -3.4078  -2.4281
    -1.3468  -0.3917  -0.1781  -0.1271  -0.1137  -0.0622  -0.0383   0.0974
     0.1366   0.1442   0.1898   0.1978   0.2281   0.3642   0.3839   0.4824
     0.5600   0.6237   0.6800   0.7277   0.7566   0.9025   1.0082   1.0229
     1.0475   1.0968   1.1002   1.2393   1.3174   1.3527   1.4141   1.4227
     1.4623   1.4878   1.5534   1.6902   1.7891   1.8604   1.8670   1.9197
     1.9714   2.0098   2.0151   2.0661   2.1249   2.1801   2.1845   2.1947
     2.2332   2.3094   2.3902   2.4879   2.5325   2.5378   2.6330   2.6436
     2.6664   2.7439   2.8353   2.8928   2.8978   2.9228   2.9589   2.9889
     3.0292   3.0662   3.0888   3.1171   3.2072   3.7942   4.4363   4.7056
     4.7113   4.8996   5.6568   6.0402   6.9723   7.1061   7.2922   8.2819
     8.9497   9.0314  10.3320  10.5611  10.6543  10.8622  11.2277  11.2461
    11.7806  11.9599  12.1691  12.3973  12.4280  12.7493  13.0338  13.1362
    13.4902  13.5833  13.8653  13.8748

          k =-0.5000 0.2887 0.0000 ( 22116 PWs)   bands (ev):

   -86.0617 -86.0616 -86.0554 -86.0553 -86.0553 -86.0524 -85.8381 -85.8354
   -85.8351 -85.8320 -85.8308 -85.8285 -49.5906 -49.5827 -49.5592 -49.5590
   -49.5353 -49.5351 -49.5198 -49.5167 -49.5166 -49.4980 -49.4907 -49.4862
   -49.4859 -49.4792 -49.4791 -49.4703 -49.4669 -49.4667 -49.3615 -49.3607
   -49.3109 -49.3096 -49.3095 -49.3063 -49.2688 -49.2674 -49.2638 -49.2625
   -49.2623 -49.2594 -49.2579 -49.2547 -49.2545 -49.2510 -49.2508 -49.2481
   -11.8096 -11.8096  -9.0520  -9.0520  -4.4452  -4.4451  -2.7794  -2.7793
    -1.3631  -1.3630  -0.2912  -0.2000  -0.1327   0.1289   0.1611   0.1628
     0.2734   0.3035   0.3035   0.3779   0.3800   0.5532   0.5539   0.5576
     0.5936   0.5952   0.6893   0.6898   0.8296   0.8321   1.0119   1.0120
     1.1100   1.1106   1.1199   1.1488   1.1895   1.1924   1.3655   1.3674
     1.3758   1.4094   1.4111   1.4625   1.4692   1.7019   1.7026   1.7652
     1.7680   1.9471   2.0092   2.0109   2.0132   2.2035   2.2074   2.3211
     2.3287   2.3298   2.5757   2.6042   2.6047   2.6923   2.6928   2.7896
     2.7980   2.7993   2.9541   2.9601   2.9617   3.0630   3.0761   3.1432
     3.1450   3.1662   3.3236   3.3371   3.3690   3.3691   3.6116   3.6129
     5.1988   5.2003   6.1575   6.9656   7.4487   7.4523   7.5104   7.7079
     8.7647   8.7651   9.6368   9.6422  10.1473  10.7083  11.3022  11.3028
    11.4342  11.6332  11.6361  12.6493  12.7459  12.7495  13.1128  13.1216
    13.1822  13.1904  13.8067  13.8069

          k =-0.5000 0.4811 0.0000 ( 22151 PWs)   bands (ev):

   -86.0633 -86.0590 -86.0565 -86.0563 -86.0538 -86.0527 -85.8383 -85.8366
   -85.8333 -85.8315 -85.8315 -85.8288 -49.5813 -49.5747 -49.5622 -49.5616
   -49.5563 -49.5286 -49.5253 -49.5228 -49.5053 -49.4967 -49.4925 -49.4888
   -49.4849 -49.4845 -49.4737 -49.4707 -49.4706 -49.4573 -49.3525 -49.3517
   -49.3306 -49.3296 -49.3006 -49.2996 -49.2689 -49.2679 -49.2677 -49.2669
   -49.2581 -49.2559 -49.2539 -49.2529 -49.2527 -49.2514 -49.2507 -49.2483
   -12.1265 -11.1810 -10.2529  -7.6705  -5.8252  -3.4757  -3.4078  -2.4281
    -1.3468  -0.3917  -0.1782  -0.1277  -0.1137  -0.0622  -0.0381   0.0980
     0.1367   0.1442   0.1890   0.1974   0.2281   0.3652   0.3839   0.4824
     0.5605   0.6237   0.6802   0.7268   0.7566   0.9027   1.0082   1.0229
     1.0481   1.0981   1.1012   1.2377   1.3169   1.3524   1.4118   1.4227
     1.4624   1.4893   1.5528   1.6913   1.7880   1.8603   1.8669   1.9195
     1.9720   2.0099   2.0152   2.0661   2.1246   2.1796   2.1843   2.1944
     2.2332   2.3100   2.3904   2.4882   2.5325   2.5378   2.6331   2.6437
     2.6663   2.7433   2.8355   2.8930   2.8979   2.9227   2.9575   2.9893
     3.0298   3.0665   3.0896   3.1170   3.2080   3.7942   4.4357   4.7050
     4.7113   4.8995   5.6568   6.0404   6.9720   7.1060   7.2922   8.2819
     8.9496   9.0307  10.3320  10.5611  10.6555  10.8622  11.2277  11.2461
    11.7806  11.9599  12.1693  12.3975  12.4280  12.7490  13.0340  13.1362
    13.4902  13.5843  13.8653  13.8748

          k =-0.5000 0.6736 0.0000 ( 22151 PWs)   bands (ev):

   -86.0633 -86.0590 -86.0566 -86.0563 -86.0539 -86.0527 -85.8383 -85.8366
   -85.8333 -85.8315 -85.8315 -85.8288 -49.5809 -49.5747 -49.5625 -49.5616
   -49.5565 -49.5287 -49.5248 -49.5235 -49.5052 -49.4964 -49.4924 -49.4888
   -49.4850 -49.4845 -49.4736 -49.4708 -49.4706 -49.4573 -49.3526 -49.3516
   -49.3304 -49.3297 -49.3005 -49.2997 -49.2686 -49.2681 -49.2680 -49.2668
   -49.2581 -49.2558 -49.2541 -49.2529 -49.2527 -49.2515 -49.2507 -49.2483
   -12.1265 -11.1810 -10.2529  -7.6705  -5.8252  -3.4757  -3.4078  -2.4282
    -1.3468  -0.3917  -0.1781  -0.1276  -0.1145  -0.0622  -0.0383   0.0990
     0.1368   0.1442   0.1891   0.1964   0.2295   0.3643   0.3854   0.4802
     0.5607   0.6246   0.6797   0.7272   0.7578   0.9032   1.0082   1.0229
     1.0475   1.0936   1.1049   1.2357   1.3159   1.3502   1.4109   1.4205
     1.4650   1.4938   1.5550   1.6907   1.7857   1.8672   1.8703   1.9198
     1.9660   2.0076   2.0176   2.0661   2.1228   2.1806   2.1837   2.1919
     2.2281   2.3102   2.3931   2.4876   2.5329   2.5373   2.6361   2.6439
     2.6662   2.7440   2.8338   2.8925   2.8994   2.9244   2.9573   2.9903
     3.0290   3.0664   3.0882   3.1167   3.2080   3.7943   4.4345   4.7052
     4.7113   4.8987   5.6602   6.0423   6.9718   7.1019   7.2922   8.2810
     8.9508   9.0306  10.3320  10.5598  10.6552  10.8622  11.2277  11.2495
    11.7806  11.9516  12.1692  12.3975  12.4279  12.7490  13.0341  13.1473
    13.4929  13.5846  13.8653  13.8749

          k =-0.5000-0.2887 0.0000 ( 22116 PWs)   bands (ev):

   -86.0616 -86.0616 -86.0555 -86.0553 -86.0553 -86.0523 -85.8381 -85.8354
   -85.8351 -85.8320 -85.8308 -85.8285 -49.5903 -49.5826 -49.5592 -49.5590
   -49.5357 -49.5355 -49.5208 -49.5164 -49.5162 -49.4972 -49.4909 -49.4862
   -49.4858 -49.4790 -49.4789 -49.4703 -49.4671 -49.4668 -49.3616 -49.3606
   -49.3110 -49.3094 -49.3092 -49.3064 -49.2685 -49.2676 -49.2637 -49.2628
   -49.2625 -49.2592 -49.2579 -49.2547 -49.2544 -49.2510 -49.2510 -49.2481
   -11.8096 -11.8096  -9.0520  -9.0520  -4.4452  -4.4451  -2.7794  -2.7793
    -1.3631  -1.3630  -0.2910  -0.2007  -0.1332   0.1300   0.1618   0.1635
     0.2750   0.3035   0.3035   0.3753   0.3774   0.5545   0.5553   0.5593
     0.5952   0.5969   0.6864   0.6869   0.8295   0.8320   1.0119   1.0120
     1.1114   1.1145   1.1154   1.1494   1.1891   1.1920   1.3617   1.3641
     1.3747   1.4101   1.4134   1.4652   1.4710   1.7026   1.7035   1.7677
     1.7705   1.9494   2.0017   2.0058   2.0205   2.2029   2.2067   2.3130
     2.3272   2.3282   2.5745   2.6076   2.6081   2.6954   2.6959   2.7941
     2.7958   2.7971   2.9537   2.9602   2.9617   3.0609   3.0777   3.1430
     3.1448   3.1643   3.3239   3.3373   3.3690   3.3691   3.6112   3.6125
     5.1997   5.2012   6.1552   6.9804   7.4480   7.4516   7.4987   7.7051
     8.7647   8.7651   9.6366   9.6419  10.1444  10.7131  11.3022  11.3028
    11.4254  11.6332  11.6361  12.6663  12.7460  12.7496  13.1129  13.1216
    13.1819  13.1900  13.8067  13.8069

     the Fermi energy is     6.0359 ev

!    total energy              =   -3595.79090055 Ry
     estimated scf accuracy    <          8.6E-10 Ry
     smearing contrib. (-TS)   =      -0.00096612 Ry
     internal energy E=F+TS    =   -3595.78993443 Ry

     The total energy is F=E-TS. E is the sum of the following terms:
     one-electron contribution =  -19416.92332282 Ry
     hartree contribution      =    9738.38713676 Ry
     xc contribution           =    -362.10352019 Ry
     ewald contribution        =    6494.63263252 Ry
     DFT-D3 Dispersion         =      -0.45596048 Ry
     electric field correction =       0.00000304 Ry
     one-center paw contrib.   =     -49.32690327 Ry

     convergence has been achieved in  94 iterations

     negative rho (up, down):  5.822E-07 0.000E+00

     Forces acting on atoms (cartesian axes, Ry/au):

     atom    1 type  1   force =     0.00014403    0.00052969    0.00159360
     atom    2 type  1   force =     0.00017136    0.00051526    0.00159484
     atom    3 type  1   force =    -0.00022160   -0.00010112   -0.00135956
     atom    4 type  1   force =     0.00000494   -0.00034100   -0.00143194
     atom    5 type  1   force =     0.00017273    0.00054657    0.00159093
     atom    6 type  1   force =    -0.00031754   -0.00004219   -0.00137142
     atom    7 type  1   force =     0.00009114   -0.00012847    0.00078390
     atom    8 type  1   force =     0.00000481   -0.00034063   -0.00142838
     atom    9 type  1   force =     0.00008275   -0.00012382    0.00244231
     atom   10 type  1   force =    -0.00021777    0.00001391   -0.00137009
     atom   11 type  1   force =     0.00000522   -0.00034091   -0.00143194
     atom   12 type  1   force =     0.00009166   -0.00012638    0.00076875
     atom   13 type  2   force =    -0.00000241   -0.00000573    0.00291719
     atom   14 type  2   force =    -0.00000634   -0.00001319   -0.00102887
     atom   15 type  2   force =    -0.00000810   -0.00000198   -0.00103526
     atom   16 type  2   force =    -0.00000058   -0.00000276   -0.00102847
     atom   17 type  2   force =    -0.00000237   -0.00001260   -0.00103670
     atom   18 type  2   force =     0.00000530   -0.00001326   -0.00102938
     atom   19 type  2   force =     0.00000321   -0.00000204   -0.00103628
     atom   20 type  2   force =    -0.00000042   -0.00000935    0.00289676

     Total force =     0.007168     Total SCF correction =     0.000157

     Writing all to output data dir ./tmp/V2_top_fcc_G4_s05_far_r1.save/ :
     XML data file, charge density, pseudopotentials, collected wavefunctions
 
     init_run     :      3.80s CPU      3.87s WALL (       1 calls)
     electrons    :    452.18s CPU    494.54s WALL (       1 calls)
     forces       :      0.70s CPU      0.83s WALL (       1 calls)
     force_dftd3  :      0.02s CPU      0.02s WALL (       1 calls)

     Called by init_run:
     wfcinit      :      1.05s CPU      1.61s WALL (       1 calls)
     potinit      :      1.74s CPU      1.29s WALL (       1 calls)
     hinit0       :      0.69s CPU      0.56s WALL (       1 calls)

     Called by electrons:
     c_bands      :    235.92s CPU    296.55s WALL (      95 calls)
     sum_band     :     52.13s CPU     76.66s WALL (      95 calls)
     v_of_rho     :     24.13s CPU     20.04s WALL (      95 calls)
     newd         :      1.35s CPU      1.36s WALL (      95 calls)
                                        1.36s GPU  (      95 calls)
     PAW_pot      :    112.39s CPU     71.07s WALL (      95 calls)
     mix_rho      :     17.40s CPU     18.49s WALL (      95 calls)
     energy_dftd3 :      0.00s CPU      0.00s WALL (       1 calls)

     Called by c_bands:
     init_us_2    :      3.53s CPU      4.46s WALL (    3840 calls)
     cegterg      :    205.20s CPU    206.12s WALL (    1900 calls)

     Called by *egterg:
     cdiaghg      :     32.79s CPU     33.50s WALL (    8090 calls)
                                       33.44s GPU  (    8090 calls)
     h_psi        :    137.58s CPU    138.43s WALL (    8130 calls)
                                      138.04s GPU  (    8130 calls)
     s_psi        :      3.47s CPU      3.39s WALL (    8130 calls)
     g_psi        :      0.04s CPU      1.03s WALL (    6210 calls)
                                        0.99s GPU  (    6210 calls)

     Called by h_psi:
     h_psi:calbec :      0.30s CPU      5.70s WALL (    8130 calls)
                                        5.65s GPU  (    8130 calls)
     vloc_psi     :    121.67s CPU    122.29s WALL (    8130 calls)
                                      122.25s GPU  (    8130 calls)
     add_vuspsi   :      3.40s CPU      8.95s WALL (    8130 calls)
                                        8.90s GPU  (    8130 calls)

     General routines
     calbec       :      0.39s CPU      0.40s WALL (   10110 calls)
     fft          :      4.41s CPU      4.80s WALL (    1245 calls)
                                        0.36s GPU  (    1150 calls)
     ffts         :      0.95s CPU      1.72s WALL (   10905 calls)
                                        0.84s GPU  (   10810 calls)
     fftw         :      1.33s CPU    104.71s WALL (  104440 calls)
                                      104.13s GPU  (  104440 calls)
     interpolate  :      5.82s CPU      7.02s WALL (      95 calls)
     davcio       :      5.43s CPU     84.12s WALL (    7546 calls)
 
     Parallel routines
 
     PWSCF        :   7m39.00s CPU   8m21.68s WALL

 
   This run was terminated on:  22:12:36  26Sep2026            

=------------------------------------------------------------------------------=
   JOB DONE.
=------------------------------------------------------------------------------=
