
     Program PWSCF v.7.4.1 starts on 26Sep2026 at 21: 6:41 

     This program is part of the open-source Quantum ESPRESSO suite
     for quantum simulation of materials; please cite
         "P. Giannozzi et al., J. Phys.:Condens. Matter 21 395502 (2009);
         "P. Giannozzi et al., J. Phys.:Condens. Matter 29 465901 (2017);
         "P. Giannozzi et al., J. Chem. Phys. 152 154105 (2020);
          URL http://www.quantum-espresso.org", 
     in publications or presentations arising from this work. More details at
     http://www.quantum-espresso.org/quote

     Parallel version (MPI & OpenMP), running on      16 processor cores
     Number of MPI processes:                 1
     Threads/MPI process:                    16

     MPI processes distributed on     1 nodes
     83491 MiB available memory on the printing compute node when the environment starts
 
     Reading input from pw.in

     Current dimensions of program PWSCF are:
     Max number of different atomic species (ntypx) = 10
     Max number of k-points (npk) =  40000
     Max angular momentum in pseudopotentials (lmaxx) =  4
     Presently no symmetry can be used with electric field

     file C.pbe-n-kjpaw_psl.1.0.0.UPF: wavefunction(s)  2S 2P renormalized
 
     Subspace diagonalization in iterative solution of the eigenvalue problem:
     a serial algorithm will be used

 
     G-vector sticks info
     --------------------
     sticks:   dense  smooth     PW     G-vecs:    dense   smooth      PW
     Sum        3193    1273    367               699545   177041   27695
 
     Using Slab Decomposition
 


     bravais-lattice index     =            0
     lattice parameter (alat)  =       9.4208  a.u.
     unit-cell volume          =    3493.5493 (a.u.)^3
     number of atoms/cell      =           20
     number of atomic types    =            2
     number of electrons       =       260.00
     number of Kohn-Sham states=          156
     kinetic-energy cutoff     =      52.0000  Ry
     charge density cutoff     =     520.0000  Ry
     scf convergence threshold =      1.0E-08
     mixing beta               =       0.3000
     number of iterations used =            8  local-TF  mixing
     Exchange-correlation= SLA  PW   PBX  PBC
                           (   1   4   3   4   0   0   0)

     GPU acceleration is ACTIVE.  1 visible GPUs per MPI rank


     celldm(1)=   9.420781  celldm(2)=   0.000000  celldm(3)=   0.000000
     celldm(4)=   0.000000  celldm(5)=   0.000000  celldm(6)=   0.000000

     crystal axes: (cart. coord. in units of alat)
               a(1) = (   1.000000  -0.000000   0.000000 )  
               a(2) = (   0.500000   0.866025   0.000000 )  
               a(3) = (   0.000000   0.000000   4.824757 )  

     reciprocal axes: (cart. coord. in units 2 pi/alat)
               b(1) = (  1.000000 -0.577350  0.000000 )  
               b(2) = (  0.000000  1.154701 -0.000000 )  
               b(3) = ( -0.000000  0.000000  0.207264 )  


     PseudoPot. # 1 for Ag read from file:
     /home/ubuntu/wad4l/pseudo_kgy/Ag_ONCV_PBE-1.0.oncvpsp.upf
     MD5 check sum: 94f47bd0669c641108e45594df92fabc
     Pseudo is Norm-conserving, Zval = 19.0
     Generated using ONCVPSP code by D. R. Hamann
     Using radial grid of 1398 points,  6 beta functions with: 
                l(1) =   0
                l(2) =   0
                l(3) =   1
                l(4) =   1
                l(5) =   2
                l(6) =   2

     PseudoPot. # 2 for C  read from file:
     /home/ubuntu/wad4l/pseudo_kgy/C.pbe-n-kjpaw_psl.1.0.0.UPF
     MD5 check sum: 5d2aebdfa2cae82b50a7e79e9516da0f
     Pseudo is Projector augmented-wave + core cor, Zval =  4.0
     Generated using "atomic" code by A. Dal Corso  v.5.1
     Shape of augmentation charge: PSQ
     Using radial grid of 1073 points,  4 beta functions with: 
                l(1) =   0
                l(2) =   0
                l(3) =   1
                l(4) =   1
     Q(r) pseudized with 0 coefficients 


     atomic species   valence    mass     pseudopotential
     Ag               19.00   107.86820     Ag( 1.00)
     C                 4.00    12.01100     C ( 1.00)

     No symmetry found



   Cartesian axes

     site n.     atom                  positions (alat units)
         1        Ag     tau(   1) = (   0.3337695   0.5765948   0.5717001  )
         2        Ag     tau(   2) = (   0.8337695   0.8652699   0.5717001  )
         3        Ag     tau(   3) = (   0.1682532   0.2893926   1.0411950  )
         4        Ag     tau(   4) = (   0.5004501   0.2909658   0.1002956  )
         5        Ag     tau(   5) = (   0.8337695   0.2879196   0.5717001  )
         6        Ag     tau(   6) = (   0.6686160   0.5782733   1.0411961  )
         7        Ag     tau(   7) = (   0.5010597   0.2905654   1.5110489  )
         8        Ag     tau(   8) = (   1.0004501   0.5796409   0.1002956  )
         9        Ag     tau(   9) = (   1.0010502   0.5792472   1.5138803  )
        10        Ag     tau(  10) = (   0.6686118   0.0005128   1.0412001  )
        11        Ag     tau(  11) = (   1.0004501   0.0022906   0.1002956  )
        12        Ag     tau(  12) = (   1.0010511   0.0018985   1.5138552  )
        13        C      tau(  13) = (   0.7504501   0.4353033   2.2976412  )
        14        C      tau(  14) = (   1.0004501   0.5796409   2.2965301  )
        15        C      tau(  15) = (   1.0004501   0.8683160   2.2976414  )
        16        C      tau(  16) = (   1.2504501   1.0126536   2.2976378  )
        17        C      tau(  17) = (   1.2504501   0.4353033   2.2976407  )
        18        C      tau(  18) = (   1.5004501   0.5796409   2.2976372  )
        19        C      tau(  19) = (   1.5004501   0.8683160   2.2965196  )
        20        C      tau(  20) = (   1.7504501   1.0126536   2.2976374  )

     --------------------------------------------
     DFT-D3 Dispersion Correction (no 3-body):
     --------------------------------------------
       Reference C6 values for interpolation: 

         atom   Coordination number   C6
         C          0.000            98.23
         C          0.987            86.49
         C          1.998            58.72
         C          2.999            51.56
         C          3.984            36.41
         Ag         0.000           853.49
         Ag         0.968           537.23

       Values used:

         atom   Coordination number  R0_AB[au]  C6      C8
         Ag         9.086            3.147    537.23  47741.54
         Ag         9.086            3.147    537.23  47741.54
         Ag         9.082            3.147    537.23  47741.54
         Ag         6.766            3.147    537.23  47741.54
         Ag         9.086            3.147    537.23  47741.54
         Ag         9.082            3.147    537.23  47741.54
         Ag         6.804            3.147    537.23  47741.54
         Ag         6.766            3.147    537.23  47741.54
         Ag         6.767            3.147    537.23  47741.54
         Ag         9.082            3.147    537.23  47741.54
         Ag         6.766            3.147    537.23  47741.54
         Ag         6.767            3.147    537.23  47741.54
         C          3.275            2.750     49.01   1417.57
         C          3.276            2.750     49.00   1417.27
         C          3.275            2.750     49.01   1417.57
         C          3.275            2.750     49.01   1417.58
         C          3.275            2.750     49.01   1417.58
         C          3.275            2.750     49.01   1417.57
         C          3.276            2.750     49.00   1417.27
         C          3.275            2.750     49.01   1417.57

         Molecular C6 ( Ry / a.u.^6 ) =    111544.06


     number of k points=    20  Marzari-Vanderbilt smearing, width (Ry)=  0.0100
                       cart. coord. in units 2pi/alat
        k(    1) = (   0.0000000   0.0000000   0.0000000), wk =   0.0555556
        k(    2) = (   0.0000000   0.1924501   0.0000000), wk =   0.1111111
        k(    3) = (   0.0000000   0.3849002   0.0000000), wk =   0.1111111
        k(    4) = (   0.0000000  -0.5773503   0.0000000), wk =   0.0555556
        k(    5) = (   0.1666667  -0.0962250   0.0000000), wk =   0.1111111
        k(    6) = (   0.1666667   0.0962250   0.0000000), wk =   0.1111111
        k(    7) = (   0.1666667   0.2886751   0.0000000), wk =   0.1111111
        k(    8) = (   0.1666667  -0.6735753   0.0000000), wk =   0.1111111
        k(    9) = (   0.1666667  -0.4811252   0.0000000), wk =   0.1111111
        k(   10) = (   0.1666667  -0.2886751   0.0000000), wk =   0.1111111
        k(   11) = (   0.3333333  -0.1924501   0.0000000), wk =   0.1111111
        k(   12) = (   0.3333333  -0.0000000   0.0000000), wk =   0.1111111
        k(   13) = (   0.3333333   0.1924501   0.0000000), wk =   0.1111111
        k(   14) = (   0.3333333  -0.7698004   0.0000000), wk =   0.1111111
        k(   15) = (   0.3333333  -0.5773503   0.0000000), wk =   0.1111111
        k(   16) = (   0.3333333  -0.3849002   0.0000000), wk =   0.1111111
        k(   17) = (  -0.5000000   0.2886751   0.0000000), wk =   0.0555556
        k(   18) = (  -0.5000000   0.4811252   0.0000000), wk =   0.1111111
        k(   19) = (  -0.5000000   0.6735753   0.0000000), wk =   0.1111111
        k(   20) = (  -0.5000000  -0.2886751   0.0000000), wk =   0.0555556

     Dense  grid:   699545 G-vectors     FFT dimensions: (  72,  72, 360)

     Smooth grid:   177041 G-vectors     FFT dimensions: (  45,  45, 216)

     Estimated max dynamical RAM per process >       1.34 GB

     Check: negative core charge=   -0.000001

     Initial potential from superposition of free atoms

     starting charge     259.9962, renormalised to     260.0000

     negative rho (up, down):  8.984E-05 0.000E+00
 
     Adding external electric field

     Computed dipole along edir(3) : 
        Dipole               -0.0112 Ry au,         -0.0284 Debye
        Dipole field         -0.0000 Ry au, 
 
        Potential amp.        0.0035 Ry
        Total length         43.5630 bohr
 
     Starting wfcs are  152 randomized atomic wfcs +    4 random wfcs
     Checking if some PAW data can be deallocated... 

     total cpu time spent up to now is        4.1 secs

     Self-consistent Calculation

     iteration #  1     ecut=    52.00 Ry     beta= 0.30
     Davidson diagonalization with overlap
     ethr =  1.00E-02,  avg # of iterations =  5.3

     Threshold (ethr) on eigenvalues was too large:
     Diagonalizing with lowered threshold

     Davidson diagonalization with overlap
     ethr =  5.66E-04,  avg # of iterations =  2.5

     negative rho (up, down):  3.721E-08 0.000E+00
 
     Adding external electric field

     Computed dipole along edir(3) : 
        Dipole               -0.1096 Ry au,         -0.2786 Debye
        Dipole field         -0.0004 Ry au, 
 
        Potential amp.        0.0344 Ry
        Total length         43.5630 bohr
 

     total cpu time spent up to now is       14.1 secs

     total energy              =   -3596.11472845 Ry
     estimated scf accuracy    <       1.48800073 Ry

     iteration #  2     ecut=    52.00 Ry     beta= 0.30
     Davidson diagonalization with overlap
     ethr =  5.72E-04,  avg # of iterations =  1.9
 
     Adding external electric field

     Computed dipole along edir(3) : 
        Dipole               -0.4005 Ry au,         -1.0181 Debye
        Dipole field         -0.0014 Ry au, 
 
        Potential amp.        0.1255 Ry
        Total length         43.5630 bohr
 

     total cpu time spent up to now is       19.1 secs

     total energy              =   -3595.81415721 Ry
     estimated scf accuracy    <       0.86085071 Ry

     iteration #  3     ecut=    52.00 Ry     beta= 0.30
     Davidson diagonalization with overlap
     ethr =  3.31E-04,  avg # of iterations =  7.5
 
     Adding external electric field

     Computed dipole along edir(3) : 
        Dipole               -0.5887 Ry au,         -1.4964 Debye
        Dipole field         -0.0021 Ry au, 
 
        Potential amp.        0.1845 Ry
        Total length         43.5630 bohr
 

     total cpu time spent up to now is       25.1 secs

     total energy              =   -3595.87273443 Ry
     estimated scf accuracy    <       0.36210216 Ry

     iteration #  4     ecut=    52.00 Ry     beta= 0.30
     Davidson diagonalization with overlap
     ethr =  1.39E-04,  avg # of iterations =  2.6

     negative rho (up, down):  1.003E-04 0.000E+00
 
     Adding external electric field

     Computed dipole along edir(3) : 
        Dipole               -0.2625 Ry au,         -0.6672 Debye
        Dipole field         -0.0009 Ry au, 
 
        Potential amp.        0.0823 Ry
        Total length         43.5630 bohr
 

     total cpu time spent up to now is       30.3 secs

     total energy              =   -3595.87317202 Ry
     estimated scf accuracy    <       0.42875690 Ry

     iteration #  5     ecut=    52.00 Ry     beta= 0.30
     Davidson diagonalization with overlap
     ethr =  1.39E-04,  avg # of iterations =  1.0
 
     Adding external electric field

     Computed dipole along edir(3) : 
        Dipole               -0.6881 Ry au,         -1.7490 Debye
        Dipole field         -0.0025 Ry au, 
 
        Potential amp.        0.2157 Ry
        Total length         43.5630 bohr
 

     total cpu time spent up to now is       35.2 secs

     total energy              =   -3595.82786690 Ry
     estimated scf accuracy    <       0.44018787 Ry

     iteration #  6     ecut=    52.00 Ry     beta= 0.30
     Davidson diagonalization with overlap
     ethr =  1.39E-04,  avg # of iterations =  6.8
 
     Adding external electric field

     Computed dipole along edir(3) : 
        Dipole               -0.7499 Ry au,         -1.9061 Debye
        Dipole field         -0.0027 Ry au, 
 
        Potential amp.        0.2350 Ry
        Total length         43.5630 bohr
 

     total cpu time spent up to now is       40.9 secs

     total energy              =   -3595.83608764 Ry
     estimated scf accuracy    <       0.07580456 Ry

     iteration #  7     ecut=    52.00 Ry     beta= 0.30
     Davidson diagonalization with overlap
     ethr =  2.92E-05,  avg # of iterations =  4.5
 
     Adding external electric field

     Computed dipole along edir(3) : 
        Dipole               -0.6228 Ry au,         -1.5829 Debye
        Dipole field         -0.0022 Ry au, 
 
        Potential amp.        0.1952 Ry
        Total length         43.5630 bohr
 

     total cpu time spent up to now is       46.3 secs

     total energy              =   -3595.83338693 Ry
     estimated scf accuracy    <       0.05533726 Ry

     iteration #  8     ecut=    52.00 Ry     beta= 0.30
     Davidson diagonalization with overlap
     ethr =  2.13E-05,  avg # of iterations =  3.4
 
     Adding external electric field

     Computed dipole along edir(3) : 
        Dipole               -0.4308 Ry au,         -1.0949 Debye
        Dipole field         -0.0015 Ry au, 
 
        Potential amp.        0.1350 Ry
        Total length         43.5630 bohr
 

     total cpu time spent up to now is       51.5 secs

     total energy              =   -3595.82869740 Ry
     estimated scf accuracy    <       0.04557919 Ry

     iteration #  9     ecut=    52.00 Ry     beta= 0.30
     Davidson diagonalization with overlap
     ethr =  1.75E-05,  avg # of iterations =  6.8
 
     Adding external electric field

     Computed dipole along edir(3) : 
        Dipole               -0.4778 Ry au,         -1.2144 Debye
        Dipole field         -0.0017 Ry au, 
 
        Potential amp.        0.1497 Ry
        Total length         43.5630 bohr
 

     total cpu time spent up to now is       57.2 secs

     total energy              =   -3595.82555215 Ry
     estimated scf accuracy    <       0.01928925 Ry

     iteration # 10     ecut=    52.00 Ry     beta= 0.30
     Davidson diagonalization with overlap
     ethr =  7.42E-06,  avg # of iterations =  7.9

     negative rho (up, down):  1.828E-03 0.000E+00
 
     Adding external electric field

     Computed dipole along edir(3) : 
        Dipole               -0.0455 Ry au,         -0.1156 Debye
        Dipole field         -0.0002 Ry au, 
 
        Potential amp.        0.0143 Ry
        Total length         43.5630 bohr
 

     total cpu time spent up to now is       63.3 secs

     total energy              =   -3595.82163584 Ry
     estimated scf accuracy    <       0.01189514 Ry

     iteration # 11     ecut=    52.00 Ry     beta= 0.30
     Davidson diagonalization with overlap
     c_bands:  1 eigenvalues not converged
     ethr =  4.58E-06,  avg # of iterations = 10.1

     negative rho (up, down):  2.898E-03 0.000E+00
 
     Adding external electric field

     Computed dipole along edir(3) : 
        Dipole               -0.0206 Ry au,         -0.0524 Debye
        Dipole field         -0.0001 Ry au, 
 
        Potential amp.        0.0065 Ry
        Total length         43.5630 bohr
 

     total cpu time spent up to now is       69.8 secs

     total energy              =   -3595.82737667 Ry
     estimated scf accuracy    <       0.04821851 Ry

     iteration # 12     ecut=    52.00 Ry     beta= 0.30
     Davidson diagonalization with overlap
     ethr =  4.58E-06,  avg # of iterations =  3.0

     negative rho (up, down):  4.057E-03 0.000E+00
 
     Adding external electric field

     Computed dipole along edir(3) : 
        Dipole                0.0165 Ry au,          0.0420 Debye
        Dipole field          0.0001 Ry au, 
 
        Potential amp.       -0.0052 Ry
        Total length         43.5630 bohr
 

     total cpu time spent up to now is       75.1 secs

     total energy              =   -3595.82644487 Ry
     estimated scf accuracy    <       0.03867171 Ry

     iteration # 13     ecut=    52.00 Ry     beta= 0.30
     Davidson diagonalization with overlap
     ethr =  4.58E-06,  avg # of iterations =  5.1

     negative rho (up, down):  1.905E-03 0.000E+00
 
     Adding external electric field

     Computed dipole along edir(3) : 
        Dipole                0.0567 Ry au,          0.1441 Debye
        Dipole field          0.0002 Ry au, 
 
        Potential amp.       -0.0178 Ry
        Total length         43.5630 bohr
 

     total cpu time spent up to now is       80.7 secs

     total energy              =   -3595.82470636 Ry
     estimated scf accuracy    <       0.03530579 Ry

     iteration # 14     ecut=    52.00 Ry     beta= 0.30
     Davidson diagonalization with overlap
     ethr =  4.58E-06,  avg # of iterations =  5.8

     negative rho (up, down):  1.253E-03 0.000E+00
 
     Adding external electric field

     Computed dipole along edir(3) : 
        Dipole                0.0088 Ry au,          0.0224 Debye
        Dipole field          0.0000 Ry au, 
 
        Potential amp.       -0.0028 Ry
        Total length         43.5630 bohr
 

     total cpu time spent up to now is       86.3 secs

     total energy              =   -3595.82241259 Ry
     estimated scf accuracy    <       0.02486164 Ry

     iteration # 15     ecut=    52.00 Ry     beta= 0.30
     Davidson diagonalization with overlap
     ethr =  4.58E-06,  avg # of iterations =  8.9

     negative rho (up, down):  7.922E-04 0.000E+00
 
     Adding external electric field

     Computed dipole along edir(3) : 
        Dipole                0.0197 Ry au,          0.0500 Debye
        Dipole field          0.0001 Ry au, 
 
        Potential amp.       -0.0062 Ry
        Total length         43.5630 bohr
 

     total cpu time spent up to now is       92.4 secs

     total energy              =   -3595.82322714 Ry
     estimated scf accuracy    <       0.00131396 Ry

     iteration # 16     ecut=    52.00 Ry     beta= 0.30
     Davidson diagonalization with overlap
     ethr =  5.05E-07,  avg # of iterations =  3.5

     negative rho (up, down):  1.054E-03 0.000E+00
 
     Adding external electric field

     Computed dipole along edir(3) : 
        Dipole                0.0167 Ry au,          0.0424 Debye
        Dipole field          0.0001 Ry au, 
 
        Potential amp.       -0.0052 Ry
        Total length         43.5630 bohr
 

     total cpu time spent up to now is       97.7 secs

     total energy              =   -3595.82327123 Ry
     estimated scf accuracy    <       0.00018513 Ry

     iteration # 17     ecut=    52.00 Ry     beta= 0.30
     Davidson diagonalization with overlap
     ethr =  7.12E-08,  avg # of iterations =  9.8

     negative rho (up, down):  2.870E-04 0.000E+00
 
     Adding external electric field

     Computed dipole along edir(3) : 
        Dipole                0.0296 Ry au,          0.0754 Debye
        Dipole field          0.0001 Ry au, 
 
        Potential amp.       -0.0093 Ry
        Total length         43.5630 bohr
 

     total cpu time spent up to now is      103.8 secs

     total energy              =   -3595.82321480 Ry
     estimated scf accuracy    <       0.00237851 Ry

     iteration # 18     ecut=    52.00 Ry     beta= 0.30
     Davidson diagonalization with overlap
     ethr =  7.12E-08,  avg # of iterations =  6.1

     negative rho (up, down):  2.317E-04 0.000E+00
 
     Adding external electric field

     Computed dipole along edir(3) : 
        Dipole                0.0245 Ry au,          0.0622 Debye
        Dipole field          0.0001 Ry au, 
 
        Potential amp.       -0.0077 Ry
        Total length         43.5630 bohr
 

     total cpu time spent up to now is      109.5 secs

     total energy              =   -3595.82328744 Ry
     estimated scf accuracy    <       0.00027599 Ry

     iteration # 19     ecut=    52.00 Ry     beta= 0.30
     Davidson diagonalization with overlap
     ethr =  7.12E-08,  avg # of iterations =  1.2

     negative rho (up, down):  1.467E-04 0.000E+00
 
     Adding external electric field

     Computed dipole along edir(3) : 
        Dipole                0.0216 Ry au,          0.0549 Debye
        Dipole field          0.0001 Ry au, 
 
        Potential amp.       -0.0068 Ry
        Total length         43.5630 bohr
 

     total cpu time spent up to now is      114.4 secs

     total energy              =   -3595.82329088 Ry
     estimated scf accuracy    <       0.00001005 Ry

     iteration # 20     ecut=    52.00 Ry     beta= 0.30
     Davidson diagonalization with overlap
     ethr =  3.86E-09,  avg # of iterations =  1.7

     negative rho (up, down):  1.473E-04 0.000E+00
 
     Adding external electric field

     Computed dipole along edir(3) : 
        Dipole                0.0221 Ry au,          0.0561 Debye
        Dipole field          0.0001 Ry au, 
 
        Potential amp.       -0.0069 Ry
        Total length         43.5630 bohr
 

     total cpu time spent up to now is      119.4 secs

     total energy              =   -3595.82329171 Ry
     estimated scf accuracy    <       0.00000051 Ry

     iteration # 21     ecut=    52.00 Ry     beta= 0.30
     Davidson diagonalization with overlap
     ethr =  1.97E-10,  avg # of iterations =  2.0

     negative rho (up, down):  1.098E-04 0.000E+00
 
     Adding external electric field

     Computed dipole along edir(3) : 
        Dipole                0.0210 Ry au,          0.0535 Debye
        Dipole field          0.0001 Ry au, 
 
        Potential amp.       -0.0066 Ry
        Total length         43.5630 bohr
 

     total cpu time spent up to now is      124.8 secs

     total energy              =   -3595.82329215 Ry
     estimated scf accuracy    <       0.00000304 Ry

     iteration # 22     ecut=    52.00 Ry     beta= 0.30
     Davidson diagonalization with overlap
     ethr =  1.97E-10,  avg # of iterations =  2.0

     negative rho (up, down):  1.144E-04 0.000E+00
 
     Adding external electric field

     Computed dipole along edir(3) : 
        Dipole                0.0201 Ry au,          0.0512 Debye
        Dipole field          0.0001 Ry au, 
 
        Potential amp.       -0.0063 Ry
        Total length         43.5630 bohr
 

     total cpu time spent up to now is      129.9 secs

     total energy              =   -3595.82329171 Ry
     estimated scf accuracy    <       0.00001511 Ry

     iteration # 23     ecut=    52.00 Ry     beta= 0.30
     Davidson diagonalization with overlap
     ethr =  1.97E-10,  avg # of iterations =  2.0

     negative rho (up, down):  1.182E-04 0.000E+00
 
     Adding external electric field

     Computed dipole along edir(3) : 
        Dipole                0.0203 Ry au,          0.0515 Debye
        Dipole field          0.0001 Ry au, 
 
        Potential amp.       -0.0063 Ry
        Total length         43.5630 bohr
 

     total cpu time spent up to now is      134.8 secs

     total energy              =   -3595.82329203 Ry
     estimated scf accuracy    <       0.00000002 Ry

     iteration # 24     ecut=    52.00 Ry     beta= 0.30
     Davidson diagonalization with overlap
     ethr =  6.07E-12,  avg # of iterations =  2.0

     negative rho (up, down):  1.104E-04 0.000E+00
 
     Adding external electric field

     Computed dipole along edir(3) : 
        Dipole                0.0212 Ry au,          0.0540 Debye
        Dipole field          0.0001 Ry au, 
 
        Potential amp.       -0.0067 Ry
        Total length         43.5630 bohr
 

     total cpu time spent up to now is      139.8 secs

     End of self-consistent calculation

          k = 0.0000 0.0000 0.0000 ( 22161 PWs)   bands (ev):

   -86.0405 -86.0311 -86.0223 -86.0222 -86.0220 -86.0220 -85.8371 -85.8284
   -85.8241 -85.8202 -85.8150 -85.8149 -49.5505 -49.5244 -49.5239 -49.5238
   -49.5234 -49.5217 -49.5215 -49.4968 -49.4966 -49.4712 -49.4709 -49.4705
   -49.4702 -49.4658 -49.4232 -49.4227 -49.4097 -49.4095 -49.3204 -49.3202
   -49.3152 -49.3151 -49.3112 -49.3112 -49.3089 -49.3089 -49.2581 -49.2484
   -49.2462 -49.2421 -49.2368 -49.2366 -49.2287 -49.2285 -49.2212 -49.2209
   -13.2441  -8.1506  -8.1483  -8.1483  -7.0190  -7.0182  -7.0182  -1.4523
    -1.3524  -0.4880  -0.3167  -0.3167  -0.3154  -0.2175  -0.0527   0.4179
     0.4193   0.4361   0.4377   0.4381   0.4398   0.7839   0.7850   0.7867
     0.7877   0.9775   0.9808   0.9897   0.9939   1.2203   1.2775   1.2786
     1.3240   1.3263   1.3927   1.3939   1.3984   1.3996   1.4075   1.5436
     1.5445   1.5968   1.5982   1.7067   1.7070   1.7216   1.7216   1.7371
     1.7374   1.7444   1.7444   2.1675   2.1699   2.2865   2.2933   2.3172
     2.3179   2.3245   2.3251   2.4347   2.4463   2.6862   2.7264   2.7316
     2.7784   2.7826   2.9001   2.9051   2.9571   2.9574   2.9611   2.9614
     2.9638   2.9638   3.0260   3.0279   3.7227   3.7248   3.7248   5.0995
     6.3204   7.6544   7.6700   7.6700   9.4937   9.4983   9.6855   9.6860
     9.6923   9.6927   9.7063  10.1254  10.4679  10.4704  10.4757  10.4783
    10.8727  10.8786  11.4153  11.7617  12.1329  12.1333  12.1419  12.1423
    12.3668  12.3809  13.0971  13.0991

          k = 0.0000 0.1925 0.0000 ( 22089 PWs)   bands (ev):

   -86.0393 -86.0302 -86.0238 -86.0235 -86.0218 -86.0217 -85.8361 -85.8274
   -85.8245 -85.8207 -85.8156 -85.8153 -49.5474 -49.5410 -49.5359 -49.5348
   -49.5302 -49.5049 -49.4990 -49.4892 -49.4836 -49.4741 -49.4682 -49.4677
   -49.4652 -49.4634 -49.4324 -49.4268 -49.4204 -49.4124 -49.3366 -49.3313
   -49.3288 -49.3235 -49.2957 -49.2930 -49.2881 -49.2855 -49.2573 -49.2476
   -49.2464 -49.2426 -49.2397 -49.2373 -49.2370 -49.2322 -49.2316 -49.2240
   -13.0832  -9.3489  -8.5112  -8.5099  -6.3961  -6.3953  -5.5800  -1.2472
    -1.1154  -0.7937  -0.7929  -0.2673  -0.1582  -0.0392   0.1349   0.1388
     0.2651   0.3230   0.3328   0.4064   0.5430   0.6381   0.7124   0.7370
     0.7711   0.8285   0.9268   0.9476   0.9492   1.1085   1.1898   1.2153
     1.2931   1.3422   1.4083   1.4248   1.4351   1.4641   1.4911   1.5154
     1.5224   1.5514   1.5935   1.6567   1.6630   1.7237   1.7436   1.8315
     1.9225   2.0000   2.0586   2.0998   2.1074   2.2120   2.2176   2.2928
     2.3201   2.3291   2.3921   2.3996   2.4189   2.5608   2.5890   2.6056
     2.6366   2.7097   2.7650   2.7755   2.8630   2.9178   2.9697   2.9806
     3.0218   3.0516   3.1020   3.1683   3.4052   3.6235   3.6245   5.4592
     6.8466   6.9489   7.8187   7.9252   7.9267   8.0936   8.4456   8.7208
     9.0083   9.2531   9.4844   9.9259  10.3264  10.7725  10.9527  11.3170
    11.3835  11.5511  11.6136  11.9415  12.3466  12.3754  12.4228  12.5797
    13.1820  13.3196  13.5309  13.8271

          k = 0.0000 0.3849 0.0000 ( 22135 PWs)   bands (ev):

   -86.0359 -86.0279 -86.0270 -86.0247 -86.0228 -86.0219 -85.8339 -85.8254
   -85.8246 -85.8220 -85.8177 -85.8161 -49.5542 -49.5473 -49.5392 -49.5332
   -49.5262 -49.4994 -49.4912 -49.4794 -49.4773 -49.4667 -49.4644 -49.4617
   -49.4530 -49.4521 -49.4491 -49.4484 -49.4333 -49.4213 -49.3491 -49.3415
   -49.3257 -49.3180 -49.2741 -49.2717 -49.2671 -49.2663 -49.2627 -49.2610
   -49.2553 -49.2471 -49.2448 -49.2438 -49.2404 -49.2390 -49.2378 -49.2328
   -12.6025 -10.7119  -8.9081  -8.9069  -5.2702  -5.2694  -3.5242  -1.9137
    -1.9127  -0.6689  -0.4688  -0.1095  -0.0105  -0.0044   0.2230   0.2718
     0.2917   0.3019   0.3179   0.3719   0.4613   0.4792   0.5199   0.6242
     0.7007   0.7045   0.8273   0.8467   0.8617   0.9663   1.0059   1.0223
     1.1184   1.2300   1.2495   1.2943   1.3301   1.4006   1.4427   1.4649
     1.4870   1.5424   1.6588   1.6645   1.7014   1.7858   1.7996   1.8046
     1.8434   1.8690   1.8843   1.9923   2.0056   2.0555   2.0759   2.2472
     2.2621   2.3222   2.3945   2.4486   2.4884   2.4920   2.5373   2.6916
     2.7140   2.7975   2.8359   2.8685   2.9593   2.9775   2.9953   3.0632
     3.0834   3.1134   3.1789   3.2093   3.4450   3.4527   4.1419   4.7212
     5.4367   6.3061   6.7940   6.9395   7.4369   7.9375   8.0907   8.2721
     8.4671   8.4853   9.0743  10.2770  10.5811  10.7944  10.8819  10.9299
    11.4862  11.6692  12.1973  12.5282  12.9102  13.1013  13.3464  13.4571
    13.5173  13.6026  14.1070  14.4195

          k = 0.0000-0.5774 0.0000 ( 22116 PWs)   bands (ev):

   -86.0314 -86.0313 -86.0253 -86.0251 -86.0251 -86.0220 -85.8325 -85.8262
   -85.8227 -85.8210 -85.8208 -85.8164 -49.5590 -49.5520 -49.5310 -49.5307
   -49.5055 -49.5052 -49.4929 -49.4856 -49.4855 -49.4695 -49.4597 -49.4578
   -49.4575 -49.4476 -49.4475 -49.4390 -49.4358 -49.4356 -49.3536 -49.3460
   -49.3042 -49.2996 -49.2942 -49.2941 -49.2608 -49.2572 -49.2544 -49.2534
   -49.2527 -49.2474 -49.2473 -49.2471 -49.2446 -49.2419 -49.2416 -49.2382
   -11.8082 -11.8075  -9.0505  -9.0493  -4.4430  -4.4423  -2.7773  -2.7762
    -1.3607  -1.3600  -0.2633  -0.1729  -0.1066   0.1453   0.1863   0.1880
     0.2561   0.2581   0.2886   0.4035   0.4057   0.5737   0.5836   0.5853
     0.6219   0.6236   0.7117   0.7123   0.8526   0.8553   1.0148   1.0150
     1.1240   1.1351   1.1358   1.1729   1.2040   1.2068   1.3785   1.3800
     1.3994   1.4307   1.4327   1.4790   1.4853   1.7248   1.7259   1.7858
     1.7887   1.9663   2.0227   2.0268   2.0340   2.2198   2.2238   2.3245
     2.3490   2.3501   2.5865   2.6232   2.6236   2.7162   2.7166   2.8003
     2.8143   2.8155   2.9759   2.9806   2.9820   3.0672   3.1100   3.1653
     3.1670   3.1927   3.3347   3.3513   3.3631   3.3741   3.6313   3.6324
     5.2235   5.2246   6.1767   7.0048   7.4741   7.4777   7.5185   7.7288
     8.7553   8.7596   9.6908   9.6933  10.1586  10.7186  11.4304  11.6543
    11.6559  11.9507  11.9546  12.6779  12.9976  12.9990  13.2445  13.2519
    13.5509  13.5530  13.8346  13.8348

          k = 0.1667-0.0962 0.0000 ( 22089 PWs)   bands (ev):

   -86.0393 -86.0302 -86.0239 -86.0233 -86.0218 -86.0217 -85.8361 -85.8274
   -85.8245 -85.8207 -85.8156 -85.8153 -49.5474 -49.5417 -49.5357 -49.5347
   -49.5297 -49.5060 -49.4988 -49.4883 -49.4838 -49.4742 -49.4681 -49.4675
   -49.4659 -49.4629 -49.4320 -49.4272 -49.4206 -49.4123 -49.3366 -49.3312
   -49.3288 -49.3236 -49.2958 -49.2930 -49.2880 -49.2856 -49.2573 -49.2476
   -49.2464 -49.2426 -49.2397 -49.2373 -49.2370 -49.2324 -49.2316 -49.2239
   -13.0832  -9.3489  -8.5112  -8.5099  -6.3961  -6.3953  -5.5800  -1.2472
    -1.1154  -0.7937  -0.7929  -0.2678  -0.1582  -0.0389   0.1352   0.1379
     0.2674   0.3240   0.3311   0.4072   0.5403   0.6383   0.7167   0.7392
     0.7663   0.8291   0.9255   0.9453   0.9516   1.1080   1.1905   1.2165
     1.2942   1.3407   1.4097   1.4247   1.4317   1.4639   1.4892   1.5169
     1.5208   1.5517   1.5939   1.6610   1.6624   1.7237   1.7420   1.8338
     1.9240   1.9940   2.0546   2.1022   2.1076   2.2089   2.2234   2.2887
     2.3201   2.3263   2.3920   2.4041   2.4204   2.5637   2.5893   2.6077
     2.6366   2.7154   2.7605   2.7730   2.8624   2.9197   2.9690   2.9806
     3.0229   3.0497   3.1015   3.1701   3.4021   3.6235   3.6245   5.4594
     6.8465   6.9488   7.8198   7.9253   7.9267   8.0982   8.4372   8.7207
     9.0112   9.2520   9.4805   9.9259  10.3264  10.7817  10.9556  11.3118
    11.3804  11.5532  11.6136  11.9416  12.3437  12.3835  12.4260  12.5794
    13.1819  13.3140  13.5223  13.9645

          k = 0.1667 0.0962 0.0000 ( 22089 PWs)   bands (ev):

   -86.0393 -86.0302 -86.0238 -86.0234 -86.0218 -86.0217 -85.8361 -85.8274
   -85.8245 -85.8207 -85.8156 -85.8153 -49.5474 -49.5413 -49.5358 -49.5347
   -49.5300 -49.5053 -49.4989 -49.4890 -49.4836 -49.4741 -49.4681 -49.4676
   -49.4653 -49.4633 -49.4323 -49.4270 -49.4204 -49.4124 -49.3365 -49.3313
   -49.3290 -49.3234 -49.2957 -49.2931 -49.2883 -49.2853 -49.2573 -49.2476
   -49.2464 -49.2426 -49.2398 -49.2373 -49.2371 -49.2321 -49.2315 -49.2242
   -13.0832  -9.3489  -8.5112  -8.5099  -6.3961  -6.3953  -5.5800  -1.2472
    -1.1154  -0.7937  -0.7929  -0.2674  -0.1582  -0.0393   0.1348   0.1383
     0.2658   0.3238   0.3325   0.4067   0.5423   0.6383   0.7131   0.7373
     0.7697   0.8287   0.9262   0.9474   0.9501   1.1086   1.1899   1.2159
     1.2928   1.3423   1.4085   1.4242   1.4344   1.4643   1.4909   1.5175
     1.5213   1.5508   1.5935   1.6565   1.6629   1.7238   1.7435   1.8321
     1.9223   1.9996   2.0571   2.1004   2.1073   2.2120   2.2194   2.2911
     2.3201   2.3287   2.3920   2.3997   2.4188   2.5617   2.5891   2.6062
     2.6366   2.7099   2.7647   2.7751   2.8628   2.9190   2.9692   2.9802
     3.0234   3.0511   3.1017   3.1694   3.4041   3.6235   3.6245   5.4591
     6.8464   6.9489   7.8190   7.9253   7.9266   8.0950   8.4440   8.7207
     9.0076   9.2532   9.4812   9.9259  10.3264  10.7770  10.9543  11.3157
    11.3836  11.5503  11.6136  11.9415  12.3460  12.3780  12.4232  12.5795
    13.1820  13.3174  13.5323  13.8271

          k = 0.1667 0.2887 0.0000 ( 22093 PWs)   bands (ev):

   -86.0369 -86.0286 -86.0252 -86.0252 -86.0221 -86.0221 -85.8346 -85.8254
   -85.8251 -85.8217 -85.8165 -85.8164 -49.5432 -49.5429 -49.5417 -49.5379
   -49.5376 -49.4951 -49.4948 -49.4785 -49.4784 -49.4750 -49.4627 -49.4624
   -49.4550 -49.4547 -49.4470 -49.4413 -49.4320 -49.4168 -49.3387 -49.3379
   -49.3307 -49.3306 -49.2778 -49.2767 -49.2695 -49.2693 -49.2605 -49.2556
   -49.2529 -49.2470 -49.2454 -49.2435 -49.2382 -49.2379 -49.2366 -49.2293
   -12.7625  -9.9461  -9.9453  -7.7318  -6.6409  -4.5068  -4.5065  -2.0959
    -0.8592  -0.6768  -0.4730  -0.4722   0.0535   0.0777   0.0795   0.1868
     0.1882   0.2220   0.2224   0.2436   0.4168   0.5263   0.5279   0.7205
     0.7216   0.7332   0.7348   0.9015   0.9504   0.9509   1.0789   1.1174
     1.2969   1.3283   1.3320   1.4017   1.4685   1.4908   1.4935   1.5552
     1.5819   1.5827   1.6286   1.6526   1.7101   1.7318   1.7329   1.8614
     1.9444   1.9810   2.0930   2.1113   2.1154   2.1954   2.2030   2.2084
     2.3183   2.3211   2.3285   2.3871   2.3902   2.4532   2.4900   2.4926
     2.5962   2.5974   2.6721   2.6731   2.6977   2.7780   2.9633   2.9642
     3.0481   3.0968   3.0981   3.2236   3.2250   3.9100   4.3036   5.8067
     5.8070   6.0432   6.5882   6.5899   7.4396   7.7109   7.9905   7.9919
     9.6070   9.6341   9.7823   9.8062  10.3637  10.7279  10.8496  10.8548
    11.6288  11.6344  12.0030  12.3262  12.4452  12.4506  13.5582  13.5627
    13.9774  13.9786  14.2403  14.2416

          k = 0.1667-0.6736 0.0000 ( 22151 PWs)   bands (ev):

   -86.0330 -86.0287 -86.0263 -86.0261 -86.0236 -86.0224 -85.8326 -85.8257
   -85.8230 -85.8223 -85.8189 -85.8171 -49.5497 -49.5444 -49.5336 -49.5328
   -49.5259 -49.4988 -49.4953 -49.4951 -49.4743 -49.4682 -49.4639 -49.4580
   -49.4560 -49.4542 -49.4420 -49.4395 -49.4394 -49.4260 -49.3447 -49.3370
   -49.3228 -49.3152 -49.2930 -49.2852 -49.2613 -49.2602 -49.2545 -49.2536
   -49.2525 -49.2470 -49.2461 -49.2447 -49.2429 -49.2402 -49.2389 -49.2387
   -12.1248 -11.1792 -10.2509  -7.6683  -5.8228  -3.4731  -3.4052  -2.4255
    -1.3441  -0.3890  -0.1502  -0.1265  -0.0869  -0.0775  -0.0123   0.1247
     0.1471   0.1647   0.2192   0.2220   0.2448   0.3836   0.3995   0.4978
     0.5777   0.6403   0.6971   0.7519   0.7715   0.9246   0.9751   1.0115
     1.0693   1.1077   1.1315   1.2593   1.3372   1.3753   1.4420   1.4442
     1.4914   1.5121   1.5799   1.7032   1.8017   1.8678   1.8814   1.9388
     1.9854   2.0247   2.0397   2.0404   2.1444   2.1988   2.2011   2.2153
     2.2633   2.3316   2.4120   2.5040   2.5450   2.5499   2.6527   2.6615
     2.6867   2.7629   2.8589   2.9139   2.9273   2.9444   2.9791   3.0068
     3.0520   3.0866   3.1100   3.1311   3.2252   3.8181   4.4548   4.6989
     4.7327   4.9254   5.6807   6.0618   6.9976   7.1204   7.2832   8.3059
     8.9746   9.0816  10.3240  10.5811  10.7040  11.2292  11.2646  11.5360
    11.7808  11.9743  12.4892  12.7296  12.7754  13.1131  13.1504  13.1955
    13.8108  13.8668  13.9054  14.1611

          k = 0.1667-0.4811 0.0000 ( 22151 PWs)   bands (ev):

   -86.0330 -86.0287 -86.0263 -86.0261 -86.0237 -86.0224 -85.8326 -85.8257
   -85.8230 -85.8223 -85.8189 -85.8171 -49.5497 -49.5443 -49.5337 -49.5328
   -49.5259 -49.4986 -49.4953 -49.4951 -49.4743 -49.4681 -49.4637 -49.4581
   -49.4560 -49.4543 -49.4422 -49.4395 -49.4393 -49.4259 -49.3447 -49.3370
   -49.3229 -49.3150 -49.2929 -49.2854 -49.2613 -49.2602 -49.2545 -49.2535
   -49.2528 -49.2470 -49.2462 -49.2447 -49.2429 -49.2401 -49.2387 -49.2387
   -12.1248 -11.1792 -10.2509  -7.6683  -5.8228  -3.4731  -3.4052  -2.4255
    -1.3441  -0.3890  -0.1503  -0.1272  -0.0871  -0.0776  -0.0119   0.1257
     0.1471   0.1644   0.2179   0.2217   0.2452   0.3873   0.3994   0.4980
     0.5795   0.6399   0.6951   0.7504   0.7713   0.9243   0.9752   1.0115
     1.0699   1.1083   1.1342   1.2579   1.3360   1.3752   1.4387   1.4422
     1.4867   1.5144   1.5802   1.7064   1.8045   1.8731   1.8824   1.9353
     1.9827   2.0257   2.0407   2.0416   2.1427   2.1964   2.2003   2.2148
     2.2615   2.3337   2.4131   2.5057   2.5460   2.5507   2.6546   2.6621
     2.6834   2.7611   2.8568   2.9141   2.9275   2.9449   2.9797   3.0090
     3.0525   3.0866   3.1110   3.1306   3.2248   3.8183   4.4535   4.6989
     4.7305   4.9254   5.6808   6.0636   6.9985   7.1203   7.2832   8.3051
     8.9746   9.0819  10.3240  10.5811  10.7038  11.2293  11.2645  11.5359
    11.7808  11.9742  12.4888  12.7309  12.7755  13.1115  13.1508  13.1956
    13.8108  13.8668  13.9079  14.1584

          k = 0.1667-0.2887 0.0000 ( 22093 PWs)   bands (ev):

   -86.0369 -86.0286 -86.0253 -86.0252 -86.0221 -86.0220 -85.8346 -85.8254
   -85.8251 -85.8217 -85.8165 -85.8164 -49.5435 -49.5429 -49.5417 -49.5377
   -49.5375 -49.4957 -49.4947 -49.4781 -49.4779 -49.4747 -49.4632 -49.4627
   -49.4548 -49.4545 -49.4469 -49.4415 -49.4323 -49.4167 -49.3388 -49.3380
   -49.3307 -49.3306 -49.2777 -49.2767 -49.2695 -49.2694 -49.2604 -49.2556
   -49.2532 -49.2470 -49.2454 -49.2435 -49.2382 -49.2379 -49.2368 -49.2290
   -12.7625  -9.9461  -9.9453  -7.7318  -6.6409  -4.5068  -4.5065  -2.0959
    -0.8592  -0.6770  -0.4730  -0.4722   0.0518   0.0776   0.0795   0.1865
     0.1880   0.2223   0.2227   0.2453   0.4192   0.5274   0.5299   0.7180
     0.7202   0.7327   0.7341   0.9012   0.9503   0.9533   1.0779   1.1170
     1.2969   1.3267   1.3302   1.4002   1.4686   1.4894   1.4937   1.5550
     1.5792   1.5825   1.6298   1.6523   1.7075   1.7370   1.7381   1.8613
     1.9441   1.9810   2.0927   2.1100   2.1143   2.1947   2.2021   2.2089
     2.3182   2.3211   2.3274   2.3868   2.3901   2.4568   2.4932   2.4958
     2.5966   2.5989   2.6678   2.6710   2.7028   2.7752   2.9634   2.9646
     3.0480   3.0955   3.0981   3.2236   3.2255   3.9074   4.3036   5.8067
     5.8073   6.0440   6.5872   6.5900   7.4396   7.7111   7.9907   7.9933
     9.6070   9.6341   9.7818   9.8057  10.3637  10.7278  10.8499  10.8557
    11.6274  11.6333  12.0030  12.3265  12.4457  12.4572  13.5508  13.5617
    13.9772  13.9784  14.2380  14.2409

          k = 0.3333-0.1925 0.0000 ( 22135 PWs)   bands (ev):

   -86.0359 -86.0279 -86.0270 -86.0246 -86.0227 -86.0220 -85.8339 -85.8254
   -85.8246 -85.8220 -85.8177 -85.8161 -49.5548 -49.5473 -49.5393 -49.5329
   -49.5256 -49.5004 -49.4900 -49.4789 -49.4776 -49.4668 -49.4644 -49.4620
   -49.4532 -49.4518 -49.4490 -49.4483 -49.4337 -49.4212 -49.3492 -49.3414
   -49.3257 -49.3181 -49.2741 -49.2716 -49.2670 -49.2662 -49.2628 -49.2611
   -49.2553 -49.2471 -49.2448 -49.2438 -49.2404 -49.2391 -49.2378 -49.2327
   -12.6025 -10.7119  -8.9081  -8.9069  -5.2702  -5.2694  -3.5242  -1.9137
    -1.9127  -0.6689  -0.4691  -0.1094  -0.0099  -0.0044   0.2208   0.2734
     0.2941   0.3019   0.3168   0.3748   0.4587   0.4778   0.5209   0.6232
     0.7022   0.7045   0.8262   0.8451   0.8602   0.9664   1.0117   1.0186
     1.1207   1.2327   1.2477   1.2950   1.3282   1.4011   1.4459   1.4582
     1.4870   1.5447   1.6574   1.6617   1.7015   1.7851   1.7983   1.8054
     1.8428   1.8690   1.8762   1.9963   2.0123   2.0570   2.0755   2.2463
     2.2653   2.3226   2.3973   2.4495   2.4884   2.4913   2.5362   2.6870
     2.7099   2.7988   2.8398   2.8699   2.9598   2.9764   2.9967   3.0640
     3.0802   3.1156   3.1811   3.2077   3.4450   3.4528   4.1393   4.7212
     5.4375   6.3064   6.7995   6.9382   7.4221   7.9448   8.0904   8.2705
     8.4671   8.4852   9.0745  10.2852  10.5811  10.7942  10.8786  10.9299
    11.4853  11.6806  12.1973  12.5283  12.8973  13.1016  13.3459  13.4574
    13.5203  13.5996  14.1071  14.4174

          k = 0.3333-0.0000 0.0000 ( 22093 PWs)   bands (ev):

   -86.0369 -86.0286 -86.0253 -86.0252 -86.0221 -86.0221 -85.8346 -85.8254
   -85.8251 -85.8217 -85.8165 -85.8164 -49.5435 -49.5431 -49.5418 -49.5376
   -49.5374 -49.4957 -49.4949 -49.4779 -49.4777 -49.4746 -49.4632 -49.4628
   -49.4548 -49.4545 -49.4469 -49.4414 -49.4324 -49.4168 -49.3388 -49.3379
   -49.3308 -49.3306 -49.2778 -49.2767 -49.2696 -49.2693 -49.2605 -49.2556
   -49.2530 -49.2470 -49.2454 -49.2435 -49.2382 -49.2379 -49.2366 -49.2292
   -12.7625  -9.9461  -9.9453  -7.7318  -6.6409  -4.5068  -4.5065  -2.0959
    -0.8592  -0.6771  -0.4730  -0.4722   0.0512   0.0775   0.0793   0.1866
     0.1881   0.2225   0.2229   0.2455   0.4192   0.5277   0.5301   0.7180
     0.7198   0.7327   0.7341   0.9023   0.9510   0.9538   1.0780   1.1169
     1.2970   1.3251   1.3288   1.4007   1.4687   1.4903   1.4953   1.5543
     1.5790   1.5825   1.6288   1.6524   1.7074   1.7361   1.7373   1.8613
     1.9442   1.9810   2.0939   2.1099   2.1139   2.1941   2.2015   2.2088
     2.3181   2.3210   2.3274   2.3869   2.3902   2.4563   2.4935   2.4960
     2.5976   2.5994   2.6679   2.6706   2.7033   2.7747   2.9631   2.9641
     3.0493   3.0956   3.0977   3.2248   3.2259   3.9064   4.3036   5.8069
     5.8074   6.0437   6.5872   6.5894   7.4396   7.7107   7.9903   7.9931
     9.6067   9.6339   9.7808   9.8048  10.3637  10.7279  10.8522  10.8565
    11.6277  11.6337  12.0031  12.3264  12.4485  12.4572  13.5507  13.5623
    13.9772  13.9784  14.2383  14.2404

          k = 0.3333 0.1925 0.0000 ( 22135 PWs)   bands (ev):

   -86.0359 -86.0279 -86.0270 -86.0247 -86.0228 -86.0219 -85.8339 -85.8254
   -85.8246 -85.8220 -85.8177 -85.8161 -49.5544 -49.5473 -49.5393 -49.5331
   -49.5260 -49.4997 -49.4910 -49.4793 -49.4773 -49.4667 -49.4644 -49.4617
   -49.4530 -49.4521 -49.4490 -49.4483 -49.4335 -49.4213 -49.3491 -49.3416
   -49.3258 -49.3179 -49.2740 -49.2718 -49.2672 -49.2664 -49.2625 -49.2608
   -49.2553 -49.2471 -49.2448 -49.2438 -49.2402 -49.2390 -49.2379 -49.2330
   -12.6025 -10.7119  -8.9081  -8.9069  -5.2702  -5.2694  -3.5242  -1.9137
    -1.9127  -0.6689  -0.4690  -0.1094  -0.0103  -0.0045   0.2224   0.2725
     0.2928   0.3019   0.3178   0.3723   0.4605   0.4791   0.5198   0.6243
     0.7007   0.7045   0.8272   0.8464   0.8618   0.9663   1.0065   1.0218
     1.1189   1.2296   1.2484   1.2946   1.3296   1.4007   1.4433   1.4635
     1.4870   1.5444   1.6583   1.6629   1.7013   1.7857   1.8000   1.8048
     1.8434   1.8690   1.8837   1.9919   2.0058   2.0558   2.0769   2.2475
     2.2617   2.3227   2.3945   2.4489   2.4882   2.4913   2.5372   2.6919
     2.7136   2.7976   2.8366   2.8688   2.9590   2.9772   2.9966   3.0629
     3.0827   3.1139   3.1804   3.2091   3.4450   3.4528   4.1409   4.7213
     5.4370   6.3057   6.7963   6.9391   7.4346   7.9365   8.0902   8.2675
     8.4671   8.4855   9.0740  10.2822  10.5811  10.7945  10.8825  10.9299
    11.4852  11.6725  12.1974  12.5281  12.9124  13.1011  13.3481  13.4570
    13.5147  13.6042  14.1071  14.4196

          k = 0.3333-0.7698 0.0000 ( 22151 PWs)   bands (ev):

   -86.0330 -86.0287 -86.0263 -86.0261 -86.0236 -86.0225 -85.8326 -85.8257
   -85.8230 -85.8223 -85.8189 -85.8171 -49.5499 -49.5444 -49.5336 -49.5327
   -49.5257 -49.4988 -49.4954 -49.4949 -49.4743 -49.4683 -49.4639 -49.4579
   -49.4560 -49.4543 -49.4420 -49.4396 -49.4393 -49.4260 -49.3446 -49.3371
   -49.3229 -49.3150 -49.2931 -49.2851 -49.2613 -49.2602 -49.2545 -49.2534
   -49.2527 -49.2470 -49.2460 -49.2447 -49.2429 -49.2401 -49.2390 -49.2388
   -12.1248 -11.1792 -10.2509  -7.6683  -5.8228  -3.4731  -3.4052  -2.4255
    -1.3441  -0.3890  -0.1500  -0.1265  -0.0865  -0.0775  -0.0126   0.1243
     0.1471   0.1644   0.2191   0.2229   0.2446   0.3839   0.3996   0.4980
     0.5778   0.6404   0.6969   0.7517   0.7711   0.9243   0.9751   1.0115
     1.0696   1.1072   1.1318   1.2589   1.3380   1.3746   1.4419   1.4443
     1.4904   1.5130   1.5791   1.7030   1.8021   1.8671   1.8815   1.9388
     1.9853   2.0247   2.0398   2.0405   2.1453   2.1986   2.2016   2.2157
     2.2632   2.3318   2.4117   2.5041   2.5450   2.5499   2.6532   2.6614
     2.6866   2.7628   2.8591   2.9137   2.9269   2.9440   2.9795   3.0077
     3.0518   3.0878   3.1098   3.1313   3.2246   3.8180   4.4554   4.6989
     4.7323   4.9262   5.6793   6.0613   6.9975   7.1200   7.2832   8.3056
     8.9726   9.0815  10.3240  10.5844  10.7025  11.2292  11.2653  11.5361
    11.7808  11.9777  12.4889  12.7303  12.7755  13.1120  13.1504  13.1977
    13.8114  13.8668  13.9048  14.1534

          k = 0.3333-0.5774 0.0000 ( 22161 PWs)   bands (ev):

   -86.0294 -86.0294 -86.0294 -86.0240 -86.0240 -86.0239 -85.8320 -85.8247
   -85.8246 -85.8196 -85.8194 -85.8193 -49.5340 -49.5339 -49.5335 -49.5277
   -49.5273 -49.5272 -49.4942 -49.4941 -49.4938 -49.4618 -49.4616 -49.4615
   -49.4506 -49.4505 -49.4503 -49.4315 -49.4315 -49.4315 -49.3244 -49.3243
   -49.3209 -49.3156 -49.3155 -49.3153 -49.2542 -49.2540 -49.2539 -49.2507
   -49.2461 -49.2460 -49.2455 -49.2454 -49.2452 -49.2408 -49.2405 -49.2404
   -11.3364 -11.3364 -11.3354  -6.4862  -6.4862  -4.3086  -1.7103  -1.7094
    -1.7094  -0.3098  -0.3098  -0.3093  -0.0476  -0.0470  -0.0461  -0.0118
    -0.0112  -0.0102   0.1677   0.1690   0.1699   0.3433   0.3441   0.3451
     0.5095   0.5108   0.5111   0.7589   0.7593   0.7610   0.8306   0.8308
     0.8348   1.2059   1.2069   1.2086   1.4048   1.4058   1.4098   1.5110
     1.5121   1.5152   1.6287   1.6329   1.6336   2.0105   2.0135   2.0168
     2.0515   2.0569   2.0576   2.3793   2.3800   2.3832   2.4514   2.4516
     2.4527   2.6366   2.6382   2.6390   2.6955   2.6967   2.6973   2.7618
     2.7626   2.7633   2.8589   2.8590   2.8599   2.8952   2.8954   2.8963
     3.0977   3.0997   3.1003   3.1366   3.1375   3.1394   3.9046   3.9074
     3.9087   5.6944   5.6958   5.6994   6.0193   6.0193   8.0100   8.0138
     8.0145  10.4086  10.4097  10.4134  12.2031  12.2032  12.2095  12.2646
    12.2670  12.2672  12.4931  12.4939  12.4965  12.9580  12.9589  12.9602
    13.6817  13.6825  13.6850  13.9780

          k = 0.3333-0.3849 0.0000 ( 22151 PWs)   bands (ev):

   -86.0330 -86.0288 -86.0262 -86.0261 -86.0236 -86.0225 -85.8326 -85.8257
   -85.8230 -85.8223 -85.8189 -85.8171 -49.5503 -49.5443 -49.5337 -49.5327
   -49.5255 -49.4984 -49.4957 -49.4943 -49.4745 -49.4686 -49.4638 -49.4579
   -49.4560 -49.4544 -49.4422 -49.4395 -49.4393 -49.4259 -49.3447 -49.3369
   -49.3229 -49.3151 -49.2929 -49.2854 -49.2612 -49.2602 -49.2545 -49.2537
   -49.2526 -49.2470 -49.2462 -49.2447 -49.2430 -49.2401 -49.2387 -49.2386
   -12.1248 -11.1792 -10.2509  -7.6683  -5.8228  -3.4731  -3.4052  -2.4255
    -1.3441  -0.3889  -0.1501  -0.1272  -0.0859  -0.0777  -0.0121   0.1242
     0.1471   0.1640   0.2177   0.2236   0.2437   0.3885   0.3979   0.5003
     0.5794   0.6391   0.6956   0.7498   0.7695   0.9235   0.9750   1.0115
     1.0707   1.1122   1.1311   1.2597   1.3379   1.3764   1.4387   1.4451
     1.4831   1.5109   1.5772   1.7068   1.8072   1.8638   1.8818   1.9352
     1.9887   2.0281   2.0388   2.0402   2.1453   2.1968   2.1997   2.2178
     2.2660   2.3336   2.4101   2.5063   2.5457   2.5512   2.6522   2.6617
     2.6835   2.7605   2.8587   2.9142   2.9255   2.9429   2.9802   3.0087
     3.0532   3.0878   3.1121   3.1310   3.2242   3.8181   4.4554   4.6989
     4.7299   4.9270   5.6761   6.0611   6.9985   7.1240   7.2832   8.3058
     8.9714   9.0818  10.3241  10.5857  10.7026  11.2293  11.2621  11.5359
    11.7808  11.9857  12.4890  12.7303  12.7755  13.1120  13.1509  13.1848
    13.8093  13.8668  13.9049  14.1574

          k =-0.5000 0.2887 0.0000 ( 22116 PWs)   bands (ev):

   -86.0314 -86.0314 -86.0251 -86.0251 -86.0250 -86.0222 -85.8325 -85.8262
   -85.8227 -85.8210 -85.8208 -85.8164 -49.5595 -49.5520 -49.5310 -49.5308
   -49.5048 -49.5046 -49.4917 -49.4860 -49.4859 -49.4704 -49.4594 -49.4578
   -49.4575 -49.4479 -49.4477 -49.4390 -49.4357 -49.4354 -49.3536 -49.3459
   -49.3042 -49.2995 -49.2943 -49.2942 -49.2608 -49.2572 -49.2544 -49.2536
   -49.2527 -49.2473 -49.2473 -49.2470 -49.2446 -49.2419 -49.2416 -49.2381
   -11.8082 -11.8075  -9.0505  -9.0493  -4.4430  -4.4423  -2.7773  -2.7762
    -1.3607  -1.3600  -0.2632  -0.1717  -0.1063   0.1441   0.1856   0.1872
     0.2562   0.2582   0.2870   0.4072   0.4093   0.5720   0.5814   0.5832
     0.6196   0.6212   0.7154   0.7159   0.8524   0.8552   1.0148   1.0150
     1.1298   1.1300   1.1321   1.1720   1.2041   1.2069   1.3821   1.3831
     1.4013   1.4300   1.4310   1.4768   1.4835   1.7227   1.7237   1.7847
     1.7876   1.9638   2.0236   2.0296   2.0336   2.2212   2.2252   2.3327
     2.3512   2.3523   2.5879   2.6194   2.6199   2.7128   2.7132   2.7971
     2.8167   2.8179   2.9762   2.9817   2.9831   3.0689   3.1077   3.1654
     3.1671   3.1948   3.3345   3.3510   3.3631   3.3742   3.6318   3.6330
     5.2218   5.2230   6.1818   6.9880   7.4744   7.4779   7.5282   7.7276
     8.7553   8.7596   9.6904   9.6929  10.1666  10.7147  11.4427  11.6543
    11.6559  11.9507  11.9546  12.6634  12.9977  12.9991  13.2446  13.2521
    13.5509  13.5531  13.8346  13.8348

          k =-0.5000 0.4811 0.0000 ( 22151 PWs)   bands (ev):

   -86.0330 -86.0287 -86.0262 -86.0261 -86.0236 -86.0225 -85.8326 -85.8257
   -85.8230 -85.8223 -85.8189 -85.8171 -49.5503 -49.5443 -49.5338 -49.5327
   -49.5256 -49.4982 -49.4957 -49.4944 -49.4744 -49.4685 -49.4637 -49.4579
   -49.4561 -49.4544 -49.4423 -49.4394 -49.4393 -49.4259 -49.3447 -49.3369
   -49.3228 -49.3152 -49.2930 -49.2853 -49.2613 -49.2602 -49.2545 -49.2537
   -49.2525 -49.2470 -49.2461 -49.2447 -49.2430 -49.2402 -49.2387 -49.2387
   -12.1248 -11.1792 -10.2509  -7.6683  -5.8228  -3.4731  -3.4052  -2.4255
    -1.3441  -0.3889  -0.1502  -0.1272  -0.0859  -0.0783  -0.0120   0.1248
     0.1471   0.1641   0.2170   0.2232   0.2438   0.3895   0.3980   0.5003
     0.5799   0.6390   0.6958   0.7489   0.7695   0.9237   0.9750   1.0115
     1.0712   1.1134   1.1321   1.2583   1.3374   1.3760   1.4364   1.4450
     1.4831   1.5123   1.5767   1.7080   1.8060   1.8639   1.8816   1.9349
     1.9894   2.0281   2.0389   2.0400   2.1450   2.1973   2.1986   2.2174
     2.2661   2.3342   2.4103   2.5066   2.5458   2.5513   2.6524   2.6618
     2.6834   2.7598   2.8590   2.9145   2.9256   2.9427   2.9787   3.0090
     3.0538   3.0881   3.1130   3.1308   3.2252   3.8182   4.4548   4.6989
     4.7293   4.9270   5.6761   6.0613   6.9983   7.1240   7.2832   8.3058
     8.9713   9.0811  10.3241  10.5857  10.7038  11.2292  11.2621  11.5360
    11.7808  11.9857  12.4892  12.7296  12.7756  13.1132  13.1506  13.1848
    13.8093  13.8668  13.9056  14.1574

          k =-0.5000 0.6736 0.0000 ( 22151 PWs)   bands (ev):

   -86.0330 -86.0287 -86.0263 -86.0261 -86.0236 -86.0224 -85.8326 -85.8257
   -85.8230 -85.8223 -85.8189 -85.8171 -49.5499 -49.5443 -49.5338 -49.5328
   -49.5258 -49.4984 -49.4953 -49.4951 -49.4743 -49.4681 -49.4637 -49.4580
   -49.4560 -49.4544 -49.4423 -49.4395 -49.4393 -49.4260 -49.3446 -49.3371
   -49.3229 -49.3150 -49.2930 -49.2852 -49.2613 -49.2602 -49.2545 -49.2534
   -49.2528 -49.2470 -49.2460 -49.2447 -49.2429 -49.2401 -49.2388 -49.2388
   -12.1248 -11.1792 -10.2509  -7.6683  -5.8228  -3.4731  -3.4052  -2.4255
    -1.3441  -0.3889  -0.1501  -0.1272  -0.0867  -0.0782  -0.0121   0.1258
     0.1471   0.1641   0.2170   0.2222   0.2451   0.3885   0.3995   0.4982
     0.5801   0.6400   0.6951   0.7493   0.7708   0.9242   0.9753   1.0115
     1.0707   1.1090   1.1355   1.2561   1.3364   1.3741   1.4355   1.4429
     1.4858   1.5167   1.5788   1.7075   1.8037   1.8726   1.8823   1.9350
     1.9833   2.0257   2.0407   2.0417   2.1433   2.1965   2.1999   2.2149
     2.2614   2.3345   2.4130   2.5061   2.5462   2.5508   2.6552   2.6621
     2.6832   2.7603   2.8574   2.9142   2.9271   2.9442   2.9786   3.0102
     3.0529   3.0880   3.1116   3.1305   3.2252   3.8183   4.4536   4.6989
     4.7295   4.9261   5.6795   6.0632   6.9981   7.1199   7.2832   8.3048
     8.9725   9.0810  10.3240  10.5845  10.7035  11.2292  11.2653  11.5361
    11.7808  11.9776  12.4887  12.7309  12.7756  13.1117  13.1505  13.1978
    13.8114  13.8668  13.9079  14.1582

          k =-0.5000-0.2887 0.0000 ( 22116 PWs)   bands (ev):

   -86.0314 -86.0313 -86.0252 -86.0251 -86.0251 -86.0221 -85.8325 -85.8262
   -85.8227 -85.8210 -85.8208 -85.8164 -49.5592 -49.5520 -49.5310 -49.5307
   -49.5053 -49.5050 -49.4927 -49.4857 -49.4855 -49.4697 -49.4595 -49.4578
   -49.4575 -49.4477 -49.4476 -49.4390 -49.4358 -49.4356 -49.3535 -49.3461
   -49.3043 -49.2997 -49.2941 -49.2939 -49.2610 -49.2571 -49.2543 -49.2533
   -49.2526 -49.2475 -49.2474 -49.2471 -49.2445 -49.2419 -49.2416 -49.2383
   -11.8082 -11.8075  -9.0505  -9.0493  -4.4430  -4.4423  -2.7773  -2.7762
    -1.3607  -1.3600  -0.2631  -0.1725  -0.1067   0.1451   0.1863   0.1881
     0.2561   0.2581   0.2886   0.4047   0.4068   0.5737   0.5828   0.5845
     0.6211   0.6228   0.7125   0.7131   0.8524   0.8552   1.0148   1.0150
     1.1245   1.1343   1.1350   1.1711   1.2040   1.2068   1.3787   1.3802
     1.4003   1.4298   1.4326   1.4797   1.4853   1.7236   1.7247   1.7872
     1.7901   1.9661   2.0220   2.0262   2.0332   2.2206   2.2245   2.3248
     2.3497   2.3508   2.5867   2.6228   2.6231   2.7158   2.7163   2.8016
     2.8146   2.8157   2.9758   2.9818   2.9833   3.0668   3.1092   3.1652
     3.1669   3.1929   3.3345   3.3516   3.3631   3.3742   3.6314   3.6326
     5.2227   5.2239   6.1795   7.0026   7.4737   7.4773   7.5168   7.7245
     8.7553   8.7596   9.6901   9.6927  10.1638  10.7196  11.4338  11.6542
    11.6558  11.9508  11.9548  12.6805  12.9976  12.9990  13.2446  13.2521
    13.5506  13.5528  13.8346  13.8348

     the Fermi energy is     6.0510 ev

!    total energy              =   -3595.82329203 Ry
     estimated scf accuracy    <          9.7E-09 Ry
     smearing contrib. (-TS)   =      -0.00106046 Ry
     internal energy E=F+TS    =   -3595.82223157 Ry

     The total energy is F=E-TS. E is the sum of the following terms:
     one-electron contribution =  -23327.32152646 Ry
     hartree contribution      =   11693.78737570 Ry
     xc contribution           =    -362.12022300 Ry
     ewald contribution        =    8449.64596163 Ry
     DFT-D3 Dispersion         =      -0.48675301 Ry
     electric field correction =       0.00000162 Ry
     one-center paw contrib.   =     -49.32706805 Ry

     convergence has been achieved in  24 iterations

     negative rho (up, down):  1.104E-04 0.000E+00

     Forces acting on atoms (cartesian axes, Ry/au):

     atom    1 type  1   force =     0.00017269    0.00052137    0.00190320
     atom    2 type  1   force =     0.00017418    0.00054878    0.00189916
     atom    3 type  1   force =    -0.00032460   -0.00004532   -0.00097083
     atom    4 type  1   force =     0.00000361   -0.00034228   -0.00079816
     atom    5 type  1   force =     0.00014885    0.00053389    0.00190192
     atom    6 type  1   force =    -0.00021789    0.00001482   -0.00096954
     atom    7 type  1   force =     0.00008426   -0.00012222    0.00476049
     atom    8 type  1   force =     0.00000404   -0.00034252   -0.00078954
     atom    9 type  1   force =     0.00009280   -0.00012475    0.00334231
     atom   10 type  1   force =    -0.00022171   -0.00010838   -0.00095901
     atom   11 type  1   force =     0.00000383   -0.00034264   -0.00078964
     atom   12 type  1   force =     0.00009226   -0.00012663    0.00335728
     atom   13 type  2   force =    -0.00022371   -0.00013595   -0.00232367
     atom   14 type  2   force =    -0.00000096   -0.00000994    0.00100599
     atom   15 type  2   force =    -0.00000411    0.00025058   -0.00232403
     atom   16 type  2   force =    -0.00022198    0.00011999   -0.00231731
     atom   17 type  2   force =     0.00022084   -0.00013300   -0.00232289
     atom   18 type  2   force =    -0.00000233   -0.00026630   -0.00231585
     atom   19 type  2   force =    -0.00000223   -0.00000623    0.00102639
     atom   20 type  2   force =     0.00022215    0.00011673   -0.00231627

     Total force =     0.009847     Total SCF correction =     0.001046
     SCF correction compared to forces is large: reduce conv_thr to get better values

     Writing all to output data dir ./tmp/V2_bridge_Ed_p06.save/ :
     XML data file, charge density, pseudopotentials, collected wavefunctions
 
     init_run     :      3.67s CPU      3.84s WALL (       1 calls)
     electrons    :    125.04s CPU    135.77s WALL (       1 calls)
     forces       :      0.69s CPU      0.85s WALL (       1 calls)
     force_dftd3  :      0.04s CPU      0.03s WALL (       1 calls)

     Called by init_run:
     wfcinit      :      1.04s CPU      1.61s WALL (       1 calls)
     potinit      :      1.76s CPU      1.31s WALL (       1 calls)
     hinit0       :      0.55s CPU      0.50s WALL (       1 calls)

     Called by electrons:
     c_bands      :     67.84s CPU     83.66s WALL (      25 calls)
     sum_band     :     13.72s CPU     20.25s WALL (      25 calls)
     v_of_rho     :      6.44s CPU      5.39s WALL (      25 calls)
     newd         :      0.36s CPU      0.38s WALL (      25 calls)
                                        0.38s GPU  (      25 calls)
     PAW_pot      :     31.44s CPU     19.77s WALL (      25 calls)
     mix_rho      :      4.21s CPU      4.50s WALL (      25 calls)
     energy_dftd3 :      0.00s CPU      0.00s WALL (       1 calls)

     Called by c_bands:
     init_us_2    :      0.96s CPU      1.22s WALL (    1040 calls)
     cegterg      :     59.72s CPU     59.97s WALL (     500 calls)

     Called by *egterg:
     cdiaghg      :     10.77s CPU     11.04s WALL (    2749 calls)
                                       11.02s GPU  (    2749 calls)
     h_psi        :     38.45s CPU     38.67s WALL (    2789 calls)
                                       38.57s GPU  (    2789 calls)
     s_psi        :      1.12s CPU      1.09s WALL (    2789 calls)
     g_psi        :      0.01s CPU      0.30s WALL (    2269 calls)
                                        0.28s GPU  (    2269 calls)

     Called by h_psi:
     h_psi:calbec :      0.11s CPU      1.66s WALL (    2789 calls)
                                        1.65s GPU  (    2789 calls)
     vloc_psi     :     33.66s CPU     33.81s WALL (    2789 calls)
                                       33.80s GPU  (    2789 calls)
     add_vuspsi   :      1.16s CPU      2.76s WALL (    2789 calls)
                                        2.75s GPU  (    2789 calls)

     General routines
     calbec       :      0.13s CPU      0.13s WALL (    3369 calls)
     fft          :      1.16s CPU      1.26s WALL (     335 calls)
                                        0.10s GPU  (     310 calls)
     ffts         :      0.24s CPU      0.41s WALL (    2475 calls)
                                        0.19s GPU  (    2450 calls)
     fftw         :      0.38s CPU     28.65s WALL (   29342 calls)
                                       28.48s GPU  (   29342 calls)
     interpolate  :      1.52s CPU      1.82s WALL (      25 calls)
     davcio       :      1.65s CPU     22.93s WALL (    1946 calls)
 
     Parallel routines
 
     PWSCF        :   2m11.30s CPU   2m22.72s WALL

 
   This run was terminated on:  21: 9: 3  26Sep2026            

=------------------------------------------------------------------------------=
   JOB DONE.
=------------------------------------------------------------------------------=
