
     Program PWSCF v.7.4.1 starts on 26Sep2026 at 20: 2: 1 

     This program is part of the open-source Quantum ESPRESSO suite
     for quantum simulation of materials; please cite
         "P. Giannozzi et al., J. Phys.:Condens. Matter 21 395502 (2009);
         "P. Giannozzi et al., J. Phys.:Condens. Matter 29 465901 (2017);
         "P. Giannozzi et al., J. Chem. Phys. 152 154105 (2020);
          URL http://www.quantum-espresso.org", 
     in publications or presentations arising from this work. More details at
     http://www.quantum-espresso.org/quote

     Parallel version (MPI & OpenMP), running on      16 processor cores
     Number of MPI processes:                 1
     Threads/MPI process:                    16

     MPI processes distributed on     1 nodes
     83876 MiB available memory on the printing compute node when the environment starts
 
     Reading input from pw.in

     Current dimensions of program PWSCF are:
     Max number of different atomic species (ntypx) = 10
     Max number of k-points (npk) =  40000
     Max angular momentum in pseudopotentials (lmaxx) =  4
     Presently no symmetry can be used with electric field

     file C.pbe-n-kjpaw_psl.1.0.0.UPF: wavefunction(s)  2S 2P renormalized
 
     Subspace diagonalization in iterative solution of the eigenvalue problem:
     a serial algorithm will be used

 
     G-vector sticks info
     --------------------
     sticks:   dense  smooth     PW     G-vecs:    dense   smooth      PW
     Sum        3193    1273    367               757641   191735   29935
 
     Using Slab Decomposition
 


     bravais-lattice index     =            0
     lattice parameter (alat)  =       9.4208  a.u.
     unit-cell volume          =    3784.0407 (a.u.)^3
     number of atoms/cell      =           20
     number of atomic types    =            2
     number of electrons       =       260.00
     number of Kohn-Sham states=          156
     kinetic-energy cutoff     =      52.0000  Ry
     charge density cutoff     =     520.0000  Ry
     scf convergence threshold =      1.0E-08
     mixing beta               =       0.3000
     number of iterations used =            8  local-TF  mixing
     Exchange-correlation= SLA  PW   PBX  PBC
                           (   1   4   3   4   0   0   0)

     GPU acceleration is ACTIVE.  1 visible GPUs per MPI rank


     celldm(1)=   9.420781  celldm(2)=   0.000000  celldm(3)=   0.000000
     celldm(4)=   0.000000  celldm(5)=   0.000000  celldm(6)=   0.000000

     crystal axes: (cart. coord. in units of alat)
               a(1) = (   1.000000  -0.000000   0.000000 )  
               a(2) = (   0.500000   0.866025   0.000000 )  
               a(3) = (   0.000000   0.000000   5.225940 )  

     reciprocal axes: (cart. coord. in units 2 pi/alat)
               b(1) = (  1.000000 -0.577350  0.000000 )  
               b(2) = (  0.000000  1.154701 -0.000000 )  
               b(3) = ( -0.000000  0.000000  0.191353 )  


     PseudoPot. # 1 for Ag read from file:
     /home/ubuntu/wad4l/pseudo_kgy/Ag_ONCV_PBE-1.0.oncvpsp.upf
     MD5 check sum: 94f47bd0669c641108e45594df92fabc
     Pseudo is Norm-conserving, Zval = 19.0
     Generated using ONCVPSP code by D. R. Hamann
     Using radial grid of 1398 points,  6 beta functions with: 
                l(1) =   0
                l(2) =   0
                l(3) =   1
                l(4) =   1
                l(5) =   2
                l(6) =   2

     PseudoPot. # 2 for C  read from file:
     /home/ubuntu/wad4l/pseudo_kgy/C.pbe-n-kjpaw_psl.1.0.0.UPF
     MD5 check sum: 5d2aebdfa2cae82b50a7e79e9516da0f
     Pseudo is Projector augmented-wave + core cor, Zval =  4.0
     Generated using "atomic" code by A. Dal Corso  v.5.1
     Shape of augmentation charge: PSQ
     Using radial grid of 1073 points,  4 beta functions with: 
                l(1) =   0
                l(2) =   0
                l(3) =   1
                l(4) =   1
     Q(r) pseudized with 0 coefficients 


     atomic species   valence    mass     pseudopotential
     Ag               19.00   107.86820     Ag( 1.00)
     C                 4.00    12.01100     C ( 1.00)

     No symmetry found



   Cartesian axes

     site n.     atom                  positions (alat units)
         1        Ag     tau(   1) = (   0.3337695   0.5765948   0.5717001  )
         2        Ag     tau(   2) = (   0.8337695   0.8652699   0.5717001  )
         3        Ag     tau(   3) = (   0.1686118   0.2891880   1.0412003  )
         4        Ag     tau(   4) = (   0.5004501   0.2909658   0.1002956  )
         5        Ag     tau(   5) = (   0.8337695   0.2879196   0.5717001  )
         6        Ag     tau(   6) = (   0.6682533   0.5780678   1.0411952  )
         7        Ag     tau(   7) = (   0.5010511   0.2905737   1.5138552  )
         8        Ag     tau(   8) = (   1.0004501   0.5796409   0.1002956  )
         9        Ag     tau(   9) = (   1.0010597   0.5792406   1.5110488  )
        10        Ag     tau(  10) = (   0.6686160   0.0009230   1.0411962  )
        11        Ag     tau(  11) = (   1.0004501   0.0022906   0.1002956  )
        12        Ag     tau(  12) = (   1.0010502   0.0018969   1.5138803  )
        13        C      tau(  13) = (   0.5004501   0.2909658   3.1186101  )
        14        C      tau(  14) = (   0.7504501   0.4353033   3.1197280  )
        15        C      tau(  15) = (   0.7504501   0.7239785   3.1197312  )
        16        C      tau(  16) = (   1.0004501   0.8683160   3.1197278  )
        17        C      tau(  17) = (   1.0004501   0.2909658   3.1197319  )
        18        C      tau(  18) = (   1.2504501   0.4353033   3.1197284  )
        19        C      tau(  19) = (   1.2504501   0.7239785   3.1197317  )
        20        C      tau(  20) = (   1.5004501   0.8683160   3.1186207  )

     --------------------------------------------
     DFT-D3 Dispersion Correction (no 3-body):
     --------------------------------------------
       Reference C6 values for interpolation: 

         atom   Coordination number   C6
         C          0.000            98.23
         C          0.987            86.49
         C          1.998            58.72
         C          2.999            51.56
         C          3.984            36.41
         Ag         0.000           853.49
         Ag         0.968           537.23

       Values used:

         atom   Coordination number  R0_AB[au]  C6      C8
         Ag         9.085            3.147    537.23  47741.54
         Ag         9.085            3.147    537.23  47741.54
         Ag         9.081            3.147    537.23  47741.54
         Ag         6.766            3.147    537.23  47741.54
         Ag         9.085            3.147    537.23  47741.54
         Ag         9.081            3.147    537.23  47741.54
         Ag         6.749            3.147    537.23  47741.54
         Ag         6.766            3.147    537.23  47741.54
         Ag         6.787            3.147    537.23  47741.54
         Ag         9.081            3.147    537.23  47741.54
         Ag         6.766            3.147    537.23  47741.54
         Ag         6.749            3.147    537.23  47741.54
         C          3.268            2.750     49.14   1421.08
         C          3.268            2.750     49.14   1421.07
         C          3.268            2.750     49.14   1421.07
         C          3.268            2.750     49.14   1421.07
         C          3.268            2.750     49.14   1421.07
         C          3.268            2.750     49.14   1421.07
         C          3.268            2.750     49.14   1421.07
         C          3.268            2.750     49.14   1421.08

         Molecular C6 ( Ry / a.u.^6 ) =    111573.14


     number of k points=    20  Marzari-Vanderbilt smearing, width (Ry)=  0.0100
                       cart. coord. in units 2pi/alat
        k(    1) = (   0.0000000   0.0000000   0.0000000), wk =   0.0555556
        k(    2) = (   0.0000000   0.1924501   0.0000000), wk =   0.1111111
        k(    3) = (   0.0000000   0.3849002   0.0000000), wk =   0.1111111
        k(    4) = (   0.0000000  -0.5773503   0.0000000), wk =   0.0555556
        k(    5) = (   0.1666667  -0.0962250   0.0000000), wk =   0.1111111
        k(    6) = (   0.1666667   0.0962250   0.0000000), wk =   0.1111111
        k(    7) = (   0.1666667   0.2886751   0.0000000), wk =   0.1111111
        k(    8) = (   0.1666667  -0.6735753   0.0000000), wk =   0.1111111
        k(    9) = (   0.1666667  -0.4811252   0.0000000), wk =   0.1111111
        k(   10) = (   0.1666667  -0.2886751   0.0000000), wk =   0.1111111
        k(   11) = (   0.3333333  -0.1924501   0.0000000), wk =   0.1111111
        k(   12) = (   0.3333333  -0.0000000   0.0000000), wk =   0.1111111
        k(   13) = (   0.3333333   0.1924501   0.0000000), wk =   0.1111111
        k(   14) = (   0.3333333  -0.7698004   0.0000000), wk =   0.1111111
        k(   15) = (   0.3333333  -0.5773503   0.0000000), wk =   0.1111111
        k(   16) = (   0.3333333  -0.3849002   0.0000000), wk =   0.1111111
        k(   17) = (  -0.5000000   0.2886751   0.0000000), wk =   0.0555556
        k(   18) = (  -0.5000000   0.4811252   0.0000000), wk =   0.1111111
        k(   19) = (  -0.5000000   0.6735753   0.0000000), wk =   0.1111111
        k(   20) = (  -0.5000000  -0.2886751   0.0000000), wk =   0.0555556

     Dense  grid:   757641 G-vectors     FFT dimensions: (  72,  72, 360)

     Smooth grid:   191735 G-vectors     FFT dimensions: (  45,  45, 240)

     Estimated max dynamical RAM per process >       1.44 GB

     Check: negative core charge=   -0.000001

     Initial potential from superposition of free atoms

     starting charge     259.9962, renormalised to     260.0000

     negative rho (up, down):  3.182E-05 0.000E+00
 
     Adding external electric field

     Computed dipole along edir(3) : 
        Dipole               -0.0130 Ry au,         -0.0331 Debye
        Dipole field         -0.0000 Ry au, 
 
        Potential amp.        0.0041 Ry
        Total length         47.3429 bohr
 
     Starting wfcs are  152 randomized atomic wfcs +    4 random wfcs
     Checking if some PAW data can be deallocated... 

     total cpu time spent up to now is        4.2 secs

     Self-consistent Calculation

     iteration #  1     ecut=    52.00 Ry     beta= 0.30
     Davidson diagonalization with overlap
     ethr =  1.00E-02,  avg # of iterations =  4.3

     Threshold (ethr) on eigenvalues was too large:
     Diagonalizing with lowered threshold

     Davidson diagonalization with overlap
     ethr =  5.88E-04,  avg # of iterations =  2.5
 
     Adding external electric field

     Computed dipole along edir(3) : 
        Dipole               -0.0855 Ry au,         -0.2172 Debye
        Dipole field         -0.0003 Ry au, 
 
        Potential amp.        0.0269 Ry
        Total length         47.3429 bohr
 

     total cpu time spent up to now is       14.7 secs

     total energy              =   -3596.10837282 Ry
     estimated scf accuracy    <       1.55100506 Ry

     iteration #  2     ecut=    52.00 Ry     beta= 0.30
     Davidson diagonalization with overlap
     ethr =  5.97E-04,  avg # of iterations =  2.8
 
     Adding external electric field

     Computed dipole along edir(3) : 
        Dipole               -0.3271 Ry au,         -0.8314 Debye
        Dipole field         -0.0011 Ry au, 
 
        Potential amp.        0.1029 Ry
        Total length         47.3429 bohr
 

     total cpu time spent up to now is       20.1 secs

     total energy              =   -3595.78268450 Ry
     estimated scf accuracy    <       0.93373002 Ry

     iteration #  3     ecut=    52.00 Ry     beta= 0.30
     Davidson diagonalization with overlap
     ethr =  3.59E-04,  avg # of iterations =  7.7
 
     Adding external electric field

     Computed dipole along edir(3) : 
        Dipole               -0.4037 Ry au,         -1.0261 Debye
        Dipole field         -0.0013 Ry au, 
 
        Potential amp.        0.1269 Ry
        Total length         47.3429 bohr
 

     total cpu time spent up to now is       26.4 secs

     total energy              =   -3595.85250512 Ry
     estimated scf accuracy    <       0.39554632 Ry

     iteration #  4     ecut=    52.00 Ry     beta= 0.30
     Davidson diagonalization with overlap
     ethr =  1.52E-04,  avg # of iterations =  2.1

     negative rho (up, down):  1.270E-03 0.000E+00
 
     Adding external electric field

     Computed dipole along edir(3) : 
        Dipole               -0.1313 Ry au,         -0.3338 Debye
        Dipole field         -0.0004 Ry au, 
 
        Potential amp.        0.0413 Ry
        Total length         47.3429 bohr
 

     total cpu time spent up to now is       31.7 secs

     total energy              =   -3595.88723627 Ry
     estimated scf accuracy    <       0.40104296 Ry

     iteration #  5     ecut=    52.00 Ry     beta= 0.30
     Davidson diagonalization with overlap
     ethr =  1.52E-04,  avg # of iterations =  2.0

     negative rho (up, down):  8.858E-04 0.000E+00
 
     Adding external electric field

     Computed dipole along edir(3) : 
        Dipole               -0.1475 Ry au,         -0.3749 Debye
        Dipole field         -0.0005 Ry au, 
 
        Potential amp.        0.0464 Ry
        Total length         47.3429 bohr
 

     total cpu time spent up to now is       37.1 secs

     total energy              =   -3595.89311788 Ry
     estimated scf accuracy    <       0.38997789 Ry

     iteration #  6     ecut=    52.00 Ry     beta= 0.30
     Davidson diagonalization with overlap
     ethr =  1.50E-04,  avg # of iterations =  1.0
 
     Adding external electric field

     Computed dipole along edir(3) : 
        Dipole               -0.6324 Ry au,         -1.6074 Debye
        Dipole field         -0.0021 Ry au, 
 
        Potential amp.        0.1989 Ry
        Total length         47.3429 bohr
 

     total cpu time spent up to now is       42.3 secs

     total energy              =   -3595.74433237 Ry
     estimated scf accuracy    <       0.40864127 Ry

     iteration #  7     ecut=    52.00 Ry     beta= 0.30
     Davidson diagonalization with overlap
     ethr =  1.50E-04,  avg # of iterations =  7.0
 
     Adding external electric field

     Computed dipole along edir(3) : 
        Dipole               -0.5158 Ry au,         -1.3111 Debye
        Dipole field         -0.0017 Ry au, 
 
        Potential amp.        0.1622 Ry
        Total length         47.3429 bohr
 

     total cpu time spent up to now is       48.6 secs

     total energy              =   -3595.79856123 Ry
     estimated scf accuracy    <       0.05704058 Ry

     iteration #  8     ecut=    52.00 Ry     beta= 0.30
     Davidson diagonalization with overlap
     ethr =  2.19E-05,  avg # of iterations =  6.6
 
     Adding external electric field

     Computed dipole along edir(3) : 
        Dipole               -0.4476 Ry au,         -1.1377 Debye
        Dipole field         -0.0015 Ry au, 
 
        Potential amp.        0.1407 Ry
        Total length         47.3429 bohr
 

     total cpu time spent up to now is       54.6 secs

     total energy              =   -3595.79830320 Ry
     estimated scf accuracy    <       0.05191577 Ry

     iteration #  9     ecut=    52.00 Ry     beta= 0.30
     Davidson diagonalization with overlap
     ethr =  2.00E-05,  avg # of iterations =  2.1

     negative rho (up, down):  4.357E-06 0.000E+00
 
     Adding external electric field

     Computed dipole along edir(3) : 
        Dipole               -0.1730 Ry au,         -0.4398 Debye
        Dipole field         -0.0006 Ry au, 
 
        Potential amp.        0.0544 Ry
        Total length         47.3429 bohr
 

     total cpu time spent up to now is       60.0 secs

     total energy              =   -3595.79538807 Ry
     estimated scf accuracy    <       0.05191269 Ry

     iteration # 10     ecut=    52.00 Ry     beta= 0.30
     Davidson diagonalization with overlap
     ethr =  2.00E-05,  avg # of iterations =  9.9

     negative rho (up, down):  6.229E-03 0.000E+00
 
     Adding external electric field

     Computed dipole along edir(3) : 
        Dipole               -0.0756 Ry au,         -0.1921 Debye
        Dipole field         -0.0003 Ry au, 
 
        Potential amp.        0.0238 Ry
        Total length         47.3429 bohr
 

     total cpu time spent up to now is       66.6 secs

     total energy              =   -3595.79362937 Ry
     estimated scf accuracy    <       0.05157011 Ry

     iteration # 11     ecut=    52.00 Ry     beta= 0.30
     Davidson diagonalization with overlap
     ethr =  1.98E-05,  avg # of iterations =  1.6

     negative rho (up, down):  1.390E-02 0.000E+00
 
     Adding external electric field

     Computed dipole along edir(3) : 
        Dipole               -0.0192 Ry au,         -0.0489 Debye
        Dipole field         -0.0001 Ry au, 
 
        Potential amp.        0.0060 Ry
        Total length         47.3429 bohr
 

     total cpu time spent up to now is       71.7 secs

     total energy              =   -3595.79382001 Ry
     estimated scf accuracy    <       0.04788547 Ry

     iteration # 12     ecut=    52.00 Ry     beta= 0.30
     Davidson diagonalization with overlap
     ethr =  1.84E-05,  avg # of iterations =  2.8

     negative rho (up, down):  1.177E-02 0.000E+00
 
     Adding external electric field

     Computed dipole along edir(3) : 
        Dipole               -0.0259 Ry au,         -0.0659 Debye
        Dipole field         -0.0001 Ry au, 
 
        Potential amp.        0.0081 Ry
        Total length         47.3429 bohr
 

     total cpu time spent up to now is       77.3 secs

     total energy              =   -3595.79361797 Ry
     estimated scf accuracy    <       0.05181871 Ry

     iteration # 13     ecut=    52.00 Ry     beta= 0.30
     Davidson diagonalization with overlap
     ethr =  1.84E-05,  avg # of iterations =  3.5

     negative rho (up, down):  1.093E-02 0.000E+00
 
     Adding external electric field

     Computed dipole along edir(3) : 
        Dipole               -0.0333 Ry au,         -0.0847 Debye
        Dipole field         -0.0001 Ry au, 
 
        Potential amp.        0.0105 Ry
        Total length         47.3429 bohr
 

     total cpu time spent up to now is       82.9 secs

     total energy              =   -3595.79360492 Ry
     estimated scf accuracy    <       0.05314288 Ry

     iteration # 14     ecut=    52.00 Ry     beta= 0.30
     Davidson diagonalization with overlap
     ethr =  1.84E-05,  avg # of iterations =  1.0

     negative rho (up, down):  8.241E-03 0.000E+00
 
     Adding external electric field

     Computed dipole along edir(3) : 
        Dipole               -0.0659 Ry au,         -0.1675 Debye
        Dipole field         -0.0002 Ry au, 
 
        Potential amp.        0.0207 Ry
        Total length         47.3429 bohr
 

     total cpu time spent up to now is       87.9 secs

     total energy              =   -3595.79328930 Ry
     estimated scf accuracy    <       0.05159228 Ry

     iteration # 15     ecut=    52.00 Ry     beta= 0.30
     Davidson diagonalization with overlap
     ethr =  1.84E-05,  avg # of iterations =  3.7

     negative rho (up, down):  4.393E-02 0.000E+00
 
     Adding external electric field

     Computed dipole along edir(3) : 
        Dipole                0.1370 Ry au,          0.3482 Debye
        Dipole field          0.0005 Ry au, 
 
        Potential amp.       -0.0431 Ry
        Total length         47.3429 bohr
 

     total cpu time spent up to now is       93.6 secs

     total energy              =   -3595.79186147 Ry
     estimated scf accuracy    <       0.04378002 Ry

     iteration # 16     ecut=    52.00 Ry     beta= 0.30
     Davidson diagonalization with overlap
     ethr =  1.68E-05,  avg # of iterations =  6.3

     negative rho (up, down):  5.897E-03 0.000E+00
 
     Adding external electric field

     Computed dipole along edir(3) : 
        Dipole               -0.0109 Ry au,         -0.0276 Debye
        Dipole field         -0.0000 Ry au, 
 
        Potential amp.        0.0034 Ry
        Total length         47.3429 bohr
 

     total cpu time spent up to now is       99.6 secs

     total energy              =   -3595.78960450 Ry
     estimated scf accuracy    <       0.01363494 Ry

     iteration # 17     ecut=    52.00 Ry     beta= 0.30
     Davidson diagonalization with overlap
     ethr =  5.24E-06,  avg # of iterations = 10.1

     negative rho (up, down):  3.166E-03 0.000E+00
 
     Adding external electric field

     Computed dipole along edir(3) : 
        Dipole               -0.0220 Ry au,         -0.0559 Debye
        Dipole field         -0.0001 Ry au, 
 
        Potential amp.        0.0069 Ry
        Total length         47.3429 bohr
 

     total cpu time spent up to now is      106.3 secs

     total energy              =   -3595.79217863 Ry
     estimated scf accuracy    <       0.04313954 Ry

     iteration # 18     ecut=    52.00 Ry     beta= 0.30
     Davidson diagonalization with overlap
     ethr =  5.24E-06,  avg # of iterations =  1.5

     negative rho (up, down):  1.421E-02 0.000E+00
 
     Adding external electric field

     Computed dipole along edir(3) : 
        Dipole                0.0180 Ry au,          0.0457 Debye
        Dipole field          0.0001 Ry au, 
 
        Potential amp.       -0.0057 Ry
        Total length         47.3429 bohr
 

     total cpu time spent up to now is      111.5 secs

     total energy              =   -3595.79261388 Ry
     estimated scf accuracy    <       0.04089723 Ry

     iteration # 19     ecut=    52.00 Ry     beta= 0.30
     Davidson diagonalization with overlap
     ethr =  5.24E-06,  avg # of iterations =  6.0

     negative rho (up, down):  7.854E-03 0.000E+00
 
     Adding external electric field

     Computed dipole along edir(3) : 
        Dipole                0.0124 Ry au,          0.0315 Debye
        Dipole field          0.0000 Ry au, 
 
        Potential amp.       -0.0039 Ry
        Total length         47.3429 bohr
 

     total cpu time spent up to now is      117.3 secs

     total energy              =   -3595.79209716 Ry
     estimated scf accuracy    <       0.04710253 Ry

     iteration # 20     ecut=    52.00 Ry     beta= 0.30
     Davidson diagonalization with overlap
     ethr =  5.24E-06,  avg # of iterations =  3.4

     negative rho (up, down):  7.182E-03 0.000E+00
 
     Adding external electric field

     Computed dipole along edir(3) : 
        Dipole                0.0627 Ry au,          0.1593 Debye
        Dipole field          0.0002 Ry au, 
 
        Potential amp.       -0.0197 Ry
        Total length         47.3429 bohr
 

     total cpu time spent up to now is      123.0 secs

     total energy              =   -3595.79057558 Ry
     estimated scf accuracy    <       0.04358845 Ry

     iteration # 21     ecut=    52.00 Ry     beta= 0.30
     Davidson diagonalization with overlap
     ethr =  5.24E-06,  avg # of iterations =  5.3

     negative rho (up, down):  7.098E-03 0.000E+00
 
     Adding external electric field

     Computed dipole along edir(3) : 
        Dipole                0.0472 Ry au,          0.1199 Debye
        Dipole field          0.0002 Ry au, 
 
        Potential amp.       -0.0148 Ry
        Total length         47.3429 bohr
 

     total cpu time spent up to now is      128.8 secs

     total energy              =   -3595.79093183 Ry
     estimated scf accuracy    <       0.00499211 Ry

     iteration # 22     ecut=    52.00 Ry     beta= 0.30
     Davidson diagonalization with overlap
     ethr =  1.92E-06,  avg # of iterations =  3.3

     negative rho (up, down):  7.247E-03 0.000E+00
 
     Adding external electric field

     Computed dipole along edir(3) : 
        Dipole                0.0286 Ry au,          0.0726 Debye
        Dipole field          0.0001 Ry au, 
 
        Potential amp.       -0.0090 Ry
        Total length         47.3429 bohr
 

     total cpu time spent up to now is      134.4 secs

     total energy              =   -3595.79109445 Ry
     estimated scf accuracy    <       0.00447061 Ry

     iteration # 23     ecut=    52.00 Ry     beta= 0.30
     Davidson diagonalization with overlap
     ethr =  1.72E-06,  avg # of iterations =  3.9

     negative rho (up, down):  4.825E-03 0.000E+00
 
     Adding external electric field

     Computed dipole along edir(3) : 
        Dipole                0.0161 Ry au,          0.0409 Debye
        Dipole field          0.0001 Ry au, 
 
        Potential amp.       -0.0051 Ry
        Total length         47.3429 bohr
 

     total cpu time spent up to now is      140.1 secs

     total energy              =   -3595.79134664 Ry
     estimated scf accuracy    <       0.02271275 Ry

     iteration # 24     ecut=    52.00 Ry     beta= 0.30
     Davidson diagonalization with overlap
     ethr =  1.72E-06,  avg # of iterations =  6.3

     negative rho (up, down):  4.653E-03 0.000E+00
 
     Adding external electric field

     Computed dipole along edir(3) : 
        Dipole                0.0104 Ry au,          0.0264 Debye
        Dipole field          0.0000 Ry au, 
 
        Potential amp.       -0.0033 Ry
        Total length         47.3429 bohr
 

     total cpu time spent up to now is      146.2 secs

     total energy              =   -3595.79143472 Ry
     estimated scf accuracy    <       0.03051103 Ry

     iteration # 25     ecut=    52.00 Ry     beta= 0.30
     Davidson diagonalization with overlap
     ethr =  1.72E-06,  avg # of iterations =  1.0

     negative rho (up, down):  2.141E-03 0.000E+00
 
     Adding external electric field

     Computed dipole along edir(3) : 
        Dipole               -0.0152 Ry au,         -0.0387 Debye
        Dipole field         -0.0001 Ry au, 
 
        Potential amp.        0.0048 Ry
        Total length         47.3429 bohr
 

     total cpu time spent up to now is      151.3 secs

     total energy              =   -3595.79145725 Ry
     estimated scf accuracy    <       0.03198833 Ry

     iteration # 26     ecut=    52.00 Ry     beta= 0.30
     Davidson diagonalization with overlap
     ethr =  1.72E-06,  avg # of iterations =  5.3

     negative rho (up, down):  1.329E-03 0.000E+00
 
     Adding external electric field

     Computed dipole along edir(3) : 
        Dipole                0.0180 Ry au,          0.0459 Debye
        Dipole field          0.0001 Ry au, 
 
        Potential amp.       -0.0057 Ry
        Total length         47.3429 bohr
 

     total cpu time spent up to now is      157.2 secs

     total energy              =   -3595.79064746 Ry
     estimated scf accuracy    <       0.03066643 Ry

     iteration # 27     ecut=    52.00 Ry     beta= 0.30
     Davidson diagonalization with overlap
     ethr =  1.72E-06,  avg # of iterations =  5.0

     negative rho (up, down):  1.759E-03 0.000E+00
 
     Adding external electric field

     Computed dipole along edir(3) : 
        Dipole                0.0323 Ry au,          0.0821 Debye
        Dipole field          0.0001 Ry au, 
 
        Potential amp.       -0.0102 Ry
        Total length         47.3429 bohr
 

     total cpu time spent up to now is      163.1 secs

     total energy              =   -3595.79054993 Ry
     estimated scf accuracy    <       0.00780452 Ry

     iteration # 28     ecut=    52.00 Ry     beta= 0.30
     Davidson diagonalization with overlap
     ethr =  1.72E-06,  avg # of iterations =  4.3

     negative rho (up, down):  4.920E-05 0.000E+00
 
     Adding external electric field

     Computed dipole along edir(3) : 
        Dipole                0.0146 Ry au,          0.0372 Debye
        Dipole field          0.0000 Ry au, 
 
        Potential amp.       -0.0046 Ry
        Total length         47.3429 bohr
 

     total cpu time spent up to now is      168.9 secs

     total energy              =   -3595.79065723 Ry
     estimated scf accuracy    <       0.00034777 Ry

     iteration # 29     ecut=    52.00 Ry     beta= 0.30
     Davidson diagonalization with overlap
     ethr =  1.34E-07,  avg # of iterations =  6.2

     negative rho (up, down):  1.338E-04 0.000E+00
 
     Adding external electric field

     Computed dipole along edir(3) : 
        Dipole                0.0238 Ry au,          0.0606 Debye
        Dipole field          0.0001 Ry au, 
 
        Potential amp.       -0.0075 Ry
        Total length         47.3429 bohr
 

     total cpu time spent up to now is      174.9 secs

     total energy              =   -3595.79066008 Ry
     estimated scf accuracy    <       0.00299138 Ry

     iteration # 30     ecut=    52.00 Ry     beta= 0.30
     Davidson diagonalization with overlap
     ethr =  1.34E-07,  avg # of iterations =  1.0

     negative rho (up, down):  4.057E-05 0.000E+00
 
     Adding external electric field

     Computed dipole along edir(3) : 
        Dipole                0.0232 Ry au,          0.0588 Debye
        Dipole field          0.0001 Ry au, 
 
        Potential amp.       -0.0073 Ry
        Total length         47.3429 bohr
 

     total cpu time spent up to now is      180.1 secs

     total energy              =   -3595.79069594 Ry
     estimated scf accuracy    <       0.00004329 Ry

     iteration # 31     ecut=    52.00 Ry     beta= 0.30
     Davidson diagonalization with overlap
     ethr =  1.67E-08,  avg # of iterations =  3.3

     negative rho (up, down):  5.560E-05 0.000E+00
 
     Adding external electric field

     Computed dipole along edir(3) : 
        Dipole                0.0239 Ry au,          0.0608 Debye
        Dipole field          0.0001 Ry au, 
 
        Potential amp.       -0.0075 Ry
        Total length         47.3429 bohr
 

     total cpu time spent up to now is      185.6 secs

     total energy              =   -3595.79069559 Ry
     estimated scf accuracy    <       0.00002269 Ry

     iteration # 32     ecut=    52.00 Ry     beta= 0.30
     Davidson diagonalization with overlap
     ethr =  8.73E-09,  avg # of iterations =  1.0

     negative rho (up, down):  5.601E-05 0.000E+00
 
     Adding external electric field

     Computed dipole along edir(3) : 
        Dipole                0.0242 Ry au,          0.0615 Debye
        Dipole field          0.0001 Ry au, 
 
        Potential amp.       -0.0076 Ry
        Total length         47.3429 bohr
 

     total cpu time spent up to now is      190.8 secs

     total energy              =   -3595.79069573 Ry
     estimated scf accuracy    <       0.00000156 Ry

     iteration # 33     ecut=    52.00 Ry     beta= 0.30
     Davidson diagonalization with overlap
     ethr =  6.00E-10,  avg # of iterations =  1.0

     negative rho (up, down):  5.832E-05 0.000E+00
 
     Adding external electric field

     Computed dipole along edir(3) : 
        Dipole                0.0240 Ry au,          0.0610 Debye
        Dipole field          0.0001 Ry au, 
 
        Potential amp.       -0.0075 Ry
        Total length         47.3429 bohr
 

     total cpu time spent up to now is      195.9 secs

     total energy              =   -3595.79069578 Ry
     estimated scf accuracy    <       0.00000057 Ry

     iteration # 34     ecut=    52.00 Ry     beta= 0.30
     Davidson diagonalization with overlap
     ethr =  2.19E-10,  avg # of iterations =  1.0

     negative rho (up, down):  5.167E-05 0.000E+00
 
     Adding external electric field

     Computed dipole along edir(3) : 
        Dipole                0.0241 Ry au,          0.0612 Debye
        Dipole field          0.0001 Ry au, 
 
        Potential amp.       -0.0076 Ry
        Total length         47.3429 bohr
 

     total cpu time spent up to now is      201.1 secs

     total energy              =   -3595.79069582 Ry
     estimated scf accuracy    <       0.00000129 Ry

     iteration # 35     ecut=    52.00 Ry     beta= 0.30
     Davidson diagonalization with overlap
     ethr =  2.19E-10,  avg # of iterations =  1.0

     negative rho (up, down):  4.772E-05 0.000E+00
 
     Adding external electric field

     Computed dipole along edir(3) : 
        Dipole                0.0240 Ry au,          0.0609 Debye
        Dipole field          0.0001 Ry au, 
 
        Potential amp.       -0.0075 Ry
        Total length         47.3429 bohr
 

     total cpu time spent up to now is      206.3 secs

     total energy              =   -3595.79069585 Ry
     estimated scf accuracy    <       0.00000001 Ry

     iteration # 36     ecut=    52.00 Ry     beta= 0.30
     Davidson diagonalization with overlap
     ethr =  4.67E-12,  avg # of iterations =  1.4

     negative rho (up, down):  4.964E-05 0.000E+00
 
     Adding external electric field

     Computed dipole along edir(3) : 
        Dipole                0.0247 Ry au,          0.0628 Debye
        Dipole field          0.0001 Ry au, 
 
        Potential amp.       -0.0078 Ry
        Total length         47.3429 bohr
 

     total cpu time spent up to now is      211.6 secs

     End of self-consistent calculation

          k = 0.0000 0.0000 0.0000 ( 24029 PWs)   bands (ev):

   -86.8392 -86.8297 -86.8211 -86.8211 -86.8204 -86.8204 -86.6287 -86.6286
   -86.6157 -86.6153 -86.6150 -86.6120 -50.3492 -50.3230 -50.3226 -50.3224
   -50.3220 -50.3203 -50.3201 -50.2953 -50.2951 -50.2699 -50.2696 -50.2691
   -50.2688 -50.2644 -50.2218 -50.2213 -50.2082 -50.2080 -50.1121 -50.1120
   -50.1115 -50.1115 -50.1092 -50.1092 -50.1071 -50.1070 -50.0500 -50.0475
   -50.0372 -50.0369 -50.0367 -50.0332 -50.0215 -50.0212 -50.0205 -50.0203
   -14.0450  -8.9506  -8.9506  -8.9506  -7.8202  -7.8201  -7.8201  -2.1825
    -2.1790  -1.2900  -1.1186  -1.1185  -1.1185  -1.0165  -0.8506  -0.3807
    -0.3793  -0.3620  -0.3604  -0.3598  -0.3583  -0.0134  -0.0124  -0.0105
    -0.0095   0.1800   0.1823   0.1918   0.1973   0.4223   0.4791   0.4803
     0.5256   0.5279   0.5960   0.5974   0.6007   0.6021   0.6078   0.7475
     0.7485   0.8004   0.8017   0.9189   0.9192   0.9218   0.9218   0.9443
     0.9443   0.9476   0.9478   1.3692   1.3715   1.4884   1.4952   1.5223
     1.5242   1.5249   1.5269   1.6379   1.6494   1.8785   1.9362   1.9373
     1.9824   1.9869   2.1087   2.1100   2.1596   2.1600   2.1614   2.1614
     2.1631   2.1635   2.2289   2.2306   2.9292   2.9292   2.9292   4.2736
     5.4872   6.8929   6.8933   6.8933   8.5176   8.6955   8.6996   8.8875
     8.8880   8.8920   8.8925   9.0436   9.6714   9.6741   9.6750   9.6776
     9.7601  10.0754  10.0776  10.3676  11.3350  11.3392  11.3420  11.3462
    11.5719  11.5727  11.7922  12.2567

          k = 0.0000 0.1925 0.0000 ( 23919 PWs)   bands (ev):

   -86.8379 -86.8288 -86.8224 -86.8221 -86.8204 -86.8202 -86.6277 -86.6276
   -86.6161 -86.6158 -86.6155 -86.6125 -50.3460 -50.3396 -50.3346 -50.3334
   -50.3288 -50.3035 -50.2976 -50.2878 -50.2822 -50.2727 -50.2668 -50.2663
   -50.2638 -50.2620 -50.2310 -50.2254 -50.2190 -50.2110 -50.1292 -50.1284
   -50.1238 -50.1231 -50.0884 -50.0875 -50.0858 -50.0848 -50.0488 -50.0469
   -50.0375 -50.0374 -50.0371 -50.0337 -50.0325 -50.0315 -50.0243 -50.0234
   -13.8842 -10.1503  -9.3120  -9.3120  -7.1974  -7.1974  -6.3818  -1.9881
    -1.9318  -1.5955  -1.5955  -1.0685  -0.9605  -0.8384  -0.6627  -0.6594
    -0.5333  -0.4750  -0.4654  -0.3918  -0.2549  -0.1589  -0.0851  -0.0605
    -0.0263   0.0320   0.1302   0.1506   0.1522   0.3097   0.3915   0.4177
     0.4966   0.5461   0.6100   0.6264   0.6380   0.6675   0.6934   0.7195
     0.7263   0.7541   0.7986   0.8604   0.8666   0.9273   0.9480   1.0383
     1.1280   1.1998   1.2620   1.3028   1.3132   1.4172   1.4199   1.4947
     1.5179   1.5331   1.5952   1.6023   1.6234   1.7633   1.7931   1.8222
     1.8343   1.9107   1.9684   1.9838   2.1148   2.1240   2.1252   2.1852
     2.2244   2.2505   2.3046   2.3695   2.5988   2.8282   2.8282   4.6364
     6.0142   6.1510   7.0248   7.1537   7.1540   7.2924   7.6432   7.9498
     8.2068   8.4403   8.6851   8.7369   9.2488   9.9731   9.9788  10.1498
    10.5186  10.5453  10.5814  10.7496  11.5479  11.5729  11.6227  11.7817
    12.0004  12.4615  12.5086  12.7337

          k = 0.0000 0.3849 0.0000 ( 23951 PWs)   bands (ev):

   -86.8345 -86.8265 -86.8256 -86.8234 -86.8214 -86.8205 -86.6255 -86.6248
   -86.6179 -86.6172 -86.6163 -86.6138 -50.3528 -50.3459 -50.3379 -50.3318
   -50.3248 -50.2980 -50.2898 -50.2780 -50.2759 -50.2654 -50.2629 -50.2603
   -50.2515 -50.2506 -50.2477 -50.2469 -50.2319 -50.2199 -50.1418 -50.1411
   -50.1183 -50.1175 -50.0666 -50.0658 -50.0634 -50.0630 -50.0613 -50.0589
   -50.0463 -50.0447 -50.0391 -50.0381 -50.0379 -50.0349 -50.0331 -50.0321
   -13.4036 -11.5131  -9.7090  -9.7089  -6.0716  -6.0716  -4.3261  -2.7153
    -2.7152  -1.4208  -1.2748  -0.9076  -0.8087  -0.8026  -0.5762  -0.5265
    -0.5064  -0.5004  -0.4786  -0.4282  -0.3366  -0.3169  -0.2773  -0.1718
    -0.0977  -0.0966   0.0302   0.0516   0.0640   0.1683   0.2094   0.2262
     0.3198   0.4368   0.4523   0.4979   0.5336   0.6039   0.6462   0.6664
     0.7360   0.7449   0.8509   0.8661   0.9048   0.9848   1.0012   1.0088
     1.0431   1.0667   1.0889   1.1930   1.2087   1.2577   1.2778   1.4499
     1.4670   1.5230   1.5973   1.6518   1.6923   1.6957   1.7358   1.8997
     1.9174   2.0021   2.0352   2.0720   2.1589   2.1870   2.1964   2.2705
     2.2861   2.3173   2.3810   2.4145   2.6496   2.6497   3.3350   3.9230
     4.6372   5.4884   5.9957   6.1376   6.6393   7.1424   7.2565   7.4785
     7.6861   7.6864   8.2683   9.3935   9.4783   9.8612  10.0099  10.0778
    10.6306  10.6405  10.8684  11.1063  11.9867  12.1128  12.3153  12.6260
    12.6495  12.6885  12.7388  13.0689

          k = 0.0000-0.5774 0.0000 ( 23940 PWs)   bands (ev):

   -86.8300 -86.8300 -86.8239 -86.8237 -86.8237 -86.8206 -86.6240 -86.6213
   -86.6210 -86.6180 -86.6166 -86.6145 -50.3576 -50.3506 -50.3297 -50.3294
   -50.3040 -50.3038 -50.2915 -50.2841 -50.2840 -50.2681 -50.2582 -50.2564
   -50.2561 -50.2462 -50.2461 -50.2376 -50.2344 -50.2341 -50.1463 -50.1455
   -50.0959 -50.0945 -50.0944 -50.0914 -50.0537 -50.0526 -50.0489 -50.0477
   -50.0475 -50.0451 -50.0446 -50.0420 -50.0417 -50.0384 -50.0383 -50.0357
   -12.6090 -12.6090  -9.8513  -9.8513  -5.2445  -5.2445  -3.5788  -3.5787
    -2.1625  -2.1624  -1.0615  -0.9711  -0.9048  -0.6510  -0.6109  -0.6092
    -0.5075  -0.4961  -0.4961  -0.3989  -0.3967  -0.2222  -0.2146  -0.2129
    -0.1765  -0.1748  -0.0885  -0.0881   0.0545   0.0571   0.2126   0.2127
     0.3295   0.3372   0.3379   0.3753   0.4076   0.4104   0.5819   0.5837
     0.6011   0.6322   0.6340   0.6813   0.6878   0.9276   0.9286   0.9873
     0.9903   1.1696   1.2241   1.2280   1.2406   1.4192   1.4230   1.5325
     1.5517   1.5527   1.7906   1.8257   1.8261   1.9191   1.9196   2.0127
     2.0162   2.0176   2.1784   2.1828   2.1843   2.2833   2.3115   2.3678
     2.3696   2.3946   2.5395   2.5542   2.5695   2.5695   2.8296   2.8309
     4.4180   4.4194   5.3777   6.2061   6.6625   6.6661   6.7204   6.9307
     7.9652   7.9656   8.8502   8.8557   9.3608   9.9217  10.4843  10.4847
    10.6334  10.8817  10.8842  11.6803  11.6815  11.8818  12.1056  12.1123
    12.2894  12.2928  12.9967  12.9967

          k = 0.1667-0.0962 0.0000 ( 23919 PWs)   bands (ev):

   -86.8379 -86.8288 -86.8225 -86.8220 -86.8204 -86.8203 -86.6277 -86.6276
   -86.6161 -86.6158 -86.6155 -86.6125 -50.3461 -50.3402 -50.3343 -50.3333
   -50.3282 -50.3046 -50.2974 -50.2869 -50.2823 -50.2728 -50.2667 -50.2661
   -50.2646 -50.2615 -50.2307 -50.2258 -50.2191 -50.2108 -50.1291 -50.1285
   -50.1239 -50.1231 -50.0884 -50.0875 -50.0859 -50.0848 -50.0488 -50.0469
   -50.0375 -50.0374 -50.0371 -50.0337 -50.0327 -50.0315 -50.0242 -50.0234
   -13.8842 -10.1503  -9.3120  -9.3120  -7.1974  -7.1974  -6.3818  -1.9881
    -1.9318  -1.5955  -1.5955  -1.0690  -0.9605  -0.8380  -0.6625  -0.6603
    -0.5310  -0.4740  -0.4671  -0.3910  -0.2576  -0.1587  -0.0808  -0.0582
    -0.0312   0.0326   0.1289   0.1484   0.1545   0.3092   0.3922   0.4189
     0.4977   0.5446   0.6114   0.6263   0.6346   0.6672   0.6917   0.7204
     0.7254   0.7544   0.7989   0.8646   0.8660   0.9272   0.9465   1.0408
     1.1293   1.1938   1.2581   1.3052   1.3131   1.4143   1.4258   1.4907
     1.5179   1.5304   1.5951   1.6066   1.6248   1.7662   1.7935   1.8242
     1.8343   1.9163   1.9639   1.9813   2.1148   2.1238   2.1261   2.1850
     2.2255   2.2487   2.3042   2.3713   2.5957   2.8282   2.8282   4.6366
     6.0141   6.1509   7.0258   7.1537   7.1540   7.2971   7.6348   7.9498
     8.2097   8.4392   8.6811   8.7369   9.2488   9.9788   9.9822  10.1527
    10.5134  10.5453  10.5782  10.7517  11.5450  11.5812  11.6257  11.7813
    12.0004  12.4616  12.5029  12.7249

          k = 0.1667 0.0962 0.0000 ( 23919 PWs)   bands (ev):

   -86.8379 -86.8288 -86.8225 -86.8221 -86.8203 -86.8203 -86.6277 -86.6276
   -86.6161 -86.6158 -86.6155 -86.6125 -50.3460 -50.3399 -50.3344 -50.3333
   -50.3286 -50.3039 -50.2975 -50.2877 -50.2822 -50.2727 -50.2667 -50.2662
   -50.2640 -50.2620 -50.2309 -50.2255 -50.2190 -50.2110 -50.1293 -50.1284
   -50.1237 -50.1232 -50.0886 -50.0874 -50.0856 -50.0849 -50.0488 -50.0469
   -50.0375 -50.0374 -50.0371 -50.0337 -50.0324 -50.0316 -50.0245 -50.0232
   -13.8842 -10.1503  -9.3120  -9.3120  -7.1974  -7.1974  -6.3818  -1.9881
    -1.9318  -1.5955  -1.5955  -1.0686  -0.9605  -0.8384  -0.6628  -0.6600
    -0.5327  -0.4742  -0.4657  -0.3915  -0.2556  -0.1587  -0.0843  -0.0602
    -0.0277   0.0323   0.1297   0.1505   0.1530   0.3098   0.3917   0.4183
     0.4964   0.5463   0.6102   0.6259   0.6372   0.6677   0.6932   0.7215
     0.7249   0.7537   0.7987   0.8604   0.8665   0.9274   0.9480   1.0385
     1.1279   1.1994   1.2604   1.3033   1.3132   1.4171   1.4216   1.4930
     1.5179   1.5327   1.5951   1.6026   1.6233   1.7642   1.7929   1.8228
     1.8343   1.9111   1.9682   1.9835   2.1148   2.1245   2.1251   2.1847
     2.2259   2.2498   2.3043   2.3706   2.5977   2.8282   2.8282   4.6363
     6.0140   6.1511   7.0251   7.1537   7.1540   7.2937   7.6416   7.9498
     8.2061   8.4403   8.6819   8.7369   9.2488   9.9775   9.9789  10.1515
    10.5173  10.5453  10.5815  10.7488  11.5470  11.5755  11.6233  11.7815
    12.0005  12.4615  12.5064  12.9388

          k = 0.1667 0.2887 0.0000 ( 23943 PWs)   bands (ev):

   -86.8356 -86.8272 -86.8239 -86.8239 -86.8207 -86.8206 -86.6261 -86.6256
   -86.6168 -86.6168 -86.6165 -86.6135 -50.3418 -50.3415 -50.3403 -50.3365
   -50.3362 -50.2938 -50.2935 -50.2771 -50.2770 -50.2736 -50.2613 -50.2610
   -50.2535 -50.2533 -50.2456 -50.2399 -50.2306 -50.2154 -50.1311 -50.1309
   -50.1306 -50.1298 -50.0698 -50.0696 -50.0695 -50.0685 -50.0532 -50.0522
   -50.0469 -50.0452 -50.0383 -50.0380 -50.0379 -50.0346 -50.0296 -50.0284
   -13.5635 -10.7471 -10.7470  -8.5333  -7.4426  -5.3085  -5.3085  -2.8979
    -1.6089  -1.4849  -1.2748  -1.2748  -0.7462  -0.7205  -0.7187  -0.6114
    -0.6099  -0.5761  -0.5757  -0.5561  -0.3805  -0.2707  -0.2691  -0.0753
    -0.0746  -0.0628  -0.0617   0.1035   0.1539   0.1543   0.2808   0.3191
     0.4948   0.5319   0.5353   0.6042   0.6722   0.6960   0.6987   0.7570
     0.7851   0.7860   0.8308   0.8542   0.9120   0.9375   0.9379   1.0642
     1.1481   1.1788   1.2957   1.3183   1.3219   1.4060   1.4121   1.4128
     1.5298   1.5621   1.5621   1.5825   1.5841   1.6563   1.6816   1.6817
     1.7980   1.7986   1.8673   1.8699   1.8945   1.9820   2.1605   2.1610
     2.2507   2.2992   2.3003   2.4255   2.4268   3.1027   3.5114   5.0085
     5.0087   5.2242   5.7902   5.7914   6.6572   6.8768   7.1912   7.1944
     8.8580   8.8588   8.9642   8.9676   9.1754   9.6571  10.0486  10.0526
    10.4138  10.8267  10.8309  10.9145  11.6286  11.6337  12.4174  12.7361
    12.7376  12.8766  13.0586  13.0588

          k = 0.1667-0.6736 0.0000 ( 23989 PWs)   bands (ev):

   -86.8316 -86.8274 -86.8250 -86.8247 -86.8222 -86.8210 -86.6241 -86.6225
   -86.6191 -86.6175 -86.6173 -86.6148 -50.3483 -50.3430 -50.3323 -50.3314
   -50.3244 -50.2974 -50.2939 -50.2937 -50.2728 -50.2668 -50.2625 -50.2566
   -50.2547 -50.2528 -50.2406 -50.2381 -50.2379 -50.2245 -50.1374 -50.1365
   -50.1156 -50.1145 -50.0855 -50.0847 -50.0539 -50.0530 -50.0528 -50.0520
   -50.0453 -50.0430 -50.0403 -50.0392 -50.0388 -50.0381 -50.0379 -50.0358
   -12.9259 -11.9804 -11.0523  -8.4698  -6.6246  -4.2750  -4.2071  -3.2275
    -2.1462  -1.1911  -0.9484  -0.8977  -0.8850  -0.8617  -0.8104  -0.6731
    -0.6551  -0.6335  -0.5795  -0.5760  -0.5516  -0.4164  -0.3965  -0.2988
    -0.2195  -0.1554  -0.0979  -0.0474  -0.0212   0.1266   0.2089   0.2234
     0.2710   0.3130   0.3221   0.4628   0.5398   0.5763   0.6445   0.6466
     0.6936   0.7106   0.7818   0.9064   1.0042   1.0839   1.0862   1.1439
     1.1879   1.2272   1.2421   1.2666   1.3440   1.4008   1.4031   1.4173
     1.4491   1.5327   1.6148   1.7062   1.7485   1.7533   1.8547   1.8646
     1.8885   1.9661   2.0595   2.1156   2.1291   2.1465   2.1803   2.2084
     2.2541   2.2887   2.3074   2.3346   2.4279   3.0202   3.6544   3.9118
     3.9261   4.1243   4.8810   5.2580   6.1847   6.3194   6.4927   7.4973
     8.1737   8.2443   9.5325   9.7801   9.8688  10.0488  10.4613  10.4713
    10.9818  11.1598  11.2715  11.3445  11.6836  11.6993  12.2285  12.3623
    12.5819  12.6857  12.9296  13.1023

          k = 0.1667-0.4811 0.0000 ( 23989 PWs)   bands (ev):

   -86.8317 -86.8273 -86.8250 -86.8247 -86.8222 -86.8210 -86.6241 -86.6225
   -86.6191 -86.6175 -86.6173 -86.6148 -50.3483 -50.3429 -50.3324 -50.3315
   -50.3245 -50.2972 -50.2939 -50.2937 -50.2729 -50.2667 -50.2624 -50.2567
   -50.2547 -50.2529 -50.2407 -50.2381 -50.2379 -50.2245 -50.1374 -50.1365
   -50.1154 -50.1146 -50.0857 -50.0847 -50.0538 -50.0531 -50.0530 -50.0519
   -50.0453 -50.0430 -50.0402 -50.0390 -50.0388 -50.0382 -50.0379 -50.0358
   -12.9259 -11.9804 -11.0523  -8.4698  -6.6246  -4.2750  -4.2071  -3.2275
    -2.1462  -1.1911  -0.9485  -0.8986  -0.8852  -0.8617  -0.8101  -0.6722
    -0.6551  -0.6338  -0.5808  -0.5763  -0.5512  -0.4126  -0.3966  -0.2987
    -0.2177  -0.1558  -0.0998  -0.0489  -0.0215   0.1263   0.2089   0.2234
     0.2716   0.3135   0.3250   0.4614   0.5387   0.5762   0.6406   0.6451
     0.6889   0.7129   0.7822   0.9098   1.0069   1.0854   1.0916   1.1405
     1.1853   1.2281   1.2432   1.2666   1.3423   1.3985   1.4023   1.4167
     1.4476   1.5349   1.6159   1.7078   1.7496   1.7541   1.8564   1.8652
     1.8851   1.9643   2.0576   2.1159   2.1293   2.1469   2.1808   2.2105
     2.2547   2.2887   2.3084   2.3337   2.4277   3.0204   3.6531   3.9118
     3.9239   4.1243   4.8811   5.2598   6.1855   6.3193   6.4927   7.4965
     8.1737   8.2446   9.5325   9.7802   9.8686  10.0488  10.4613  10.4713
    10.9818  11.1598  11.2713  11.3443  11.6837  11.6996  12.2293  12.3624
    12.5801  12.6857  12.9306  13.1023

          k = 0.1667-0.2887 0.0000 ( 23943 PWs)   bands (ev):

   -86.8356 -86.8272 -86.8239 -86.8238 -86.8207 -86.8206 -86.6261 -86.6256
   -86.6168 -86.6168 -86.6165 -86.6135 -50.3421 -50.3415 -50.3404 -50.3363
   -50.3361 -50.2943 -50.2933 -50.2767 -50.2765 -50.2733 -50.2618 -50.2613
   -50.2534 -50.2531 -50.2455 -50.2400 -50.2309 -50.2153 -50.1310 -50.1309
   -50.1306 -50.1298 -50.0698 -50.0697 -50.0695 -50.0684 -50.0535 -50.0521
   -50.0469 -50.0452 -50.0383 -50.0380 -50.0379 -50.0346 -50.0293 -50.0285
   -13.5635 -10.7471 -10.7470  -8.5333  -7.4426  -5.3085  -5.3085  -2.8979
    -1.6089  -1.4851  -1.2748  -1.2748  -0.7479  -0.7206  -0.7188  -0.6117
    -0.6102  -0.5758  -0.5754  -0.5543  -0.3782  -0.2696  -0.2671  -0.0784
    -0.0763  -0.0629  -0.0620   0.1031   0.1537   0.1567   0.2798   0.3188
     0.4948   0.5303   0.5334   0.6027   0.6724   0.6947   0.6990   0.7568
     0.7825   0.7859   0.8318   0.8540   0.9094   0.9424   0.9431   1.0642
     1.1477   1.1788   1.2953   1.3172   1.3211   1.4049   1.4113   1.4125
     1.5288   1.5621   1.5621   1.5819   1.5842   1.6598   1.6848   1.6856
     1.7983   1.8005   1.8631   1.8671   1.8996   1.9790   2.1605   2.1614
     2.2507   2.2978   2.3004   2.4255   2.4274   3.1002   3.5114   5.0085
     5.0090   5.2248   5.7891   5.7916   6.6572   6.8771   7.1917   7.1956
     8.8580   8.8588   8.9634   8.9674   9.1754   9.6571  10.0488  10.0536
    10.4138  10.8252  10.8298  10.9146  11.6291  11.6405  12.4173  12.7286
    12.7377  12.8768  13.0574  13.0586

          k = 0.3333-0.1925 0.0000 ( 23951 PWs)   bands (ev):

   -86.8345 -86.8265 -86.8257 -86.8233 -86.8213 -86.8206 -86.6255 -86.6248
   -86.6179 -86.6172 -86.6163 -86.6138 -50.3533 -50.3459 -50.3380 -50.3316
   -50.3242 -50.2990 -50.2886 -50.2775 -50.2762 -50.2654 -50.2630 -50.2606
   -50.2517 -50.2503 -50.2476 -50.2469 -50.2323 -50.2198 -50.1417 -50.1411
   -50.1184 -50.1175 -50.0665 -50.0659 -50.0633 -50.0631 -50.0614 -50.0589
   -50.0463 -50.0448 -50.0392 -50.0381 -50.0378 -50.0349 -50.0330 -50.0322
   -13.4036 -11.5131  -9.7090  -9.7089  -6.0716  -6.0716  -4.3261  -2.7153
    -2.7152  -1.4208  -1.2751  -0.9076  -0.8082  -0.8026  -0.5784  -0.5250
    -0.5040  -0.5004  -0.4798  -0.4252  -0.3391  -0.3182  -0.2763  -0.1728
    -0.0976  -0.0952   0.0291   0.0500   0.0624   0.1684   0.2152   0.2225
     0.3221   0.4396   0.4505   0.4985   0.5317   0.6044   0.6494   0.6597
     0.7360   0.7472   0.8509   0.8618   0.9050   0.9843   0.9999   1.0096
     1.0424   1.0667   1.0807   1.1969   1.2154   1.2591   1.2774   1.4490
     1.4702   1.5236   1.6001   1.6526   1.6907   1.6965   1.7346   1.8950
     1.9132   2.0035   2.0393   2.0734   2.1594   2.1860   2.1977   2.2712
     2.2829   2.3195   2.3832   2.4129   2.6496   2.6497   3.3324   3.9230
     4.6379   5.4887   6.0011   6.1364   6.6245   7.1499   7.2563   7.4766
     7.6861   7.6864   8.2686   9.3935   9.4865   9.8612  10.0099  10.0743
    10.6305  10.6397  10.8798  11.1065  11.9867  12.1000  12.3155  12.6260
    12.6493  12.6931  12.7343  13.0691

          k = 0.3333-0.0000 0.0000 ( 23943 PWs)   bands (ev):

   -86.8356 -86.8272 -86.8239 -86.8238 -86.8207 -86.8206 -86.6261 -86.6256
   -86.6168 -86.6168 -86.6165 -86.6135 -50.3421 -50.3417 -50.3404 -50.3362
   -50.3360 -50.2943 -50.2935 -50.2765 -50.2763 -50.2732 -50.2618 -50.2614
   -50.2534 -50.2531 -50.2455 -50.2400 -50.2310 -50.2153 -50.1311 -50.1309
   -50.1305 -50.1298 -50.0699 -50.0696 -50.0695 -50.0685 -50.0533 -50.0522
   -50.0469 -50.0453 -50.0383 -50.0380 -50.0379 -50.0346 -50.0295 -50.0284
   -13.5635 -10.7471 -10.7470  -8.5333  -7.4426  -5.3085  -5.3085  -2.8979
    -1.6089  -1.4852  -1.2748  -1.2748  -0.7485  -0.7207  -0.7189  -0.6115
    -0.6101  -0.5756  -0.5753  -0.5542  -0.3782  -0.2693  -0.2669  -0.0782
    -0.0763  -0.0632  -0.0621   0.1042   0.1545   0.1572   0.2799   0.3185
     0.4948   0.5287   0.5321   0.6032   0.6724   0.6955   0.7005   0.7561
     0.7823   0.7858   0.8308   0.8541   0.9094   0.9416   0.9424   1.0642
     1.1478   1.1788   1.2966   1.3168   1.3204   1.4047   1.4111   1.4123
     1.5287   1.5621   1.5621   1.5818   1.5840   1.6593   1.6852   1.6860
     1.7992   1.8009   1.8631   1.8669   1.9001   1.9787   2.1603   2.1608
     2.2519   2.2979   2.3000   2.4267   2.4277   3.0991   3.5114   5.0087
     5.0091   5.2246   5.7891   5.7910   6.6572   6.8766   7.1913   7.1953
     8.8580   8.8588   8.9628   8.9656   9.1754   9.6571  10.0514  10.0542
    10.4138  10.8254  10.8303  10.9146  11.6317  11.6404  12.4174  12.7285
    12.7382  12.8768  13.0576  13.0589

          k = 0.3333 0.1925 0.0000 ( 23951 PWs)   bands (ev):

   -86.8345 -86.8265 -86.8256 -86.8234 -86.8214 -86.8205 -86.6255 -86.6248
   -86.6179 -86.6172 -86.6163 -86.6138 -50.3530 -50.3458 -50.3379 -50.3317
   -50.3246 -50.2983 -50.2896 -50.2778 -50.2759 -50.2653 -50.2629 -50.2603
   -50.2515 -50.2506 -50.2477 -50.2469 -50.2320 -50.2199 -50.1419 -50.1410
   -50.1182 -50.1176 -50.0668 -50.0657 -50.0635 -50.0628 -50.0611 -50.0590
   -50.0463 -50.0447 -50.0391 -50.0381 -50.0380 -50.0349 -50.0333 -50.0320
   -13.4036 -11.5131  -9.7090  -9.7089  -6.0716  -6.0716  -4.3261  -2.7153
    -2.7152  -1.4208  -1.2749  -0.9076  -0.8085  -0.8027  -0.5769  -0.5258
    -0.5053  -0.5004  -0.4787  -0.4278  -0.3374  -0.3169  -0.2773  -0.1717
    -0.0976  -0.0966   0.0300   0.0513   0.0641   0.1683   0.2099   0.2258
     0.3203   0.4364   0.4512   0.4982   0.5330   0.6040   0.6469   0.6651
     0.7360   0.7468   0.8515   0.8637   0.9046   0.9846   1.0016   1.0090
     1.0431   1.0667   1.0884   1.1928   1.2089   1.2581   1.2787   1.4501
     1.4665   1.5235   1.5972   1.6520   1.6916   1.6956   1.7357   1.9001
     1.9171   2.0021   2.0358   2.0723   2.1586   2.1867   2.1976   2.2703
     2.2855   2.3178   2.3824   2.4143   2.6496   2.6497   3.3340   3.9231
     4.6374   5.4881   5.9980   6.1372   6.6370   7.1410   7.2560   7.4745
     7.6861   7.6864   8.2680   9.3935   9.4836   9.8612  10.0099  10.0785
    10.6306  10.6396  10.8717  11.1063  11.9865  12.1150  12.3155  12.6262
    12.6495  12.6901  12.7375  13.0689

          k = 0.3333-0.7698 0.0000 ( 23989 PWs)   bands (ev):

   -86.8316 -86.8274 -86.8249 -86.8247 -86.8222 -86.8210 -86.6241 -86.6225
   -86.6191 -86.6175 -86.6173 -86.6148 -50.3485 -50.3429 -50.3323 -50.3314
   -50.3243 -50.2974 -50.2939 -50.2936 -50.2729 -50.2669 -50.2625 -50.2565
   -50.2546 -50.2529 -50.2406 -50.2381 -50.2379 -50.2246 -50.1375 -50.1364
   -50.1154 -50.1146 -50.0855 -50.0848 -50.0537 -50.0531 -50.0530 -50.0520
   -50.0453 -50.0430 -50.0402 -50.0392 -50.0389 -50.0382 -50.0377 -50.0358
   -12.9259 -11.9804 -11.0523  -8.4698  -6.6246  -4.2750  -4.2071  -3.2275
    -2.1462  -1.1911  -0.9481  -0.8977  -0.8846  -0.8617  -0.8108  -0.6736
    -0.6551  -0.6338  -0.5796  -0.5751  -0.5517  -0.4160  -0.3965  -0.2986
    -0.2195  -0.1553  -0.0980  -0.0476  -0.0216   0.1263   0.2089   0.2234
     0.2713   0.3122   0.3224   0.4626   0.5407   0.5754   0.6440   0.6471
     0.6925   0.7115   0.7810   0.9062   1.0046   1.0838   1.0859   1.1440
     1.1878   1.2271   1.2422   1.2666   1.3448   1.4017   1.4027   1.4177
     1.4489   1.5328   1.6145   1.7062   1.7485   1.7533   1.8552   1.8645
     1.8884   1.9661   2.0598   2.1154   2.1287   2.1462   2.1807   2.2091
     2.2539   2.2899   2.3073   2.3347   2.4274   3.0201   3.6550   3.9118
     3.9257   4.1250   4.8796   5.2575   6.1845   6.3190   6.4927   7.4970
     8.1717   8.2441   9.5325   9.7834   9.8674  10.0488  10.4622  10.4713
    10.9818  11.1630  11.2715  11.3443  11.6837  11.6992  12.2286  12.3642
    12.5807  12.6866  12.9298  13.1004

          k = 0.3333-0.5774 0.0000 ( 23967 PWs)   bands (ev):

   -86.8281 -86.8281 -86.8280 -86.8226 -86.8226 -86.8225 -86.6235 -86.6199
   -86.6195 -86.6195 -86.6165 -86.6164 -50.3326 -50.3326 -50.3322 -50.3262
   -50.3259 -50.3258 -50.2928 -50.2926 -50.2924 -50.2604 -50.2602 -50.2601
   -50.2492 -50.2491 -50.2489 -50.2301 -50.2301 -50.2301 -50.1164 -50.1164
   -50.1157 -50.1156 -50.1155 -50.1128 -50.0458 -50.0458 -50.0457 -50.0457
   -50.0455 -50.0449 -50.0426 -50.0409 -50.0406 -50.0406 -50.0372 -50.0371
   -12.1373 -12.1372 -12.1372  -7.2879  -7.2879  -5.1105  -2.5118  -2.5118
    -2.5116  -1.1118  -1.1117  -1.1117  -0.8457  -0.8451  -0.8442  -0.8098
    -0.8091  -0.8082  -0.6302  -0.6289  -0.6280  -0.4524  -0.4516  -0.4505
    -0.2846  -0.2834  -0.2832  -0.0162  -0.0160  -0.0140   0.0494   0.0494
     0.0494   0.4060   0.4070   0.4085   0.6045   0.6055   0.6094   0.7127
     0.7139   0.7169   0.8296   0.8340   0.8345   1.2136   1.2166   1.2199
     1.2502   1.2550   1.2557   1.5817   1.5824   1.5854   1.6542   1.6544
     1.6555   1.8383   1.8398   1.8404   1.8975   1.8987   1.8993   1.9653
     1.9661   1.9667   2.0628   2.0629   2.0637   2.0985   2.0986   2.0995
     2.3003   2.3024   2.3029   2.3382   2.3390   2.3409   3.1026   3.1055
     3.1068   4.8900   4.8915   4.8952   5.2283   5.2283   7.2021   7.2039
     7.2045   9.5719   9.5729   9.5801  11.1232  11.1233  11.1244  11.4136
    11.4136  11.4137  11.4506  11.4507  11.4555  12.0485  12.0490  12.0503
    12.3584  12.3596  12.3652  12.7194

          k = 0.3333-0.3849 0.0000 ( 23989 PWs)   bands (ev):

   -86.8317 -86.8274 -86.8248 -86.8247 -86.8222 -86.8211 -86.6241 -86.6225
   -86.6191 -86.6175 -86.6173 -86.6148 -50.3488 -50.3429 -50.3324 -50.3313
   -50.3241 -50.2970 -50.2943 -50.2930 -50.2730 -50.2672 -50.2624 -50.2565
   -50.2547 -50.2530 -50.2408 -50.2380 -50.2379 -50.2245 -50.1373 -50.1365
   -50.1155 -50.1146 -50.0858 -50.0846 -50.0540 -50.0530 -50.0529 -50.0520
   -50.0453 -50.0430 -50.0402 -50.0389 -50.0388 -50.0382 -50.0379 -50.0358
   -12.9259 -11.9804 -11.0523  -8.4698  -6.6246  -4.2750  -4.2071  -3.2275
    -2.1462  -1.1911  -0.9483  -0.8987  -0.8841  -0.8617  -0.8103  -0.6737
    -0.6551  -0.6341  -0.5809  -0.5744  -0.5527  -0.4114  -0.3981  -0.2964
    -0.2179  -0.1566  -0.0994  -0.0495  -0.0232   0.1255   0.2089   0.2234
     0.2723   0.3174   0.3216   0.4632   0.5405   0.5775   0.6406   0.6480
     0.6853   0.7094   0.7792   0.9102   1.0096   1.0810   1.0851   1.1403
     1.1912   1.2305   1.2408   1.2666   1.3449   1.3984   1.4023   1.4197
     1.4524   1.5347   1.6129   1.7084   1.7492   1.7547   1.8539   1.8648
     1.8852   1.9636   2.0595   2.1161   2.1273   2.1448   2.1814   2.2103
     2.2553   2.2900   2.3096   2.3342   2.4271   3.0202   3.6549   3.9118
     3.9233   4.1259   4.8764   5.2574   6.1855   6.3230   6.4927   7.4972
     8.1705   8.2445   9.5325   9.7847   9.8675  10.0488  10.4589  10.4713
    10.9818  11.1713  11.2713  11.3443  11.6838  11.6997  12.2287  12.3531
    12.5805  12.6838  12.9301  13.1008

          k =-0.5000 0.2887 0.0000 ( 23940 PWs)   bands (ev):

   -86.8300 -86.8300 -86.8238 -86.8237 -86.8236 -86.8208 -86.6240 -86.6213
   -86.6210 -86.6180 -86.6166 -86.6145 -50.3581 -50.3506 -50.3297 -50.3295
   -50.3034 -50.3032 -50.2904 -50.2846 -50.2844 -50.2690 -50.2580 -50.2565
   -50.2562 -50.2464 -50.2463 -50.2375 -50.2342 -50.2340 -50.1462 -50.1455
   -50.0959 -50.0946 -50.0945 -50.0914 -50.0539 -50.0526 -50.0489 -50.0476
   -50.0474 -50.0451 -50.0446 -50.0420 -50.0417 -50.0384 -50.0382 -50.0357
   -12.6090 -12.6090  -9.8513  -9.8513  -5.2445  -5.2445  -3.5788  -3.5787
    -2.1625  -2.1624  -1.0614  -0.9700  -0.9045  -0.6522  -0.6117  -0.6099
    -0.5091  -0.4961  -0.4961  -0.3952  -0.3930  -0.2240  -0.2169  -0.2151
    -0.1789  -0.1773  -0.0849  -0.0844   0.0544   0.0570   0.2126   0.2127
     0.3320   0.3325   0.3375   0.3738   0.4079   0.4107   0.5856   0.5868
     0.6031   0.6313   0.6322   0.6791   0.6860   0.9256   0.9264   0.9862
     0.9892   1.1671   1.2301   1.2311   1.2348   1.4206   1.4244   1.5408
     1.5538   1.5549   1.7920   1.8218   1.8222   1.9156   1.9162   2.0094
     2.0186   2.0200   2.1787   2.1839   2.1854   2.2851   2.3092   2.3679
     2.3697   2.3967   2.5392   2.5539   2.5695   2.5695   2.8301   2.8315
     4.4163   4.4177   5.3828   6.1893   6.6627   6.6663   6.7303   6.9294
     7.9652   7.9656   8.8498   8.8553   9.3688   9.9178  10.4843  10.4847
    10.6456  10.8818  10.8843  11.6803  11.6814  11.8673  12.1058  12.1126
    12.2894  12.2928  12.9967  12.9967

          k =-0.5000 0.4811 0.0000 ( 23989 PWs)   bands (ev):

   -86.8317 -86.8274 -86.8248 -86.8247 -86.8222 -86.8211 -86.6241 -86.6225
   -86.6191 -86.6175 -86.6173 -86.6148 -50.3488 -50.3429 -50.3324 -50.3313
   -50.3242 -50.2968 -50.2943 -50.2930 -50.2730 -50.2672 -50.2623 -50.2565
   -50.2547 -50.2530 -50.2409 -50.2380 -50.2379 -50.2245 -50.1373 -50.1365
   -50.1156 -50.1145 -50.0856 -50.0847 -50.0540 -50.0530 -50.0528 -50.0520
   -50.0453 -50.0431 -50.0403 -50.0390 -50.0388 -50.0381 -50.0379 -50.0358
   -12.9259 -11.9804 -11.0523  -8.4698  -6.6246  -4.2750  -4.2071  -3.2275
    -2.1462  -1.1911  -0.9484  -0.8993  -0.8841  -0.8617  -0.8101  -0.6731
    -0.6551  -0.6341  -0.5817  -0.5748  -0.5526  -0.4104  -0.3980  -0.2963
    -0.2173  -0.1567  -0.0992  -0.0504  -0.0232   0.1257   0.2089   0.2234
     0.2729   0.3188   0.3226   0.4617   0.5400   0.5771   0.6383   0.6480
     0.6854   0.7108   0.7786   0.9113   1.0085   1.0809   1.0851   1.1400
     1.1919   1.2306   1.2409   1.2666   1.3446   1.3978   1.4023   1.4194
     1.4523   1.5353   1.6130   1.7087   1.7493   1.7547   1.8541   1.8649
     1.8851   1.9630   2.0598   2.1164   2.1274   2.1446   2.1799   2.2106
     2.2559   2.2902   2.3103   2.3342   2.4280   3.0203   3.6544   3.9118
     3.9227   4.1259   4.8764   5.2575   6.1853   6.3230   6.4927   7.4973
     8.1704   8.2437   9.5325   9.7847   9.8686  10.0488  10.4589  10.4713
    10.9818  11.1712  11.2714  11.3445  11.6837  11.6995  12.2286  12.3530
    12.5819  12.6838  12.9297  13.1008

          k =-0.5000 0.6736 0.0000 ( 23989 PWs)   bands (ev):

   -86.8317 -86.8273 -86.8249 -86.8247 -86.8222 -86.8210 -86.6241 -86.6225
   -86.6191 -86.6175 -86.6173 -86.6148 -50.3485 -50.3429 -50.3324 -50.3315
   -50.3244 -50.2969 -50.2938 -50.2937 -50.2729 -50.2668 -50.2623 -50.2566
   -50.2547 -50.2529 -50.2409 -50.2381 -50.2379 -50.2245 -50.1375 -50.1364
   -50.1154 -50.1146 -50.0856 -50.0847 -50.0537 -50.0531 -50.0531 -50.0519
   -50.0453 -50.0430 -50.0402 -50.0391 -50.0389 -50.0382 -50.0377 -50.0358
   -12.9259 -11.9804 -11.0523  -8.4698  -6.6246  -4.2750  -4.2071  -3.2275
    -2.1462  -1.1911  -0.9483  -0.8992  -0.8848  -0.8617  -0.8103  -0.6721
    -0.6551  -0.6341  -0.5816  -0.5758  -0.5512  -0.4113  -0.3966  -0.2984
    -0.2171  -0.1557  -0.0997  -0.0500  -0.0220   0.1262   0.2089   0.2234
     0.2724   0.3141   0.3263   0.4598   0.5391   0.5749   0.6374   0.6459
     0.6879   0.7153   0.7808   0.9107   1.0062   1.0854   1.0909   1.1404
     1.1859   1.2282   1.2435   1.2666   1.3428   1.3985   1.4021   1.4168
     1.4473   1.5356   1.6158   1.7082   1.7497   1.7542   1.8571   1.8651
     1.8850   1.9637   2.0581   2.1160   2.1289   2.1463   2.1798   2.2116
     2.2550   2.2901   2.3090   2.3338   2.4280   3.0204   3.6532   3.9118
     3.9229   4.1250   4.8797   5.2595   6.1851   6.3189   6.4927   7.4963
     8.1715   8.2436   9.5325   9.7835   9.8683  10.0488  10.4622  10.4713
    10.9818  11.1629  11.2715  11.3443  11.6837  11.6994  12.2293  12.3642
    12.5804  12.6866  12.9305  13.1005

          k =-0.5000-0.2887 0.0000 ( 23940 PWs)   bands (ev):

   -86.8300 -86.8300 -86.8239 -86.8237 -86.8237 -86.8207 -86.6240 -86.6213
   -86.6210 -86.6180 -86.6166 -86.6145 -50.3578 -50.3506 -50.3297 -50.3294
   -50.3038 -50.3036 -50.2913 -50.2842 -50.2841 -50.2683 -50.2581 -50.2564
   -50.2561 -50.2463 -50.2462 -50.2375 -50.2344 -50.2342 -50.1464 -50.1454
   -50.0960 -50.0944 -50.0942 -50.0915 -50.0536 -50.0527 -50.0488 -50.0478
   -50.0476 -50.0451 -50.0445 -50.0420 -50.0417 -50.0384 -50.0384 -50.0356
   -12.6090 -12.6090  -9.8513  -9.8513  -5.2445  -5.2445  -3.5788  -3.5787
    -2.1625  -2.1624  -1.0613  -0.9707  -0.9050  -0.6511  -0.6109  -0.6092
    -0.5075  -0.4961  -0.4961  -0.3978  -0.3956  -0.2222  -0.2155  -0.2138
    -0.1774  -0.1756  -0.0878  -0.0873   0.0544   0.0570   0.2126   0.2127
     0.3291   0.3366   0.3373   0.3745   0.4074   0.4102   0.5822   0.5839
     0.6021   0.6315   0.6341   0.6819   0.6878   0.9263   0.9273   0.9886
     0.9917   1.1694   1.2235   1.2275   1.2399   1.4199   1.4237   1.5329
     1.5524   1.5534   1.7908   1.8253   1.8257   1.9187   1.9193   2.0138
     2.0164   2.0177   2.1784   2.1839   2.1855   2.2831   2.3107   2.3677
     2.3696   2.3948   2.5395   2.5542   2.5695   2.5695   2.8297   2.8311
     4.4172   4.4187   5.3805   6.2039   6.6621   6.6657   6.7184   6.9267
     7.9652   7.9656   8.8496   8.8550   9.3661   9.9225  10.4842  10.4846
    10.6368  10.8818  10.8843  11.6805  11.6816  11.8844  12.1054  12.1121
    12.2894  12.2928  12.9967  12.9967

     the Fermi energy is     5.2447 ev

!    total energy              =   -3595.79069584 Ry
     estimated scf accuracy    <          7.3E-09 Ry
     smearing contrib. (-TS)   =      -0.00097363 Ry
     internal energy E=F+TS    =   -3595.78972221 Ry

     The total energy is F=E-TS. E is the sum of the following terms:
     one-electron contribution =  -23646.04466269 Ry
     hartree contribution      =   11845.49559311 Ry
     xc contribution           =    -362.10639464 Ry
     ewald contribution        =    8616.64755312 Ry
     DFT-D3 Dispersion         =      -0.45491261 Ry
     electric field correction =       0.00000203 Ry
     one-center paw contrib.   =     -49.32690052 Ry

     convergence has been achieved in  36 iterations

     negative rho (up, down):  4.964E-05 0.000E+00

     Forces acting on atoms (cartesian axes, Ry/au):

     atom    1 type  1   force =     0.00015017    0.00053452    0.00171705
     atom    2 type  1   force =     0.00017276    0.00052272    0.00171827
     atom    3 type  1   force =    -0.00022592   -0.00010197   -0.00149384
     atom    4 type  1   force =     0.00000397   -0.00034248   -0.00080208
     atom    5 type  1   force =     0.00017420    0.00054866    0.00171432
     atom    6 type  1   force =    -0.00031761   -0.00004547   -0.00150568
     atom    7 type  1   force =     0.00009236   -0.00012688    0.00017678
     atom    8 type  1   force =     0.00000373   -0.00034209   -0.00080691
     atom    9 type  1   force =     0.00008407   -0.00012213    0.00184056
     atom   10 type  1   force =    -0.00022215    0.00000820   -0.00150435
     atom   11 type  1   force =     0.00000420   -0.00034232   -0.00080197
     atom   12 type  1   force =     0.00009292   -0.00012483    0.00016156
     atom   13 type  2   force =    -0.00000258   -0.00000574    0.00291794
     atom   14 type  2   force =    -0.00000672   -0.00001401   -0.00103446
     atom   15 type  2   force =    -0.00000839   -0.00000269   -0.00104084
     atom   16 type  2   force =    -0.00000066   -0.00000367   -0.00103417
     atom   17 type  2   force =    -0.00000250   -0.00001304   -0.00104218
     atom   18 type  2   force =     0.00000534   -0.00001396   -0.00103534
     atom   19 type  2   force =     0.00000331   -0.00000258   -0.00104189
     atom   20 type  2   force =    -0.00000050   -0.00001022    0.00289722

     Total force =     0.006778     Total SCF correction =     0.000275

     Writing all to output data dir ./tmp/V2_top_fcc_G3_c2_far_i.save/ :
     XML data file, charge density, pseudopotentials, collected wavefunctions
 
     init_run     :      3.68s CPU      3.92s WALL (       1 calls)
     electrons    :    188.71s CPU    207.44s WALL (       1 calls)
     forces       :      0.73s CPU      0.90s WALL (       1 calls)
     force_dftd3  :      0.02s CPU      0.01s WALL (       1 calls)

     Called by init_run:
     wfcinit      :      1.13s CPU      1.74s WALL (       1 calls)
     potinit      :      1.60s CPU      1.22s WALL (       1 calls)
     hinit0       :      0.62s CPU      0.53s WALL (       1 calls)

     Called by electrons:
     c_bands      :    102.54s CPU    128.04s WALL (      37 calls)
     sum_band     :     22.20s CPU     32.66s WALL (      37 calls)
     v_of_rho     :      9.27s CPU      7.60s WALL (      37 calls)
     newd         :      0.56s CPU      0.56s WALL (      37 calls)
                                        0.56s GPU  (      37 calls)
     PAW_pot      :     44.61s CPU     28.16s WALL (      37 calls)
     mix_rho      :      6.84s CPU      7.28s WALL (      37 calls)
     energy_dftd3 :      0.00s CPU      0.00s WALL (       1 calls)

     Called by c_bands:
     init_us_2    :      1.40s CPU      1.85s WALL (    1520 calls)
     cegterg      :     89.71s CPU     90.10s WALL (     740 calls)

     Called by *egterg:
     cdiaghg      :     13.82s CPU     14.13s WALL (    3479 calls)
                                       14.10s GPU  (    3479 calls)
     h_psi        :     60.72s CPU     61.06s WALL (    3519 calls)
                                       60.90s GPU  (    3519 calls)
     s_psi        :      1.50s CPU      1.47s WALL (    3519 calls)
     g_psi        :      0.02s CPU      0.46s WALL (    2759 calls)
                                        0.45s GPU  (    2759 calls)

     Called by h_psi:
     h_psi:calbec :      0.14s CPU      2.50s WALL (    3519 calls)
                                        2.48s GPU  (    3519 calls)
     vloc_psi     :     53.75s CPU     53.98s WALL (    3519 calls)
                                       53.96s GPU  (    3519 calls)
     add_vuspsi   :      1.52s CPU      3.94s WALL (    3519 calls)
                                        3.91s GPU  (    3519 calls)

     General routines
     calbec       :      0.17s CPU      0.18s WALL (    4339 calls)
     fft          :      1.77s CPU      1.91s WALL (     491 calls)
                                        0.15s GPU  (     454 calls)
     ffts         :      0.40s CPU      0.76s WALL (    4045 calls)
                                        0.39s GPU  (    4008 calls)
     fftw         :      0.54s CPU     46.29s WALL (   41718 calls)
                                       46.04s GPU  (   41718 calls)
     interpolate  :      2.44s CPU      2.47s WALL (      37 calls)
     davcio       :      2.87s CPU     36.40s WALL (    2906 calls)
 
     Parallel routines
 
     PWSCF        :   3m15.27s CPU   3m34.74s WALL

 
   This run was terminated on:  20: 5:36  26Sep2026            

=------------------------------------------------------------------------------=
   JOB DONE.
=------------------------------------------------------------------------------=
