site_screen DFT handoff (freeze<= 17.396 A)
1.0
  18.2724449377 0.0000000000 0.0000000000
  -3.6263933057 10.9259057104 0.0000000000
  0.0000000000000000 -0.0000000000000000 40.6550999999999974
  Li  Ni  O  C  F
  48  48  96  10  22
Selective dynamics
Direct
  0.9581555227000000 0.2290777613000000 0.2969216329824448 F F F
  0.2914888559000000 0.1457444282000000 0.2969216329824448 F F F
  0.6248221890000000 0.0624110942000000 0.2969216329824448 F F F
  0.0407776122000000 0.1453888064000000 0.3470848584456916 F F F
  0.3741109454000000 0.0620554724000000 0.3470848584456916 F F F
  0.7074442791000000 0.2287221395000000 0.3470848584456916 F F F
  0.1228053137000000 0.0614023778000000 0.3983448174870819 F F F
  0.4559912116000000 0.2279949128000000 0.3982756527302582 F F F
  0.7891160757000000 0.1445604073000000 0.3983355884284935 F F F
  0.2041787373000000 0.2257215105000000 0.4496751807485118 T T T
  0.5369977607999999 0.1435892915000000 0.4494875828697624 T T T
  0.8701178797000000 0.0601026274000000 0.4494610850636064 T T T
  0.9581555225000000 0.4790777615000000 0.2969216329824448 F F F
  0.2914888555000000 0.3957444275000000 0.2969216329824448 F F F
  0.6248221888000000 0.3124110944000000 0.2969216329824448 F F F
  0.0407776119000000 0.3953888057000000 0.3470848584456916 F F F
  0.3741109458000000 0.3120554726000000 0.3470848584456916 F F F
  0.7074442788999999 0.4787221397000000 0.3470848584456916 F F F
  0.1228053135000000 0.3114023780000000 0.3983448174870819 F F F
  0.4559912114000000 0.4779949130000000 0.3982756527302582 F F F
  0.7891160760000000 0.3945604066000000 0.3983355884284935 F F F
  0.2038064296000000 0.4780195298000000 0.4496872522657411 T T T
  0.5369333126000000 0.3932947752000000 0.4493080548254766 T T T
  0.8702123091000000 0.3100311516000000 0.4495192903366168 T T T
  0.9581555222000000 0.7290777608000000 0.2969216329824448 F F F
  0.2914888559000000 0.6457444277000000 0.2969216329824448 F F F
  0.6248221892000000 0.5624110946000000 0.2969216329824448 F F F
  0.0407776123000000 0.6453888059000000 0.3470848584456916 F F F
  0.3741109456000000 0.5620554728000000 0.3470848584456916 F F F
  0.7074442786000000 0.7287221390000000 0.3470848584456916 F F F
  0.1228053133000000 0.5614023782000001 0.3983448174870819 F F F
  0.4559912118000000 0.7279949133000000 0.3982756527302582 F F F
  0.7891160758000000 0.6445604069000000 0.3983355884284935 F F F
  0.2040801249000000 0.7268161899000000 0.4494442466149128 T T T
  0.5368691794000000 0.6431013772000000 0.4495452666631132 T T T
  0.8701894099000000 0.5598382022000000 0.4493741786100633 T T T
  0.9581555226000000 0.9790777610000000 0.2969216329824448 F F F
  0.2914888558000000 0.8957444279000000 0.2969216329824448 F F F
  0.6248221891000000 0.8124110948000000 0.2969216329824448 F F F
  0.0407776121000000 0.8953888061000000 0.3470848584456916 F F F
  0.3741109454000000 0.8120554730000000 0.3470848584456916 F F F
  0.7074442790000000 0.9787221392000000 0.3470848584456916 F F F
  0.1228053136000000 0.8114023775000000 0.3983448174870819 F F F
  0.4559912117000000 0.9779949135000000 0.3982756527302582 F F F
  0.7891160756000000 0.8945604071000000 0.3983355884284935 F F F
  0.2038569417000000 0.9754093072000000 0.4494599309753790 T T T
  0.5369124431000000 0.8932781308000000 0.4497531214884615 T T T
  0.8700886194000000 0.8099212719000000 0.4494103371879145 T T T
  0.4581555226000000 0.2290777613000000 0.2969216329824448 F F F
  0.7914888559000000 0.1457444282000000 0.2969216329824448 F F F
  0.1248221889000000 0.0624110942000000 0.2969216329824448 F F F
  0.5407776123000000 0.1453888064000000 0.3470848584456916 F F F
  0.8741109454000000 0.0620554724000000 0.3470848584456916 F F F
  0.2074442790000000 0.2287221395000000 0.3470848584456916 F F F
  0.6243433249000000 0.0621716531000000 0.3992124813367810 F F F
  0.9577526387000000 0.2288761267000000 0.3992644192519816 F F F
  0.2911494255000000 0.1455744185000000 0.3991107494829875 F F F
  0.7093849045000000 0.2296329400000000 0.4499472322060252 T T T
  0.0427431751000000 0.1461032268000000 0.4497952677782358 T T T
  0.3762211228000000 0.0628838879000000 0.4496895174197520 T T T
  0.4581555225000000 0.4790777615000000 0.2969216329824448 F F F
  0.7914888556000000 0.3957444275000000 0.2969216329824448 F F F
  0.1248221893000000 0.3124110944000000 0.2969216329824448 F F F
  0.5407776120000000 0.3953888057000000 0.3470848584456916 F F F
  0.8741109453000000 0.3120554726000000 0.3470848584456916 F F F
  0.2074442788000000 0.4787221397000000 0.3470848584456916 F F F
  0.6243433248000000 0.3121716534000000 0.3992124813367810 F F F
  0.9577526385000000 0.4788761269000000 0.3992644192519816 F F F
  0.2911494254000000 0.3955744187000000 0.3991107494829875 F F F
  0.7093493867000000 0.4795869184000000 0.4498545700491370 T T T
  0.0427616781000000 0.3961346404000000 0.4497406425978127 T T T
  0.3764219545000000 0.3127255543000000 0.4496556382871044 T T T
  0.4581555221000000 0.7290777608000000 0.2969216329824448 F F F
  0.7914888560000000 0.6457444277000000 0.2969216329824448 F F F
  0.1248221892000000 0.5624110946000000 0.2969216329824448 F F F
  0.5407776124000000 0.6453888059000000 0.3470848584456916 F F F
  0.8741109457000000 0.5620554728000000 0.3470848584456916 F F F
  0.2074442791000000 0.7287221390000000 0.3470848584456916 F F F
  0.6243433246000000 0.5621716536000000 0.3992124813367810 F F F
  0.9577526387000000 0.7288761263000000 0.3992644192519816 F F F
  0.2911494258000000 0.6455744189000000 0.3991107494829875 F F F
  0.7092861627000000 0.7296090467000000 0.4499116457969071 T T T
  0.0428312297000000 0.6462307114000000 0.4497509047905252 T T T
  0.3760406697000000 0.5628603379000000 0.4497248561893001 T T T
  0.4581555225000000 0.9790777610000000 0.2969216329824448 F F F
  0.7914888557999999 0.8957444279000000 0.2969216329824448 F F F
  0.1248221890000000 0.8124110948000000 0.2969216329824448 F F F
  0.5407776122000000 0.8953888061000000 0.3470848584456916 F F F
  0.8741109455000000 0.8120554730000000 0.3470848584456916 F F F
  0.2074442789000000 0.9787221392000000 0.3470848584456916 F F F
  0.6243433250000000 0.8121716538000000 0.3992124813367810 F F F
  0.9577526386000000 0.9788761265000000 0.3992644192519816 F F F
  0.2911494254000000 0.8955744182000001 0.3991107494829875 F F F
  0.7092611697000000 0.9795543284000000 0.4499040196593106 T T T
  0.0428164857000000 0.8961867217000000 0.4497343976444244 T T T
  0.3761303136000000 0.8130412192000001 0.4497510359419897 T T T
  0.7140137492999999 0.2320068750000000 0.2951659201623150 F F F
  0.2022972954000000 0.2261486476000000 0.2986773460258745 F F F
  0.0473470828000000 0.1486735409000000 0.2951659201623150 F F F
  0.5356306287000000 0.1428153145000000 0.2986773460258745 F F F
  0.3806804161000000 0.0653402078000000 0.2951659201623150 F F F
  0.8689639626000000 0.0594819814000000 0.2986773460258745 F F F
  0.7966358388000000 0.1483179192000000 0.3453291456999951 F F F
  0.2849193856000000 0.1424596927000000 0.3488405715635547 F F F
  0.1299691725000000 0.0649845861000000 0.3453291456999951 F F F
  0.6182527190000000 0.0591263596000000 0.3488405715635547 F F F
  0.4633025056000000 0.2316512532000000 0.3453291456999951 F F F
  0.9515860519000000 0.2257930258000000 0.3488405715635547 F F F
  0.8810689915000000 0.0655199431000000 0.3989157096890450 F F F
  0.3670671296000000 0.0585276019000000 0.3987243691553938 F F F
  0.2143744382000000 0.2321922655000000 0.3990422940754582 F F F
  0.7000772866000000 0.2250341212000000 0.3988987873540288 F F F
  0.5477439775000000 0.1488765127000000 0.3988979539988662 F F F
  0.0339334728000000 0.1419812912000000 0.3986734931055689 F F F
  0.9679353669000000 0.2340819606000000 0.4507186055734742 T T T
  0.4490198030000000 0.2238789859000000 0.4510431862442778 T T T
  0.3016173007000000 0.1509100539000000 0.4505477091117238 T T T
  0.7821084503000000 0.1408446440000000 0.4508294078685059 T T T
  0.6346601338000000 0.0677791260000000 0.4505968114905796 T T T
  0.1154945573000000 0.0572808467000000 0.4510853769707288 T T T
  0.7140137495000000 0.4820068743000000 0.2951659201623150 F F F
  0.2022972958000000 0.4761486478000000 0.2986773460258745 F F F
  0.0473470827000000 0.3986735412000000 0.2951659201623150 F F F
  0.5356306291000000 0.3928153147000000 0.2986773460258745 F F F
  0.3806804160000000 0.3153402081000000 0.2951659201623150 F F F
  0.8689639622000001 0.3094819807000000 0.2986773460258745 F F F
  0.7966358392000000 0.3983179194000000 0.3453291456999951 F F F
  0.2849193855000000 0.3924596929000000 0.3488405715635547 F F F
  0.1299691723000000 0.3149845863000000 0.3453291456999951 F F F
  0.6182527186000000 0.3091263589000000 0.3488405715635547 F F F
  0.4633025059000000 0.4816512525000000 0.3453291456999951 F F F
  0.9515860518000000 0.4757930260000000 0.3488405715635547 F F F
  0.8810689911000000 0.3155199424000000 0.3989157096890450 F F F
  0.3670671300000000 0.3085276021000000 0.3987243691553938 F F F
  0.2143744380000000 0.4821922658000000 0.3990422940754582 F F F
  0.7000772864000000 0.4750341214000000 0.3988987873540288 F F F
  0.5477439774000000 0.3988765129000000 0.3988979539988662 F F F
  0.0339334730000000 0.3919812905000000 0.3986734931055689 F F F
  0.9679801547000000 0.4842076877000000 0.4507349146525790 T T T
  0.4491899114000000 0.4737624099000000 0.4506845830078686 T T T
  0.3017146919000000 0.4000686859000000 0.4500816384895987 T T T
  0.7821273105000000 0.3909148526000000 0.4511852197819473 T T T
  0.6345159163000000 0.3175449809000000 0.4507793853452664 T T T
  0.1152893922000000 0.3072486510000000 0.4510132780534455 T T T
  0.7140137492999999 0.7320068745000000 0.2951659201623150 F F F
  0.2022972957000000 0.7261486480000000 0.2986773460258745 F F F
  0.0473470825000000 0.6486735414000000 0.2951659201623150 F F F
  0.5356306290000000 0.6428153149000000 0.2986773460258745 F F F
  0.3806804158000000 0.5653402083000000 0.2951659201623150 F F F
  0.8689639621000000 0.5594819809000000 0.2986773460258745 F F F
  0.7966358390000000 0.6483179196000000 0.3453291456999951 F F F
  0.2849193853000000 0.6424596931000000 0.3488405715635547 F F F
  0.1299691727000000 0.5649845865000001 0.3453291456999951 F F F
  0.6182527185000000 0.5591263591000000 0.3488405715635547 F F F
  0.4633025057000000 0.7316512527000000 0.3453291456999951 F F F
  0.9515860522000000 0.7257930262000000 0.3488405715635547 F F F
  0.8810689910000000 0.5655199426000000 0.3989157096890450 F F F
  0.3670671298000000 0.5585276024000000 0.3987243691553938 F F F
  0.2143744382000000 0.7321922651000000 0.3990422940754582 F F F
  0.7000772868000000 0.7250341217000000 0.3988987873540288 F F F
  0.5477439777000001 0.6488765131000001 0.3988979539988662 F F F
  0.0339334729000000 0.6419812907000000 0.3986734931055689 F F F
  0.9680437783000000 0.7341937129000000 0.4507558817672386 T T T
  0.4487748069000000 0.7249166696000000 0.4505076389153929 T T T
  0.3011511589000000 0.6511599513000000 0.4504592924066402 T T T
  0.7820783251000000 0.6408743308000000 0.4512556045748972 T T T
  0.6345962827000000 0.5677005719000000 0.4507567576982453 T T T
  0.1154980632000000 0.5574145770000000 0.4511618810736662 T T T
  0.7140137492000000 0.9820068747000000 0.2951659201623150 F F F
  0.2022972955000000 0.9761486482000000 0.2986773460258745 F F F
  0.0473470829000000 0.8986735416000000 0.2951659201623150 F F F
  0.5356306286000000 0.8928153142000000 0.2986773460258745 F F F
  0.3806804160000000 0.8153402076000000 0.2951659201623150 F F F
  0.8689639625000000 0.8094819811000000 0.2986773460258745 F F F
  0.7966358394000000 0.8983179198000000 0.3453291456999951 F F F
  0.2849193856000000 0.8924596924000000 0.3488405715635547 F F F
  0.1299691724000000 0.8149845858000000 0.3453291456999951 F F F
  0.6182527189000000 0.8091263593000000 0.3488405715635547 F F F
  0.4633025055000000 0.9816512529000000 0.3453291456999951 F F F
  0.9515860520000000 0.9757930265000000 0.3488405715635547 F F F
  0.8810689913999999 0.8155199428000000 0.3989157096890450 F F F
  0.3670671300000000 0.8085276017000000 0.3987243691553938 F F F
  0.2143744381000000 0.9821922653000000 0.3990422940754582 F F F
  0.7000772865000000 0.9750341210000000 0.3988987873540288 F F F
  0.5477439774000000 0.8988765124000000 0.3988979539988662 F F F
  0.0339334727000000 0.8919812909000000 0.3986734931055689 F F F
  0.9680137947000000 0.9840293432000000 0.4506933521431316 T T T
  0.4488485366000000 0.9741568033000000 0.4510584260891106 T T T
  0.3013743425000000 0.9009069601000000 0.4506581784666302 T T T
  0.7820684488000000 0.8906709355000000 0.4511802430974599 T T T
  0.6346912845000000 0.8175708556000000 0.4506965123575059 T T T
  0.1156229833000000 0.8074370010000000 0.4511973905187579 T T T
  0.7476905030000000 1.1087555339999999 0.5582547350513412 T T T
  0.6664274118000000 1.0367795550000001 0.5727269447056080 T T T
  0.6178980574000000 0.9259519383000000 0.5511112451159539 T T T
  0.5491905921000000 0.8313508464000000 0.5699643060962547 T T T
  0.4873567580000000 0.7429729896000000 0.5466288295599053 T T T
  0.4332580378000000 0.6249049424999999 0.5643505712341526 T T T
  0.3569013551000000 0.5590726537000000 0.5448958229139219 T T T
  0.3157173152000000 0.4220773117000000 0.5551547823186688 T T T
  0.2286816999000000 0.3705232653000000 0.5443611355128857 T T T
  0.1948420242000000 0.2273434099000000 0.5432490785013200 T T T
  0.7794536006000000 1.2109781862000000 0.5766671871786501 T T T
  0.7961866699000000 1.0407380798999999 0.5588776362523009 T T T
  0.7415528761000000 1.1440822262999999 0.5267734183538455 T T T
  0.6258270156000000 1.1177284953000000 0.5760614008716388 T T T
  0.6784656246000000 0.9955986962000000 0.6032769426467550 T T T
  0.6660509827000000 0.8652028784000000 0.5394767643135532 T T T
  0.5890788831000000 0.9724834729000000 0.5249094735692014 T T T
  0.5127631750000000 0.8944875134000000 0.5889724967057498 T T T
  0.5795002371000000 0.7623801258000000 0.5899324948336758 T T T
  0.5252741383000000 0.7059981758000000 0.5216907349752219 T T T
  0.4427646641000000 0.8071840279000000 0.5335043092059032 T T T
  0.4130885429000000 0.6565989658000000 0.5946477224009041 T T T
  0.4739025103000000 0.5440991610000000 0.5681940892788391 T T T
  0.3754033955000000 0.5591911062000000 0.5121363041924493 T T T
  0.3067647161000000 0.6245037126000000 0.5488073650996309 T T T
  0.3185946935000000 0.4116154092000000 0.5886026346148178 T T T
  0.3551571287000000 0.3512859558000000 0.5411152435787275 T T T
  0.2203550276000000 0.4117728671000000 0.5134132379475256 T T T
  0.1849662986000000 0.4126267341000000 0.5656326264464736 T T T
  0.2273267808000000 0.1801157846000000 0.5188152307799201 T T T
  0.2068568851000000 0.1777811004000000 0.5722761732516514 T T T
  0.1178661872000000 0.1942984935000000 0.5376551625458801 T T T
