
     Program PWSCF v.7.4.1 starts on  4Oct2026 at 14:55:49 

     This program is part of the open-source Quantum ESPRESSO suite
     for quantum simulation of materials; please cite
         "P. Giannozzi et al., J. Phys.:Condens. Matter 21 395502 (2009);
         "P. Giannozzi et al., J. Phys.:Condens. Matter 29 465901 (2017);
         "P. Giannozzi et al., J. Chem. Phys. 152 154105 (2020);
          URL http://www.quantum-espresso.org", 
     in publications or presentations arising from this work. More details at
     http://www.quantum-espresso.org/quote

     Parallel version (MPI & OpenMP), running on       1 processor cores
     Number of MPI processes:                 1
     Threads/MPI process:                     1

     MPI processes distributed on     1 nodes
     7609 MiB available memory on the printing compute node when the environment starts
 
     Reading input from pw.in

     Current dimensions of program PWSCF are:
     Max number of different atomic species (ntypx) = 10
     Max number of k-points (npk) =  40000
     Max angular momentum in pseudopotentials (lmaxx) =  4
     Presently no symmetry can be used with electric field

     file C.pbe-n-kjpaw_psl.1.0.0.UPF: wavefunction(s)  2S 2P renormalized
 
     Subspace diagonalization in iterative solution of the eigenvalue problem:
     a serial algorithm will be used

 
     G-vector sticks info
     --------------------
     sticks:   dense  smooth     PW     G-vecs:    dense   smooth      PW
     Sum        3193    1273    367              1013709   256635   40105
 
     Using Slab Decomposition
 


     bravais-lattice index     =            0
     lattice parameter (alat)  =       9.4208  a.u.
     unit-cell volume          =    5061.5040 (a.u.)^3
     number of atoms/cell      =           36
     number of atomic types    =            2
     number of electrons       =       324.00
     number of Kohn-Sham states=          194
     kinetic-energy cutoff     =      52.0000  Ry
     charge density cutoff     =     520.0000  Ry
     scf convergence threshold =      1.0E-08
     mixing beta               =       0.3000
     number of iterations used =            8  local-TF  mixing
     Exchange-correlation= SLA  PW   PBX  PBC
                           (   1   4   3   4   0   0   0)

     GPU acceleration is ACTIVE.  1 visible GPUs per MPI rank


     celldm(1)=   9.420781  celldm(2)=   0.000000  celldm(3)=   0.000000
     celldm(4)=   0.000000  celldm(5)=   0.000000  celldm(6)=   0.000000

     crystal axes: (cart. coord. in units of alat)
               a(1) = (   1.000000  -0.000000   0.000000 )  
               a(2) = (   0.500000   0.866025   0.000000 )  
               a(3) = (   0.000000   0.000000   6.990177 )  

     reciprocal axes: (cart. coord. in units 2 pi/alat)
               b(1) = (  1.000000 -0.577350  0.000000 )  
               b(2) = (  0.000000  1.154701 -0.000000 )  
               b(3) = ( -0.000000  0.000000  0.143058 )  


     PseudoPot. # 1 for Ag read from file:
     /home/kgy/work/pseudo/Ag_ONCV_PBE-1.0.oncvpsp.upf
     MD5 check sum: 94f47bd0669c641108e45594df92fabc
     Pseudo is Norm-conserving, Zval = 19.0
     Generated using ONCVPSP code by D. R. Hamann
     Using radial grid of 1398 points,  6 beta functions with: 
                l(1) =   0
                l(2) =   0
                l(3) =   1
                l(4) =   1
                l(5) =   2
                l(6) =   2

     PseudoPot. # 2 for C  read from file:
     /home/kgy/work/pseudo/C.pbe-n-kjpaw_psl.1.0.0.UPF
     MD5 check sum: 5d2aebdfa2cae82b50a7e79e9516da0f
     Pseudo is Projector augmented-wave + core cor, Zval =  4.0
     Generated using "atomic" code by A. Dal Corso  v.5.1
     Shape of augmentation charge: PSQ
     Using radial grid of 1073 points,  4 beta functions with: 
                l(1) =   0
                l(2) =   0
                l(3) =   1
                l(4) =   1
     Q(r) pseudized with 0 coefficients 


     atomic species   valence    mass     pseudopotential
     Ag               19.00   107.86820     Ag( 1.00)
     C                 4.00    12.01100     C ( 1.00)

     No symmetry found



   Cartesian axes

     site n.     atom                  positions (alat units)
         1        Ag     tau(   1) = (   0.3337695   0.5765948   0.5717001  )
         2        Ag     tau(   2) = (   0.8337695   0.8652699   0.5717001  )
         3        Ag     tau(   3) = (   0.1658131   0.2881628   1.0404978  )
         4        Ag     tau(   4) = (   0.5004501   0.2909658   0.1002956  )
         5        Ag     tau(   5) = (   0.8337695   0.2879196   0.5717001  )
         6        Ag     tau(   6) = (   0.6657286   0.5768865   1.0406295  )
         7        Ag     tau(   7) = (   0.5013979   0.2880440   1.5121792  )
         8        Ag     tau(   8) = (   1.0004501   0.5796409   0.1002956  )
         9        Ag     tau(   9) = (   1.0014376   0.5767316   1.5111335  )
        10        Ag     tau(  10) = (   0.6658079  -0.0004107   1.0405249  )
        11        Ag     tau(  11) = (   1.0004501   0.0022906   0.1002956  )
        12        Ag     tau(  12) = (   1.0014053  -0.0005819   1.5121715  )
        13        C      tau(  13) = (   0.5004501   0.2909658   2.3594524  )
        14        C      tau(  14) = (   0.7504501   0.4353033   2.3602193  )
        15        C      tau(  15) = (   0.7504501   0.7239785   2.3601125  )
        16        C      tau(  16) = (   1.0004501   0.8683160   2.3602181  )
        17        C      tau(  17) = (   1.0004501   0.2909658   2.3601115  )
        18        C      tau(  18) = (   1.2504501   0.4353033   2.3602180  )
        19        C      tau(  19) = (   1.2504501   0.7239785   2.3601127  )
        20        C      tau(  20) = (   1.5004501   0.8683160   2.3596009  )
        21        C      tau(  21) = (   0.7504501   0.4353033   3.0442870  )
        22        C      tau(  22) = (   1.0004501   0.5796409   3.0442287  )
        23        C      tau(  23) = (   1.0004501   0.8683160   3.0442869  )
        24        C      tau(  24) = (   1.2504501   1.0126536   3.0442165  )
        25        C      tau(  25) = (   1.2504501   0.4353033   3.0442869  )
        26        C      tau(  26) = (   1.5004501   0.5796409   3.0442165  )
        27        C      tau(  27) = (   1.5004501   0.8683160   3.0442816  )
        28        C      tau(  28) = (   1.7504501   1.0126536   3.0442165  )
        29        C      tau(  29) = (   0.5004501   0.2909658   3.7253287  )
        30        C      tau(  30) = (   0.7504501   0.4353033   3.7252016  )
        31        C      tau(  31) = (   0.7504501   0.7239785   3.7253302  )
        32        C      tau(  32) = (   1.0004501   0.8683160   3.7252016  )
        33        C      tau(  33) = (   1.0004501   0.2909658   3.7253302  )
        34        C      tau(  34) = (   1.2504501   0.4353033   3.7252016  )
        35        C      tau(  35) = (   1.2504501   0.7239785   3.7253302  )
        36        C      tau(  36) = (   1.5004501   0.8683160   3.7252036  )

     --------------------------------------------
     DFT-D3 Dispersion Correction (no 3-body):
     --------------------------------------------
       Reference C6 values for interpolation: 

         atom   Coordination number   C6
         C          0.000            98.23
         C          0.987            86.49
         C          1.998            58.72
         C          2.999            51.56
         C          3.984            36.41
         Ag         0.000           853.49
         Ag         0.968           537.23

       Values used:

         atom   Coordination number  R0_AB[au]  C6      C8
         Ag         9.095            3.147    537.23  47741.54
         Ag         9.095            3.147    537.23  47741.54
         Ag         9.099            3.147    537.23  47741.54
         Ag         6.766            3.147    537.23  47741.54
         Ag         9.095            3.147    537.23  47741.54
         Ag         9.098            3.147    537.23  47741.54
         Ag         6.776            3.147    537.23  47741.54
         Ag         6.766            3.147    537.23  47741.54
         Ag         6.790            3.147    537.23  47741.54
         Ag         9.099            3.147    537.23  47741.54
         Ag         6.766            3.147    537.23  47741.54
         Ag         6.776            3.147    537.23  47741.54
         C          3.279            2.750     48.94   1415.49
         C          3.279            2.750     48.94   1415.47
         C          3.279            2.750     48.94   1415.55
         C          3.279            2.750     48.94   1415.47
         C          3.279            2.750     48.94   1415.55
         C          3.279            2.750     48.94   1415.47
         C          3.279            2.750     48.94   1415.55
         C          3.279            2.750     48.94   1415.40
         C          3.281            2.750     48.92   1414.72
         C          3.280            2.750     48.92   1414.89
         C          3.281            2.750     48.92   1414.72
         C          3.280            2.750     48.92   1414.90
         C          3.281            2.750     48.92   1414.72
         C          3.280            2.750     48.92   1414.90
         C          3.281            2.750     48.92   1414.73
         C          3.280            2.750     48.92   1414.90
         C          3.274            2.750     49.03   1417.95
         C          3.274            2.750     49.02   1417.87
         C          3.274            2.750     49.03   1417.96
         C          3.274            2.750     49.02   1417.87
         C          3.274            2.750     49.03   1417.96
         C          3.274            2.750     49.02   1417.87
         C          3.274            2.750     49.03   1417.96
         C          3.274            2.750     49.02   1417.86

         Molecular C6 ( Ry / a.u.^6 ) =    198677.69


     number of k points=    20  Marzari-Vanderbilt smearing, width (Ry)=  0.0100
                       cart. coord. in units 2pi/alat
        k(    1) = (   0.0000000   0.0000000   0.0000000), wk =   0.0555556
        k(    2) = (   0.0000000   0.1924501   0.0000000), wk =   0.1111111
        k(    3) = (   0.0000000   0.3849002   0.0000000), wk =   0.1111111
        k(    4) = (   0.0000000  -0.5773503   0.0000000), wk =   0.0555556
        k(    5) = (   0.1666667  -0.0962250   0.0000000), wk =   0.1111111
        k(    6) = (   0.1666667   0.0962250   0.0000000), wk =   0.1111111
        k(    7) = (   0.1666667   0.2886751   0.0000000), wk =   0.1111111
        k(    8) = (   0.1666667  -0.6735753   0.0000000), wk =   0.1111111
        k(    9) = (   0.1666667  -0.4811252   0.0000000), wk =   0.1111111
        k(   10) = (   0.1666667  -0.2886751   0.0000000), wk =   0.1111111
        k(   11) = (   0.3333333  -0.1924501   0.0000000), wk =   0.1111111
        k(   12) = (   0.3333333  -0.0000000   0.0000000), wk =   0.1111111
        k(   13) = (   0.3333333   0.1924501   0.0000000), wk =   0.1111111
        k(   14) = (   0.3333333  -0.7698004   0.0000000), wk =   0.1111111
        k(   15) = (   0.3333333  -0.5773503   0.0000000), wk =   0.1111111
        k(   16) = (   0.3333333  -0.3849002   0.0000000), wk =   0.1111111
        k(   17) = (  -0.5000000   0.2886751   0.0000000), wk =   0.0555556
        k(   18) = (  -0.5000000   0.4811252   0.0000000), wk =   0.1111111
        k(   19) = (  -0.5000000   0.6735753   0.0000000), wk =   0.1111111
        k(   20) = (  -0.5000000  -0.2886751   0.0000000), wk =   0.0555556

     Dense  grid:  1013709 G-vectors     FFT dimensions: (  72,  72, 480)

     Smooth grid:   256635 G-vectors     FFT dimensions: (  45,  45, 320)

     Estimated max dynamical RAM per process >       2.73 GB

     Check: negative core charge=   -0.000002

     Initial potential from superposition of free atoms

     starting charge     323.9955, renormalised to     324.0000

     negative rho (up, down):  2.182E-04 0.000E+00
 
     Adding external electric field

     Computed dipole along edir(3) : 
        Dipole               -0.0071 Ry au,         -0.0180 Debye
        Dipole field         -0.0000 Ry au, 
 
        Potential amp.        0.0022 Ry
        Total length         63.9630 bohr
 
     Starting wfcs are  216 randomized atomic wfcs
     Checking if some PAW data can be deallocated... 

     total cpu time spent up to now is       27.9 secs

     Self-consistent Calculation

     iteration #  1     ecut=    52.00 Ry     beta= 0.30
     Davidson diagonalization with overlap
     ethr =  1.00E-02,  avg # of iterations =  8.1

     negative rho (up, down):  1.381E-07 0.000E+00
 
     Adding external electric field

     Computed dipole along edir(3) : 
        Dipole               -0.1326 Ry au,         -0.3371 Debye
        Dipole field         -0.0003 Ry au, 
 
        Potential amp.        0.0421 Ry
        Total length         63.9630 bohr
 

     total cpu time spent up to now is      117.6 secs

     total energy              =   -3891.68413524 Ry
     estimated scf accuracy    <       3.51364049 Ry

     iteration #  2     ecut=    52.00 Ry     beta= 0.30
     Davidson diagonalization with overlap
     ethr =  1.08E-03,  avg # of iterations =  1.7

     negative rho (up, down):  7.583E-08 0.000E+00
 
     Adding external electric field

     Computed dipole along edir(3) : 
        Dipole               -0.4736 Ry au,         -1.2039 Debye
        Dipole field         -0.0012 Ry au, 
 
        Potential amp.        0.1504 Ry
        Total length         63.9630 bohr
 

     total cpu time spent up to now is      177.2 secs

     total energy              =   -3891.01156441 Ry
     estimated scf accuracy    <       1.91584672 Ry

     iteration #  3     ecut=    52.00 Ry     beta= 0.30
     Davidson diagonalization with overlap
     ethr =  5.91E-04,  avg # of iterations =  7.9
 
     Adding external electric field

     Computed dipole along edir(3) : 
        Dipole               -0.6193 Ry au,         -1.5741 Debye
        Dipole field         -0.0015 Ry au, 
 
        Potential amp.        0.1967 Ry
        Total length         63.9630 bohr
 

     total cpu time spent up to now is      258.5 secs

     total energy              =   -3891.14120836 Ry
     estimated scf accuracy    <       0.48776201 Ry

     iteration #  4     ecut=    52.00 Ry     beta= 0.30
     Davidson diagonalization with overlap
     c_bands:  1 eigenvalues not converged
     c_bands:  1 eigenvalues not converged
     ethr =  1.51E-04,  avg # of iterations = 10.2

     negative rho (up, down):  2.842E-08 0.000E+00
 
     Adding external electric field

     Computed dipole along edir(3) : 
        Dipole               -0.5028 Ry au,         -1.2779 Debye
        Dipole field         -0.0012 Ry au, 
 
        Potential amp.        0.1597 Ry
        Total length         63.9630 bohr
 

     total cpu time spent up to now is      341.4 secs

     total energy              =   -3891.14366164 Ry
     estimated scf accuracy    <       0.52887740 Ry

     iteration #  5     ecut=    52.00 Ry     beta= 0.30
     Davidson diagonalization with overlap
     ethr =  1.51E-04,  avg # of iterations =  1.9
 
     Adding external electric field

     Computed dipole along edir(3) : 
        Dipole               -0.5171 Ry au,         -1.3144 Debye
        Dipole field         -0.0013 Ry au, 
 
        Potential amp.        0.1642 Ry
        Total length         63.9630 bohr
 

     total cpu time spent up to now is      399.9 secs

     total energy              =   -3891.14299631 Ry
     estimated scf accuracy    <       0.52845952 Ry

     iteration #  6     ecut=    52.00 Ry     beta= 0.30
     Davidson diagonalization with overlap
     ethr =  1.51E-04,  avg # of iterations =  1.0

     negative rho (up, down):  5.352E-03 0.000E+00
 
     Adding external electric field

     Computed dipole along edir(3) : 
        Dipole               -1.1685 Ry au,         -2.9699 Debye
        Dipole field         -0.0029 Ry au, 
 
        Potential amp.        0.3711 Ry
        Total length         63.9630 bohr
 

     total cpu time spent up to now is      453.4 secs

     total energy              =   -3891.09744835 Ry
     estimated scf accuracy    <       0.51733049 Ry

     iteration #  7     ecut=    52.00 Ry     beta= 0.30
     Davidson diagonalization with overlap
     ethr =  1.51E-04,  avg # of iterations =  5.2

     negative rho (up, down):  4.239E-03 0.000E+00
 
     Adding external electric field

     Computed dipole along edir(3) : 
        Dipole               -1.1454 Ry au,         -2.9113 Debye
        Dipole field         -0.0028 Ry au, 
 
        Potential amp.        0.3638 Ry
        Total length         63.9630 bohr
 

     total cpu time spent up to now is      523.0 secs

     total energy              =   -3891.11211141 Ry
     estimated scf accuracy    <       0.18487228 Ry

     iteration #  8     ecut=    52.00 Ry     beta= 0.30
     Davidson diagonalization with overlap
     ethr =  5.71E-05,  avg # of iterations =  3.4

     negative rho (up, down):  1.695E-03 0.000E+00
 
     Adding external electric field

     Computed dipole along edir(3) : 
        Dipole               -1.0785 Ry au,         -2.7412 Debye
        Dipole field         -0.0027 Ry au, 
 
        Potential amp.        0.3425 Ry
        Total length         63.9630 bohr
 

     total cpu time spent up to now is      585.6 secs

     total energy              =   -3891.10940354 Ry
     estimated scf accuracy    <       0.18576039 Ry

     iteration #  9     ecut=    52.00 Ry     beta= 0.30
     Davidson diagonalization with overlap
     ethr =  5.71E-05,  avg # of iterations =  1.0

     negative rho (up, down):  4.577E-05 0.000E+00
 
     Adding external electric field

     Computed dipole along edir(3) : 
        Dipole               -0.9051 Ry au,         -2.3006 Debye
        Dipole field         -0.0022 Ry au, 
 
        Potential amp.        0.2875 Ry
        Total length         63.9630 bohr
 

     total cpu time spent up to now is      639.4 secs

     total energy              =   -3891.09075484 Ry
     estimated scf accuracy    <       0.17718811 Ry

     iteration # 10     ecut=    52.00 Ry     beta= 0.30
     Davidson diagonalization with overlap
     ethr =  5.47E-05,  avg # of iterations =  5.8

     negative rho (up, down):  2.068E-05 0.000E+00
 
     Adding external electric field

     Computed dipole along edir(3) : 
        Dipole               -0.7442 Ry au,         -1.8917 Debye
        Dipole field         -0.0018 Ry au, 
 
        Potential amp.        0.2364 Ry
        Total length         63.9630 bohr
 

     total cpu time spent up to now is      709.5 secs

     total energy              =   -3891.07582472 Ry
     estimated scf accuracy    <       0.09352660 Ry

     iteration # 11     ecut=    52.00 Ry     beta= 0.30
     Davidson diagonalization with overlap
     ethr =  2.89E-05,  avg # of iterations = 10.3

     negative rho (up, down):  1.098E-07 0.000E+00
 
     Adding external electric field

     Computed dipole along edir(3) : 
        Dipole               -0.8940 Ry au,         -2.2722 Debye
        Dipole field         -0.0022 Ry au, 
 
        Potential amp.        0.2839 Ry
        Total length         63.9630 bohr
 

     total cpu time spent up to now is      792.3 secs

     total energy              =   -3891.07698777 Ry
     estimated scf accuracy    <       0.04260740 Ry

     iteration # 12     ecut=    52.00 Ry     beta= 0.30
     Davidson diagonalization with overlap
     c_bands:  1 eigenvalues not converged
     c_bands:  1 eigenvalues not converged
     c_bands:  1 eigenvalues not converged
     c_bands:  1 eigenvalues not converged
     c_bands:  2 eigenvalues not converged
     ethr =  1.32E-05,  avg # of iterations = 13.2

     negative rho (up, down):  7.952E-07 0.000E+00
 
     Adding external electric field

     Computed dipole along edir(3) : 
        Dipole               -0.7431 Ry au,         -1.8888 Debye
        Dipole field         -0.0018 Ry au, 
 
        Potential amp.        0.2360 Ry
        Total length         63.9630 bohr
 

     total cpu time spent up to now is      885.9 secs

     total energy              =   -3891.07721084 Ry
     estimated scf accuracy    <       0.12087250 Ry

     iteration # 13     ecut=    52.00 Ry     beta= 0.30
     Davidson diagonalization with overlap
     c_bands:  1 eigenvalues not converged
     ethr =  1.32E-05,  avg # of iterations =  8.9

     negative rho (up, down):  1.653E-06 0.000E+00
 
     Adding external electric field

     Computed dipole along edir(3) : 
        Dipole               -0.6370 Ry au,         -1.6191 Debye
        Dipole field         -0.0016 Ry au, 
 
        Potential amp.        0.2023 Ry
        Total length         63.9630 bohr
 

     total cpu time spent up to now is      965.6 secs

     total energy              =   -3891.07579965 Ry
     estimated scf accuracy    <       0.06425634 Ry

     iteration # 14     ecut=    52.00 Ry     beta= 0.30
     Davidson diagonalization with overlap
     ethr =  1.32E-05,  avg # of iterations =  9.3

     negative rho (up, down):  7.559E-07 0.000E+00
 
     Adding external electric field

     Computed dipole along edir(3) : 
        Dipole               -0.6027 Ry au,         -1.5319 Debye
        Dipole field         -0.0015 Ry au, 
 
        Potential amp.        0.1914 Ry
        Total length         63.9630 bohr
 

     total cpu time spent up to now is     1045.6 secs

     total energy              =   -3891.07414629 Ry
     estimated scf accuracy    <       0.01990310 Ry

     iteration # 15     ecut=    52.00 Ry     beta= 0.30
     Davidson diagonalization with overlap
     ethr =  6.14E-06,  avg # of iterations =  4.5

     negative rho (up, down):  2.988E-05 0.000E+00
 
     Adding external electric field

     Computed dipole along edir(3) : 
        Dipole               -0.5037 Ry au,         -1.2802 Debye
        Dipole field         -0.0013 Ry au, 
 
        Potential amp.        0.1600 Ry
        Total length         63.9630 bohr
 

     total cpu time spent up to now is     1111.3 secs

     total energy              =   -3891.07245330 Ry
     estimated scf accuracy    <       0.01335960 Ry

     iteration # 16     ecut=    52.00 Ry     beta= 0.30
     Davidson diagonalization with overlap
     ethr =  4.12E-06,  avg # of iterations = 10.7
 
     Adding external electric field

     Computed dipole along edir(3) : 
        Dipole               -0.4859 Ry au,         -1.2351 Debye
        Dipole field         -0.0012 Ry au, 
 
        Potential amp.        0.1543 Ry
        Total length         63.9630 bohr
 

     total cpu time spent up to now is     1195.0 secs

     total energy              =   -3891.07258927 Ry
     estimated scf accuracy    <       0.00759044 Ry

     iteration # 17     ecut=    52.00 Ry     beta= 0.30
     Davidson diagonalization with overlap
     ethr =  2.34E-06,  avg # of iterations =  9.9
 
     Adding external electric field

     Computed dipole along edir(3) : 
        Dipole               -0.4865 Ry au,         -1.2367 Debye
        Dipole field         -0.0012 Ry au, 
 
        Potential amp.        0.1545 Ry
        Total length         63.9630 bohr
 

     total cpu time spent up to now is     1276.2 secs

     total energy              =   -3891.07287912 Ry
     estimated scf accuracy    <       0.01282818 Ry

     iteration # 18     ecut=    52.00 Ry     beta= 0.30
     Davidson diagonalization with overlap
     ethr =  2.34E-06,  avg # of iterations =  1.0

     negative rho (up, down):  1.007E-06 0.000E+00
 
     Adding external electric field

     Computed dipole along edir(3) : 
        Dipole               -0.4155 Ry au,         -1.0562 Debye
        Dipole field         -0.0010 Ry au, 
 
        Potential amp.        0.1320 Ry
        Total length         63.9630 bohr
 

     total cpu time spent up to now is     1331.9 secs

     total energy              =   -3891.07259664 Ry
     estimated scf accuracy    <       0.01295478 Ry

     iteration # 19     ecut=    52.00 Ry     beta= 0.30
     Davidson diagonalization with overlap
     ethr =  2.34E-06,  avg # of iterations =  9.7

     negative rho (up, down):  1.163E-07 0.000E+00
 
     Adding external electric field

     Computed dipole along edir(3) : 
        Dipole               -0.3886 Ry au,         -0.9877 Debye
        Dipole field         -0.0010 Ry au, 
 
        Potential amp.        0.1234 Ry
        Total length         63.9630 bohr
 

     total cpu time spent up to now is     1413.9 secs

     total energy              =   -3891.07129573 Ry
     estimated scf accuracy    <       0.05279720 Ry

     iteration # 20     ecut=    52.00 Ry     beta= 0.30
     Davidson diagonalization with overlap
     ethr =  2.34E-06,  avg # of iterations =  9.1

     negative rho (up, down):  1.540E-06 0.000E+00
 
     Adding external electric field

     Computed dipole along edir(3) : 
        Dipole               -0.3050 Ry au,         -0.7753 Debye
        Dipole field         -0.0008 Ry au, 
 
        Potential amp.        0.0969 Ry
        Total length         63.9630 bohr
 

     total cpu time spent up to now is     1493.4 secs

     total energy              =   -3891.07178806 Ry
     estimated scf accuracy    <       0.03496777 Ry

     iteration # 21     ecut=    52.00 Ry     beta= 0.30
     Davidson diagonalization with overlap
     ethr =  2.34E-06,  avg # of iterations =  8.9

     negative rho (up, down):  1.851E-06 0.000E+00
 
     Adding external electric field

     Computed dipole along edir(3) : 
        Dipole               -0.2860 Ry au,         -0.7269 Debye
        Dipole field         -0.0007 Ry au, 
 
        Potential amp.        0.0908 Ry
        Total length         63.9630 bohr
 

     total cpu time spent up to now is     1572.7 secs

     total energy              =   -3891.07213962 Ry
     estimated scf accuracy    <       0.05123907 Ry

     iteration # 22     ecut=    52.00 Ry     beta= 0.30
     Davidson diagonalization with overlap
     ethr =  2.34E-06,  avg # of iterations =  1.0

     negative rho (up, down):  1.120E-08 0.000E+00
 
     Adding external electric field

     Computed dipole along edir(3) : 
        Dipole               -0.3775 Ry au,         -0.9595 Debye
        Dipole field         -0.0009 Ry au, 
 
        Potential amp.        0.1199 Ry
        Total length         63.9630 bohr
 

     total cpu time spent up to now is     1626.7 secs

     total energy              =   -3891.07161849 Ry
     estimated scf accuracy    <       0.05490587 Ry

     iteration # 23     ecut=    52.00 Ry     beta= 0.30
     Davidson diagonalization with overlap
     c_bands:  1 eigenvalues not converged
     c_bands:  1 eigenvalues not converged
     c_bands:  1 eigenvalues not converged
     ethr =  2.34E-06,  avg # of iterations = 11.4

     negative rho (up, down):  1.031E-08 0.000E+00
 
     Adding external electric field

     Computed dipole along edir(3) : 
        Dipole               -0.3894 Ry au,         -0.9897 Debye
        Dipole field         -0.0010 Ry au, 
 
        Potential amp.        0.1237 Ry
        Total length         63.9630 bohr
 

     total cpu time spent up to now is     1712.4 secs

     total energy              =   -3891.07176283 Ry
     estimated scf accuracy    <       0.01477401 Ry

     iteration # 24     ecut=    52.00 Ry     beta= 0.30
     Davidson diagonalization with overlap
     c_bands:  1 eigenvalues not converged
     ethr =  2.34E-06,  avg # of iterations =  3.8

     negative rho (up, down):  5.295E-04 0.000E+00
 
     Adding external electric field

     Computed dipole along edir(3) : 
        Dipole               -0.1056 Ry au,         -0.2684 Debye
        Dipole field         -0.0003 Ry au, 
 
        Potential amp.        0.0335 Ry
        Total length         63.9630 bohr
 

     total cpu time spent up to now is     1774.9 secs

     total energy              =   -3891.07042681 Ry
     estimated scf accuracy    <       0.00856162 Ry

     iteration # 25     ecut=    52.00 Ry     beta= 0.30
     Davidson diagonalization with overlap
     ethr =  2.34E-06,  avg # of iterations = 11.1

     negative rho (up, down):  1.892E-04 0.000E+00
 
     Adding external electric field

     Computed dipole along edir(3) : 
        Dipole               -0.1296 Ry au,         -0.3295 Debye
        Dipole field         -0.0003 Ry au, 
 
        Potential amp.        0.0412 Ry
        Total length         63.9630 bohr
 

     total cpu time spent up to now is     1862.3 secs

     total energy              =   -3891.07012611 Ry
     estimated scf accuracy    <       0.03204802 Ry

     iteration # 26     ecut=    52.00 Ry     beta= 0.30
     Davidson diagonalization with overlap
     ethr =  2.34E-06,  avg # of iterations =  2.5

     negative rho (up, down):  2.301E-04 0.000E+00
 
     Adding external electric field

     Computed dipole along edir(3) : 
        Dipole               -0.1156 Ry au,         -0.2938 Debye
        Dipole field         -0.0003 Ry au, 
 
        Potential amp.        0.0367 Ry
        Total length         63.9630 bohr
 

     total cpu time spent up to now is     1924.2 secs

     total energy              =   -3891.06964727 Ry
     estimated scf accuracy    <       0.00947903 Ry

     iteration # 27     ecut=    52.00 Ry     beta= 0.30
     Davidson diagonalization with overlap
     c_bands:  2 eigenvalues not converged
     c_bands:  2 eigenvalues not converged
     c_bands:  2 eigenvalues not converged
     ethr =  2.34E-06,  avg # of iterations =  9.3

     negative rho (up, down):  1.905E-03 0.000E+00
 
     Adding external electric field

     Computed dipole along edir(3) : 
        Dipole               -0.0429 Ry au,         -0.1092 Debye
        Dipole field         -0.0001 Ry au, 
 
        Potential amp.        0.0136 Ry
        Total length         63.9630 bohr
 

     total cpu time spent up to now is     2004.1 secs

     total energy              =   -3891.06995907 Ry
     estimated scf accuracy    <       0.00216578 Ry

     iteration # 28     ecut=    52.00 Ry     beta= 0.30
     Davidson diagonalization with overlap
     ethr =  6.68E-07,  avg # of iterations =  6.3

     negative rho (up, down):  2.836E-03 0.000E+00
 
     Adding external electric field

     Computed dipole along edir(3) : 
        Dipole                0.0132 Ry au,          0.0334 Debye
        Dipole field          0.0000 Ry au, 
 
        Potential amp.       -0.0042 Ry
        Total length         63.9630 bohr
 

     total cpu time spent up to now is     2076.0 secs

     total energy              =   -3891.06984344 Ry
     estimated scf accuracy    <       0.00203295 Ry

     iteration # 29     ecut=    52.00 Ry     beta= 0.30
     Davidson diagonalization with overlap
     c_bands:  1 eigenvalues not converged
     c_bands:  1 eigenvalues not converged
     c_bands:  1 eigenvalues not converged
     ethr =  6.27E-07,  avg # of iterations =  8.8

     negative rho (up, down):  1.981E-03 0.000E+00
 
     Adding external electric field

     Computed dipole along edir(3) : 
        Dipole                0.0124 Ry au,          0.0315 Debye
        Dipole field          0.0000 Ry au, 
 
        Potential amp.       -0.0039 Ry
        Total length         63.9630 bohr
 

     total cpu time spent up to now is     2156.2 secs

     total energy              =   -3891.06993113 Ry
     estimated scf accuracy    <       0.00016455 Ry

     iteration # 30     ecut=    52.00 Ry     beta= 0.30
     Davidson diagonalization with overlap
     ethr =  5.08E-08,  avg # of iterations =  4.2

     negative rho (up, down):  9.009E-04 0.000E+00
 
     Adding external electric field

     Computed dipole along edir(3) : 
        Dipole                0.0169 Ry au,          0.0430 Debye
        Dipole field          0.0000 Ry au, 
 
        Potential amp.       -0.0054 Ry
        Total length         63.9630 bohr
 

     total cpu time spent up to now is     2222.3 secs

     total energy              =   -3891.06993276 Ry
     estimated scf accuracy    <       0.00005015 Ry

     iteration # 31     ecut=    52.00 Ry     beta= 0.30
     Davidson diagonalization with overlap
     ethr =  1.55E-08,  avg # of iterations =  5.5

     negative rho (up, down):  5.219E-04 0.000E+00
 
     Adding external electric field

     Computed dipole along edir(3) : 
        Dipole                0.0163 Ry au,          0.0415 Debye
        Dipole field          0.0000 Ry au, 
 
        Potential amp.       -0.0052 Ry
        Total length         63.9630 bohr
 

     total cpu time spent up to now is     2292.4 secs

     total energy              =   -3891.06994145 Ry
     estimated scf accuracy    <       0.00011944 Ry

     iteration # 32     ecut=    52.00 Ry     beta= 0.30
     Davidson diagonalization with overlap
     ethr =  1.55E-08,  avg # of iterations =  2.5

     negative rho (up, down):  2.297E-04 0.000E+00
 
     Adding external electric field

     Computed dipole along edir(3) : 
        Dipole                0.0174 Ry au,          0.0443 Debye
        Dipole field          0.0000 Ry au, 
 
        Potential amp.       -0.0055 Ry
        Total length         63.9630 bohr
 

     total cpu time spent up to now is     2354.3 secs

     total energy              =   -3891.06994947 Ry
     estimated scf accuracy    <       0.00001869 Ry

     iteration # 33     ecut=    52.00 Ry     beta= 0.30
     Davidson diagonalization with overlap
     ethr =  5.77E-09,  avg # of iterations =  5.8

     negative rho (up, down):  1.814E-04 0.000E+00
 
     Adding external electric field

     Computed dipole along edir(3) : 
        Dipole                0.0166 Ry au,          0.0423 Debye
        Dipole field          0.0000 Ry au, 
 
        Potential amp.       -0.0053 Ry
        Total length         63.9630 bohr
 

     total cpu time spent up to now is     2425.4 secs

     total energy              =   -3891.06995078 Ry
     estimated scf accuracy    <       0.00005517 Ry

     iteration # 34     ecut=    52.00 Ry     beta= 0.30
     Davidson diagonalization with overlap
     ethr =  5.77E-09,  avg # of iterations =  1.0

     negative rho (up, down):  1.770E-04 0.000E+00
 
     Adding external electric field

     Computed dipole along edir(3) : 
        Dipole                0.0176 Ry au,          0.0446 Debye
        Dipole field          0.0000 Ry au, 
 
        Potential amp.       -0.0056 Ry
        Total length         63.9630 bohr
 

     total cpu time spent up to now is     2478.7 secs

     total energy              =   -3891.06995067 Ry
     estimated scf accuracy    <       0.00001243 Ry

     iteration # 35     ecut=    52.00 Ry     beta= 0.30
     Davidson diagonalization with overlap
     ethr =  3.84E-09,  avg # of iterations =  1.0

     negative rho (up, down):  2.014E-04 0.000E+00
 
     Adding external electric field

     Computed dipole along edir(3) : 
        Dipole                0.0180 Ry au,          0.0457 Debye
        Dipole field          0.0000 Ry au, 
 
        Potential amp.       -0.0057 Ry
        Total length         63.9630 bohr
 

     total cpu time spent up to now is     2532.8 secs

     total energy              =   -3891.06995097 Ry
     estimated scf accuracy    <       0.00000216 Ry

     iteration # 36     ecut=    52.00 Ry     beta= 0.30
     Davidson diagonalization with overlap
     ethr =  6.66E-10,  avg # of iterations =  1.0

     negative rho (up, down):  2.065E-04 0.000E+00
 
     Adding external electric field

     Computed dipole along edir(3) : 
        Dipole                0.0178 Ry au,          0.0454 Debye
        Dipole field          0.0000 Ry au, 
 
        Potential amp.       -0.0057 Ry
        Total length         63.9630 bohr
 

     total cpu time spent up to now is     2587.0 secs

     total energy              =   -3891.06995101 Ry
     estimated scf accuracy    <       0.00000015 Ry

     iteration # 37     ecut=    52.00 Ry     beta= 0.30
     Davidson diagonalization with overlap
     ethr =  4.54E-11,  avg # of iterations =  2.0

     negative rho (up, down):  2.182E-04 0.000E+00
 
     Adding external electric field

     Computed dipole along edir(3) : 
        Dipole                0.0178 Ry au,          0.0454 Debye
        Dipole field          0.0000 Ry au, 
 
        Potential amp.       -0.0057 Ry
        Total length         63.9630 bohr
 

     total cpu time spent up to now is     2648.7 secs

     total energy              =   -3891.06995099 Ry
     estimated scf accuracy    <       0.00000007 Ry

     iteration # 38     ecut=    52.00 Ry     beta= 0.30
     Davidson diagonalization with overlap
     ethr =  2.01E-11,  avg # of iterations =  2.0

     negative rho (up, down):  2.292E-04 0.000E+00
 
     Adding external electric field

     Computed dipole along edir(3) : 
        Dipole                0.0179 Ry au,          0.0456 Debye
        Dipole field          0.0000 Ry au, 
 
        Potential amp.       -0.0057 Ry
        Total length         63.9630 bohr
 

     total cpu time spent up to now is     2710.0 secs

     total energy              =   -3891.06995096 Ry
     estimated scf accuracy    <       0.00000002 Ry

     iteration # 39     ecut=    52.00 Ry     beta= 0.30
     Davidson diagonalization with overlap
     ethr =  6.41E-12,  avg # of iterations =  2.0

     negative rho (up, down):  2.372E-04 0.000E+00
 
     Adding external electric field

     Computed dipole along edir(3) : 
        Dipole                0.0181 Ry au,          0.0459 Debye
        Dipole field          0.0000 Ry au, 
 
        Potential amp.       -0.0057 Ry
        Total length         63.9630 bohr
 

     total cpu time spent up to now is     2769.8 secs

     total energy              =   -3891.06995094 Ry
     estimated scf accuracy    <       0.00000001 Ry

     iteration # 40     ecut=    52.00 Ry     beta= 0.30
     Davidson diagonalization with overlap
     ethr =  3.12E-12,  avg # of iterations =  1.4

     negative rho (up, down):  2.503E-04 0.000E+00
 
     Adding external electric field

     Computed dipole along edir(3) : 
        Dipole                0.0179 Ry au,          0.0454 Debye
        Dipole field          0.0000 Ry au, 
 
        Potential amp.       -0.0057 Ry
        Total length         63.9630 bohr
 

     total cpu time spent up to now is     2824.5 secs

     End of self-consistent calculation

          k = 0.0000 0.0000 0.0000 ( 32011 PWs)   bands (ev):

   -87.1289 -87.1193 -87.1107 -87.1106 -87.1101 -87.1101 -86.9184 -86.9146
   -86.9056 -86.9038 -86.9012 -86.9011 -50.6393 -50.6127 -50.6126 -50.6124
   -50.6122 -50.6101 -50.6101 -50.5848 -50.5848 -50.5593 -50.5591 -50.5585
   -50.5584 -50.5538 -50.5115 -50.5112 -50.4979 -50.4976 -50.4014 -50.4013
   -50.3985 -50.3985 -50.3975 -50.3975 -50.3952 -50.3952 -50.3391 -50.3343
   -50.3277 -50.3257 -50.3229 -50.3228 -50.3110 -50.3107 -50.3075 -50.3071
   -14.4048 -14.3135 -14.2116  -9.2511  -9.2509  -9.2509  -9.2172  -9.2168
    -9.2168  -9.1782  -9.1780  -9.1780  -8.1063  -8.1062  -8.1062  -8.0865
    -8.0863  -8.0863  -8.0505  -8.0504  -8.0504  -3.0744  -2.4931  -2.4520
    -1.7796  -1.5770  -1.3952  -1.3952  -1.3951  -1.3822  -1.3822  -1.3820
    -1.3573  -1.3573  -1.3572  -1.3057  -1.1389  -0.6739  -0.6738  -0.6551
    -0.6543  -0.6513  -0.6507  -0.3041  -0.3038  -0.3014  -0.3010  -0.1111
    -0.1097  -0.0967  -0.0950   0.1355   0.1881   0.1890   0.2344   0.2360
     0.3072   0.3087   0.3104   0.3118   0.3203   0.4587   0.4596   0.5114
     0.5138   0.6299   0.6301   0.6354   0.6354   0.6543   0.6545   0.6581
     0.6581   1.0832   1.0839   1.1999   1.2048   1.2350   1.2356   1.2376
     1.2381   1.3467   1.3625   1.5957   1.6464   1.6480   1.6928   1.6994
     1.8202   1.8220   1.8729   1.8739   1.8748   1.8757   1.8952   1.8952
     1.8987   1.8987   1.9129   1.9129   1.9391   1.9461   2.3857   2.3857
     2.3862   2.6486   2.6493   2.6493   2.8520   2.8528   2.8528   4.0000
     5.2176   6.4480   6.4497   6.4497   6.5927   6.5960   6.5960   6.8994
     6.9019   6.9019   8.4067   8.4079   8.5565   8.5991   8.5995   8.6016
     8.6018   8.9679   9.3840   9.3862   9.3880   9.3894   9.5570   9.7729
     9.7893   9.7919  10.7365  10.8481  11.0502  11.0507  11.0562  11.0567
    11.2796  11.2882

          k = 0.0000 0.1925 0.0000 ( 32019 PWs)   bands (ev):

   -87.1276 -87.1184 -87.1121 -87.1117 -87.1100 -87.1099 -86.9174 -86.9136
   -86.9061 -86.9044 -86.9018 -86.9016 -50.6362 -50.6300 -50.6243 -50.6233
   -50.6183 -50.5943 -50.5874 -50.5767 -50.5720 -50.5624 -50.5562 -50.5556
   -50.5539 -50.5510 -50.5205 -50.5155 -50.5088 -50.5005 -50.4186 -50.4152
   -50.4134 -50.4098 -50.3779 -50.3754 -50.3744 -50.3717 -50.3380 -50.3335
   -50.3281 -50.3262 -50.3234 -50.3232 -50.3222 -50.3185 -50.3137 -50.3103
   -14.2429 -14.1526 -14.0516 -10.4845 -10.4172 -10.3396  -9.6366  -9.6365
    -9.5787  -9.5784  -9.5110  -9.5108  -7.5086  -7.5086  -7.4635  -7.4633
    -7.4068  -7.4067  -6.6944  -6.6475  -6.5898  -2.8798  -2.2853  -2.2183
    -1.8766  -1.8765  -1.8595  -1.8593  -1.8306  -1.8306  -1.5931  -1.3573
    -1.2369  -1.2241  -1.1995  -1.1268  -0.9531  -0.9509  -0.8247  -0.7673
    -0.7597  -0.6836  -0.5495  -0.4490  -0.3737  -0.3494  -0.3220  -0.2570
    -0.1607  -0.1409  -0.1370   0.0179   0.1011   0.1309   0.2080   0.2550
     0.3202   0.3346   0.3456   0.3785   0.4034   0.4285   0.4361   0.4670
     0.5098   0.5764   0.5769   0.6386   0.6573   0.7513   0.8406   0.9067
     0.9708   1.0175   1.0238   1.1259   1.1350   1.2033   1.2425   1.2479
     1.2546   1.2731   1.3067   1.3180   1.3361   1.3894   1.4777   1.5057
     1.5347   1.5659   1.5712   1.5881   1.6283   1.6758   1.6916   1.8112
     1.8371   1.8581   1.8972   1.9375   1.9621   2.0169   2.0830   2.1994
     2.2006   2.2925   2.3136   2.5472   2.5473   2.8698   2.8705   4.3620
     5.7449   5.8608   6.6561   6.6564   6.7363   6.8580   6.8584   7.0065
     7.1736   7.1740   7.3492   7.3694   7.6536   7.9237   8.0172   8.1625
     8.3970   8.7741   9.1764   9.6931   9.7627   9.8658   9.9632  10.2248
    10.2911  10.4656  10.9459  11.0336  11.2576  11.2910  11.3378  11.4913
    11.9993  12.1171

          k = 0.0000 0.3849 0.0000 ( 32055 PWs)   bands (ev):

   -87.1242 -87.1161 -87.1153 -87.1129 -87.1110 -87.1102 -86.9146 -86.9108
   -86.9077 -86.9055 -86.9039 -86.9023 -50.6431 -50.6358 -50.6281 -50.6217
   -50.6142 -50.5886 -50.5785 -50.5674 -50.5659 -50.5550 -50.5526 -50.5502
   -50.5414 -50.5399 -50.5371 -50.5366 -50.5219 -50.5094 -50.4313 -50.4278
   -50.4079 -50.4043 -50.3561 -50.3529 -50.3526 -50.3505 -50.3489 -50.3472
   -50.3354 -50.3309 -50.3294 -50.3272 -50.3251 -50.3240 -50.3225 -50.3191
   -13.7593 -13.6718 -13.5737 -11.8569 -11.7805 -11.6937 -10.0402 -10.0401
    -9.9758  -9.9755  -9.9009  -9.9008  -6.3789  -6.3789  -6.3372  -6.3370
    -6.2847  -6.2846  -4.6292  -4.5912  -4.5423  -3.0036  -3.0035  -2.9799
    -2.9797  -2.9445  -2.9445  -2.3005  -1.7135  -1.5662  -1.2004  -1.1008
    -1.0950  -1.0414  -0.8689  -0.8183  -0.7977  -0.7760  -0.7687  -0.7639
    -0.7400  -0.7141  -0.6306  -0.6071  -0.5662  -0.4626  -0.3861  -0.3774
    -0.3615  -0.3340  -0.2616  -0.2405  -0.2290  -0.1220  -0.0819  -0.0767
    -0.0654   0.0328   0.1487   0.1634   0.2097   0.2425   0.3156   0.3577
     0.3719   0.4426   0.4571   0.5652   0.5734   0.6170   0.6964   0.7093
     0.7197   0.7544   0.7903   0.7948   0.8034   0.8238   0.9091   0.9259
     0.9703   0.9887   1.0345   1.1612   1.1803   1.2368   1.3120   1.3636
     1.4038   1.4066   1.4489   1.6054   1.6251   1.7139   1.7523   1.7849
     1.8739   1.8913   1.9108   1.9354   1.9366   1.9854   1.9958   2.0315
     2.0944   2.1252   2.3674   2.3686   2.8190   2.8198   3.0508   3.6335
     4.3509   5.2127   5.7092   5.8515   6.3374   6.8609   6.9896   7.1654
     7.1706   7.1979   7.3985   7.4027   7.6623   7.6641   7.9863   9.1964
     9.4258   9.4488   9.7205   9.7861   9.7923  10.0368  10.3694  10.3845
    10.5642  10.5877  11.5446  11.6358  11.8099  11.9837  12.1389  12.2724
    12.3667  12.4202

          k = 0.0000-0.5774 0.0000 ( 32112 PWs)   bands (ev):

   -87.1197 -87.1197 -87.1135 -87.1133 -87.1132 -87.1104 -86.9120 -86.9098
   -86.9072 -86.9071 -86.9060 -86.9027 -50.6478 -50.6405 -50.6198 -50.6197
   -50.5934 -50.5933 -50.5802 -50.5741 -50.5741 -50.5584 -50.5479 -50.5458
   -50.5457 -50.5361 -50.5361 -50.5272 -50.5238 -50.5237 -50.4357 -50.4323
   -50.3850 -50.3832 -50.3804 -50.3804 -50.3434 -50.3397 -50.3379 -50.3362
   -50.3337 -50.3336 -50.3332 -50.3308 -50.3280 -50.3278 -50.3278 -50.3243
   -12.9597 -12.9596 -12.8769 -12.8768 -12.7835 -12.7834 -10.1841 -10.1840
   -10.1182 -10.1180 -10.0419 -10.0417  -5.5303  -5.5302  -5.5097  -5.5096
    -5.4799  -5.4798  -3.8563  -3.8562  -3.8438  -3.8436  -3.8186  -3.8185
    -2.4539  -2.4539  -2.4270  -2.4269  -2.3888  -2.3887  -1.3539  -1.3533
    -1.3531  -1.2626  -1.1972  -0.9411  -0.9043  -0.9036  -0.7979  -0.7888
    -0.7885  -0.6870  -0.6862  -0.5135  -0.5076  -0.5074  -0.4694  -0.4689
    -0.3758  -0.3751  -0.2347  -0.2338  -0.1452  -0.1447  -0.0616  -0.0616
    -0.0508  -0.0508  -0.0281  -0.0281   0.0440   0.0446   0.0480   0.0869
     0.1200   0.1212   0.2972   0.2978   0.3093   0.3412   0.3423   0.3934
     0.3958   0.6391   0.6394   0.6987   0.6998   0.8774   0.9401   0.9441
     0.9460   1.1342   1.1356   1.2492   1.2636   1.2640   1.5031   1.5344
     1.5344   1.6277   1.6279   1.7164   1.7314   1.7317   1.8267   1.8304
     1.8916   1.8966   1.8971   1.9965   2.0196   2.0798   2.0804   2.1077
     2.2508   2.2662   2.2864   2.2882   2.5447   2.5452   2.7791   2.7797
     4.1344   4.1347   5.0908   5.9032   6.3859   6.3869   6.4430   6.6447
     7.4837   7.4837   7.6833   7.6842   7.8800   7.8808   8.5888   8.5900
     9.0781   9.6268  10.3512  10.5032  10.5032  10.7983  10.7997  11.3824
    11.3838  11.5756  11.5914  11.5931  11.7864  11.7873  11.9436  11.9455
    12.1716  12.1735

          k = 0.1667-0.0962 0.0000 ( 32019 PWs)   bands (ev):

   -87.1276 -87.1184 -87.1121 -87.1117 -87.1100 -87.1099 -86.9174 -86.9136
   -86.9061 -86.9044 -86.9018 -86.9016 -50.6362 -50.6296 -50.6245 -50.6233
   -50.6186 -50.5937 -50.5876 -50.5771 -50.5719 -50.5623 -50.5563 -50.5557
   -50.5536 -50.5512 -50.5207 -50.5153 -50.5087 -50.5005 -50.4187 -50.4150
   -50.4133 -50.4099 -50.3780 -50.3753 -50.3743 -50.3719 -50.3380 -50.3335
   -50.3281 -50.3262 -50.3234 -50.3232 -50.3220 -50.3187 -50.3139 -50.3101
   -14.2429 -14.1526 -14.0516 -10.4845 -10.4172 -10.3396  -9.6366  -9.6365
    -9.5787  -9.5784  -9.5110  -9.5108  -7.5086  -7.5086  -7.4635  -7.4633
    -7.4068  -7.4067  -6.6944  -6.6475  -6.5898  -2.8798  -2.2853  -2.2182
    -1.8766  -1.8765  -1.8595  -1.8593  -1.8306  -1.8306  -1.5931  -1.3570
    -1.2369  -1.2241  -1.1995  -1.1270  -0.9525  -0.9510  -0.8259  -0.7683
    -0.7589  -0.6841  -0.5481  -0.4492  -0.3757  -0.3505  -0.3193  -0.2574
    -0.1598  -0.1396  -0.1387   0.0180   0.1008   0.1299   0.2077   0.2555
     0.3195   0.3347   0.3474   0.3786   0.4042   0.4279   0.4359   0.4671
     0.5096   0.5753   0.5772   0.6387   0.6576   0.7503   0.8402   0.9090
     0.9730   1.0163   1.0241   1.1269   1.1318   1.2059   1.2438   1.2479
     1.2546   1.2731   1.3068   1.3164   1.3358   1.3894   1.4761   1.5055
     1.5335   1.5659   1.5712   1.5881   1.6263   1.6775   1.6926   1.8115
     1.8357   1.8586   1.8975   1.9361   1.9632   2.0172   2.0817   2.1994
     2.2006   2.2925   2.3154   2.5472   2.5473   2.8698   2.8705   4.3620
     5.7451   5.8608   6.6561   6.6564   6.7357   6.8580   6.8584   7.0039
     7.1736   7.1740   7.3533   7.3694   7.6536   7.9231   8.0172   8.1629
     8.4008   8.7741   9.1764   9.6867   9.7627   9.8636   9.9632  10.2275
    10.2920  10.4654  10.9459  11.0336  11.2590  11.2864  11.3365  11.4915
    11.9993  12.1170

          k = 0.1667 0.0962 0.0000 ( 32019 PWs)   bands (ev):

   -87.1276 -87.1184 -87.1121 -87.1117 -87.1100 -87.1099 -86.9174 -86.9136
   -86.9061 -86.9044 -86.9018 -86.9016 -50.6362 -50.6299 -50.6243 -50.6232
   -50.6185 -50.5939 -50.5874 -50.5775 -50.5717 -50.5621 -50.5561 -50.5557
   -50.5533 -50.5517 -50.5206 -50.5154 -50.5085 -50.5007 -50.4188 -50.4153
   -50.4133 -50.4097 -50.3780 -50.3752 -50.3745 -50.3716 -50.3380 -50.3335
   -50.3281 -50.3262 -50.3234 -50.3232 -50.3220 -50.3183 -50.3139 -50.3105
   -14.2429 -14.1526 -14.0516 -10.4845 -10.4172 -10.3396  -9.6366  -9.6365
    -9.5787  -9.5784  -9.5110  -9.5108  -7.5086  -7.5086  -7.4635  -7.4633
    -7.4068  -7.4067  -6.6944  -6.6475  -6.5898  -2.8798  -2.2853  -2.2183
    -1.8766  -1.8765  -1.8595  -1.8593  -1.8306  -1.8306  -1.5931  -1.3570
    -1.2369  -1.2241  -1.1995  -1.1275  -0.9538  -0.9515  -0.8259  -0.7657
    -0.7582  -0.6837  -0.5480  -0.4485  -0.3777  -0.3518  -0.3198  -0.2571
    -0.1606  -0.1386  -0.1375   0.0194   0.1005   0.1310   0.2056   0.2580
     0.3190   0.3336   0.3476   0.3792   0.4053   0.4317   0.4360   0.4648
     0.5098   0.5686   0.5780   0.6390   0.6601   0.7482   0.8383   0.9148
     0.9715   1.0157   1.0236   1.1300   1.1321   1.2028   1.2454   1.2479
     1.2546   1.2731   1.3065   1.3122   1.3333   1.3894   1.4765   1.5045
     1.5340   1.5659   1.5712   1.5881   1.6206   1.6823   1.6945   1.8113
     1.8376   1.8580   1.8959   1.9414   1.9624   2.0165   2.0844   2.1994
     2.2006   2.2925   2.3142   2.5472   2.5473   2.8698   2.8705   4.3613
     5.7443   5.8611   6.6561   6.6564   6.7357   6.8581   6.8584   7.0040
     7.1735   7.1741   7.3562   7.3694   7.6536   7.9166   8.0173   8.1644
     8.3907   8.7741   9.1764   9.6960   9.7627   9.8675   9.9632  10.2281
    10.2965  10.4593  10.9459  11.0337  11.2601  11.2881  11.3342  11.4911
    11.9993  12.1170

          k = 0.1667 0.2887 0.0000 ( 32043 PWs)   bands (ev):

   -87.1253 -87.1168 -87.1136 -87.1135 -87.1103 -87.1103 -86.9155 -86.9117
   -86.9070 -86.9053 -86.9027 -86.9026 -50.6318 -50.6317 -50.6306 -50.6261
   -50.6260 -50.5840 -50.5833 -50.5664 -50.5662 -50.5629 -50.5511 -50.5508
   -50.5431 -50.5427 -50.5352 -50.5295 -50.5208 -50.5050 -50.4207 -50.4203
   -50.4171 -50.4169 -50.3595 -50.3591 -50.3557 -50.3556 -50.3429 -50.3391
   -50.3360 -50.3316 -50.3289 -50.3270 -50.3242 -50.3241 -50.3189 -50.3156
   -13.9202 -13.8317 -13.7327 -11.0858 -11.0858 -11.0142 -11.0141 -10.9322
   -10.9321  -8.8319  -8.7995  -8.7619  -7.7252  -7.7087  -7.6765  -5.6156
    -5.6156  -5.5739  -5.5739  -5.5214  -5.5214  -3.1878  -3.1625  -3.1258
    -2.4928  -1.9023  -1.7758  -1.5550  -1.5549  -1.5388  -1.5386  -1.5107
    -1.5107  -1.2240  -1.0383  -1.0132  -1.0125  -0.9036  -0.9029  -0.8678
    -0.8675  -0.8436  -0.6688  -0.5597  -0.5570  -0.3665  -0.3644  -0.3526
    -0.3517  -0.1863  -0.1382  -0.1344  -0.0102   0.0298   0.2245   0.2312
     0.2387   0.2426   0.2489   0.3168   0.3839   0.4050   0.4135   0.4632
     0.4905   0.4968   0.5417   0.5632   0.6229   0.6473   0.6489   0.7750
     0.7853   0.7855   0.8595   0.9115   0.9157   0.9314   1.0099   1.0286
     1.0301   1.1180   1.1206   1.1220   1.2428   1.2674   1.2684   1.2985
     1.2997   1.3684   1.3970   1.3986   1.5112   1.5124   1.5783   1.5816
     1.6114   1.6917   1.8066   1.8081   1.8801   1.8811   1.9661   2.0110
     2.0128   2.1396   2.1409   2.8176   2.9691   3.2306   3.4274   4.7188
     4.7193   4.9482   5.5020   5.5032   6.3214   6.3675   6.5341   6.6085
     6.9029   6.9075   8.2892   8.2916   8.5570   8.5649   8.6843   8.6918
     8.8916   8.8929   9.2090   9.5881   9.7645   9.7701  10.1678  10.3601
    10.5396  10.5453  11.3500  11.3526  11.3585  11.4297  12.4654  12.4844
    12.8007  12.8686

          k = 0.1667-0.6736 0.0000 ( 32075 PWs)   bands (ev):

   -87.1213 -87.1170 -87.1145 -87.1143 -87.1118 -87.1107 -86.9126 -86.9087
   -86.9085 -86.9065 -86.9051 -86.9034 -50.6386 -50.6329 -50.6225 -50.6215
   -50.6142 -50.5868 -50.5839 -50.5827 -50.5625 -50.5566 -50.5519 -50.5464
   -50.5441 -50.5426 -50.5307 -50.5276 -50.5275 -50.5142 -50.4268 -50.4233
   -50.4050 -50.4015 -50.3752 -50.3714 -50.3435 -50.3424 -50.3398 -50.3388
   -50.3338 -50.3301 -50.3290 -50.3284 -50.3282 -50.3263 -50.3252 -50.3248
   -13.2785 -13.1939 -13.0986 -12.3271 -12.2480 -12.1583 -11.3931 -11.3195
   -11.2355  -8.7888  -8.7360  -8.6735  -6.9232  -6.8902  -6.8468  -4.5642
    -4.5402  -4.5043  -4.5005  -4.4721  -4.4332  -3.5227  -3.4923  -3.4508
    -2.4282  -2.4106  -2.3811  -1.7287  -1.4725  -1.4551  -1.4270  -1.2409
    -1.1947  -1.1767  -1.1501  -1.1027  -0.9657  -0.9330  -0.9258  -0.9189
    -0.8930  -0.8731  -0.8682  -0.8418  -0.7042  -0.6868  -0.6137  -0.5855
    -0.5091  -0.4976  -0.4465  -0.3867  -0.3376  -0.3131  -0.1637  -0.0704
    -0.0638  -0.0544  -0.0329  -0.0173   0.0299   0.0343   0.1728   0.2512
     0.2863   0.3497   0.3551   0.4014   0.4197   0.4664   0.4862   0.5490
     0.6215   0.7172   0.7853   0.7961   0.8520   0.9048   0.9423   0.9501
     0.9778   1.0583   1.1117   1.1141   1.1299   1.1670   1.2469   1.3242
     1.4193   1.4613   1.4643   1.5423   1.5711   1.5764   1.5996   1.6755
     1.7740   1.8289   1.8384   1.8569   1.8919   1.9225   1.9677   2.0027
     2.0254   2.0465   2.1419   2.7311   3.2830   3.3679   3.6291   3.6414
     3.8359   3.9580   4.5904   4.9728   5.9069   6.0371   6.0503   6.2097
     6.4092   7.2179   7.8866   7.9783   9.0456   9.2497   9.4571   9.4958
     9.6032  10.0758  10.1714  10.3939  10.4871  10.7042  10.8873  10.9434
    10.9759  11.1915  11.3713  11.5407  11.9671  12.0979  12.1194  12.2412
    12.2672  12.4699

          k = 0.1667-0.4811 0.0000 ( 32075 PWs)   bands (ev):

   -87.1213 -87.1170 -87.1145 -87.1143 -87.1118 -87.1107 -86.9126 -86.9087
   -86.9085 -86.9065 -86.9051 -86.9034 -50.6386 -50.6329 -50.6225 -50.6215
   -50.6141 -50.5869 -50.5837 -50.5827 -50.5627 -50.5567 -50.5519 -50.5463
   -50.5441 -50.5427 -50.5306 -50.5276 -50.5275 -50.5140 -50.4268 -50.4233
   -50.4050 -50.4013 -50.3752 -50.3717 -50.3435 -50.3424 -50.3398 -50.3391
   -50.3337 -50.3301 -50.3291 -50.3284 -50.3282 -50.3262 -50.3249 -50.3248
   -13.2785 -13.1939 -13.0986 -12.3271 -12.2480 -12.1583 -11.3931 -11.3195
   -11.2355  -8.7888  -8.7360  -8.6735  -6.9232  -6.8902  -6.8468  -4.5642
    -4.5402  -4.5043  -4.5005  -4.4721  -4.4332  -3.5227  -3.4923  -3.4508
    -2.4282  -2.4106  -2.3811  -1.7287  -1.4725  -1.4551  -1.4270  -1.2408
    -1.1940  -1.1769  -1.1500  -1.1028  -0.9666  -0.9330  -0.9264  -0.9189
    -0.8930  -0.8722  -0.8675  -0.8414  -0.7026  -0.6871  -0.6137  -0.5857
    -0.5088  -0.4973  -0.4468  -0.3898  -0.3365  -0.3138  -0.1647  -0.0704
    -0.0638  -0.0544  -0.0329  -0.0186   0.0260   0.0351   0.1763   0.2513
     0.2880   0.3512   0.3539   0.3946   0.4181   0.4664   0.4886   0.5491
     0.6221   0.7239   0.7925   0.7973   0.8489   0.9002   0.9426   0.9515
     0.9780   1.0568   1.1094   1.1143   1.1305   1.1652   1.2477   1.3253
     1.4207   1.4624   1.4650   1.5424   1.5728   1.5769   1.5957   1.6750
     1.7705   1.8282   1.8383   1.8581   1.8971   1.9238   1.9668   2.0017
     2.0244   2.0457   2.1385   2.7312   3.2830   3.3682   3.6291   3.6408
     3.8360   3.9580   4.5904   4.9746   5.9088   6.0373   6.0503   6.2097
     6.4092   7.2167   7.8869   7.9813   9.0456   9.2497   9.4571   9.4958
     9.5988  10.0758  10.1713  10.3939  10.4871  10.7042  10.8873  10.9434
    10.9760  11.1917  11.3712  11.5404  11.9652  12.0981  12.1195  12.2416
    12.2675  12.4684

          k = 0.1667-0.2887 0.0000 ( 32043 PWs)   bands (ev):

   -87.1253 -87.1168 -87.1135 -87.1135 -87.1103 -87.1103 -86.9155 -86.9117
   -86.9070 -86.9053 -86.9027 -86.9026 -50.6319 -50.6315 -50.6306 -50.6262
   -50.6261 -50.5838 -50.5832 -50.5663 -50.5662 -50.5630 -50.5514 -50.5512
   -50.5428 -50.5427 -50.5351 -50.5298 -50.5207 -50.5048 -50.4206 -50.4203
   -50.4170 -50.4169 -50.3595 -50.3591 -50.3558 -50.3556 -50.3429 -50.3395
   -50.3360 -50.3316 -50.3289 -50.3270 -50.3242 -50.3241 -50.3189 -50.3153
   -13.9202 -13.8317 -13.7327 -11.0858 -11.0858 -11.0142 -11.0141 -10.9322
   -10.9321  -8.8319  -8.7995  -8.7619  -7.7252  -7.7087  -7.6765  -5.6156
    -5.6156  -5.5739  -5.5739  -5.5214  -5.5214  -3.1878  -3.1625  -3.1258
    -2.4928  -1.9023  -1.7755  -1.5550  -1.5549  -1.5388  -1.5386  -1.5107
    -1.5107  -1.2240  -1.0383  -1.0129  -1.0121  -0.9045  -0.9037  -0.8680
    -0.8677  -0.8417  -0.6659  -0.5579  -0.5570  -0.3689  -0.3678  -0.3522
    -0.3517  -0.1903  -0.1373  -0.1361  -0.0116   0.0299   0.2245   0.2312
     0.2425   0.2440   0.2489   0.3132   0.3843   0.4043   0.4056   0.4646
     0.4917   0.4927   0.5462   0.5625   0.6204   0.6567   0.6571   0.7753
     0.7853   0.7855   0.8588   0.9115   0.9157   0.9314   1.0048   1.0289
     1.0307   1.1172   1.1196   1.1237   1.2410   1.2675   1.2682   1.2990
     1.2995   1.3748   1.4008   1.4013   1.5107   1.5121   1.5746   1.5764
     1.6159   1.6890   1.8068   1.8083   1.8814   1.8824   1.9621   2.0110
     2.0123   2.1374   2.1387   2.8178   2.9691   3.2306   3.4274   4.7187
     4.7192   4.9499   5.5021   5.5036   6.3214   6.3675   6.5341   6.6104
     6.9070   6.9076   8.2893   8.2916   8.5573   8.5651   8.6876   8.6947
     8.8916   8.8929   9.2090   9.5881   9.7608   9.7647  10.1677  10.3601
    10.5384  10.5408  11.3499  11.3527  11.3587  11.4298  12.4669  12.4703
    12.8004  12.8677

          k = 0.3333-0.1925 0.0000 ( 32055 PWs)   bands (ev):

   -87.1242 -87.1161 -87.1153 -87.1130 -87.1110 -87.1101 -86.9146 -86.9108
   -86.9077 -86.9055 -86.9039 -86.9023 -50.6428 -50.6358 -50.6281 -50.6218
   -50.6146 -50.5880 -50.5790 -50.5676 -50.5658 -50.5549 -50.5526 -50.5501
   -50.5413 -50.5399 -50.5371 -50.5366 -50.5218 -50.5094 -50.4313 -50.4277
   -50.4078 -50.4044 -50.3562 -50.3528 -50.3524 -50.3504 -50.3491 -50.3474
   -50.3353 -50.3310 -50.3293 -50.3273 -50.3252 -50.3239 -50.3227 -50.3189
   -13.7593 -13.6718 -13.5737 -11.8569 -11.7805 -11.6937 -10.0402 -10.0401
    -9.9758  -9.9755  -9.9009  -9.9008  -6.3789  -6.3789  -6.3372  -6.3370
    -6.2847  -6.2846  -4.6292  -4.5912  -4.5423  -3.0036  -3.0035  -2.9799
    -2.9797  -2.9445  -2.9445  -2.3005  -1.7135  -1.5660  -1.2004  -1.1012
    -1.0949  -1.0414  -0.8677  -0.8193  -0.7993  -0.7760  -0.7683  -0.7639
    -0.7400  -0.7155  -0.6291  -0.6067  -0.5665  -0.4624  -0.3866  -0.3774
    -0.3615  -0.3340  -0.2611  -0.2395  -0.2285  -0.1220  -0.0818  -0.0791
    -0.0639   0.0317   0.1480   0.1651   0.2093   0.2437   0.3153   0.3560
     0.3751   0.4426   0.4552   0.5645   0.5765   0.6173   0.6965   0.7095
     0.7189   0.7545   0.7936   0.7948   0.8034   0.8238   0.9080   0.9236
     0.9697   0.9881   1.0345   1.1614   1.1794   1.2363   1.3110   1.3632
     1.4050   1.4065   1.4493   1.6068   1.6267   1.7134   1.7506   1.7842
     1.8739   1.8917   1.9094   1.9354   1.9367   1.9852   1.9973   2.0304
     2.0927   2.1259   2.3674   2.3686   2.8190   2.8198   3.0524   3.6335
     4.3505   5.2128   5.7057   5.8522   6.3442   6.8584   6.9900   7.1670
     7.1706   7.2008   7.3985   7.4026   7.6623   7.6641   7.9864   9.1897
     9.4258   9.4488   9.7205   9.7867   9.7922  10.0368  10.3693  10.3854
    10.5643  10.5816  11.5444  11.6359  11.8127  11.9838  12.1382  12.2722
    12.3661  12.4225

          k = 0.3333-0.0000 0.0000 ( 32043 PWs)   bands (ev):

   -87.1252 -87.1168 -87.1135 -87.1135 -87.1103 -87.1103 -86.9155 -86.9117
   -86.9070 -86.9053 -86.9027 -86.9026 -50.6318 -50.6315 -50.6306 -50.6263
   -50.6262 -50.5835 -50.5834 -50.5667 -50.5665 -50.5631 -50.5508 -50.5507
   -50.5431 -50.5428 -50.5352 -50.5295 -50.5206 -50.5050 -50.4207 -50.4203
   -50.4171 -50.4168 -50.3594 -50.3591 -50.3559 -50.3555 -50.3427 -50.3393
   -50.3360 -50.3316 -50.3289 -50.3270 -50.3242 -50.3241 -50.3191 -50.3154
   -13.9202 -13.8317 -13.7327 -11.0858 -11.0858 -11.0142 -11.0141 -10.9322
   -10.9321  -8.8319  -8.7995  -8.7619  -7.7252  -7.7087  -7.6765  -5.6156
    -5.6156  -5.5739  -5.5739  -5.5214  -5.5214  -3.1878  -3.1625  -3.1258
    -2.4928  -1.9023  -1.7755  -1.5550  -1.5549  -1.5388  -1.5386  -1.5108
    -1.5107  -1.2240  -1.0370  -1.0133  -1.0121  -0.9036  -0.9031  -0.8681
    -0.8678  -0.8443  -0.6696  -0.5603  -0.5583  -0.3650  -0.3640  -0.3524
    -0.3516  -0.1872  -0.1386  -0.1359  -0.0099   0.0300   0.2245   0.2312
     0.2407   0.2450   0.2489   0.3167   0.3838   0.4044   0.4121   0.4638
     0.4916   0.4968   0.5424   0.5632   0.6240   0.6464   0.6479   0.7751
     0.7852   0.7855   0.8596   0.9115   0.9157   0.9314   1.0087   1.0293
     1.0310   1.1188   1.1214   1.1221   1.2430   1.2676   1.2684   1.2986
     1.2997   1.3678   1.3955   1.3970   1.5108   1.5110   1.5802   1.5820
     1.6090   1.6932   1.8067   1.8082   1.8802   1.8815   1.9648   2.0120
     2.0126   2.1381   2.1406   2.8196   2.9691   3.2306   3.4274   4.7188
     4.7190   4.9482   5.5028   5.5033   6.3214   6.3675   6.5341   6.6089
     6.9033   6.9073   8.2893   8.2916   8.5572   8.5650   8.6851   8.6936
     8.8916   8.8929   9.2090   9.5881   9.7609   9.7700  10.1677  10.3601
    10.5397  10.5454  11.3498  11.3516  11.3543  11.4298  12.4679  12.4840
    12.8004  12.8678

          k = 0.3333 0.1925 0.0000 ( 32055 PWs)   bands (ev):

   -87.1242 -87.1161 -87.1153 -87.1130 -87.1110 -87.1101 -86.9146 -86.9108
   -86.9077 -86.9055 -86.9039 -86.9023 -50.6431 -50.6357 -50.6281 -50.6217
   -50.6145 -50.5880 -50.5795 -50.5676 -50.5656 -50.5547 -50.5526 -50.5498
   -50.5411 -50.5404 -50.5371 -50.5364 -50.5218 -50.5096 -50.4314 -50.4279
   -50.4078 -50.4042 -50.3562 -50.3527 -50.3527 -50.3503 -50.3488 -50.3471
   -50.3353 -50.3309 -50.3293 -50.3273 -50.3251 -50.3240 -50.3227 -50.3193
   -13.7593 -13.6718 -13.5737 -11.8569 -11.7805 -11.6937 -10.0402 -10.0401
    -9.9758  -9.9755  -9.9009  -9.9008  -6.3789  -6.3789  -6.3372  -6.3370
    -6.2847  -6.2846  -4.6292  -4.5912  -4.5423  -3.0036  -3.0035  -2.9799
    -2.9797  -2.9445  -2.9445  -2.3005  -1.7135  -1.5663  -1.2002  -1.1008
    -1.0955  -1.0414  -0.8679  -0.8183  -0.7974  -0.7760  -0.7671  -0.7639
    -0.7400  -0.7173  -0.6296  -0.6052  -0.5681  -0.4606  -0.3883  -0.3774
    -0.3615  -0.3340  -0.2603  -0.2395  -0.2261  -0.1223  -0.0842  -0.0816
    -0.0616   0.0310   0.1427   0.1617   0.2097   0.2430   0.3159   0.3551
     0.3774   0.4427   0.4603   0.5680   0.5711   0.6155   0.6969   0.7129
     0.7198   0.7556   0.7948   0.8011   0.8034   0.8238   0.9019   0.9154
     0.9694   0.9933   1.0345   1.1635   1.1734   1.2380   1.3074   1.3631
     1.4035   1.4047   1.4505   1.6146   1.6311   1.7113   1.7476   1.7838
     1.8718   1.8917   1.9132   1.9354   1.9366   1.9838   1.9986   2.0299
     2.0963   2.1268   2.3674   2.3686   2.8190   2.8198   3.0511   3.6337
     4.3507   5.2111   5.7097   5.8522   6.3521   6.8446   6.9882   7.1613
     7.1706   7.1881   7.3985   7.4026   7.6623   7.6641   7.9849   9.2044
     9.4258   9.4488   9.7206   9.7923   9.7939  10.0368  10.3694  10.3822
    10.5643  10.5826  11.5446  11.6359  11.8393  11.9837  12.1379  12.2723
    12.3667  12.4200

          k = 0.3333-0.7698 0.0000 ( 32075 PWs)   bands (ev):

   -87.1213 -87.1170 -87.1146 -87.1143 -87.1118 -87.1106 -86.9126 -86.9087
   -86.9085 -86.9065 -86.9051 -86.9034 -50.6385 -50.6328 -50.6225 -50.6215
   -50.6143 -50.5869 -50.5836 -50.5834 -50.5624 -50.5562 -50.5518 -50.5463
   -50.5440 -50.5427 -50.5307 -50.5278 -50.5274 -50.5143 -50.4269 -50.4234
   -50.4049 -50.4013 -50.3751 -50.3714 -50.3433 -50.3426 -50.3397 -50.3390
   -50.3337 -50.3301 -50.3290 -50.3286 -50.3282 -50.3262 -50.3253 -50.3249
   -13.2785 -13.1939 -13.0986 -12.3271 -12.2480 -12.1583 -11.3931 -11.3195
   -11.2355  -8.7888  -8.7360  -8.6735  -6.9232  -6.8902  -6.8468  -4.5642
    -4.5402  -4.5043  -4.5005  -4.4721  -4.4332  -3.5227  -3.4923  -3.4508
    -2.4282  -2.4106  -2.3811  -1.7287  -1.4725  -1.4551  -1.4270  -1.2401
    -1.1946  -1.1770  -1.1501  -1.1038  -0.9652  -0.9330  -0.9265  -0.9189
    -0.8930  -0.8732  -0.8679  -0.8397  -0.7049  -0.6844  -0.6138  -0.5885
    -0.5089  -0.4976  -0.4446  -0.3881  -0.3375  -0.3122  -0.1635  -0.0702
    -0.0638  -0.0544  -0.0329  -0.0177   0.0206   0.0410   0.1691   0.2520
     0.2812   0.3464   0.3537   0.4024   0.4285   0.4664   0.4885   0.5491
     0.6201   0.7143   0.7972   0.7999   0.8527   0.8949   0.9380   0.9548
     0.9778   1.0571   1.1127   1.1149   1.1269   1.1588   1.2476   1.3280
     1.4186   1.4617   1.4633   1.5435   1.5756   1.5766   1.5994   1.6766
     1.7719   1.8275   1.8398   1.8590   1.8926   1.9256   1.9660   2.0049
     2.0230   2.0460   2.1408   2.7311   3.2830   3.3673   3.6291   3.6409
     3.8361   3.9580   4.5926   4.9748   5.9062   6.0297   6.0503   6.2097
     6.4092   7.2156   7.8839   7.9778   9.0456   9.2498   9.4572   9.5018
     9.5992  10.0758  10.1784  10.3939  10.4871  10.7042  10.8815  10.9434
    10.9760  11.1915  11.3713  11.5398  11.9670  12.1194  12.1244  12.2414
    12.2673  12.4682

          k = 0.3333-0.5774 0.0000 ( 32121 PWs)   bands (ev):

   -87.1178 -87.1177 -87.1177 -87.1122 -87.1122 -87.1122 -86.9112 -86.9083
   -86.9083 -86.9057 -86.9056 -86.9056 -50.6226 -50.6226 -50.6225 -50.6160
   -50.6159 -50.6158 -50.5824 -50.5821 -50.5820 -50.5498 -50.5497 -50.5495
   -50.5391 -50.5389 -50.5389 -50.5198 -50.5197 -50.5196 -50.4059 -50.4057
   -50.4045 -50.4019 -50.4018 -50.4016 -50.3357 -50.3355 -50.3343 -50.3328
   -50.3318 -50.3316 -50.3315 -50.3297 -50.3296 -50.3268 -50.3267 -50.3266
   -12.4849 -12.4849 -12.4849 -12.4050 -12.4049 -12.4048 -12.3144 -12.3144
   -12.3143  -7.6119  -7.5552  -7.5539  -7.5513  -7.5421  -7.4891  -5.3767
    -5.3735  -5.3649  -2.7898  -2.7897  -2.7897  -2.7763  -2.7761  -2.7761
    -2.7525  -2.7524  -2.7524  -1.3839  -1.3839  -1.3838  -1.3758  -1.3758
    -1.3757  -1.3556  -1.3556  -1.3555  -1.1384  -1.1376  -1.1373  -1.1015
    -1.1007  -1.1006  -0.9225  -0.9223  -0.9212  -0.7942  -0.7938  -0.7938
    -0.7409  -0.7404  -0.7392  -0.5737  -0.5734  -0.5709  -0.3087  -0.3084
    -0.3078  -0.2384  -0.2383  -0.2376   0.1158   0.1206   0.1210   0.3108
     0.3179   0.3186   0.3841   0.3844   0.3853   0.4196   0.4216   0.4227
     0.5405   0.5424   0.5470   0.9248   0.9264   0.9301   0.9638   0.9682
     0.9693   1.2952   1.2957   1.2967   1.3633   1.3651   1.3655   1.5508
     1.5515   1.5539   1.6089   1.6092   1.6096   1.6768   1.6772   1.6775
     1.7746   1.7748   1.7752   1.8100   1.8109   1.8112   2.0145   2.0154
     2.0162   2.0502   2.0510   2.0514   2.8179   2.8199   2.8202   4.5141
     4.6067   4.6087   4.6103   4.9362   4.9378   4.9423   4.9520   5.4037
     6.9225   6.9237   6.9256   9.3059   9.3077   9.3123  10.9735  10.9735
    10.9739  11.1256  11.1280  11.1294  11.1520  11.1532  11.1544  11.2825
    11.2862  11.2885  11.3123  11.3157  11.3164  11.7946  11.7966  11.7970
    12.0287  12.0292

          k = 0.3333-0.3849 0.0000 ( 32075 PWs)   bands (ev):

   -87.1213 -87.1170 -87.1146 -87.1143 -87.1118 -87.1107 -86.9126 -86.9087
   -86.9085 -86.9065 -86.9051 -86.9034 -50.6383 -50.6329 -50.6225 -50.6216
   -50.6143 -50.5871 -50.5835 -50.5832 -50.5626 -50.5564 -50.5519 -50.5464
   -50.5441 -50.5427 -50.5305 -50.5276 -50.5276 -50.5140 -50.4269 -50.4232
   -50.4049 -50.4014 -50.3752 -50.3717 -50.3434 -50.3426 -50.3400 -50.3389
   -50.3337 -50.3301 -50.3291 -50.3285 -50.3282 -50.3262 -50.3248 -50.3248
   -13.2785 -13.1939 -13.0986 -12.3271 -12.2480 -12.1583 -11.3931 -11.3195
   -11.2355  -8.7888  -8.7360  -8.6735  -6.9232  -6.8902  -6.8468  -4.5642
    -4.5402  -4.5043  -4.5005  -4.4721  -4.4332  -3.5227  -3.4923  -3.4508
    -2.4282  -2.4106  -2.3811  -1.7287  -1.4725  -1.4551  -1.4270  -1.2410
    -1.1940  -1.1776  -1.1500  -1.1025  -0.9658  -0.9330  -0.9261  -0.9189
    -0.8930  -0.8721  -0.8687  -0.8408  -0.7033  -0.6866  -0.6137  -0.5866
    -0.5088  -0.4974  -0.4466  -0.3898  -0.3361  -0.3129  -0.1642  -0.0704
    -0.0638  -0.0544  -0.0330  -0.0190   0.0251   0.0360   0.1763   0.2499
     0.2878   0.3515   0.3525   0.3968   0.4188   0.4664   0.4900   0.5491
     0.6220   0.7228   0.7962   0.7975   0.8489   0.8982   0.9419   0.9521
     0.9780   1.0555   1.1096   1.1139   1.1290   1.1637   1.2477   1.3265
     1.4204   1.4626   1.4649   1.5425   1.5732   1.5771   1.5956   1.6753
     1.7697   1.8283   1.8393   1.8590   1.8967   1.9233   1.9667   2.0006
     2.0240   2.0455   2.1390   2.7313   3.2830   3.3671   3.6291   3.6413
     3.8349   3.9580   4.5931   4.9758   5.9089   6.0363   6.0503   6.2097
     6.4092   7.2167   7.8894   7.9815   9.0456   9.2497   9.4571   9.4918
     9.6003  10.0758  10.1715  10.3939  10.4871  10.7042  10.8812  10.9434
    10.9760  11.1918  11.3713  11.5399  11.9667  12.1002  12.1195  12.2415
    12.2674  12.4682

          k =-0.5000 0.2887 0.0000 ( 32112 PWs)   bands (ev):

   -87.1197 -87.1196 -87.1135 -87.1133 -87.1133 -87.1103 -86.9120 -86.9098
   -86.9072 -86.9071 -86.9060 -86.9027 -50.6475 -50.6405 -50.6197 -50.6197
   -50.5937 -50.5936 -50.5808 -50.5740 -50.5739 -50.5579 -50.5481 -50.5458
   -50.5457 -50.5360 -50.5359 -50.5272 -50.5238 -50.5237 -50.4358 -50.4322
   -50.3848 -50.3831 -50.3806 -50.3805 -50.3432 -50.3399 -50.3380 -50.3363
   -50.3335 -50.3334 -50.3332 -50.3308 -50.3280 -50.3278 -50.3278 -50.3243
   -12.9597 -12.9596 -12.8769 -12.8768 -12.7835 -12.7834 -10.1841 -10.1840
   -10.1182 -10.1180 -10.0419 -10.0417  -5.5303  -5.5302  -5.5097  -5.5096
    -5.4799  -5.4798  -3.8563  -3.8561  -3.8438  -3.8436  -3.8186  -3.8185
    -2.4539  -2.4539  -2.4270  -2.4269  -2.3888  -2.3887  -1.3541  -1.3533
    -1.3531  -1.2633  -1.1972  -0.9407  -0.9039  -0.9035  -0.7973  -0.7888
    -0.7885  -0.6891  -0.6882  -0.5130  -0.5063  -0.5060  -0.4680  -0.4675
    -0.3774  -0.3769  -0.2346  -0.2335  -0.1453  -0.1447  -0.0616  -0.0616
    -0.0508  -0.0508  -0.0282  -0.0281   0.0442   0.0465   0.0470   0.0898
     0.1201   0.1210   0.2958   0.2964   0.3077   0.3420   0.3426   0.3941
     0.3964   0.6404   0.6408   0.6982   0.6994   0.8779   0.9424   0.9439
     0.9443   1.1331   1.1347   1.2462   1.2622   1.2628   1.5026   1.5358
     1.5360   1.6292   1.6293   1.7167   1.7305   1.7308   1.8267   1.8305
     1.8917   1.8953   1.8959   1.9961   2.0208   2.0799   2.0804   2.1069
     2.2510   2.2661   2.2864   2.2882   2.5445   2.5448   2.7791   2.7797
     4.1355   4.1358   5.0871   5.9108   6.3858   6.3873   6.4393   6.6497
     7.4837   7.4837   7.6833   7.6842   7.8800   7.8808   8.5895   8.5905
     9.0714   9.6274  10.3448  10.5032  10.5032  10.7981  10.7997  11.3824
    11.3838  11.5787  11.5914  11.5932  11.7864  11.7873  11.9436  11.9455
    12.1716  12.1735

          k =-0.5000 0.4811 0.0000 ( 32075 PWs)   bands (ev):

   -87.1213 -87.1170 -87.1146 -87.1143 -87.1118 -87.1107 -86.9126 -86.9087
   -86.9085 -86.9065 -86.9051 -86.9034 -50.6383 -50.6329 -50.6225 -50.6215
   -50.6143 -50.5871 -50.5837 -50.5831 -50.5625 -50.5565 -50.5520 -50.5464
   -50.5441 -50.5425 -50.5305 -50.5276 -50.5275 -50.5142 -50.4269 -50.4232
   -50.4050 -50.4015 -50.3750 -50.3716 -50.3434 -50.3424 -50.3400 -50.3388
   -50.3337 -50.3301 -50.3291 -50.3287 -50.3282 -50.3263 -50.3249 -50.3248
   -13.2785 -13.1939 -13.0986 -12.3271 -12.2480 -12.1583 -11.3931 -11.3195
   -11.2355  -8.7888  -8.7360  -8.6735  -6.9232  -6.8902  -6.8468  -4.5642
    -4.5402  -4.5043  -4.5005  -4.4721  -4.4332  -3.5227  -3.4923  -3.4508
    -2.4282  -2.4106  -2.3811  -1.7287  -1.4725  -1.4551  -1.4270  -1.2411
    -1.1939  -1.1774  -1.1499  -1.1027  -0.9659  -0.9330  -0.9254  -0.9189
    -0.8930  -0.8717  -0.8690  -0.8414  -0.7071  -0.6863  -0.6137  -0.5866
    -0.5101  -0.4977  -0.4461  -0.3863  -0.3358  -0.3122  -0.1633  -0.0704
    -0.0638  -0.0544  -0.0330  -0.0186   0.0273   0.0332   0.1750   0.2507
     0.2869   0.3532   0.3545   0.4048   0.4182   0.4664   0.4883   0.5490
     0.6191   0.7161   0.7871   0.7961   0.8534   0.9032   0.9411   0.9504
     0.9778   1.0579   1.1129   1.1144   1.1290   1.1660   1.2455   1.3250
     1.4182   1.4610   1.4637   1.5422   1.5710   1.5763   1.6008   1.6769
     1.7735   1.8285   1.8393   1.8579   1.8927   1.9208   1.9669   2.0012
     2.0240   2.0466   2.1415   2.7311   3.2830   3.3679   3.6291   3.6433
     3.8348   3.9580   4.5930   4.9732   5.9070   6.0362   6.0503   6.2097
     6.4092   7.2180   7.8892   7.9792   9.0456   9.2497   9.4571   9.4919
     9.6034  10.0758  10.1716  10.3938  10.4871  10.7042  10.8812  10.9434
    10.9759  11.1917  11.3713  11.5407  11.9669  12.0999  12.1193  12.2412
    12.2674  12.4700

          k =-0.5000 0.6736 0.0000 ( 32075 PWs)   bands (ev):

   -87.1213 -87.1170 -87.1146 -87.1143 -87.1118 -87.1106 -86.9126 -86.9087
   -86.9085 -86.9065 -86.9051 -86.9034 -50.6385 -50.6328 -50.6225 -50.6215
   -50.6142 -50.5871 -50.5835 -50.5834 -50.5624 -50.5563 -50.5519 -50.5462
   -50.5440 -50.5427 -50.5305 -50.5278 -50.5274 -50.5142 -50.4269 -50.4234
   -50.4050 -50.4012 -50.3750 -50.3715 -50.3433 -50.3425 -50.3396 -50.3391
   -50.3337 -50.3301 -50.3290 -50.3287 -50.3282 -50.3262 -50.3251 -50.3249
   -13.2785 -13.1939 -13.0986 -12.3271 -12.2480 -12.1583 -11.3931 -11.3195
   -11.2355  -8.7888  -8.7360  -8.6735  -6.9232  -6.8902  -6.8468  -4.5642
    -4.5402  -4.5043  -4.5005  -4.4721  -4.4332  -3.5227  -3.4923  -3.4508
    -2.4282  -2.4106  -2.3811  -1.7287  -1.4725  -1.4551  -1.4270  -1.2400
    -1.1938  -1.1769  -1.1499  -1.1041  -0.9661  -0.9330  -0.9265  -0.9189
    -0.8930  -0.8719  -0.8674  -0.8399  -0.7072  -0.6844  -0.6138  -0.5886
    -0.5099  -0.4976  -0.4444  -0.3876  -0.3361  -0.3122  -0.1636  -0.0703
    -0.0638  -0.0544  -0.0330  -0.0185   0.0191   0.0391   0.1711   0.2528
     0.2818   0.3503   0.3540   0.4036   0.4263   0.4664   0.4891   0.5491
     0.6178   0.7144   0.7969   0.7980   0.8542   0.8954   0.9374   0.9545
     0.9779   1.0579   1.1131   1.1161   1.1275   1.1594   1.2462   1.3275
     1.4178   1.4613   1.4629   1.5434   1.5750   1.5763   1.6007   1.6778
     1.7724   1.8272   1.8396   1.8591   1.8938   1.9244   1.9653   2.0047
     2.0219   2.0464   2.1399   2.7309   3.2830   3.3683   3.6291   3.6422
     3.8362   3.9580   4.5925   4.9741   5.9062   6.0298   6.0503   6.2097
     6.4092   7.2158   7.8840   7.9785   9.0456   9.2498   9.4572   9.5017
     9.5980  10.0758  10.1784  10.3939  10.4871  10.7042  10.8816  10.9434
    10.9760  11.1917  11.3712  11.5404  11.9652  12.1194  12.1243  12.2417
    12.2674  12.4684

          k =-0.5000-0.2887 0.0000 ( 32112 PWs)   bands (ev):

   -87.1197 -87.1196 -87.1136 -87.1133 -87.1133 -87.1103 -86.9120 -86.9098
   -86.9072 -86.9071 -86.9060 -86.9027 -50.6478 -50.6405 -50.6197 -50.6197
   -50.5936 -50.5935 -50.5812 -50.5737 -50.5737 -50.5576 -50.5479 -50.5457
   -50.5456 -50.5361 -50.5360 -50.5270 -50.5241 -50.5240 -50.4358 -50.4324
   -50.3848 -50.3831 -50.3803 -50.3803 -50.3431 -50.3395 -50.3381 -50.3363
   -50.3338 -50.3337 -50.3333 -50.3308 -50.3280 -50.3278 -50.3278 -50.3244
   -12.9597 -12.9596 -12.8769 -12.8768 -12.7835 -12.7834 -10.1841 -10.1840
   -10.1182 -10.1180 -10.0419 -10.0417  -5.5303  -5.5302  -5.5097  -5.5096
    -5.4799  -5.4798  -3.8563  -3.8561  -3.8438  -3.8436  -3.8186  -3.8185
    -2.4539  -2.4539  -2.4270  -2.4269  -2.3888  -2.3887  -1.3534  -1.3531
    -1.3531  -1.2629  -1.1983  -0.9394  -0.9031  -0.9027  -0.7954  -0.7888
    -0.7884  -0.6887  -0.6878  -0.5106  -0.5075  -0.5071  -0.4687  -0.4682
    -0.3788  -0.3784  -0.2353  -0.2341  -0.1453  -0.1448  -0.0616  -0.0616
    -0.0508  -0.0508  -0.0281  -0.0281   0.0356   0.0500   0.0503   0.0838
     0.1190   0.1199   0.2923   0.2929   0.3099   0.3428   0.3438   0.3977
     0.3998   0.6379   0.6383   0.7052   0.7065   0.8822   0.9308   0.9323
     0.9533   1.1346   1.1363   1.2372   1.2626   1.2632   1.5012   1.5392
     1.5394   1.6320   1.6321   1.7253   1.7280   1.7283   1.8267   1.8307
     1.8908   1.8994   1.8999   1.9926   2.0205   2.0795   2.0800   2.1050
     2.2513   2.2667   2.2864   2.2882   2.5445   2.5448   2.7790   2.7797
     4.1342   4.1345   5.0936   5.9210   6.3837   6.3852   6.4225   6.6286
     7.4837   7.4837   7.6833   7.6842   7.8800   7.8808   8.5870   8.5879
     9.0868   9.6355  10.3454  10.5032  10.5032  10.7982  10.7998  11.3824
    11.3838  11.5912  11.5932  11.6096  11.7864  11.7873  11.9436  11.9454
    12.1716  12.1735

     the Fermi energy is     4.9628 ev

!    total energy              =   -3891.06995091 Ry
     estimated scf accuracy    <          6.3E-09 Ry
     smearing contrib. (-TS)   =      -0.00143015 Ry
     internal energy E=F+TS    =   -3891.06852076 Ry

     The total energy is F=E-TS. E is the sum of the following terms:
     one-electron contribution =  -42421.67276311 Ry
     hartree contribution      =   21259.32748646 Ry
     xc contribution           =    -435.97423884 Ry
     ewald contribution        =   17855.89125539 Ry
     DFT-D3 Dispersion         =      -0.65869549 Ry
     electric field correction =       0.00000079 Ry
     one-center paw contrib.   =    -147.98156596 Ry

     convergence has been achieved in  40 iterations

     negative rho (up, down):  2.503E-04 0.000E+00

     Forces acting on atoms (cartesian axes, Ry/au):

     atom    1 type  1   force =    -0.00014804    0.00039978    0.00142148
     atom    2 type  1   force =    -0.00017624    0.00037603    0.00141941
     atom    3 type  1   force =     0.00046129   -0.00011372   -0.00083888
     atom    4 type  1   force =     0.00000879   -0.00033451   -0.00080687
     atom    5 type  1   force =    -0.00018239    0.00040978    0.00141956
     atom    6 type  1   force =     0.00034874   -0.00004539   -0.00095050
     atom    7 type  1   force =    -0.00024544    0.00004116    0.00395568
     atom    8 type  1   force =     0.00000674   -0.00033525   -0.00081141
     atom    9 type  1   force =    -0.00027673    0.00003302    0.00450139
     atom   10 type  1   force =     0.00046710    0.00001693   -0.00086272
     atom   11 type  1   force =     0.00000840   -0.00033704   -0.00080695
     atom   12 type  1   force =    -0.00025013    0.00000282    0.00395562
     atom   13 type  2   force =    -0.00000179   -0.00000277    0.00032182
     atom   14 type  2   force =     0.00008684    0.00004247   -0.00177251
     atom   15 type  2   force =     0.00007973   -0.00004941   -0.00174460
     atom   16 type  2   force =    -0.00000066   -0.00010687   -0.00176876
     atom   17 type  2   force =    -0.00000261    0.00009114   -0.00174210
     atom   18 type  2   force =    -0.00008614    0.00004375   -0.00176899
     atom   19 type  2   force =    -0.00008274   -0.00005050   -0.00174601
     atom   20 type  2   force =    -0.00000011   -0.00000702    0.00022915
     atom   21 type  2   force =     0.00000010   -0.00000185   -0.00038241
     atom   22 type  2   force =    -0.00000006   -0.00000710   -0.00001269
     atom   23 type  2   force =    -0.00000191   -0.00000507   -0.00038232
     atom   24 type  2   force =     0.00000594   -0.00001040    0.00000430
     atom   25 type  2   force =    -0.00000376   -0.00000169   -0.00038234
     atom   26 type  2   force =    -0.00000018   -0.00000015    0.00000428
     atom   27 type  2   force =    -0.00000187   -0.00000287   -0.00037332
     atom   28 type  2   force =    -0.00000604   -0.00001056    0.00000433
     atom   29 type  2   force =    -0.00000174   -0.00000238   -0.00004844
     atom   30 type  2   force =     0.00000024   -0.00000630    0.00003013
     atom   31 type  2   force =    -0.00000183   -0.00000216   -0.00005064
     atom   32 type  2   force =    -0.00000001   -0.00000653    0.00003005
     atom   33 type  2   force =    -0.00000170   -0.00000249   -0.00005057
     atom   34 type  2   force =    -0.00000021   -0.00000635    0.00003006
     atom   35 type  2   force =    -0.00000163   -0.00000221   -0.00005069
     atom   36 type  2   force =     0.00000005   -0.00000629    0.00002645

     Total force =     0.009106     Total SCF correction =     0.000710

     Writing all to output data dir ./tmp/AGC_N3_top_fcc_Ed_p10.save/ :
     XML data file, charge density, pseudopotentials, collected wavefunctions
 
     init_run     :     26.60s CPU     27.71s WALL (       1 calls)
     electrons    :   2748.71s CPU   2796.73s WALL (       1 calls)
     forces       :     13.81s CPU     14.20s WALL (       1 calls)
     force_dftd3  :      0.02s CPU      0.02s WALL (       1 calls)

     Called by init_run:
     wfcinit      :     19.30s CPU     20.21s WALL (       1 calls)
     potinit      :      6.48s CPU      6.55s WALL (       1 calls)
     hinit0       :      0.26s CPU      0.31s WALL (       1 calls)

     Called by electrons:
     c_bands      :   2103.07s CPU   2137.81s WALL (      40 calls)
     sum_band     :    395.45s CPU    406.55s WALL (      40 calls)
     v_of_rho     :      7.27s CPU      7.93s WALL (      41 calls)
     newd         :      5.69s CPU      5.70s WALL (      41 calls)
                                        5.70s GPU  (      41 calls)
     PAW_pot      :    170.66s CPU    170.60s WALL (      41 calls)
     mix_rho      :     68.96s CPU     70.20s WALL (      40 calls)
     energy_dftd3 :      0.00s CPU      0.00s WALL (       1 calls)

     Called by c_bands:
     init_us_2    :     94.88s CPU     95.15s WALL (    1640 calls)
     cegterg      :   1968.50s CPU   1969.67s WALL (     800 calls)

     Called by *egterg:
     cdiaghg      :    135.56s CPU    135.96s WALL (    5282 calls)
                                      130.90s GPU  (    5282 calls)
     h_psi        :    978.27s CPU    984.72s WALL (    5302 calls)
                                      981.50s GPU  (    5302 calls)
     s_psi        :    127.63s CPU    127.75s WALL (    5302 calls)
     g_psi        :      0.02s CPU      4.88s WALL (    4482 calls)
                                        1.20s GPU  (    4482 calls)

     Called by h_psi:
     h_psi:calbec :      0.33s CPU    194.34s WALL (    5302 calls)
                                      191.60s GPU  (    5302 calls)
     vloc_psi     :    552.44s CPU    555.58s WALL (    5302 calls)
                                      552.50s GPU  (    5302 calls)
     add_vuspsi   :     84.93s CPU    216.34s WALL (    5302 calls)
                                      213.45s GPU  (    5302 calls)

     General routines
     calbec       :      0.36s CPU      0.37s WALL (    6182 calls)
     fft          :      2.18s CPU      3.23s WALL (     542 calls)
                                        0.53s GPU  (     501 calls)
     ffts         :      0.79s CPU      4.90s WALL (    4630 calls)
                                        1.60s GPU  (    4589 calls)
     fftw         :      1.13s CPU    329.34s WALL (   60424 calls)
                                      291.67s GPU  (   60424 calls)
     interpolate  :      3.09s CPU      3.43s WALL (      41 calls)
     davcio       :      1.97s CPU     46.51s WALL (    3166 calls)
 
     Parallel routines
 
     PWSCF        :  46m29.47s CPU  47m19.94s WALL

 
   This run was terminated on:  15:43: 9   4Oct2026            

=------------------------------------------------------------------------------=
   JOB DONE.
=------------------------------------------------------------------------------=
