No protocol specified

     Program PWSCF v.7.4.1 starts on  9Oct2026 at 22:32:30 

     This program is part of the open-source Quantum ESPRESSO suite
     for quantum simulation of materials; please cite
         "P. Giannozzi et al., J. Phys.:Condens. Matter 21 395502 (2009);
         "P. Giannozzi et al., J. Phys.:Condens. Matter 29 465901 (2017);
         "P. Giannozzi et al., J. Chem. Phys. 152 154105 (2020);
          URL http://www.quantum-espresso.org", 
     in publications or presentations arising from this work. More details at
     http://www.quantum-espresso.org/quote

     Parallel version (MPI & OpenMP), running on       1 processor cores
     Number of MPI processes:                 1
     Threads/MPI process:                     1

     MPI processes distributed on     1 nodes
     6260 MiB available memory on the printing compute node when the environment starts
 
     Reading input from relax.in

     Current dimensions of program PWSCF are:
     Max number of different atomic species (ntypx) = 10
     Max number of k-points (npk) =  40000
     Max angular momentum in pseudopotentials (lmaxx) =  4
     Message from routine setup:
     using ibrav=0 with symmetry is DISCOURAGED, use correct ibrav instead
 
     Subspace diagonalization in iterative solution of the eigenvalue problem:
     a serial algorithm will be used

 
     G-vector sticks info
     --------------------
     sticks:   dense  smooth     PW     G-vecs:    dense   smooth      PW
     Sum        7705    3853   1045               445335   157405   22419
 
     Using Slab Decomposition
 


     bravais-lattice index     =            0
     lattice parameter (alat)  =      15.2469  a.u.
     unit-cell volume          =    2506.2974 (a.u.)^3
     number of atoms/cell      =           23
     number of atomic types    =            2
     number of electrons       =        94.00
     number of Kohn-Sham states=           56
     kinetic-energy cutoff     =      60.0000  Ry
     charge density cutoff     =     480.0000  Ry
     scf convergence threshold =      1.0E-08
     mixing beta               =       0.3000
     number of iterations used =            8  plain     mixing
     energy convergence thresh.=      1.0E-04
     force convergence thresh. =      1.0E-03
     Exchange-correlation=  SLA  PW   PBX  PBC
                           (   1   4   3   4   0   0   0)
     nstep                     =           50


     GPU acceleration is ACTIVE.  1 visible GPUs per MPI rank


     celldm(1)=  15.246936  celldm(2)=   0.000000  celldm(3)=   0.000000
     celldm(4)=   0.000000  celldm(5)=   0.000000  celldm(6)=   0.000000

     crystal axes: (cart. coord. in units of alat)
               a(1) = (   0.866025   0.000000   0.500000 )  
               a(2) = (   0.288675   0.816496   0.500000 )  
               a(3) = (  -0.000000  -0.000000   1.000000 )  

     reciprocal axes: (cart. coord. in units 2 pi/alat)
               b(1) = (  1.154701 -0.408248  0.000000 )  
               b(2) = ( -0.000000  1.224745  0.000000 )  
               b(3) = ( -0.577350 -0.408249  1.000000 )  


     PseudoPot. # 1 for Li read from file:
     /home/kgy/wt_li2scc_1009/db/inputs/li2s_neb_cellconv_2026_10_09/pseudo/li_pbe_v1.4.uspp.F.UPF
     MD5 check sum: e912e257baa3777c20ea3d68f190483c
     Pseudo is Ultrasoft, Zval =  3.0
     Generated by new atomic code, or converted to UPF format
     Using radial grid of  751 points,  5 beta functions with: 
                l(1) =   0
                l(2) =   0
                l(3) =   0
                l(4) =   1
                l(5) =   1
     Q(r) pseudized with 10 coefficients,  rinner =    1.150   1.150   1.150


     PseudoPot. # 2 for S  read from file:
     /home/kgy/wt_li2scc_1009/db/inputs/li2s_neb_cellconv_2026_10_09/pseudo/s_pbe_v1.4.uspp.F.UPF
     MD5 check sum: 88d86576ff6df21479756cfb9bdac1df
     Pseudo is Ultrasoft + core correction, Zval =  6.0
     Generated by new atomic code, or converted to UPF format
     Using radial grid of  907 points,  6 beta functions with: 
                l(1) =   0
                l(2) =   0
                l(3) =   1
                l(4) =   1
                l(5) =   2
                l(6) =   2
     Q(r) pseudized with  8 coefficients,  rinner =    1.300   1.300   1.300
                                                       1.300   1.300

     atomic species   valence    mass     pseudopotential
     Li                3.00     6.94000     Li( 1.00)
     S                 6.00    32.06000     S ( 1.00)

      2 Sym. Ops. (no inversion) found ( 1 have fractional translation)



   Cartesian axes

     site n.     atom                  positions (alat units)
         1        Li     tau(   1) = (   0.1443376   0.1020621   0.2500000  )
         2        Li     tau(   2) = (   0.4330126   0.3061862   0.7500001  )
         3        S      tau(   3) = (   0.0000000   0.0000000   0.0000000  )
         4        Li     tau(   4) = (   0.1443376   0.1020621   0.7500001  )
         5        Li     tau(   5) = (   0.4330126   0.3061862   1.2500001  )
         6        S      tau(   6) = (  -0.0000000  -0.0000000   0.5000000  )
         7        Li     tau(   7) = (   0.2886751   0.5103103   0.5000001  )
         8        Li     tau(   8) = (   0.5773502   0.7144344   1.0000002  )
         9        S      tau(   9) = (   0.1443375   0.4082482   0.2500001  )
        10        Li     tau(  10) = (   0.2886751   0.5103103   1.0000001  )
        11        Li     tau(  11) = (   0.5773502   0.7144344   1.5000002  )
        12        S      tau(  12) = (   0.1443375   0.4082482   0.7500001  )
        13        Li     tau(  13) = (   0.5773502   0.1020622   0.5000001  )
        14        Li     tau(  14) = (   0.8660253   0.3061863   1.0000002  )
        15        S      tau(  15) = (   0.4330127   0.0000001   0.2500001  )
        16        Li     tau(  16) = (   0.5773502   0.1020622   1.0000001  )
        17        Li     tau(  17) = (   0.8660253   0.3061863   1.5000002  )
        18        S      tau(  18) = (   0.4330127   0.0000001   0.7500001  )
        19        Li     tau(  19) = (   1.0103628   0.7144345   1.2500003  )
        20        S      tau(  20) = (   0.5773502   0.4082483   0.5000001  )
        21        Li     tau(  21) = (   0.7216878   0.5103104   1.2500002  )
        22        Li     tau(  22) = (   1.0103628   0.7144345   1.7500003  )
        23        S      tau(  23) = (   0.5773502   0.4082483   1.0000002  )

     number of k points=    24  Gaussian smearing, width (Ry)=  0.0050
                       cart. coord. in units 2pi/alat
        k(    1) = (   0.0000000   0.0000000   0.0000000), wk =   0.0312500
        k(    2) = (  -0.1443376  -0.1020621   0.2500000), wk =   0.1250000
        k(    3) = (   0.2886752   0.2041243  -0.5000000), wk =   0.0625000
        k(    4) = (  -0.0000000   0.3061863   0.0000000), wk =   0.0625000
        k(    5) = (  -0.1443376   0.2041242   0.2500000), wk =   0.1250000
        k(    6) = (   0.2886752   0.5103106  -0.5000000), wk =   0.1250000
        k(    7) = (   0.1443376   0.4082484  -0.2500000), wk =   0.1250000
        k(    8) = (   0.0000001  -0.6123726  -0.0000000), wk =   0.0312500
        k(    9) = (  -0.1443375  -0.7144347   0.2500000), wk =   0.1250000
        k(   10) = (   0.2886753  -0.4082483  -0.5000000), wk =   0.0625000
        k(   11) = (   0.2886752  -0.1020621   0.0000000), wk =   0.0625000
        k(   12) = (   0.5773504   0.1020622  -0.5000000), wk =   0.1250000
        k(   13) = (   0.4330128   0.0000000  -0.2500000), wk =   0.1250000
        k(   14) = (   0.2886751   0.2041242   0.0000000), wk =   0.0625000
        k(   15) = (   0.5773503   0.4082485  -0.5000000), wk =   0.0625000
        k(   16) = (   0.4330127   0.3061863  -0.2500000), wk =   0.1250000
        k(   17) = (   0.2886753  -0.7144347  -0.0000000), wk =   0.0625000
        k(   18) = (   0.4330129  -0.6123725  -0.2500000), wk =   0.1250000
        k(   19) = (   0.2886752  -0.4082484   0.0000000), wk =   0.0625000
        k(   20) = (   0.5773504  -0.2041241  -0.5000000), wk =   0.0625000
        k(   21) = (   0.4330128  -0.3061862  -0.2500000), wk =   0.1250000
        k(   22) = (  -0.5773504   0.2041242  -0.0000000), wk =   0.0312500
        k(   23) = (  -0.5773504   0.5103105  -0.0000000), wk =   0.0625000
        k(   24) = (  -0.5773503  -0.4082484  -0.0000000), wk =   0.0312500

     Dense  grid:   445335 G-vectors     FFT dimensions: ( 108, 108, 108)

     Smooth grid:   157405 G-vectors     FFT dimensions: (  75,  75,  80)

     Estimated max dynamical RAM per process >       2.30 GB

     Initial potential from superposition of free atoms

     starting charge      86.2386, renormalised to      94.0000
     Starting wfcs are  107 randomized atomic wfcs

     total cpu time spent up to now is       12.3 secs

     Self-consistent Calculation

     iteration #  1     ecut=    60.00 Ry     beta= 0.30
     Davidson diagonalization with overlap
     ethr =  1.00E-02,  avg # of iterations =  3.7

     Threshold (ethr) on eigenvalues was too large:
     Diagonalizing with lowered threshold

     Davidson diagonalization with overlap
     ethr =  7.96E-04,  avg # of iterations =  2.0

     total cpu time spent up to now is       57.8 secs

     total energy              =    -412.00691793 Ry
     estimated scf accuracy    <       0.73382012 Ry

     iteration #  2     ecut=    60.00 Ry     beta= 0.30
     Davidson diagonalization with overlap
     ethr =  7.81E-04,  avg # of iterations =  1.3

     total cpu time spent up to now is       76.2 secs

     total energy              =    -411.79031468 Ry
     estimated scf accuracy    <       0.33028926 Ry

     iteration #  3     ecut=    60.00 Ry     beta= 0.30
     Davidson diagonalization with overlap
     ethr =  3.51E-04,  avg # of iterations =  2.4

     total cpu time spent up to now is      100.3 secs

     total energy              =    -411.83642757 Ry
     estimated scf accuracy    <       0.01365786 Ry

     iteration #  4     ecut=    60.00 Ry     beta= 0.30
     Davidson diagonalization with overlap
     c_bands:  4 eigenvalues not converged
     c_bands:  1 eigenvalues not converged
     c_bands:  3 eigenvalues not converged
     c_bands:  1 eigenvalues not converged
     c_bands:  1 eigenvalues not converged
     c_bands:  4 eigenvalues not converged
     c_bands:  1 eigenvalues not converged
     c_bands:  1 eigenvalues not converged
     c_bands:  1 eigenvalues not converged
     c_bands:  3 eigenvalues not converged
     ethr =  1.45E-05,  avg # of iterations = 15.4

     total cpu time spent up to now is      159.6 secs

     total energy              =    -411.83994733 Ry
     estimated scf accuracy    <       0.00382851 Ry

     iteration #  5     ecut=    60.00 Ry     beta= 0.30
     Davidson diagonalization with overlap
     c_bands:  1 eigenvalues not converged
     ethr =  4.07E-06,  avg # of iterations =  7.0

     total cpu time spent up to now is      196.3 secs

     total energy              =    -411.84008530 Ry
     estimated scf accuracy    <       0.00402413 Ry

     iteration #  6     ecut=    60.00 Ry     beta= 0.30
     Davidson diagonalization with overlap
     ethr =  4.07E-06,  avg # of iterations =  4.4

     total cpu time spent up to now is      224.9 secs

     total energy              =    -411.84118326 Ry
     estimated scf accuracy    <       0.00119151 Ry

     iteration #  7     ecut=    60.00 Ry     beta= 0.30
     Davidson diagonalization with overlap
     c_bands:  1 eigenvalues not converged
     ethr =  1.27E-06,  avg # of iterations =  2.8

     total cpu time spent up to now is      249.4 secs

     total energy              =    -411.84146218 Ry
     estimated scf accuracy    <       0.00004503 Ry

     iteration #  8     ecut=    60.00 Ry     beta= 0.30
     Davidson diagonalization with overlap
     ethr =  4.79E-08,  avg # of iterations =  6.0

     total cpu time spent up to now is      288.1 secs

     total energy              =    -411.84141624 Ry
     estimated scf accuracy    <       0.00023187 Ry

     iteration #  9     ecut=    60.00 Ry     beta= 0.30
     Davidson diagonalization with overlap
     ethr =  4.79E-08,  avg # of iterations =  3.8

     total cpu time spent up to now is      317.3 secs

     total energy              =    -411.84147149 Ry
     estimated scf accuracy    <       0.00000840 Ry

     iteration # 10     ecut=    60.00 Ry     beta= 0.30
     Davidson diagonalization with overlap
     ethr =  8.94E-09,  avg # of iterations =  3.2

     total cpu time spent up to now is      343.9 secs

     total energy              =    -411.84147285 Ry
     estimated scf accuracy    <       0.00000189 Ry

     iteration # 11     ecut=    60.00 Ry     beta= 0.30
     Davidson diagonalization with overlap
     ethr =  2.01E-09,  avg # of iterations =  4.0

     total cpu time spent up to now is      372.1 secs

     total energy              =    -411.84147303 Ry
     estimated scf accuracy    <       0.00000093 Ry

     iteration # 12     ecut=    60.00 Ry     beta= 0.30
     Davidson diagonalization with overlap
     c_bands:  1 eigenvalues not converged
     ethr =  9.88E-10,  avg # of iterations =  2.8

     total cpu time spent up to now is      395.8 secs

     total energy              =    -411.84147312 Ry
     estimated scf accuracy    <       0.00000013 Ry

     iteration # 13     ecut=    60.00 Ry     beta= 0.30
     Davidson diagonalization with overlap
     ethr =  1.35E-10,  avg # of iterations =  4.5

     total cpu time spent up to now is      426.3 secs

     End of self-consistent calculation

          k = 0.0000 0.0000 0.0000 ( 19603 PWs)   bands (ev):

   -42.6527 -42.6525 -42.2336 -42.2279 -42.2279 -42.2260 -42.2260 -42.2260
   -42.2060 -42.2060 -42.2060 -42.2036 -42.2036 -42.1992 -41.4588  -9.2052
    -8.8780  -8.8780  -8.8780  -8.2538  -8.0216  -8.0216  -8.0216  -1.0076
    -0.9088  -0.9088  -0.9088  -0.2192  -0.2192   0.3440   0.4883   0.4883
     0.4883   0.6756   0.6756   0.6756   1.5908   1.5908   1.5908   1.5977
     1.5977   1.6008   1.6008   1.6008   2.4213   2.4213   2.4213   5.4223
     5.4223   5.4223   6.2073   7.9266   7.9266   7.9266   8.0820   8.1985

          k =-0.1443-0.1021 0.2500 ( 19666 PWs)   bands (ev):

   -42.6527 -42.6525 -42.2327 -42.2276 -42.2276 -42.2274 -42.2263 -42.2263
   -42.2056 -42.2056 -42.2047 -42.2039 -42.2039 -42.2000 -41.4588  -9.1667
    -8.9143  -8.8762  -8.8762  -8.2431  -8.0508  -8.0249  -8.0249  -0.8812
    -0.7801  -0.7801  -0.6253  -0.1645  -0.1645   0.3549   0.3708   0.3708
     0.5707   0.5998   0.7280   0.7280   1.1815   1.3550   1.3550   1.4626
     1.4626   1.4651   1.6363   1.6363   1.9879   2.3542   2.3542   5.9017
     5.9017   5.9043   6.6328   7.8355   7.8985   7.8986   8.0303   8.4325

          k = 0.2887 0.2041-0.5000 ( 19650 PWs)   bands (ev):

   -42.6527 -42.6525 -42.2304 -42.2302 -42.2270 -42.2270 -42.2270 -42.2270
   -42.2047 -42.2047 -42.2047 -42.2047 -42.2022 -42.2021 -41.4588  -9.1088
    -8.9705  -8.8745  -8.8745  -8.2273  -8.0846  -8.0283  -8.0283  -0.7257
    -0.5254  -0.5254  -0.3144  -0.3144   0.0541   0.0802   0.3544   0.3923
     0.3923   0.6838   0.8396   0.8396   0.9520   1.0478   1.0478   1.2977
     1.2977   1.3007   1.4738   1.6775   1.6775   2.2824   2.2824   6.7323
     6.7928   6.7928   7.0895   7.1184   7.1184   7.2120   7.7223   8.5807

          k =-0.0000 0.3062 0.0000 ( 19666 PWs)   bands (ev):

   -42.6527 -42.6525 -42.2327 -42.2276 -42.2276 -42.2274 -42.2263 -42.2263
   -42.2056 -42.2056 -42.2047 -42.2039 -42.2039 -42.2000 -41.4588  -9.1667
    -8.9143  -8.8762  -8.8762  -8.2431  -8.0508  -8.0249  -8.0249  -0.8812
    -0.7801  -0.7801  -0.6253  -0.1645  -0.1645   0.3549   0.3708   0.3708
     0.5707   0.5998   0.7280   0.7280   1.1815   1.3550   1.3550   1.4626
     1.4626   1.4651   1.6363   1.6363   1.9879   2.3542   2.3542   5.9017
     5.9017   5.9043   6.6328   7.8355   7.8982   7.8985   8.0300   8.3548

          k =-0.1443 0.2041 0.2500 ( 19699 PWs)   bands (ev):

   -42.6527 -42.6525 -42.2325 -42.2284 -42.2271 -42.2271 -42.2268 -42.2260
   -42.2060 -42.2049 -42.2049 -42.2046 -42.2032 -42.2001 -41.4588  -9.1528
    -8.9207  -8.8788  -8.8788  -8.2372  -8.0738  -8.0207  -8.0207  -0.7985
    -0.6954  -0.6878  -0.6878  -0.1286  -0.0598   0.3501   0.3501   0.3693
     0.5034   0.5432   0.7377   0.7377   1.1770   1.2653   1.2868   1.2868
     1.5004   1.5004   1.5610   1.5976   1.9725   2.2616   2.2616   5.8479
     6.1872   6.1872   6.7541   8.0265   8.1866   8.1871   8.2158   8.3488

          k = 0.2887 0.5103-0.5000 ( 19654 PWs)   bands (ev):

   -42.6527 -42.6525 -42.2308 -42.2290 -42.2287 -42.2278 -42.2261 -42.2260
   -42.2058 -42.2054 -42.2041 -42.2032 -42.2032 -42.2016 -41.4588  -9.0879
    -8.9793  -8.8816  -8.8771  -8.2121  -8.1216  -8.0240  -8.0196  -0.6273
    -0.5080  -0.4291  -0.2138  -0.1645  -0.0595   0.1023   0.2222   0.4440
     0.4975   0.5905   0.6998   0.8484   0.8598   1.0664   1.0909   1.1351
     1.3315   1.3754   1.3926   1.5880   1.5963   2.1389   2.2097   6.6257
     7.0374   7.0561   7.1587   7.5393   7.7537   7.7721   7.9674   8.4754

          k = 0.1443 0.4082-0.2500 ( 19681 PWs)   bands (ev):

   -42.6527 -42.6525 -42.2314 -42.2283 -42.2282 -42.2280 -42.2266 -42.2258
   -42.2059 -42.2049 -42.2039 -42.2038 -42.2037 -42.2011 -41.4588  -9.1137
    -8.9568  -8.8830  -8.8745  -8.2236  -8.0988  -8.0282  -8.0179  -0.7323
    -0.6219  -0.4119  -0.3686  -0.1646  -0.0631  -0.0184   0.4408   0.4883
     0.5088   0.5192   0.7922   0.8077   0.8677   1.1051   1.2183   1.2744
     1.2781   1.4313   1.4542   1.5397   1.7400   2.1304   2.3094   6.5639
     6.5678   6.5826   7.1081   7.6135   7.8044   7.8541   7.9293   8.4689

          k = 0.0000-0.6124-0.0000 ( 19650 PWs)   bands (ev):

   -42.6527 -42.6525 -42.2304 -42.2302 -42.2270 -42.2270 -42.2270 -42.2270
   -42.2047 -42.2047 -42.2047 -42.2047 -42.2022 -42.2021 -41.4588  -9.1088
    -8.9705  -8.8745  -8.8745  -8.2273  -8.0846  -8.0283  -8.0283  -0.7257
    -0.5254  -0.5254  -0.3144  -0.3144   0.0541   0.0802   0.3544   0.3923
     0.3923   0.6838   0.8396   0.8396   0.9520   1.0478   1.0478   1.2977
     1.2977   1.3007   1.4738   1.6775   1.6775   2.2824   2.2824   6.7323
     6.7928   6.7928   7.0895   7.1184   7.1184   7.2120   7.7223   8.5806

          k =-0.1443-0.7144 0.2500 ( 19654 PWs)   bands (ev):

   -42.6527 -42.6525 -42.2308 -42.2290 -42.2287 -42.2278 -42.2261 -42.2260
   -42.2058 -42.2054 -42.2041 -42.2032 -42.2032 -42.2016 -41.4588  -9.0879
    -8.9793  -8.8816  -8.8771  -8.2121  -8.1216  -8.0240  -8.0196  -0.6273
    -0.5080  -0.4291  -0.2138  -0.1645  -0.0595   0.1023   0.2222   0.4440
     0.4975   0.5905   0.6998   0.8484   0.8598   1.0664   1.0909   1.1351
     1.3315   1.3754   1.3926   1.5880   1.5963   2.1389   2.2097   6.6257
     7.0374   7.0561   7.1587   7.5393   7.7537   7.7721   7.9679   8.6979

          k = 0.2887-0.4082-0.5000 ( 19734 PWs)   bands (ev):

   -42.6527 -42.6525 -42.2302 -42.2301 -42.2282 -42.2282 -42.2259 -42.2257
   -42.2060 -42.2057 -42.2038 -42.2038 -42.2021 -42.2020 -41.4588  -9.0321
    -9.0313  -8.8797  -8.8797  -8.1844  -8.1627  -8.0198  -8.0198  -0.4525
    -0.4378  -0.3121  -0.3121   0.0700   0.0700   0.1003   0.1123   0.3211
     0.3214   0.5563   0.6642   0.9018   0.9018   0.9850   0.9850   1.1564
     1.2641   1.3043   1.3044   1.5344   1.5852   2.1173   2.1173   6.7604
     6.8015   7.4777   7.4778   8.0225   8.0585   8.0588   8.1617   8.6238

          k = 0.2887-0.1021 0.0000 ( 19666 PWs)   bands (ev):

   -42.6527 -42.6525 -42.2327 -42.2276 -42.2276 -42.2274 -42.2263 -42.2263
   -42.2056 -42.2056 -42.2047 -42.2039 -42.2039 -42.2000 -41.4588  -9.1667
    -8.9143  -8.8762  -8.8762  -8.2431  -8.0508  -8.0249  -8.0249  -0.8812
    -0.7801  -0.7801  -0.6253  -0.1645  -0.1645   0.3549   0.3708   0.3708
     0.5707   0.5998   0.7280   0.7280   1.1815   1.3550   1.3550   1.4626
     1.4626   1.4651   1.6363   1.6363   1.9879   2.3542   2.3542   5.9017
     5.9017   5.9043   6.6328   7.8356   7.8982   7.8986   8.0302   8.3549

          k = 0.5774 0.1021-0.5000 ( 19654 PWs)   bands (ev):

   -42.6527 -42.6525 -42.2308 -42.2290 -42.2287 -42.2278 -42.2261 -42.2260
   -42.2058 -42.2054 -42.2041 -42.2032 -42.2032 -42.2016 -41.4588  -9.0879
    -8.9793  -8.8816  -8.8771  -8.2121  -8.1216  -8.0240  -8.0196  -0.6273
    -0.5080  -0.4291  -0.2138  -0.1645  -0.0595   0.1023   0.2222   0.4440
     0.4975   0.5905   0.6998   0.8484   0.8598   1.0664   1.0909   1.1351
     1.3315   1.3754   1.3926   1.5880   1.5963   2.1389   2.2097   6.6257
     7.0374   7.0561   7.1587   7.5393   7.7537   7.7721   7.9674   8.4747

          k = 0.4330 0.0000-0.2500 ( 19681 PWs)   bands (ev):

   -42.6527 -42.6525 -42.2314 -42.2283 -42.2282 -42.2280 -42.2266 -42.2258
   -42.2059 -42.2049 -42.2039 -42.2038 -42.2037 -42.2011 -41.4588  -9.1137
    -8.9568  -8.8830  -8.8745  -8.2236  -8.0988  -8.0282  -8.0179  -0.7323
    -0.6219  -0.4119  -0.3686  -0.1646  -0.0631  -0.0184   0.4408   0.4884
     0.5088   0.5192   0.7922   0.8077   0.8677   1.1051   1.2183   1.2744
     1.2781   1.4313   1.4542   1.5397   1.7400   2.1304   2.3094   6.5639
     6.5678   6.5826   7.1081   7.6135   7.8043   7.8541   7.9293   8.4669

          k = 0.2887 0.2041 0.0000 ( 19699 PWs)   bands (ev):

   -42.6527 -42.6525 -42.2325 -42.2284 -42.2271 -42.2271 -42.2268 -42.2260
   -42.2060 -42.2049 -42.2049 -42.2046 -42.2032 -42.2001 -41.4588  -9.1528
    -8.9207  -8.8788  -8.8788  -8.2372  -8.0738  -8.0207  -8.0207  -0.7985
    -0.6954  -0.6878  -0.6878  -0.1286  -0.0598   0.3501   0.3501   0.3693
     0.5034   0.5432   0.7377   0.7377   1.1770   1.2653   1.2868   1.2868
     1.5004   1.5004   1.5610   1.5976   1.9725   2.2616   2.2616   5.8479
     6.1872   6.1872   6.7541   8.0265   8.1868   8.1873   8.2154   8.3517

          k = 0.5774 0.4082-0.5000 ( 19681 PWs)   bands (ev):

   -42.6527 -42.6525 -42.2314 -42.2283 -42.2282 -42.2280 -42.2266 -42.2258
   -42.2059 -42.2049 -42.2039 -42.2038 -42.2037 -42.2011 -41.4588  -9.1137
    -8.9568  -8.8830  -8.8745  -8.2236  -8.0988  -8.0282  -8.0179  -0.7323
    -0.6219  -0.4119  -0.3686  -0.1646  -0.0631  -0.0184   0.4408   0.4883
     0.5088   0.5192   0.7922   0.8077   0.8677   1.1051   1.2183   1.2744
     1.2781   1.4313   1.4542   1.5397   1.7400   2.1304   2.3094   6.5639
     6.5678   6.5827   7.1081   7.6135   7.8044   7.8541   7.9293   8.4666

          k = 0.4330 0.3062-0.2500 ( 19654 PWs)   bands (ev):

   -42.6527 -42.6525 -42.2308 -42.2290 -42.2287 -42.2278 -42.2261 -42.2260
   -42.2057 -42.2054 -42.2041 -42.2032 -42.2032 -42.2016 -41.4588  -9.0879
    -8.9793  -8.8816  -8.8771  -8.2121  -8.1216  -8.0240  -8.0196  -0.6273
    -0.5080  -0.4291  -0.2138  -0.1645  -0.0595   0.1023   0.2222   0.4440
     0.4975   0.5905   0.6998   0.8484   0.8598   1.0664   1.0909   1.1351
     1.3315   1.3754   1.3926   1.5880   1.5963   2.1389   2.2097   6.6257
     7.0374   7.0561   7.1587   7.5393   7.7537   7.7722   7.9679   8.6985

          k = 0.2887-0.7144-0.0000 ( 19654 PWs)   bands (ev):

   -42.6527 -42.6525 -42.2308 -42.2290 -42.2287 -42.2278 -42.2261 -42.2260
   -42.2057 -42.2054 -42.2041 -42.2032 -42.2032 -42.2016 -41.4588  -9.0879
    -8.9793  -8.8816  -8.8771  -8.2121  -8.1216  -8.0240  -8.0196  -0.6273
    -0.5080  -0.4291  -0.2138  -0.1645  -0.0595   0.1023   0.2222   0.4440
     0.4975   0.5905   0.6998   0.8484   0.8598   1.0664   1.0909   1.1351
     1.3315   1.3754   1.3926   1.5880   1.5963   2.1389   2.2097   6.6257
     7.0374   7.0561   7.1587   7.5393   7.7537   7.7720   7.9674   8.4721

          k = 0.4330-0.6124-0.2500 ( 19688 PWs)   bands (ev):

   -42.6527 -42.6525 -42.2294 -42.2292 -42.2292 -42.2291 -42.2258 -42.2258
   -42.2058 -42.2058 -42.2030 -42.2029 -42.2029 -42.2028 -41.4588  -9.0309
    -9.0300  -8.8816  -8.8814  -8.1831  -8.1617  -8.0204  -8.0202  -0.4871
    -0.4710  -0.2426  -0.1956  -0.0272  -0.0263   0.0681   0.0856   0.3558
     0.3766   0.7395   0.7523   0.7797   0.8680   0.8834   0.9432   1.2250
     1.2641   1.3128   1.3628   1.5023   1.5622   2.0892   2.1196   7.2908
     7.3247   7.3674   7.4619   7.6017   7.7339   7.7524   7.8322   8.7724

          k = 0.2887-0.4082 0.0000 ( 19681 PWs)   bands (ev):

   -42.6527 -42.6525 -42.2314 -42.2283 -42.2282 -42.2280 -42.2266 -42.2258
   -42.2059 -42.2049 -42.2039 -42.2038 -42.2037 -42.2011 -41.4588  -9.1137
    -8.9568  -8.8830  -8.8745  -8.2236  -8.0988  -8.0282  -8.0179  -0.7323
    -0.6219  -0.4119  -0.3686  -0.1646  -0.0631  -0.0184   0.4408   0.4884
     0.5088   0.5192   0.7922   0.8077   0.8677   1.1051   1.2183   1.2744
     1.2781   1.4313   1.4543   1.5397   1.7400   2.1304   2.3094   6.5639
     6.5678   6.5826   7.1081   7.6135   7.8043   7.8541   7.9293   8.4684

          k = 0.5774-0.2041-0.5000 ( 19688 PWs)   bands (ev):

   -42.6527 -42.6525 -42.2294 -42.2292 -42.2292 -42.2291 -42.2258 -42.2258
   -42.2058 -42.2058 -42.2030 -42.2029 -42.2029 -42.2028 -41.4588  -9.0309
    -9.0300  -8.8816  -8.8814  -8.1831  -8.1617  -8.0204  -8.0202  -0.4871
    -0.4710  -0.2426  -0.1956  -0.0272  -0.0263   0.0681   0.0856   0.3558
     0.3766   0.7395   0.7523   0.7797   0.8680   0.8834   0.9432   1.2250
     1.2641   1.3128   1.3628   1.5023   1.5622   2.0892   2.1196   7.2908
     7.3247   7.3674   7.4619   7.6017   7.7338   7.7523   7.8323   8.7724

          k = 0.4330-0.3062-0.2500 ( 19654 PWs)   bands (ev):

   -42.6527 -42.6525 -42.2308 -42.2290 -42.2287 -42.2278 -42.2261 -42.2260
   -42.2058 -42.2054 -42.2041 -42.2032 -42.2032 -42.2016 -41.4588  -9.0879
    -8.9793  -8.8816  -8.8771  -8.2121  -8.1216  -8.0240  -8.0196  -0.6273
    -0.5080  -0.4291  -0.2138  -0.1645  -0.0595   0.1023   0.2222   0.4440
     0.4975   0.5905   0.6998   0.8484   0.8598   1.0664   1.0909   1.1351
     1.3315   1.3754   1.3926   1.5880   1.5963   2.1389   2.2097   6.6257
     7.0374   7.0561   7.1587   7.5393   7.7537   7.7720   7.9674   8.4744

          k =-0.5774 0.2041-0.0000 ( 19650 PWs)   bands (ev):

   -42.6527 -42.6525 -42.2304 -42.2302 -42.2270 -42.2270 -42.2270 -42.2270
   -42.2047 -42.2047 -42.2047 -42.2047 -42.2022 -42.2021 -41.4588  -9.1088
    -8.9705  -8.8745  -8.8745  -8.2273  -8.0846  -8.0283  -8.0283  -0.7257
    -0.5254  -0.5254  -0.3144  -0.3144   0.0541   0.0802   0.3544   0.3923
     0.3923   0.6838   0.8396   0.8396   0.9520   1.0478   1.0478   1.2977
     1.2977   1.3007   1.4738   1.6775   1.6775   2.2824   2.2824   6.7323
     6.7928   6.7928   7.0895   7.1184   7.1184   7.2120   7.7223   8.5806

          k =-0.5774 0.5103-0.0000 ( 19654 PWs)   bands (ev):

   -42.6527 -42.6525 -42.2308 -42.2290 -42.2287 -42.2278 -42.2261 -42.2260
   -42.2057 -42.2054 -42.2041 -42.2032 -42.2032 -42.2016 -41.4588  -9.0879
    -8.9793  -8.8816  -8.8771  -8.2121  -8.1216  -8.0240  -8.0196  -0.6273
    -0.5080  -0.4291  -0.2138  -0.1645  -0.0595   0.1023   0.2222   0.4440
     0.4975   0.5905   0.6998   0.8484   0.8598   1.0664   1.0909   1.1351
     1.3315   1.3754   1.3926   1.5880   1.5963   2.1389   2.2097   6.6257
     7.0374   7.0561   7.1587   7.5393   7.7537   7.7721   7.9674   8.4718

          k =-0.5774-0.4082-0.0000 ( 19734 PWs)   bands (ev):

   -42.6527 -42.6525 -42.2302 -42.2301 -42.2282 -42.2282 -42.2259 -42.2257
   -42.2060 -42.2057 -42.2038 -42.2038 -42.2021 -42.2020 -41.4588  -9.0321
    -9.0313  -8.8797  -8.8797  -8.1844  -8.1627  -8.0198  -8.0198  -0.4525
    -0.4378  -0.3121  -0.3121   0.0700   0.0700   0.1003   0.1123   0.3211
     0.3214   0.5563   0.6642   0.9018   0.9018   0.9849   0.9850   1.1564
     1.2641   1.3043   1.3043   1.5344   1.5852   2.1173   2.1173   6.7604
     6.8015   7.4777   7.4778   8.0223   8.0585   8.0585   8.1619   8.6235

     the Fermi energy is     2.8545 ev

!    total energy              =    -411.84147318 Ry
     estimated scf accuracy    <          9.1E-09 Ry
     smearing contrib. (-TS)   =      -0.00000000 Ry
     internal energy E=F+TS    =    -411.84147318 Ry

     The total energy is F=E-TS. E is the sum of the following terms:
     one-electron contribution =    -137.79755127 Ry
     hartree contribution      =      77.22324173 Ry
     xc contribution           =    -120.39174641 Ry
     ewald contribution        =    -230.87541723 Ry

     convergence has been achieved in  13 iterations

     Forces acting on atoms (cartesian axes, Ry/au):

     atom    1 type  1   force =     0.00866241    0.00612468    0.00000000
     atom    2 type  1   force =     0.01463293    0.01034635    0.00000000
     atom    3 type  2   force =     0.00005426    0.00003886   -0.00009433
     atom    4 type  1   force =    -0.00000098   -0.00000002   -0.00000000
     atom    5 type  1   force =    -0.00000040    0.00000134    0.00000000
     atom    6 type  2   force =     0.00005426    0.00003886    0.00009433
     atom    7 type  1   force =     0.00432998   -0.00612369   -0.00750138
     atom    8 type  1   force =     0.00731615   -0.01034656   -0.01267230
     atom    9 type  2   force =     0.01309298   -0.00462911    0.00000000
     atom   10 type  1   force =     0.00432998   -0.00612369    0.00750138
     atom   11 type  1   force =     0.00731615   -0.01034657    0.01267230
     atom   12 type  2   force =    -0.00000007   -0.00011710   -0.00000000
     atom   13 type  1   force =    -0.00433041    0.00612512   -0.00750109
     atom   14 type  1   force =    -0.00731660    0.01034675   -0.01267181
     atom   15 type  2   force =     0.00000082    0.01388520    0.00000000
     atom   16 type  1   force =    -0.00433041    0.00612512    0.00750109
     atom   17 type  1   force =    -0.00731661    0.01034675    0.01267181
     atom   18 type  2   force =    -0.00010851    0.00003813   -0.00000000
     atom   19 type  1   force =    -0.00000023   -0.00000054   -0.00000000
     atom   20 type  2   force =    -0.00654651   -0.00462936   -0.01133869
     atom   21 type  1   force =    -0.00866050   -0.00612473   -0.00000000
     atom   22 type  1   force =    -0.01463218   -0.01034642   -0.00000000
     atom   23 type  2   force =    -0.00654651   -0.00462936    0.01133869

     Total force =     0.058082     Total SCF correction =     0.000143

     BFGS Geometry Optimization
     Energy error            =      3.4E-03 Ry
     Gradient error          =      1.5E-02 Ry/Bohr

     number of scf cycles    =   1
     number of bfgs steps    =   0

     energy             new  =    -411.8414731782 Ry

     new trust radius        =       0.0179212028 bohr
     new conv_thr            =       0.0000000100 Ry


ATOMIC_POSITIONS (angstrom)
Li               1.1691472146        0.8267117500        2.0170831004
Li               3.5014326787        2.4758866430        6.0512493012
S                0.0000287109        0.0000205622       -0.0000499159
Li               1.1645627370        0.8234706995        6.0512488014
Li               3.4936890506        2.4704123002       10.0854150022
S                0.0000287069        0.0000205602        4.0342156169
Li               2.3314175999        4.1141119585        4.0301968887
Li               4.6621238195        5.7588181910        8.0616267613
S                1.1714915187        3.2914321446        2.0170833500
Li               2.3314175948        4.1141119557        8.0723017131
Li               4.6621238136        5.7588181876       12.1092042421
S                1.1645629685        3.2938197965        6.0512490510
Li               4.6559612302        0.8267125229        4.0301970446
Li               6.9835070069        2.4758873961        8.0616270195
S                3.4936899543        0.0073482684        2.0170833500
Li               4.6559612250        0.8267125201        8.0723015572
Li               6.9835070010        2.4758873928       12.1092039839
S                3.4936320963        0.0000207140        6.0512490510
Li               8.1519416778        5.7642936112       10.0854160012
S                4.6547882697        3.2914325542        4.0281665242
Li               5.8182328532        4.1141119441       10.0854155014
Li               8.1441987766        5.7588188016       14.1195817022
S                4.6547882640        3.2914325510        8.0743325768



     Writing config-only to output data dir ./tmp/li2s_ep_initial.save/ :
     XML data file
     NEW-OLD atomic charge density approx. for the potential

     total cpu time spent up to now is      432.5 secs

     Self-consistent Calculation

     iteration #  1     ecut=    60.00 Ry     beta= 0.30
     Davidson diagonalization with overlap
     ethr =  1.00E-06,  avg # of iterations =  6.0

     Threshold (ethr) on eigenvalues was too large:
     Diagonalizing with lowered threshold

     Davidson diagonalization with overlap
     ethr =  4.84E-08,  avg # of iterations =  4.0

     total cpu time spent up to now is      498.4 secs

     total energy              =    -411.84470037 Ry
     estimated scf accuracy    <       0.00006749 Ry

     iteration #  2     ecut=    60.00 Ry     beta= 0.30
     Davidson diagonalization with overlap
     ethr =  7.18E-08,  avg # of iterations =  2.0

     total cpu time spent up to now is      520.1 secs

     total energy              =    -411.84470537 Ry
     estimated scf accuracy    <       0.00000745 Ry

     iteration #  3     ecut=    60.00 Ry     beta= 0.30
     Davidson diagonalization with overlap
     ethr =  7.93E-09,  avg # of iterations =  4.0

     total cpu time spent up to now is      549.4 secs

     total energy              =    -411.84470811 Ry
     estimated scf accuracy    <       0.00000136 Ry

     iteration #  4     ecut=    60.00 Ry     beta= 0.30
     Davidson diagonalization with overlap
     ethr =  1.44E-09,  avg # of iterations =  3.0

     total cpu time spent up to now is      574.4 secs

     total energy              =    -411.84470849 Ry
     estimated scf accuracy    <       0.00000057 Ry

     iteration #  5     ecut=    60.00 Ry     beta= 0.30
     Davidson diagonalization with overlap
     ethr =  6.06E-10,  avg # of iterations =  2.0

     total cpu time spent up to now is      596.5 secs

     total energy              =    -411.84470860 Ry
     estimated scf accuracy    <       0.00000002 Ry

     iteration #  6     ecut=    60.00 Ry     beta= 0.30
     Davidson diagonalization with overlap
     ethr =  1.96E-11,  avg # of iterations =  6.0

     total cpu time spent up to now is      635.6 secs

     total energy              =    -411.84470862 Ry
     estimated scf accuracy    <       0.00000002 Ry

     iteration #  7     ecut=    60.00 Ry     beta= 0.30
     Davidson diagonalization with overlap
     ethr =  1.67E-11,  avg # of iterations =  4.0

     total cpu time spent up to now is      664.8 secs

     total energy              =    -411.84470862 Ry
     estimated scf accuracy    <       0.00000003 Ry

     iteration #  8     ecut=    60.00 Ry     beta= 0.30
     Davidson diagonalization with overlap
     ethr =  1.67E-11,  avg # of iterations =  3.0

     total cpu time spent up to now is      690.1 secs

     End of self-consistent calculation

          k = 0.0000 0.0000 0.0000 ( 19603 PWs)   bands (ev):

   -42.6240 -42.6222 -42.2299 -42.2233 -42.2233 -42.2205 -42.2205 -42.2205
   -42.2078 -42.2078 -42.2078 -42.2044 -42.2044 -42.1991 -41.4581  -9.1847
    -8.8536  -8.8536  -8.8536  -8.2748  -8.0466  -8.0466  -8.0466  -0.9834
    -0.9009  -0.9009  -0.9009  -0.2131  -0.2131   0.3218   0.5025   0.5025
     0.5025   0.6855   0.6855   0.6855   1.5868   1.5868   1.5868   1.5911
     1.5911   1.5964   1.5964   1.5964   2.3944   2.3944   2.3944   5.4298
     5.4298   5.4298   6.2129   7.9325   7.9328   7.9328   8.1056   8.2116

          k =-0.1443-0.1021 0.2500 ( 19666 PWs)   bands (ev):

   -42.6240 -42.6222 -42.2289 -42.2229 -42.2229 -42.2225 -42.2210 -42.2210
   -42.2072 -42.2072 -42.2059 -42.2048 -42.2048 -42.2000 -41.4581  -9.1455
    -8.8904  -8.8518  -8.8518  -8.2650  -8.0753  -8.0501  -8.0501  -0.8581
    -0.7718  -0.7718  -0.6131  -0.1577  -0.1577   0.3443   0.3844   0.3845
     0.5882   0.5988   0.7402   0.7402   1.1852   1.3424   1.3424   1.4478
     1.4606   1.4606   1.6336   1.6336   1.9603   2.3273   2.3273   5.9092
     5.9092   5.9123   6.6391   7.8369   7.9037   7.9037   8.0410   8.4508

          k = 0.2887 0.2041-0.5000 ( 19650 PWs)   bands (ev):

   -42.6240 -42.6222 -42.2262 -42.2260 -42.2220 -42.2220 -42.2220 -42.2220
   -42.2059 -42.2059 -42.2059 -42.2059 -42.2026 -42.2025 -41.4581  -9.0861
    -8.9479  -8.8499  -8.8499  -8.2502  -8.1082  -8.0536  -8.0536  -0.7003
    -0.5141  -0.5141  -0.3097  -0.3097   0.0685   0.1020   0.3413   0.4123
     0.4123   0.7093   0.8549   0.8549   0.9298   1.0292   1.0292   1.2755
     1.2910   1.2910   1.4485   1.6763   1.6763   2.2548   2.2548   6.7557
     6.8027   6.8027   7.0839   7.1213   7.1213   7.2128   7.7216   8.5967

          k =-0.0000 0.3062 0.0000 ( 19666 PWs)   bands (ev):

   -42.6240 -42.6222 -42.2289 -42.2229 -42.2229 -42.2225 -42.2210 -42.2210
   -42.2072 -42.2072 -42.2059 -42.2048 -42.2048 -42.2000 -41.4581  -9.1455
    -8.8904  -8.8518  -8.8518  -8.2650  -8.0753  -8.0501  -8.0501  -0.8581
    -0.7718  -0.7718  -0.6131  -0.1577  -0.1577   0.3443   0.3844   0.3845
     0.5882   0.5988   0.7402   0.7402   1.1852   1.3424   1.3424   1.4478
     1.4606   1.4606   1.6336   1.6336   1.9604   2.3273   2.3273   5.9092
     5.9092   5.9123   6.6391   7.8369   7.9037   7.9037   8.0408   8.3688

          k =-0.1443 0.2041 0.2500 ( 19699 PWs)   bands (ev):

   -42.6240 -42.6222 -42.2287 -42.2239 -42.2222 -42.2222 -42.2219 -42.2205
   -42.2077 -42.2061 -42.2061 -42.2058 -42.2040 -42.2002 -41.4581  -9.1314
    -8.8964  -8.8546  -8.8546  -8.2596  -8.0986  -8.0457  -8.0457  -0.7739
    -0.6847  -0.6791  -0.6791  -0.1218  -0.0516   0.3652   0.3652   0.3815
     0.4848   0.5507   0.7510   0.7510   1.1767   1.2590   1.2744   1.2744
     1.5013   1.5013   1.5482   1.5911   1.9461   2.2337   2.2337   5.8556
     6.1948   6.1948   6.7605   8.0399   8.1867   8.1869   8.2289   8.3583

          k = 0.2887 0.5103-0.5000 ( 19654 PWs)   bands (ev):

   -42.6240 -42.6222 -42.2267 -42.2246 -42.2242 -42.2231 -42.2208 -42.2206
   -42.2074 -42.2070 -42.2050 -42.2039 -42.2038 -42.2020 -41.4581  -9.0651
    -8.9556  -8.8576  -8.8527  -8.2359  -8.1452  -8.0491  -8.0445  -0.6040
    -0.4947  -0.4187  -0.2064  -0.1460  -0.0513   0.1163   0.2350   0.4559
     0.5175   0.5916   0.6977   0.8399   0.8784   1.0508   1.0728   1.1250
     1.3216   1.3640   1.3840   1.5769   1.5837   2.1115   2.1822   6.6350
     7.0506   7.0649   7.1662   7.5397   7.7588   7.7721   7.9717   8.4885

          k = 0.1443 0.4082-0.2500 ( 19681 PWs)   bands (ev):

   -42.6240 -42.6222 -42.2274 -42.2237 -42.2236 -42.2234 -42.2216 -42.2203
   -42.2076 -42.2062 -42.2047 -42.2047 -42.2045 -42.2014 -41.4581  -9.0914
    -8.9329  -8.8592  -8.8499  -8.2467  -8.1228  -8.0535  -8.0429  -0.7107
    -0.6130  -0.3960  -0.3534  -0.1566  -0.0563  -0.0099   0.4320   0.5089
     0.5285   0.5373   0.7992   0.8085   0.8710   1.0858   1.2080   1.2577
     1.2687   1.4203   1.4489   1.5383   1.7173   2.1025   2.2835   6.5721
     6.5759   6.5928   7.1153   7.6155   7.8099   7.8591   7.9321   8.4786

          k = 0.0000-0.6124-0.0000 ( 19650 PWs)   bands (ev):

   -42.6240 -42.6222 -42.2262 -42.2260 -42.2220 -42.2220 -42.2220 -42.2220
   -42.2059 -42.2059 -42.2059 -42.2059 -42.2026 -42.2025 -41.4581  -9.0861
    -8.9479  -8.8499  -8.8499  -8.2502  -8.1082  -8.0536  -8.0536  -0.7003
    -0.5141  -0.5141  -0.3097  -0.3097   0.0685   0.1020   0.3413   0.4123
     0.4123   0.7093   0.8549   0.8549   0.9298   1.0292   1.0292   1.2755
     1.2910   1.2910   1.4485   1.6763   1.6763   2.2548   2.2548   6.7557
     6.8027   6.8027   7.0839   7.1213   7.1213   7.2128   7.7216   8.5967

          k =-0.1443-0.7144 0.2500 ( 19654 PWs)   bands (ev):

   -42.6240 -42.6222 -42.2267 -42.2246 -42.2242 -42.2231 -42.2208 -42.2206
   -42.2074 -42.2070 -42.2050 -42.2039 -42.2038 -42.2020 -41.4581  -9.0651
    -8.9556  -8.8576  -8.8527  -8.2359  -8.1452  -8.0491  -8.0445  -0.6040
    -0.4947  -0.4187  -0.2064  -0.1460  -0.0513   0.1163   0.2350   0.4559
     0.5175   0.5916   0.6977   0.8399   0.8784   1.0508   1.0728   1.1250
     1.3216   1.3640   1.3840   1.5769   1.5837   2.1115   2.1822   6.6350
     7.0506   7.0649   7.1662   7.5397   7.7588   7.7721   7.9718   8.6977

          k = 0.2887-0.4082-0.5000 ( 19734 PWs)   bands (ev):

   -42.6240 -42.6222 -42.2260 -42.2259 -42.2236 -42.2236 -42.2205 -42.2202
   -42.2077 -42.2075 -42.2047 -42.2047 -42.2025 -42.2024 -41.4581  -9.0088
    -9.0079  -8.8555  -8.8555  -8.2118  -8.1833  -8.0447  -8.0447  -0.4315
    -0.4140  -0.3040  -0.3040   0.0915   0.0915   0.1085   0.1220   0.3430
     0.3434   0.5370   0.6464   0.8932   0.8932   0.9990   0.9990   1.1236
     1.2457   1.2963   1.2963   1.5211   1.5805   2.0885   2.0885   6.7681
     6.8115   7.4863   7.4863   8.0332   8.0616   8.0618   8.1684   8.6246

          k = 0.2887-0.1021 0.0000 ( 19666 PWs)   bands (ev):

   -42.6240 -42.6222 -42.2289 -42.2229 -42.2229 -42.2225 -42.2210 -42.2210
   -42.2072 -42.2072 -42.2059 -42.2048 -42.2048 -42.2000 -41.4581  -9.1455
    -8.8904  -8.8518  -8.8518  -8.2650  -8.0753  -8.0501  -8.0501  -0.8581
    -0.7718  -0.7718  -0.6131  -0.1577  -0.1577   0.3443   0.3844   0.3845
     0.5882   0.5988   0.7402   0.7402   1.1852   1.3424   1.3424   1.4478
     1.4606   1.4606   1.6336   1.6336   1.9603   2.3273   2.3273   5.9092
     5.9092   5.9123   6.6391   7.8369   7.9037   7.9037   8.0409   8.3688

          k = 0.5774 0.1021-0.5000 ( 19654 PWs)   bands (ev):

   -42.6240 -42.6222 -42.2267 -42.2246 -42.2242 -42.2231 -42.2208 -42.2206
   -42.2074 -42.2070 -42.2050 -42.2039 -42.2038 -42.2020 -41.4581  -9.0651
    -8.9556  -8.8576  -8.8527  -8.2359  -8.1452  -8.0491  -8.0445  -0.6040
    -0.4947  -0.4187  -0.2064  -0.1460  -0.0513   0.1163   0.2350   0.4559
     0.5175   0.5916   0.6977   0.8399   0.8784   1.0508   1.0728   1.1250
     1.3216   1.3640   1.3840   1.5769   1.5837   2.1115   2.1822   6.6350
     7.0506   7.0649   7.1662   7.5397   7.7588   7.7721   7.9717   8.4881

          k = 0.4330 0.0000-0.2500 ( 19681 PWs)   bands (ev):

   -42.6240 -42.6222 -42.2274 -42.2237 -42.2236 -42.2234 -42.2216 -42.2203
   -42.2076 -42.2062 -42.2047 -42.2047 -42.2045 -42.2014 -41.4581  -9.0914
    -8.9329  -8.8592  -8.8499  -8.2467  -8.1228  -8.0535  -8.0429  -0.7107
    -0.6130  -0.3960  -0.3534  -0.1566  -0.0563  -0.0099   0.4320   0.5089
     0.5285   0.5373   0.7992   0.8085   0.8710   1.0858   1.2080   1.2577
     1.2687   1.4203   1.4489   1.5383   1.7173   2.1025   2.2835   6.5721
     6.5759   6.5928   7.1153   7.6155   7.8099   7.8591   7.9321   8.4772

          k = 0.2887 0.2041 0.0000 ( 19699 PWs)   bands (ev):

   -42.6240 -42.6222 -42.2287 -42.2239 -42.2222 -42.2222 -42.2219 -42.2205
   -42.2077 -42.2061 -42.2061 -42.2058 -42.2040 -42.2002 -41.4581  -9.1314
    -8.8964  -8.8546  -8.8546  -8.2596  -8.0986  -8.0457  -8.0457  -0.7739
    -0.6847  -0.6791  -0.6791  -0.1218  -0.0516   0.3652   0.3652   0.3815
     0.4848   0.5507   0.7510   0.7510   1.1767   1.2590   1.2744   1.2744
     1.5013   1.5013   1.5482   1.5911   1.9461   2.2337   2.2337   5.8556
     6.1948   6.1948   6.7605   8.0399   8.1868   8.1870   8.2285   8.3609

          k = 0.5774 0.4082-0.5000 ( 19681 PWs)   bands (ev):

   -42.6240 -42.6222 -42.2274 -42.2237 -42.2236 -42.2234 -42.2216 -42.2203
   -42.2076 -42.2062 -42.2047 -42.2047 -42.2045 -42.2014 -41.4581  -9.0914
    -8.9329  -8.8592  -8.8499  -8.2467  -8.1228  -8.0535  -8.0429  -0.7107
    -0.6130  -0.3960  -0.3534  -0.1566  -0.0563  -0.0099   0.4320   0.5089
     0.5285   0.5373   0.7992   0.8085   0.8710   1.0858   1.2080   1.2577
     1.2687   1.4203   1.4489   1.5383   1.7173   2.1025   2.2835   6.5721
     6.5759   6.5928   7.1153   7.6155   7.8099   7.8591   7.9321   8.4775

          k = 0.4330 0.3062-0.2500 ( 19654 PWs)   bands (ev):

   -42.6240 -42.6222 -42.2267 -42.2246 -42.2242 -42.2231 -42.2208 -42.2206
   -42.2074 -42.2070 -42.2050 -42.2039 -42.2038 -42.2020 -41.4581  -9.0651
    -8.9556  -8.8576  -8.8527  -8.2359  -8.1452  -8.0491  -8.0445  -0.6040
    -0.4947  -0.4187  -0.2064  -0.1460  -0.0513   0.1163   0.2350   0.4559
     0.5175   0.5916   0.6977   0.8399   0.8784   1.0508   1.0728   1.1250
     1.3216   1.3640   1.3840   1.5769   1.5837   2.1115   2.1822   6.6350
     7.0506   7.0649   7.1662   7.5397   7.7588   7.7721   7.9718   8.6983

          k = 0.2887-0.7144-0.0000 ( 19654 PWs)   bands (ev):

   -42.6240 -42.6222 -42.2267 -42.2246 -42.2242 -42.2231 -42.2208 -42.2206
   -42.2074 -42.2070 -42.2050 -42.2039 -42.2038 -42.2020 -41.4581  -9.0651
    -8.9556  -8.8576  -8.8527  -8.2359  -8.1452  -8.0491  -8.0445  -0.6040
    -0.4947  -0.4187  -0.2064  -0.1460  -0.0513   0.1163   0.2350   0.4559
     0.5175   0.5916   0.6977   0.8399   0.8784   1.0508   1.0728   1.1250
     1.3216   1.3640   1.3840   1.5769   1.5837   2.1115   2.1822   6.6350
     7.0506   7.0649   7.1662   7.5397   7.7588   7.7721   7.9717   8.4862

          k = 0.4330-0.6124-0.2500 ( 19688 PWs)   bands (ev):

   -42.6240 -42.6222 -42.2250 -42.2248 -42.2248 -42.2248 -42.2203 -42.2203
   -42.2076 -42.2076 -42.2036 -42.2035 -42.2035 -42.2035 -41.4581  -9.0075
    -9.0064  -8.8577  -8.8574  -8.2103  -8.1822  -8.0454  -8.0452  -0.4680
    -0.4494  -0.2350  -0.1836  -0.0099  -0.0086   0.0808   0.0993   0.3625
     0.3874   0.7394   0.7479   0.7953   0.8585   0.8796   0.9393   1.2083
     1.2390   1.2963   1.3589   1.4916   1.5556   2.0600   2.0926   7.3000
     7.3391   7.3847   7.4712   7.6116   7.7341   7.7471   7.8300   8.7871

          k = 0.2887-0.4082 0.0000 ( 19681 PWs)   bands (ev):

   -42.6240 -42.6222 -42.2274 -42.2237 -42.2236 -42.2234 -42.2216 -42.2203
   -42.2076 -42.2062 -42.2047 -42.2047 -42.2045 -42.2014 -41.4581  -9.0914
    -8.9329  -8.8592  -8.8499  -8.2467  -8.1228  -8.0535  -8.0429  -0.7107
    -0.6130  -0.3960  -0.3534  -0.1566  -0.0563  -0.0099   0.4320   0.5089
     0.5285   0.5373   0.7992   0.8085   0.8710   1.0858   1.2080   1.2577
     1.2687   1.4203   1.4489   1.5383   1.7173   2.1025   2.2835   6.5721
     6.5759   6.5928   7.1153   7.6155   7.8099   7.8591   7.9321   8.4788

          k = 0.5774-0.2041-0.5000 ( 19688 PWs)   bands (ev):

   -42.6240 -42.6222 -42.2250 -42.2248 -42.2248 -42.2248 -42.2203 -42.2203
   -42.2076 -42.2076 -42.2036 -42.2035 -42.2035 -42.2035 -41.4581  -9.0075
    -9.0064  -8.8577  -8.8574  -8.2103  -8.1822  -8.0454  -8.0452  -0.4680
    -0.4494  -0.2350  -0.1836  -0.0099  -0.0086   0.0808   0.0993   0.3625
     0.3874   0.7394   0.7479   0.7953   0.8585   0.8796   0.9393   1.2083
     1.2390   1.2963   1.3589   1.4916   1.5556   2.0600   2.0926   7.3000
     7.3391   7.3847   7.4712   7.6116   7.7341   7.7471   7.8300   8.7856

          k = 0.4330-0.3062-0.2500 ( 19654 PWs)   bands (ev):

   -42.6240 -42.6222 -42.2267 -42.2246 -42.2242 -42.2231 -42.2208 -42.2206
   -42.2074 -42.2070 -42.2050 -42.2039 -42.2038 -42.2020 -41.4581  -9.0651
    -8.9556  -8.8576  -8.8527  -8.2359  -8.1452  -8.0491  -8.0445  -0.6040
    -0.4947  -0.4187  -0.2064  -0.1460  -0.0513   0.1163   0.2350   0.4559
     0.5175   0.5916   0.6977   0.8399   0.8784   1.0508   1.0728   1.1250
     1.3216   1.3640   1.3840   1.5769   1.5837   2.1115   2.1822   6.6350
     7.0506   7.0649   7.1662   7.5397   7.7588   7.7721   7.9717   8.4879

          k =-0.5774 0.2041-0.0000 ( 19650 PWs)   bands (ev):

   -42.6240 -42.6222 -42.2262 -42.2260 -42.2220 -42.2220 -42.2220 -42.2220
   -42.2059 -42.2059 -42.2059 -42.2059 -42.2026 -42.2025 -41.4581  -9.0861
    -8.9479  -8.8499  -8.8499  -8.2502  -8.1082  -8.0536  -8.0536  -0.7003
    -0.5141  -0.5141  -0.3097  -0.3097   0.0685   0.1020   0.3413   0.4123
     0.4123   0.7093   0.8549   0.8549   0.9298   1.0292   1.0292   1.2755
     1.2910   1.2910   1.4485   1.6763   1.6763   2.2548   2.2548   6.7557
     6.8027   6.8027   7.0839   7.1213   7.1213   7.2128   7.7216   8.5967

          k =-0.5774 0.5103-0.0000 ( 19654 PWs)   bands (ev):

   -42.6240 -42.6222 -42.2267 -42.2246 -42.2242 -42.2231 -42.2208 -42.2206
   -42.2074 -42.2070 -42.2050 -42.2039 -42.2038 -42.2020 -41.4581  -9.0651
    -8.9556  -8.8576  -8.8527  -8.2359  -8.1452  -8.0491  -8.0445  -0.6040
    -0.4947  -0.4187  -0.2064  -0.1460  -0.0513   0.1163   0.2350   0.4559
     0.5175   0.5916   0.6977   0.8399   0.8784   1.0508   1.0728   1.1250
     1.3216   1.3640   1.3840   1.5769   1.5837   2.1115   2.1822   6.6350
     7.0506   7.0649   7.1662   7.5397   7.7588   7.7721   7.9717   8.4861

          k =-0.5774-0.4082-0.0000 ( 19734 PWs)   bands (ev):

   -42.6240 -42.6222 -42.2260 -42.2259 -42.2236 -42.2236 -42.2205 -42.2202
   -42.2077 -42.2075 -42.2047 -42.2047 -42.2025 -42.2024 -41.4581  -9.0088
    -9.0079  -8.8555  -8.8555  -8.2118  -8.1833  -8.0447  -8.0447  -0.4315
    -0.4140  -0.3040  -0.3040   0.0915   0.0915   0.1085   0.1220   0.3430
     0.3434   0.5370   0.6464   0.8932   0.8932   0.9990   0.9990   1.1236
     1.2457   1.2963   1.2963   1.5211   1.5805   2.0885   2.0885   6.7681
     6.8115   7.4863   7.4863   8.0331   8.0616   8.0616   8.1684   8.6240

     the Fermi energy is     2.8710 ev

!    total energy              =    -411.84470863 Ry
     estimated scf accuracy    <          1.6E-09 Ry
     smearing contrib. (-TS)   =      -0.00000000 Ry
     internal energy E=F+TS    =    -411.84470863 Ry

     The total energy is F=E-TS. E is the sum of the following terms:
     one-electron contribution =    -137.86492988 Ry
     hartree contribution      =      77.26501142 Ry
     xc contribution           =    -120.39560069 Ry
     ewald contribution        =    -230.84918948 Ry

     convergence has been achieved in   8 iterations

     Forces acting on atoms (cartesian axes, Ry/au):

     atom    1 type  1   force =     0.00780796    0.00552101    0.00000000
     atom    2 type  1   force =     0.01366386    0.00966160    0.00000000
     atom    3 type  2   force =     0.00002265    0.00001590   -0.00003906
     atom    4 type  1   force =    -0.00000071    0.00000018   -0.00000000
     atom    5 type  1   force =     0.00000010   -0.00000005    0.00000000
     atom    6 type  2   force =     0.00002265    0.00001590    0.00003906
     atom    7 type  1   force =     0.00390406   -0.00552123   -0.00676201
     atom    8 type  1   force =     0.00683207   -0.00966170   -0.01183339
     atom    9 type  2   force =     0.01167109   -0.00412640    0.00000000
     atom   10 type  1   force =     0.00390406   -0.00552123    0.00676201
     atom   11 type  1   force =     0.00683207   -0.00966171    0.01183339
     atom   12 type  2   force =     0.00000003   -0.00004772   -0.00000000
     atom   13 type  1   force =    -0.00390402    0.00552126   -0.00676215
     atom   14 type  1   force =    -0.00683186    0.00966166   -0.01183319
     atom   15 type  2   force =    -0.00000016    0.01237908    0.00000000
     atom   16 type  1   force =    -0.00390402    0.00552126    0.00676215
     atom   17 type  1   force =    -0.00683186    0.00966165    0.01183319
     atom   18 type  2   force =    -0.00004522    0.00001597   -0.00000000
     atom   19 type  1   force =    -0.00000011   -0.00000009   -0.00000000
     atom   20 type  2   force =    -0.00583551   -0.00412623   -0.01010742
     atom   21 type  1   force =    -0.00780801   -0.00552107   -0.00000000
     atom   22 type  1   force =    -0.01366360   -0.00966181   -0.00000000
     atom   23 type  2   force =    -0.00583552   -0.00412623    0.01010742

     Total force =     0.053310     Total SCF correction =     0.000091
     Energy error            =      3.2E-03 Ry
     Gradient error          =      1.4E-02 Ry/Bohr

     number of scf cycles    =   2
     number of bfgs steps    =   1

     energy             old  =    -411.8414731782 Ry
     energy             new  =    -411.8447086335 Ry

     CASE: energy            _new < energy            _old


     WARNING: bfgs curvature condition failed, Theta= 0.872
     new trust radius        =       0.0197133230 bohr
     new conv_thr            =       0.0000000014 Ry


ATOMIC_POSITIONS (angstrom)
Li               1.1740570927        0.8301834515        2.0170831004
Li               3.5099502672        2.4819092917        6.0512493012
S                0.0000470866        0.0000335725       -0.0000817140
Li               1.1645622621        0.8234707832        6.0512488014
Li               3.4936890415        2.4704124661       10.0854150022
S                0.0000470826        0.0000335705        4.0342474150
Li               2.3338724004        4.1106402929        4.0259448227
Li               4.6663826372        5.7527954647        8.0542502748
S                1.1788511708        3.2888300871        2.0170833500
Li               2.3338723940        4.1106402893        8.0765537791
Li               4.6663826292        5.7527954599       12.1165807286
S                1.1645629718        3.2937806876        6.0512490510
Li               4.6535063871        0.8301844064        4.0259449541
Li               6.9792482270        2.4819101271        8.0542506994
S                3.4936899940        0.0151540838        2.0170833500
Li               4.6535063807        0.8301844028        8.0765536477
Li               6.9792482190        2.4819101223       12.1165803040
S                3.4935953853        0.0000336505        6.0512490510
Li               8.1519415931        5.7642934904       10.0854160012
S                4.6511084558        3.2888305406        4.0217929198
Li               5.8133232239        4.1106402054       10.0854155014
Li               8.1356814189        5.7527960430       14.1195817022
S                4.6511084482        3.2888305361        8.0807061812



     Writing config-only to output data dir ./tmp/li2s_ep_initial.save/ :
     XML data file
     NEW-OLD atomic charge density approx. for the potential

     total cpu time spent up to now is      696.3 secs

     Self-consistent Calculation

     iteration #  1     ecut=    60.00 Ry     beta= 0.30
     Davidson diagonalization with overlap
     ethr =  1.00E-06,  avg # of iterations =  6.0

     Threshold (ethr) on eigenvalues was too large:
     Diagonalizing with lowered threshold

     Davidson diagonalization with overlap
     ethr =  6.80E-08,  avg # of iterations =  4.0

     total cpu time spent up to now is      761.5 secs

     total energy              =    -411.84789757 Ry
     estimated scf accuracy    <       0.00007577 Ry

     iteration #  2     ecut=    60.00 Ry     beta= 0.30
     Davidson diagonalization with overlap
     ethr =  8.06E-08,  avg # of iterations =  2.0

     total cpu time spent up to now is      782.5 secs

     total energy              =    -411.84790257 Ry
     estimated scf accuracy    <       0.00000929 Ry

     iteration #  3     ecut=    60.00 Ry     beta= 0.30
     Davidson diagonalization with overlap
     ethr =  9.88E-09,  avg # of iterations =  4.0

     total cpu time spent up to now is      812.7 secs

     total energy              =    -411.84790632 Ry
     estimated scf accuracy    <       0.00000191 Ry

     iteration #  4     ecut=    60.00 Ry     beta= 0.30
     Davidson diagonalization with overlap
     ethr =  2.04E-09,  avg # of iterations =  2.0

     total cpu time spent up to now is      834.7 secs

     total energy              =    -411.84790687 Ry
     estimated scf accuracy    <       0.00000041 Ry

     iteration #  5     ecut=    60.00 Ry     beta= 0.30
     Davidson diagonalization with overlap
     ethr =  4.38E-10,  avg # of iterations =  4.0

     total cpu time spent up to now is      862.2 secs

     total energy              =    -411.84790689 Ry
     estimated scf accuracy    <       0.00000015 Ry

     iteration #  6     ecut=    60.00 Ry     beta= 0.30
     Davidson diagonalization with overlap
     ethr =  1.57E-10,  avg # of iterations =  3.1

     total cpu time spent up to now is      887.6 secs

     total energy              =    -411.84790694 Ry
     estimated scf accuracy    <          8.8E-09 Ry

     iteration #  7     ecut=    60.00 Ry     beta= 0.30
     Davidson diagonalization with overlap
     ethr =  9.38E-12,  avg # of iterations =  5.0

     total cpu time spent up to now is      922.6 secs

     End of self-consistent calculation

          k = 0.0000 0.0000 0.0000 ( 19603 PWs)   bands (ev):

   -42.5931 -42.5895 -42.2269 -42.2194 -42.2194 -42.2147 -42.2147 -42.2147
   -42.2100 -42.2100 -42.2100 -42.2047 -42.2047 -42.1985 -41.4584  -9.1627
    -8.8271  -8.8271  -8.8271  -8.2975  -8.0737  -8.0737  -8.0737  -0.9575
    -0.8927  -0.8927  -0.8927  -0.2067  -0.2067   0.2978   0.5171   0.5171
     0.5171   0.6956   0.6956   0.6956   1.5728   1.5728   1.5728   1.5844
     1.5844   1.6033   1.6033   1.6033   2.3656   2.3656   2.3656   5.4375
     5.4375   5.4375   6.2186   7.9384   7.9390   7.9391   8.1297   8.2267

          k =-0.1443-0.1021 0.2500 ( 19666 PWs)   bands (ev):

   -42.5931 -42.5895 -42.2258 -42.2189 -42.2189 -42.2182 -42.2158 -42.2158
   -42.2087 -42.2087 -42.2065 -42.2053 -42.2053 -42.1995 -41.4584  -9.1225
    -8.8645  -8.8251  -8.8251  -8.2886  -8.1018  -8.0773  -8.0773  -0.8336
    -0.7630  -0.7630  -0.6001  -0.1505  -0.1505   0.3304   0.3986   0.3986
     0.5990   0.6064   0.7526   0.7526   1.1907   1.3293   1.3293   1.4303
     1.4586   1.4586   1.6320   1.6320   1.9306   2.2986   2.2986   5.9169
     5.9169   5.9203   6.6455   7.8381   7.9093   7.9093   8.0522   8.4706

          k = 0.2887 0.2041-0.5000 ( 19650 PWs)   bands (ev):

   -42.5931 -42.5895 -42.2228 -42.2226 -42.2176 -42.2176 -42.2176 -42.2176
   -42.2067 -42.2067 -42.2067 -42.2067 -42.2024 -42.2023 -41.4584  -9.0614
    -8.9234  -8.8230  -8.8230  -8.2751  -8.1337  -8.0810  -8.0810  -0.6728
    -0.5021  -0.5021  -0.3049  -0.3049   0.0801   0.1259   0.3299   0.4342
     0.4342   0.7371   0.8692   0.8692   0.9060   1.0106   1.0106   1.2484
     1.2842   1.2842   1.4212   1.6761   1.6761   2.2253   2.2253   6.7803
     6.8130   6.8130   7.0768   7.1242   7.1242   7.2142   7.7202   8.6145

          k =-0.0000 0.3062 0.0000 ( 19666 PWs)   bands (ev):

   -42.5931 -42.5895 -42.2258 -42.2189 -42.2189 -42.2182 -42.2158 -42.2158
   -42.2087 -42.2087 -42.2065 -42.2053 -42.2053 -42.1995 -41.4584  -9.1225
    -8.8645  -8.8251  -8.8251  -8.2886  -8.1018  -8.0773  -8.0773  -0.8336
    -0.7630  -0.7630  -0.6001  -0.1505  -0.1505   0.3304   0.3986   0.3986
     0.5990   0.6064   0.7526   0.7526   1.1907   1.3293   1.3293   1.4303
     1.4586   1.4586   1.6320   1.6320   1.9306   2.2986   2.2986   5.9169
     5.9169   5.9203   6.6455   7.8381   7.9093   7.9093   8.0522   8.3843

          k =-0.1443 0.2041 0.2500 ( 19699 PWs)   bands (ev):

   -42.5931 -42.5895 -42.2256 -42.2202 -42.2178 -42.2178 -42.2175 -42.2146
   -42.2100 -42.2069 -42.2069 -42.2066 -42.2041 -42.1997 -41.4584  -9.1082
    -8.8698  -8.8281  -8.8281  -8.2837  -8.1254  -8.0727  -8.0727  -0.7477
    -0.6731  -0.6700  -0.6700  -0.1147  -0.0430   0.3808   0.3808   0.3942
     0.4618   0.5607   0.7645   0.7645   1.1765   1.2538   1.2615   1.2615
     1.5040   1.5040   1.5351   1.5849   1.9176   2.2036   2.2036   5.8635
     6.2025   6.2025   6.7670   8.0545   8.1868   8.1870   8.2424   8.3686

          k = 0.2887 0.5103-0.5000 ( 19654 PWs)   bands (ev):

   -42.5931 -42.5895 -42.2234 -42.2210 -42.2205 -42.2191 -42.2156 -42.2151
   -42.2093 -42.2086 -42.2054 -42.2041 -42.2039 -42.2017 -41.4584  -9.0403
    -8.9298  -8.8315  -8.8261  -8.2618  -8.1706  -8.0763  -8.0716  -0.5793
    -0.4804  -0.4079  -0.1988  -0.1262  -0.0432   0.1304   0.2484   0.4659
     0.5390   0.5946   0.6930   0.8334   0.8967   1.0345   1.0546   1.1151
     1.3103   1.3537   1.3754   1.5571   1.5800   2.0820   2.1528   6.6445
     7.0639   7.0738   7.1744   7.5398   7.7641   7.7723   7.9759   8.5035

          k = 0.1443 0.4082-0.2500 ( 19681 PWs)   bands (ev):

   -42.5931 -42.5895 -42.2242 -42.2198 -42.2197 -42.2195 -42.2170 -42.2145
   -42.2099 -42.2072 -42.2050 -42.2050 -42.2048 -42.2010 -41.4584  -9.0672
    -8.9069  -8.8333  -8.8230  -8.2716  -8.1487  -8.0809  -8.0698  -0.6879
    -0.6037  -0.3792  -0.3367  -0.1482  -0.0493  -0.0014   0.4202   0.5309
     0.5495   0.5566   0.7904   0.8252   0.8757   1.0650   1.1971   1.2401
     1.2600   1.4094   1.4442   1.5378   1.6934   2.0723   2.2560   6.5801
     6.5843   6.6031   7.1227   7.6175   7.8156   7.8643   7.9349   8.4897

          k = 0.0000-0.6124-0.0000 ( 19650 PWs)   bands (ev):

   -42.5931 -42.5895 -42.2228 -42.2226 -42.2176 -42.2176 -42.2176 -42.2176
   -42.2067 -42.2067 -42.2067 -42.2067 -42.2024 -42.2023 -41.4584  -9.0614
    -8.9234  -8.8230  -8.8230  -8.2751  -8.1337  -8.0810  -8.0810  -0.6728
    -0.5021  -0.5021  -0.3049  -0.3049   0.0801   0.1259   0.3299   0.4342
     0.4342   0.7371   0.8692   0.8692   0.9060   1.0106   1.0106   1.2484
     1.2842   1.2842   1.4212   1.6761   1.6761   2.2253   2.2253   6.7803
     6.8130   6.8130   7.0768   7.1242   7.1242   7.2142   7.7202   8.6145

          k =-0.1443-0.7144 0.2500 ( 19654 PWs)   bands (ev):

   -42.5931 -42.5895 -42.2234 -42.2210 -42.2205 -42.2191 -42.2156 -42.2151
   -42.2093 -42.2086 -42.2054 -42.2041 -42.2039 -42.2017 -41.4584  -9.0403
    -8.9298  -8.8315  -8.8261  -8.2618  -8.1706  -8.0763  -8.0716  -0.5793
    -0.4804  -0.4079  -0.1988  -0.1262  -0.0432   0.1304   0.2484   0.4659
     0.5390   0.5946   0.6930   0.8334   0.8967   1.0345   1.0546   1.1151
     1.3103   1.3537   1.3754   1.5571   1.5800   2.0820   2.1528   6.6445
     7.0639   7.0738   7.1744   7.5398   7.7641   7.7723   7.9760   8.6974

          k = 0.2887-0.4082-0.5000 ( 19734 PWs)   bands (ev):

   -42.5931 -42.5895 -42.2226 -42.2225 -42.2197 -42.2197 -42.2146 -42.2144
   -42.2099 -42.2097 -42.2049 -42.2049 -42.2023 -42.2022 -41.4584  -8.9833
    -8.9824  -8.8292  -8.8292  -8.2414  -8.2058  -8.0716  -8.0716  -0.4092
    -0.3883  -0.2958  -0.2958   0.1148   0.1148   0.1169   0.1322   0.3668
     0.3677   0.5165   0.6271   0.8765   0.8765   1.0219   1.0219   1.0881
     1.2255   1.2882   1.2882   1.5077   1.5758   2.0576   2.0576   6.7760
     6.8218   7.4948   7.4948   8.0448   8.0647   8.0647   8.1755   8.6254

          k = 0.2887-0.1021 0.0000 ( 19666 PWs)   bands (ev):

   -42.5931 -42.5895 -42.2258 -42.2189 -42.2189 -42.2182 -42.2158 -42.2158
   -42.2087 -42.2087 -42.2065 -42.2053 -42.2053 -42.1995 -41.4584  -9.1225
    -8.8645  -8.8251  -8.8251  -8.2886  -8.1018  -8.0773  -8.0773  -0.8336
    -0.7630  -0.7630  -0.6001  -0.1505  -0.1505   0.3304   0.3986   0.3986
     0.5990   0.6064   0.7526   0.7526   1.1907   1.3293   1.3293   1.4303
     1.4586   1.4586   1.6320   1.6320   1.9306   2.2986   2.2986   5.9169
     5.9169   5.9203   6.6455   7.8382   7.9093   7.9094   8.0522   8.3842

          k = 0.5774 0.1021-0.5000 ( 19654 PWs)   bands (ev):

   -42.5931 -42.5895 -42.2234 -42.2210 -42.2205 -42.2191 -42.2156 -42.2151
   -42.2093 -42.2086 -42.2054 -42.2041 -42.2039 -42.2017 -41.4584  -9.0403
    -8.9298  -8.8315  -8.8261  -8.2618  -8.1706  -8.0763  -8.0716  -0.5793
    -0.4804  -0.4079  -0.1988  -0.1262  -0.0432   0.1304   0.2484   0.4659
     0.5390   0.5946   0.6930   0.8334   0.8967   1.0345   1.0546   1.1151
     1.3103   1.3537   1.3754   1.5571   1.5800   2.0820   2.1528   6.6445
     7.0639   7.0738   7.1744   7.5398   7.7641   7.7723   7.9759   8.5033

          k = 0.4330 0.0000-0.2500 ( 19681 PWs)   bands (ev):

   -42.5931 -42.5895 -42.2242 -42.2198 -42.2197 -42.2195 -42.2170 -42.2145
   -42.2099 -42.2072 -42.2050 -42.2050 -42.2048 -42.2010 -41.4584  -9.0672
    -8.9069  -8.8333  -8.8230  -8.2716  -8.1487  -8.0809  -8.0698  -0.6879
    -0.6037  -0.3792  -0.3367  -0.1482  -0.0493  -0.0014   0.4202   0.5309
     0.5495   0.5566   0.7904   0.8252   0.8757   1.0650   1.1971   1.2401
     1.2600   1.4094   1.4442   1.5378   1.6934   2.0723   2.2560   6.5801
     6.5843   6.6031   7.1227   7.6175   7.8156   7.8643   7.9349   8.4887

          k = 0.2887 0.2041 0.0000 ( 19699 PWs)   bands (ev):

   -42.5931 -42.5895 -42.2256 -42.2202 -42.2178 -42.2178 -42.2175 -42.2146
   -42.2100 -42.2069 -42.2069 -42.2066 -42.2041 -42.1997 -41.4584  -9.1082
    -8.8698  -8.8281  -8.8281  -8.2837  -8.1254  -8.0727  -8.0727  -0.7477
    -0.6731  -0.6700  -0.6700  -0.1147  -0.0430   0.3808   0.3808   0.3942
     0.4618   0.5607   0.7645   0.7645   1.1765   1.2538   1.2615   1.2615
     1.5040   1.5040   1.5351   1.5849   1.9176   2.2036   2.2036   5.8635
     6.2025   6.2025   6.7670   8.0544   8.1869   8.1870   8.2420   8.3709

          k = 0.5774 0.4082-0.5000 ( 19681 PWs)   bands (ev):

   -42.5931 -42.5895 -42.2242 -42.2198 -42.2197 -42.2195 -42.2170 -42.2145
   -42.2099 -42.2072 -42.2050 -42.2050 -42.2048 -42.2010 -41.4584  -9.0672
    -8.9069  -8.8333  -8.8230  -8.2716  -8.1487  -8.0809  -8.0698  -0.6879
    -0.6037  -0.3792  -0.3367  -0.1482  -0.0493  -0.0014   0.4202   0.5309
     0.5495   0.5566   0.7904   0.8252   0.8757   1.0650   1.1971   1.2401
     1.2600   1.4094   1.4442   1.5378   1.6934   2.0723   2.2560   6.5801
     6.5843   6.6031   7.1227   7.6175   7.8156   7.8643   7.9349   8.4892

          k = 0.4330 0.3062-0.2500 ( 19654 PWs)   bands (ev):

   -42.5931 -42.5895 -42.2234 -42.2210 -42.2205 -42.2191 -42.2156 -42.2151
   -42.2093 -42.2086 -42.2054 -42.2041 -42.2039 -42.2017 -41.4584  -9.0403
    -8.9298  -8.8315  -8.8261  -8.2618  -8.1706  -8.0763  -8.0716  -0.5793
    -0.4804  -0.4079  -0.1988  -0.1262  -0.0432   0.1304   0.2484   0.4659
     0.5390   0.5946   0.6930   0.8334   0.8967   1.0345   1.0546   1.1151
     1.3103   1.3537   1.3754   1.5571   1.5800   2.0820   2.1528   6.6445
     7.0639   7.0738   7.1744   7.5398   7.7641   7.7723   7.9760   8.6982

          k = 0.2887-0.7144-0.0000 ( 19654 PWs)   bands (ev):

   -42.5931 -42.5895 -42.2234 -42.2210 -42.2205 -42.2191 -42.2156 -42.2151
   -42.2093 -42.2086 -42.2054 -42.2041 -42.2039 -42.2017 -41.4584  -9.0403
    -8.9298  -8.8315  -8.8261  -8.2618  -8.1706  -8.0763  -8.0716  -0.5793
    -0.4804  -0.4079  -0.1988  -0.1262  -0.0432   0.1304   0.2484   0.4659
     0.5390   0.5946   0.6930   0.8334   0.8967   1.0345   1.0546   1.1151
     1.3103   1.3537   1.3754   1.5571   1.5800   2.0820   2.1528   6.6445
     7.0639   7.0738   7.1744   7.5398   7.7641   7.7723   7.9759   8.5018

          k = 0.4330-0.6124-0.2500 ( 19688 PWs)   bands (ev):

   -42.5931 -42.5895 -42.2214 -42.2213 -42.2212 -42.2212 -42.2145 -42.2145
   -42.2098 -42.2098 -42.2036 -42.2035 -42.2035 -42.2035 -41.4584  -8.9819
    -8.9806  -8.8318  -8.8312  -8.2396  -8.2045  -8.0725  -8.0723  -0.4478
    -0.4262  -0.2276  -0.1711   0.0078   0.0116   0.0943   0.1138   0.3681
     0.3978   0.7200   0.7490   0.8176   0.8547   0.8776   0.9365   1.1911
     1.2120   1.2783   1.3552   1.4821   1.5493   2.0284   2.0635   7.3093
     7.3533   7.4033   7.4802   7.6224   7.7338   7.7421   7.8270   8.8029

          k = 0.2887-0.4082 0.0000 ( 19681 PWs)   bands (ev):

   -42.5931 -42.5895 -42.2242 -42.2198 -42.2197 -42.2195 -42.2170 -42.2145
   -42.2099 -42.2072 -42.2050 -42.2050 -42.2048 -42.2010 -41.4584  -9.0672
    -8.9069  -8.8333  -8.8230  -8.2716  -8.1487  -8.0809  -8.0698  -0.6879
    -0.6037  -0.3792  -0.3367  -0.1482  -0.0493  -0.0014   0.4202   0.5309
     0.5495   0.5566   0.7904   0.8252   0.8757   1.0650   1.1971   1.2401
     1.2600   1.4094   1.4442   1.5378   1.6934   2.0723   2.2560   6.5801
     6.5843   6.6031   7.1227   7.6175   7.8156   7.8643   7.9349   8.4901

          k = 0.5774-0.2041-0.5000 ( 19688 PWs)   bands (ev):

   -42.5931 -42.5895 -42.2214 -42.2213 -42.2212 -42.2212 -42.2145 -42.2145
   -42.2098 -42.2098 -42.2036 -42.2035 -42.2035 -42.2035 -41.4584  -8.9819
    -8.9806  -8.8318  -8.8312  -8.2396  -8.2045  -8.0725  -8.0723  -0.4478
    -0.4262  -0.2276  -0.1711   0.0078   0.0116   0.0943   0.1138   0.3681
     0.3978   0.7200   0.7490   0.8176   0.8547   0.8776   0.9365   1.1911
     1.2120   1.2783   1.3552   1.4821   1.5493   2.0284   2.0635   7.3093
     7.3533   7.4033   7.4802   7.6224   7.7338   7.7421   7.8270   8.7999

          k = 0.4330-0.3062-0.2500 ( 19654 PWs)   bands (ev):

   -42.5931 -42.5895 -42.2234 -42.2210 -42.2205 -42.2191 -42.2156 -42.2151
   -42.2093 -42.2086 -42.2054 -42.2041 -42.2039 -42.2017 -41.4584  -9.0403
    -8.9298  -8.8315  -8.8261  -8.2618  -8.1706  -8.0763  -8.0716  -0.5793
    -0.4804  -0.4079  -0.1988  -0.1262  -0.0432   0.1304   0.2484   0.4659
     0.5390   0.5946   0.6930   0.8334   0.8967   1.0345   1.0546   1.1151
     1.3103   1.3537   1.3754   1.5571   1.5800   2.0820   2.1528   6.6445
     7.0639   7.0738   7.1744   7.5398   7.7641   7.7723   7.9759   8.5033

          k =-0.5774 0.2041-0.0000 ( 19650 PWs)   bands (ev):

   -42.5931 -42.5895 -42.2228 -42.2226 -42.2176 -42.2176 -42.2176 -42.2176
   -42.2067 -42.2067 -42.2067 -42.2067 -42.2024 -42.2023 -41.4584  -9.0614
    -8.9234  -8.8230  -8.8230  -8.2751  -8.1337  -8.0810  -8.0810  -0.6728
    -0.5021  -0.5021  -0.3049  -0.3049   0.0801   0.1259   0.3299   0.4342
     0.4342   0.7371   0.8692   0.8692   0.9060   1.0106   1.0106   1.2484
     1.2842   1.2842   1.4212   1.6761   1.6761   2.2253   2.2253   6.7803
     6.8130   6.8130   7.0768   7.1242   7.1242   7.2142   7.7202   8.6145

          k =-0.5774 0.5103-0.0000 ( 19654 PWs)   bands (ev):

   -42.5931 -42.5895 -42.2234 -42.2210 -42.2205 -42.2191 -42.2156 -42.2151
   -42.2093 -42.2086 -42.2054 -42.2041 -42.2039 -42.2017 -41.4584  -9.0403
    -8.9298  -8.8315  -8.8261  -8.2618  -8.1706  -8.0763  -8.0716  -0.5793
    -0.4804  -0.4079  -0.1988  -0.1262  -0.0432   0.1304   0.2484   0.4659
     0.5390   0.5946   0.6930   0.8334   0.8967   1.0345   1.0546   1.1151
     1.3103   1.3537   1.3754   1.5571   1.5800   2.0820   2.1528   6.6445
     7.0639   7.0738   7.1744   7.5398   7.7641   7.7723   7.9759   8.5018

          k =-0.5774-0.4082-0.0000 ( 19734 PWs)   bands (ev):

   -42.5931 -42.5895 -42.2226 -42.2225 -42.2197 -42.2197 -42.2146 -42.2144
   -42.2099 -42.2097 -42.2049 -42.2049 -42.2023 -42.2022 -41.4584  -8.9833
    -8.9824  -8.8292  -8.8292  -8.2414  -8.2058  -8.0716  -8.0716  -0.4092
    -0.3883  -0.2958  -0.2958   0.1148   0.1148   0.1169   0.1322   0.3668
     0.3677   0.5165   0.6271   0.8765   0.8765   1.0219   1.0219   1.0881
     1.2255   1.2882   1.2882   1.5077   1.5758   2.0576   2.0576   6.7760
     6.8218   7.4948   7.4948   8.0448   8.0647   8.0647   8.1755   8.6248

     the Fermi energy is     2.8886 ev

!    total energy              =    -411.84790695 Ry
     estimated scf accuracy    <          1.1E-09 Ry
     smearing contrib. (-TS)   =      -0.00000000 Ry
     internal energy E=F+TS    =    -411.84790695 Ry

     The total energy is F=E-TS. E is the sum of the following terms:
     one-electron contribution =    -137.94070646 Ry
     hartree contribution      =      77.31133860 Ry
     xc contribution           =    -120.39961576 Ry
     ewald contribution        =    -230.81892334 Ry

     convergence has been achieved in   7 iterations

     Forces acting on atoms (cartesian axes, Ry/au):

     atom    1 type  1   force =     0.00688972    0.00487160    0.00000000
     atom    2 type  1   force =     0.01260978    0.00891660    0.00000000
     atom    3 type  2   force =    -0.00001582   -0.00001128    0.00002767
     atom    4 type  1   force =     0.00000008    0.00000000    0.00000000
     atom    5 type  1   force =     0.00000014   -0.00000003    0.00000000
     atom    6 type  2   force =    -0.00001582   -0.00001128   -0.00002767
     atom    7 type  1   force =     0.00344507   -0.00487197   -0.00596671
     atom    8 type  1   force =     0.00630489   -0.00891656   -0.01092052
     atom    9 type  2   force =     0.01010683   -0.00357317    0.00000000
     atom   10 type  1   force =     0.00344507   -0.00487197    0.00596671
     atom   11 type  1   force =     0.00630489   -0.00891657    0.01092052
     atom   12 type  2   force =     0.00000007    0.00003393    0.00000000
     atom   13 type  1   force =    -0.00344503    0.00487178   -0.00596677
     atom   14 type  1   force =    -0.00630491    0.00891651   -0.01092045
     atom   15 type  2   force =    -0.00000013    0.01072008    0.00000000
     atom   16 type  1   force =    -0.00344504    0.00487178    0.00596677
     atom   17 type  1   force =    -0.00630492    0.00891651    0.01092045
     atom   18 type  2   force =     0.00003161   -0.00001111    0.00000000
     atom   19 type  1   force =     0.00000001    0.00000014    0.00000000
     atom   20 type  2   force =    -0.00505336   -0.00357325   -0.00875280
     atom   21 type  1   force =    -0.00688987   -0.00487197   -0.00000000
     atom   22 type  1   force =    -0.01260992   -0.00891653   -0.00000000
     atom   23 type  2   force =    -0.00505336   -0.00357325    0.00875280

     Total force =     0.048145     Total SCF correction =     0.000048
     Energy error            =      3.2E-03 Ry
     Gradient error          =      1.3E-02 Ry/Bohr

     number of scf cycles    =   3
     number of bfgs steps    =   2

     energy             old  =    -411.8447086335 Ry
     energy             new  =    -411.8479069485 Ry

     CASE: energy            _new < energy            _old

     new trust radius        =       0.0295699845 bohr
     new conv_thr            =       0.0000000013 Ry


ATOMIC_POSITIONS (angstrom)
Li               1.1811504818        0.8351989744        2.0170831004
Li               3.5227266056        2.4909435125        6.0512493012
S                0.0000431097        0.0000307896       -0.0000746791
Li               1.1645621835        0.8234707662        6.0512488014
Li               3.4936890647        2.4704127253       10.0854150022
S                0.0000431056        0.0000307876        4.0342403801
Li               2.3374190132        4.1056246798        4.0198018442
Li               4.6727707312        5.7437612337        8.0431855842
S                1.1893202831        3.2851288104        2.0170833500
Li               2.3374190051        4.1056246749        8.0826967576
Li               4.6727707200        5.7437612266       12.1276454192
S                1.1645630175        3.2937890022        6.0512490510
Li               4.6499597137        0.8352001603        4.0198020021
Li               6.9728600019        2.4909443579        8.0431861516
S                3.4936900714        0.0262579689        2.0170833500
Li               4.6499597056        0.8352001554        8.0826965997
Li               6.9728599907        2.4909443508       12.1276448518
S                3.4936033130        0.0000308569        6.0512490510
Li               8.1519415654        5.7642935047       10.0854160012
S                4.6458739409        3.2851291259        4.0127264138
Li               5.8062301148        4.1056243599       10.0854155014
Li               8.1229050998        5.7437618818       14.1195817022
S                4.6458739308        3.2851291195        8.0897726871



     Writing config-only to output data dir ./tmp/li2s_ep_initial.save/ :
     XML data file
     NEW-OLD atomic charge density approx. for the potential

     total cpu time spent up to now is      928.3 secs

     Self-consistent Calculation

     iteration #  1     ecut=    60.00 Ry     beta= 0.30
     Davidson diagonalization with overlap
     c_bands:  1 eigenvalues not converged
     ethr =  1.00E-06,  avg # of iterations =  7.6

     total cpu time spent up to now is      973.9 secs

     total energy              =    -411.85200404 Ry
     estimated scf accuracy    <       0.00013229 Ry

     iteration #  2     ecut=    60.00 Ry     beta= 0.30
     Davidson diagonalization with overlap
     c_bands:  1 eigenvalues not converged
     ethr =  1.41E-07,  avg # of iterations =  5.6

     total cpu time spent up to now is     1004.4 secs

     total energy              =    -411.85201411 Ry
     estimated scf accuracy    <       0.00002451 Ry

     iteration #  3     ecut=    60.00 Ry     beta= 0.30
     Davidson diagonalization with overlap
     ethr =  2.61E-08,  avg # of iterations =  4.0

     total cpu time spent up to now is     1033.2 secs

     total energy              =    -411.85202577 Ry
     estimated scf accuracy    <       0.00000503 Ry

     iteration #  4     ecut=    60.00 Ry     beta= 0.30
     Davidson diagonalization with overlap
     ethr =  5.35E-09,  avg # of iterations =  2.2

     total cpu time spent up to now is     1055.9 secs

     total energy              =    -411.85202650 Ry
     estimated scf accuracy    <       0.00000113 Ry

     iteration #  5     ecut=    60.00 Ry     beta= 0.30
     Davidson diagonalization with overlap
     ethr =  1.20E-09,  avg # of iterations =  4.8

     total cpu time spent up to now is     1087.6 secs

     total energy              =    -411.85202667 Ry
     estimated scf accuracy    <       0.00000198 Ry

     iteration #  6     ecut=    60.00 Ry     beta= 0.30
     Davidson diagonalization with overlap
     ethr =  1.20E-09,  avg # of iterations =  3.9

     total cpu time spent up to now is     1115.0 secs

     total energy              =    -411.85202703 Ry
     estimated scf accuracy    <       0.00000004 Ry

     iteration #  7     ecut=    60.00 Ry     beta= 0.30
     Davidson diagonalization with overlap
     ethr =  4.45E-11,  avg # of iterations =  5.4

     total cpu time spent up to now is     1152.2 secs

     total energy              =    -411.85202708 Ry
     estimated scf accuracy    <       0.00000002 Ry

     iteration #  8     ecut=    60.00 Ry     beta= 0.30
     Davidson diagonalization with overlap
     ethr =  1.96E-11,  avg # of iterations =  2.2

     total cpu time spent up to now is     1173.1 secs

     total energy              =    -411.85202708 Ry
     estimated scf accuracy    <       0.00000001 Ry

     iteration #  9     ecut=    60.00 Ry     beta= 0.30
     Davidson diagonalization with overlap
     ethr =  1.15E-11,  avg # of iterations =  3.7

     total cpu time spent up to now is     1200.1 secs

     total energy              =    -411.85202708 Ry
     estimated scf accuracy    <          3.5E-09 Ry

     iteration # 10     ecut=    60.00 Ry     beta= 0.30
     Davidson diagonalization with overlap
     ethr =  3.72E-12,  avg # of iterations =  3.3

     total cpu time spent up to now is     1225.6 secs

     End of self-consistent calculation

          k = 0.0000 0.0000 0.0000 ( 19603 PWs)   bands (ev):

   -42.5474 -42.5418 -42.2249 -42.2176 -42.2176 -42.2137 -42.2137 -42.2137
   -42.2063 -42.2063 -42.2063 -42.2018 -42.2018 -42.1959 -41.4607  -9.1309
    -8.7882  -8.7882  -8.7882  -8.3302  -8.1133  -8.1133  -8.1132  -0.9201
    -0.8812  -0.8812  -0.8812  -0.1977  -0.1977   0.2628   0.5369   0.5369
     0.5369   0.7089   0.7089   0.7089   1.5546   1.5546   1.5546   1.5755
     1.5755   1.6146   1.6146   1.6146   2.3242   2.3242   2.3242   5.4482
     5.4482   5.4482   6.2262   7.9458   7.9458   7.9458   8.1620   8.2505

          k =-0.1443-0.1021 0.2500 ( 19666 PWs)   bands (ev):

   -42.5474 -42.5418 -42.2238 -42.2172 -42.2172 -42.2166 -42.2145 -42.2145
   -42.2054 -42.2054 -42.2036 -42.2023 -42.2023 -42.1969 -41.4607  -9.0893
    -8.8264  -8.7858  -8.7858  -8.3228  -8.1403  -8.1172  -8.1172  -0.7988
    -0.7508  -0.7508  -0.5812  -0.1405  -0.1405   0.3064   0.4179   0.4179
     0.6008   0.6313   0.7694   0.7694   1.2018   1.3117   1.3117   1.4070
     1.4562   1.4562   1.6325   1.6325   1.8873   2.2572   2.2573   5.9276
     5.9276   5.9311   6.6543   7.8394   7.9174   7.9174   8.0677   8.4070

          k = 0.2887 0.2041-0.5000 ( 19650 PWs)   bands (ev):

   -42.5474 -42.5418 -42.2209 -42.2207 -42.2161 -42.2161 -42.2160 -42.2160
   -42.2037 -42.2037 -42.2037 -42.2037 -42.1998 -42.1995 -41.4607  -9.0251
    -8.8880  -8.7835  -8.7835  -8.3111  -8.1706  -8.1212  -8.1212  -0.6324
    -0.4852  -0.4852  -0.2988  -0.2988   0.0882   0.1615   0.3201   0.4666
     0.4666   0.7782   0.8722   0.8832   0.8832   0.9890   0.9890   1.2091
     1.2751   1.2751   1.3814   1.6780   1.6780   2.1825   2.1825   6.8152
     6.8271   6.8271   7.0652   7.1285   7.1285   7.2169   7.7172   8.6412

          k =-0.0000 0.3062 0.0000 ( 19666 PWs)   bands (ev):

   -42.5474 -42.5418 -42.2238 -42.2172 -42.2172 -42.2166 -42.2145 -42.2145
   -42.2054 -42.2054 -42.2036 -42.2023 -42.2023 -42.1969 -41.4607  -9.0893
    -8.8264  -8.7858  -8.7858  -8.3228  -8.1403  -8.1172  -8.1172  -0.7988
    -0.7508  -0.7508  -0.5812  -0.1405  -0.1405   0.3064   0.4179   0.4179
     0.6008   0.6313   0.7694   0.7694   1.2018   1.3117   1.3117   1.4070
     1.4562   1.4562   1.6325   1.6325   1.8873   2.2572   2.2572   5.9276
     5.9276   5.9311   6.6543   7.8394   7.9174   7.9174   8.0678   8.4072

          k =-0.1443 0.2041 0.2500 ( 19699 PWs)   bands (ev):

   -42.5474 -42.5418 -42.2235 -42.2184 -42.2162 -42.2162 -42.2159 -42.2137
   -42.2063 -42.2038 -42.2038 -42.2036 -42.2013 -42.1971 -41.4607  -9.0746
    -8.8307  -8.7893  -8.7893  -8.3188  -8.1644  -8.1121  -8.1121  -0.7110
    -0.6574  -0.6574  -0.6557  -0.1049  -0.0312   0.4021   0.4021   0.4115
     0.4271   0.5745   0.7824   0.7824   1.1755   1.2442   1.2442   1.2504
     1.5108   1.5108   1.5176   1.5770   1.8764   2.1600   2.1600   5.8744
     6.2131   6.2131   6.7757   8.0752   8.1871   8.1871   8.2581   8.3833

          k = 0.2887 0.5103-0.5000 ( 19654 PWs)   bands (ev):

   -42.5474 -42.5418 -42.2214 -42.2191 -42.2187 -42.2174 -42.2143 -42.2140
   -42.2058 -42.2052 -42.2025 -42.2013 -42.2011 -42.1990 -41.4607  -9.0040
    -8.8920  -8.7934  -8.7870  -8.2997  -8.2074  -8.1160  -8.1110  -0.5443
    -0.4596  -0.3931  -0.1882  -0.0978  -0.0327   0.1487   0.2672   0.4751
     0.5702   0.6028   0.6818   0.8278   0.9176   1.0128   1.0329   1.1029
     1.2930   1.3426   1.3637   1.5310   1.5768   2.0393   2.1102   6.6572
     7.0810   7.0859   7.1862   7.5395   7.7715   7.7727   7.9814   8.5259

          k = 0.1443 0.4082-0.2500 ( 19681 PWs)   bands (ev):

   -42.5474 -42.5418 -42.2222 -42.2180 -42.2179 -42.2178 -42.2155 -42.2136
   -42.2062 -42.2041 -42.2022 -42.2021 -42.2020 -42.1983 -41.4607  -9.0319
    -8.8688  -8.7955  -8.7835  -8.3080  -8.1862  -8.1211  -8.1092  -0.6557
    -0.5908  -0.3556  -0.3120  -0.1366  -0.0401   0.0095   0.3996   0.5621
     0.5792   0.5848   0.7790   0.8474   0.8834   1.0356   1.1820   1.2156
     1.2499   1.3951   1.4398   1.5391   1.6598   2.0284   2.2167   6.5906
     6.5958   6.6170   7.1331   7.6203   7.8234   7.8714   7.9387   8.5057

          k = 0.0000-0.6124-0.0000 ( 19650 PWs)   bands (ev):

   -42.5474 -42.5418 -42.2209 -42.2207 -42.2161 -42.2161 -42.2160 -42.2160
   -42.2037 -42.2037 -42.2037 -42.2037 -42.1998 -42.1995 -41.4607  -9.0251
    -8.8880  -8.7835  -8.7835  -8.3111  -8.1706  -8.1212  -8.1212  -0.6324
    -0.4852  -0.4852  -0.2988  -0.2988   0.0882   0.1615   0.3201   0.4666
     0.4666   0.7782   0.8722   0.8832   0.8832   0.9890   0.9890   1.2091
     1.2751   1.2751   1.3814   1.6780   1.6780   2.1825   2.1825   6.8152
     6.8271   6.8271   7.0652   7.1285   7.1285   7.2169   7.7172   8.6412

          k =-0.1443-0.7144 0.2500 ( 19654 PWs)   bands (ev):

   -42.5474 -42.5418 -42.2214 -42.2191 -42.2187 -42.2174 -42.2143 -42.2140
   -42.2058 -42.2052 -42.2025 -42.2013 -42.2011 -42.1990 -41.4607  -9.0040
    -8.8920  -8.7934  -8.7870  -8.2997  -8.2074  -8.1160  -8.1110  -0.5443
    -0.4596  -0.3931  -0.1882  -0.0978  -0.0327   0.1487   0.2672   0.4751
     0.5702   0.6028   0.6818   0.8278   0.9176   1.0128   1.0329   1.1029
     1.2930   1.3426   1.3637   1.5310   1.5768   2.0393   2.1102   6.6572
     7.0810   7.0859   7.1862   7.5395   7.7715   7.7727   7.9814   8.6969

          k = 0.2887-0.4082-0.5000 ( 19734 PWs)   bands (ev):

   -42.5474 -42.5418 -42.2207 -42.2206 -42.2179 -42.2179 -42.2137 -42.2135
   -42.2063 -42.2060 -42.2021 -42.2021 -42.1996 -42.1995 -41.4607  -8.9458
    -8.9449  -8.7905  -8.7905  -8.2845  -8.2389  -8.1109  -8.1109  -0.3774
    -0.3506  -0.2847  -0.2847   0.1281   0.1466   0.1485   0.1485   0.4018
     0.4033   0.4875   0.5985   0.8479   0.8479   1.0366   1.0602   1.0602
     1.1954   1.2777   1.2777   1.4899   1.5699   2.0126   2.0126   6.7867
     6.8359   7.5061   7.5061   8.0617   8.0684   8.0684   8.1853   8.6264

          k = 0.2887-0.1021 0.0000 ( 19666 PWs)   bands (ev):

   -42.5474 -42.5418 -42.2238 -42.2172 -42.2172 -42.2166 -42.2145 -42.2145
   -42.2054 -42.2054 -42.2036 -42.2023 -42.2023 -42.1969 -41.4607  -9.0893
    -8.8264  -8.7858  -8.7858  -8.3228  -8.1403  -8.1172  -8.1172  -0.7988
    -0.7508  -0.7508  -0.5812  -0.1405  -0.1405   0.3064   0.4179   0.4179
     0.6008   0.6313   0.7694   0.7694   1.2018   1.3117   1.3117   1.4070
     1.4562   1.4562   1.6325   1.6325   1.8873   2.2572   2.2573   5.9276
     5.9276   5.9311   6.6543   7.8394   7.9174   7.9174   8.0678   8.4070

          k = 0.5774 0.1021-0.5000 ( 19654 PWs)   bands (ev):

   -42.5474 -42.5418 -42.2214 -42.2191 -42.2187 -42.2174 -42.2143 -42.2140
   -42.2058 -42.2052 -42.2025 -42.2013 -42.2011 -42.1990 -41.4607  -9.0040
    -8.8920  -8.7934  -8.7870  -8.2997  -8.2074  -8.1160  -8.1110  -0.5443
    -0.4596  -0.3931  -0.1882  -0.0978  -0.0327   0.1487   0.2672   0.4751
     0.5702   0.6028   0.6818   0.8278   0.9176   1.0128   1.0329   1.1029
     1.2930   1.3426   1.3637   1.5310   1.5768   2.0393   2.1102   6.6572
     7.0810   7.0859   7.1862   7.5395   7.7715   7.7727   7.9814   8.5259

          k = 0.4330 0.0000-0.2500 ( 19681 PWs)   bands (ev):

   -42.5474 -42.5418 -42.2222 -42.2180 -42.2179 -42.2178 -42.2155 -42.2136
   -42.2062 -42.2041 -42.2022 -42.2021 -42.2020 -42.1983 -41.4607  -9.0319
    -8.8688  -8.7955  -8.7835  -8.3080  -8.1862  -8.1211  -8.1092  -0.6557
    -0.5908  -0.3556  -0.3120  -0.1366  -0.0401   0.0095   0.3996   0.5621
     0.5792   0.5848   0.7790   0.8474   0.8834   1.0356   1.1820   1.2156
     1.2499   1.3951   1.4398   1.5391   1.6598   2.0284   2.2167   6.5906
     6.5958   6.6170   7.1331   7.6203   7.8234   7.8714   7.9387   8.5051

          k = 0.2887 0.2041 0.0000 ( 19699 PWs)   bands (ev):

   -42.5474 -42.5418 -42.2235 -42.2184 -42.2162 -42.2162 -42.2159 -42.2137
   -42.2063 -42.2038 -42.2038 -42.2036 -42.2013 -42.1971 -41.4607  -9.0746
    -8.8307  -8.7893  -8.7893  -8.3188  -8.1644  -8.1121  -8.1121  -0.7110
    -0.6574  -0.6574  -0.6557  -0.1049  -0.0312   0.4021   0.4021   0.4115
     0.4271   0.5745   0.7824   0.7824   1.1755   1.2442   1.2442   1.2504
     1.5108   1.5108   1.5176   1.5770   1.8764   2.1600   2.1600   5.8744
     6.2131   6.2131   6.7757   8.0752   8.1871   8.1872   8.2582   8.3846

          k = 0.5774 0.4082-0.5000 ( 19681 PWs)   bands (ev):

   -42.5474 -42.5418 -42.2222 -42.2180 -42.2179 -42.2178 -42.2155 -42.2136
   -42.2062 -42.2041 -42.2022 -42.2021 -42.2020 -42.1983 -41.4607  -9.0319
    -8.8688  -8.7955  -8.7835  -8.3080  -8.1862  -8.1211  -8.1092  -0.6557
    -0.5908  -0.3556  -0.3120  -0.1366  -0.0401   0.0095   0.3996   0.5621
     0.5792   0.5848   0.7790   0.8474   0.8834   1.0356   1.1820   1.2156
     1.2499   1.3951   1.4398   1.5391   1.6598   2.0284   2.2167   6.5906
     6.5958   6.6170   7.1331   7.6203   7.8234   7.8714   7.9387   8.5056

          k = 0.4330 0.3062-0.2500 ( 19654 PWs)   bands (ev):

   -42.5474 -42.5418 -42.2214 -42.2191 -42.2187 -42.2174 -42.2143 -42.2140
   -42.2058 -42.2052 -42.2025 -42.2013 -42.2011 -42.1990 -41.4607  -9.0040
    -8.8920  -8.7934  -8.7870  -8.2997  -8.2074  -8.1160  -8.1110  -0.5443
    -0.4596  -0.3931  -0.1882  -0.0978  -0.0327   0.1487   0.2672   0.4751
     0.5702   0.6028   0.6818   0.8278   0.9176   1.0128   1.0329   1.1029
     1.2930   1.3426   1.3637   1.5310   1.5768   2.0393   2.1102   6.6572
     7.0810   7.0859   7.1862   7.5395   7.7715   7.7727   7.9814   8.6977

          k = 0.2887-0.7144-0.0000 ( 19654 PWs)   bands (ev):

   -42.5474 -42.5418 -42.2214 -42.2191 -42.2187 -42.2174 -42.2143 -42.2140
   -42.2058 -42.2052 -42.2025 -42.2013 -42.2011 -42.1990 -41.4607  -9.0040
    -8.8920  -8.7934  -8.7870  -8.2997  -8.2074  -8.1160  -8.1110  -0.5443
    -0.4596  -0.3931  -0.1882  -0.0978  -0.0327   0.1487   0.2672   0.4751
     0.5702   0.6028   0.6818   0.8278   0.9176   1.0128   1.0329   1.1029
     1.2930   1.3426   1.3637   1.5310   1.5768   2.0393   2.1102   6.6572
     7.0810   7.0859   7.1862   7.5395   7.7715   7.7727   7.9814   8.5249

          k = 0.4330-0.6124-0.2500 ( 19688 PWs)   bands (ev):

   -42.5474 -42.5418 -42.2195 -42.2194 -42.2193 -42.2193 -42.2135 -42.2135
   -42.2061 -42.2061 -42.2009 -42.2007 -42.2007 -42.2007 -41.4607  -8.9442
    -8.9428  -8.7939  -8.7930  -8.2820  -8.2371  -8.1121  -8.1118  -0.4194
    -0.3929  -0.2182  -0.1539   0.0335   0.0413   0.1139   0.1342   0.3730
     0.4101   0.6910   0.7346   0.8511   0.8624   0.8791   0.9357   1.1677
     1.1734   1.2517   1.3505   1.4722   1.5421   1.9823   2.0213   7.3222
     7.3711   7.4303   7.4912   7.6386   7.7320   7.7364   7.8217   8.8250

          k = 0.2887-0.4082 0.0000 ( 19681 PWs)   bands (ev):

   -42.5474 -42.5418 -42.2222 -42.2180 -42.2179 -42.2178 -42.2155 -42.2136
   -42.2062 -42.2041 -42.2022 -42.2021 -42.2020 -42.1983 -41.4607  -9.0319
    -8.8688  -8.7955  -8.7835  -8.3080  -8.1862  -8.1211  -8.1092  -0.6557
    -0.5908  -0.3556  -0.3120  -0.1366  -0.0401   0.0095   0.3996   0.5621
     0.5792   0.5848   0.7790   0.8474   0.8834   1.0356   1.1820   1.2156
     1.2499   1.3951   1.4398   1.5391   1.6598   2.0284   2.2167   6.5906
     6.5958   6.6170   7.1331   7.6203   7.8234   7.8714   7.9387   8.5060

          k = 0.5774-0.2041-0.5000 ( 19688 PWs)   bands (ev):

   -42.5474 -42.5418 -42.2195 -42.2194 -42.2193 -42.2193 -42.2135 -42.2135
   -42.2061 -42.2061 -42.2009 -42.2007 -42.2007 -42.2007 -41.4607  -8.9442
    -8.9428  -8.7939  -8.7930  -8.2820  -8.2371  -8.1121  -8.1118  -0.4194
    -0.3929  -0.2182  -0.1539   0.0335   0.0413   0.1139   0.1342   0.3730
     0.4101   0.6910   0.7346   0.8511   0.8624   0.8791   0.9357   1.1677
     1.1734   1.2517   1.3505   1.4722   1.5421   1.9823   2.0213   7.3222
     7.3711   7.4303   7.4912   7.6386   7.7320   7.7364   7.8217   8.8206

          k = 0.4330-0.3062-0.2500 ( 19654 PWs)   bands (ev):

   -42.5474 -42.5418 -42.2214 -42.2191 -42.2187 -42.2174 -42.2143 -42.2140
   -42.2058 -42.2052 -42.2025 -42.2013 -42.2011 -42.1990 -41.4607  -9.0040
    -8.8920  -8.7934  -8.7870  -8.2997  -8.2074  -8.1160  -8.1110  -0.5443
    -0.4596  -0.3931  -0.1882  -0.0978  -0.0327   0.1487   0.2672   0.4751
     0.5702   0.6028   0.6818   0.8278   0.9176   1.0128   1.0329   1.1029
     1.2930   1.3426   1.3637   1.5310   1.5768   2.0393   2.1102   6.6572
     7.0810   7.0859   7.1862   7.5395   7.7715   7.7727   7.9814   8.5260

          k =-0.5774 0.2041-0.0000 ( 19650 PWs)   bands (ev):

   -42.5474 -42.5418 -42.2209 -42.2207 -42.2161 -42.2161 -42.2160 -42.2160
   -42.2037 -42.2037 -42.2037 -42.2037 -42.1998 -42.1995 -41.4607  -9.0251
    -8.8880  -8.7835  -8.7835  -8.3111  -8.1706  -8.1212  -8.1212  -0.6324
    -0.4852  -0.4852  -0.2988  -0.2988   0.0882   0.1615   0.3201   0.4666
     0.4666   0.7782   0.8722   0.8832   0.8832   0.9890   0.9890   1.2091
     1.2751   1.2751   1.3814   1.6780   1.6780   2.1825   2.1825   6.8152
     6.8271   6.8271   7.0652   7.1285   7.1285   7.2169   7.7172   8.6412

          k =-0.5774 0.5103-0.0000 ( 19654 PWs)   bands (ev):

   -42.5474 -42.5418 -42.2214 -42.2191 -42.2187 -42.2174 -42.2143 -42.2140
   -42.2058 -42.2052 -42.2025 -42.2013 -42.2011 -42.1990 -41.4607  -9.0040
    -8.8920  -8.7934  -8.7870  -8.2997  -8.2074  -8.1160  -8.1110  -0.5443
    -0.4596  -0.3931  -0.1882  -0.0978  -0.0327   0.1487   0.2672   0.4751
     0.5702   0.6028   0.6818   0.8278   0.9176   1.0128   1.0329   1.1029
     1.2930   1.3426   1.3637   1.5310   1.5768   2.0393   2.1102   6.6572
     7.0810   7.0859   7.1862   7.5395   7.7715   7.7727   7.9814   8.5248

          k =-0.5774-0.4082-0.0000 ( 19734 PWs)   bands (ev):

   -42.5474 -42.5418 -42.2207 -42.2206 -42.2179 -42.2179 -42.2137 -42.2135
   -42.2063 -42.2060 -42.2021 -42.2021 -42.1996 -42.1995 -41.4607  -8.9458
    -8.9449  -8.7905  -8.7905  -8.2845  -8.2389  -8.1109  -8.1109  -0.3774
    -0.3506  -0.2847  -0.2847   0.1281   0.1466   0.1485   0.1485   0.4018
     0.4033   0.4875   0.5985   0.8479   0.8479   1.0366   1.0602   1.0602
     1.1954   1.2777   1.2777   1.4899   1.5699   2.0126   2.0126   6.7867
     6.8359   7.5061   7.5061   8.0617   8.0684   8.0684   8.1852   8.6258

     the Fermi energy is     2.9136 ev

!    total energy              =    -411.85202708 Ry
     estimated scf accuracy    <          7.1E-10 Ry
     smearing contrib. (-TS)   =      -0.00000000 Ry
     internal energy E=F+TS    =    -411.85202708 Ry

     The total energy is F=E-TS. E is the sum of the following terms:
     one-electron contribution =    -138.05514554 Ry
     hartree contribution      =      77.38067547 Ry
     xc contribution           =    -120.40539318 Ry
     ewald contribution        =    -230.77216384 Ry

     convergence has been achieved in  10 iterations

     Forces acting on atoms (cartesian axes, Ry/au):

     atom    1 type  1   force =     0.00553285    0.00391221    0.00000000
     atom    2 type  1   force =     0.01105335    0.00781580    0.00000000
     atom    3 type  2   force =    -0.00007128   -0.00005070    0.00012412
     atom    4 type  1   force =     0.00000005   -0.00000012   -0.00000000
     atom    5 type  1   force =     0.00000018   -0.00000006    0.00000000
     atom    6 type  2   force =    -0.00007128   -0.00005070   -0.00012412
     atom    7 type  1   force =     0.00276639   -0.00391227   -0.00479149
     atom    8 type  1   force =     0.00552690   -0.00781599   -0.00957269
     atom    9 type  2   force =     0.00785457   -0.00277715    0.00000000
     atom   10 type  1   force =     0.00276639   -0.00391227    0.00479149
     atom   11 type  1   force =     0.00552689   -0.00781599    0.00957269
     atom   12 type  2   force =     0.00000016    0.00015175    0.00000000
     atom   13 type  1   force =    -0.00276642    0.00391232   -0.00479148
     atom   14 type  1   force =    -0.00552677    0.00781585   -0.00957264
     atom   15 type  2   force =    -0.00000029    0.00833154    0.00000000
     atom   16 type  1   force =    -0.00276642    0.00391231    0.00479148
     atom   17 type  1   force =    -0.00552677    0.00781584    0.00957264
     atom   18 type  2   force =     0.00014269   -0.00005048    0.00000000
     atom   19 type  1   force =     0.00000001    0.00000004    0.00000000
     atom   20 type  2   force =    -0.00392741   -0.00277685   -0.00680227
     atom   21 type  1   force =    -0.00553274   -0.00391239   -0.00000000
     atom   22 type  1   force =    -0.01105363   -0.00781585   -0.00000000
     atom   23 type  2   force =    -0.00392741   -0.00277685    0.00680227

     Total force =     0.040655     Total SCF correction =     0.000053
     Energy error            =      4.1E-03 Ry
     Gradient error          =      1.1E-02 Ry/Bohr

     number of scf cycles    =   4
     number of bfgs steps    =   3

     energy             old  =    -411.8479069485 Ry
     energy             new  =    -411.8520270822 Ry

     CASE: energy            _new < energy            _old

     new trust radius        =       0.0443549768 bohr
     new conv_thr            =       0.0000000011 Ry


ATOMIC_POSITIONS (angstrom)
Li               1.1913269203        0.8423944485        2.0170831004
Li               3.5418909928        2.5044945579        6.0512493013
S               -0.0000154047       -0.0000107331        0.0000272710
Li               1.1645620393        0.8234706340        6.0512488014
Li               3.4936891519        2.4704130868       10.0854150022
S               -0.0000154087       -0.0000107351        4.0341384300
Li               2.3425069108        4.0984293122        4.0109890288
Li               4.6823530146        5.7302099705        8.0265885624
S                1.2041042913        3.2799018040        2.0170833500
Li               2.3425069002        4.0984293055        8.0915095730
Li               4.6823529986        5.7302099601       12.1442424411
S                1.1645631704        3.2939131299        6.0512490510
Li               4.6448716716        0.8423959309        4.0109892826
Li               6.9632776589        2.5044955299        8.0265893404
S                3.4936900206        0.0419386877        2.0170833500
Li               4.6448716609        0.8423959242        8.0915093192
Li               6.9632776430        2.5044955194       12.1442416630
S                3.4937204320       -0.0000106185        6.0512490510
Li               8.1519415181        5.7642934507       10.0854160012
S                4.6384818420        3.2799022568        3.9999231137
Li               5.7960543205        4.0984285337       10.0854155014
Li               8.1037405964        5.7302108212       14.1195817021
S                4.6384818282        3.2799022479        8.1025759872



     Writing config-only to output data dir ./tmp/li2s_ep_initial.save/ :
     XML data file
     NEW-OLD atomic charge density approx. for the potential

     total cpu time spent up to now is     1231.4 secs

     Self-consistent Calculation

     iteration #  1     ecut=    60.00 Ry     beta= 0.30
     Davidson diagonalization with overlap
     c_bands:  1 eigenvalues not converged
     ethr =  1.00E-06,  avg # of iterations = 10.5

     total cpu time spent up to now is     1286.6 secs

     total energy              =    -411.85678431 Ry
     estimated scf accuracy    <       0.00031097 Ry

     iteration #  2     ecut=    60.00 Ry     beta= 0.30
     Davidson diagonalization with overlap
     ethr =  3.31E-07,  avg # of iterations =  2.3

     total cpu time spent up to now is     1308.9 secs

     total energy              =    -411.85680144 Ry
     estimated scf accuracy    <       0.00004596 Ry

     iteration #  3     ecut=    60.00 Ry     beta= 0.30
     Davidson diagonalization with overlap
     ethr =  4.89E-08,  avg # of iterations =  4.0

     total cpu time spent up to now is     1338.2 secs

     total energy              =    -411.85682379 Ry
     estimated scf accuracy    <       0.00001173 Ry

     iteration #  4     ecut=    60.00 Ry     beta= 0.30
     Davidson diagonalization with overlap
     ethr =  1.25E-08,  avg # of iterations =  2.1

     total cpu time spent up to now is     1360.1 secs

     total energy              =    -411.85682533 Ry
     estimated scf accuracy    <       0.00000277 Ry

     iteration #  5     ecut=    60.00 Ry     beta= 0.30
     Davidson diagonalization with overlap
     ethr =  2.95E-09,  avg # of iterations =  5.0

     total cpu time spent up to now is     1392.5 secs

     total energy              =    -411.85682462 Ry
     estimated scf accuracy    <       0.00000933 Ry

     iteration #  6     ecut=    60.00 Ry     beta= 0.30
     Davidson diagonalization with overlap
     ethr =  2.95E-09,  avg # of iterations =  4.0

     total cpu time spent up to now is     1421.1 secs

     total energy              =    -411.85682629 Ry
     estimated scf accuracy    <       0.00000011 Ry

     iteration #  7     ecut=    60.00 Ry     beta= 0.30
     Davidson diagonalization with overlap
     ethr =  1.13E-10,  avg # of iterations =  5.0

     total cpu time spent up to now is     1454.4 secs

     total energy              =    -411.85682634 Ry
     estimated scf accuracy    <       0.00000005 Ry

     iteration #  8     ecut=    60.00 Ry     beta= 0.30
     Davidson diagonalization with overlap
     ethr =  4.79E-11,  avg # of iterations =  3.9

     total cpu time spent up to now is     1481.2 secs

     total energy              =    -411.85682636 Ry
     estimated scf accuracy    <          5.5E-09 Ry

     iteration #  9     ecut=    60.00 Ry     beta= 0.30
     Davidson diagonalization with overlap
     ethr =  5.80E-12,  avg # of iterations =  6.3

     total cpu time spent up to now is     1520.5 secs

     total energy              =    -411.85682637 Ry
     estimated scf accuracy    <       0.00000001 Ry

     iteration # 10     ecut=    60.00 Ry     beta= 0.30
     Davidson diagonalization with overlap
     ethr =  5.80E-12,  avg # of iterations =  2.0

     total cpu time spent up to now is     1541.9 secs

     total energy              =    -411.85682637 Ry
     estimated scf accuracy    <          4.8E-09 Ry

     iteration # 11     ecut=    60.00 Ry     beta= 0.30
     Davidson diagonalization with overlap
     ethr =  5.10E-12,  avg # of iterations =  2.3

     total cpu time spent up to now is     1564.6 secs

     End of self-consistent calculation

          k = 0.0000 0.0000 0.0000 ( 19603 PWs)   bands (ev):

   -42.4800 -42.4725 -42.2269 -42.2219 -42.2219 -42.2204 -42.2204 -42.2204
   -42.1943 -42.1943 -42.1943 -42.1923 -42.1923 -42.1887 -41.4672  -9.0859
    -8.7309  -8.7309  -8.7309  -8.3765  -8.1711  -8.1711  -8.1711  -0.8673
    -0.8657  -0.8657  -0.8657  -0.1856  -0.1856   0.2123   0.5617   0.5617
     0.5617   0.7255   0.7255   0.7255   1.5334   1.5334   1.5334   1.5640
     1.5640   1.6333   1.6333   1.6333   2.2658   2.2658   2.2658   5.4624
     5.4624   5.4624   6.2359   7.9547   7.9551   7.9551   8.2005   8.2885

          k =-0.1443-0.1021 0.2500 ( 19666 PWs)   bands (ev):

   -42.4800 -42.4725 -42.2260 -42.2217 -42.2217 -42.2215 -42.2207 -42.2207
   -42.1940 -42.1940 -42.1933 -42.1926 -42.1926 -42.1894 -41.4672  -9.0419
    -8.7708  -8.7280  -8.7280  -8.3717  -8.1964  -8.1757  -8.1757  -0.7512
    -0.7345  -0.7345  -0.5537  -0.1272  -0.1272   0.2662   0.4426   0.4426
     0.6044   0.6633   0.7907   0.7907   1.2240   1.2895   1.2895   1.3788
     1.4532   1.4532   1.6385   1.6385   1.8241   2.1988   2.1988   5.9417
     5.9417   5.9447   6.6656   7.8404   7.9284   7.9285   8.0876   8.4398

          k = 0.2887 0.2041-0.5000 ( 19650 PWs)   bands (ev):

   -42.4800 -42.4725 -42.2241 -42.2238 -42.2212 -42.2212 -42.2212 -42.2212
   -42.1933 -42.1933 -42.1932 -42.1932 -42.1914 -42.1910 -41.4672  -8.9721
    -8.8377  -8.7250  -8.7250  -8.3628  -8.2241  -8.1803  -8.1803  -0.5733
    -0.4620  -0.4620  -0.2916  -0.2916   0.0786   0.2139   0.3214   0.5149
     0.5149   0.8263   0.8392   0.8772   0.8772   0.9806   0.9806   1.1521
     1.2637   1.2637   1.3237   1.6857   1.6857   2.1212   2.1212   6.8456
     6.8457   6.8618   7.0475   7.1345   7.1345   7.2220   7.7108   8.6812

          k =-0.0000 0.3062 0.0000 ( 19666 PWs)   bands (ev):

   -42.4800 -42.4725 -42.2260 -42.2217 -42.2217 -42.2215 -42.2207 -42.2207
   -42.1940 -42.1940 -42.1933 -42.1926 -42.1926 -42.1894 -41.4672  -9.0419
    -8.7708  -8.7280  -8.7280  -8.3717  -8.1964  -8.1757  -8.1757  -0.7512
    -0.7345  -0.7345  -0.5537  -0.1272  -0.1272   0.2662   0.4426   0.4426
     0.6044   0.6633   0.7907   0.7907   1.2240   1.2895   1.2895   1.3788
     1.4532   1.4532   1.6385   1.6385   1.8241   2.1988   2.1988   5.9417
     5.9417   5.9447   6.6656   7.8404   7.9284   7.9285   8.0876   8.4405

          k =-0.1443 0.2041 0.2500 ( 19699 PWs)   bands (ev):

   -42.4800 -42.4725 -42.2258 -42.2224 -42.2213 -42.2213 -42.2211 -42.2204
   -42.1943 -42.1934 -42.1934 -42.1931 -42.1920 -42.1895 -41.4672  -9.0265
    -8.7728  -8.7323  -8.7323  -8.3694  -8.2216  -8.1698  -8.1698  -0.6654
    -0.6407  -0.6407  -0.6253  -0.0917  -0.0157   0.3761   0.4296   0.4296
     0.4334   0.5913   0.8045   0.8045   1.1703   1.2229   1.2229   1.2559
     1.4962   1.5266   1.5266   1.5677   1.8171   2.0974   2.0974   5.8886
     6.2267   6.2267   6.7869   8.1050   8.1874   8.1875   8.2807   8.4027

          k = 0.2887 0.5103-0.5000 ( 19654 PWs)   bands (ev):

   -42.4800 -42.4725 -42.2244 -42.2229 -42.2226 -42.2219 -42.2205 -42.2204
   -42.1941 -42.1938 -42.1927 -42.1921 -42.1920 -42.1908 -41.4672  -8.9511
    -8.8366  -8.7379  -8.7294  -8.3548  -8.2607  -8.1742  -8.1688  -0.4976
    -0.4278  -0.3736  -0.1745  -0.0590  -0.0201   0.1694   0.2922   0.4814
     0.6129   0.6149   0.6673   0.8219   0.9231   0.9867   1.0235   1.0900
     1.2688   1.3325   1.3475   1.5007   1.5764   1.9779   2.0495   6.6733
     7.1008   7.1011   7.2035   7.5384   7.7734   7.7816   7.9875   8.5591

          k = 0.1443 0.4082-0.2500 ( 19681 PWs)   bands (ev):

   -42.4800 -42.4725 -42.2249 -42.2222 -42.2222 -42.2220 -42.2209 -42.2203
   -42.1941 -42.1934 -42.1926 -42.1925 -42.1924 -42.1903 -41.4672  -8.9807
    -8.8127  -8.7408  -8.7250  -8.3603  -8.2406  -8.1802  -8.1668  -0.6114
    -0.5736  -0.3236  -0.2754  -0.1214  -0.0285   0.0218   0.3639   0.6020
     0.6184   0.6279   0.7673   0.8721   0.8933   0.9971   1.1628   1.1837
     1.2399   1.3779   1.4387   1.5445   1.6143   1.9645   2.1618   6.6029
     6.6110   6.6347   7.1470   7.6239   7.8335   7.8808   7.9434   8.5267

          k = 0.0000-0.6124-0.0000 ( 19650 PWs)   bands (ev):

   -42.4800 -42.4725 -42.2241 -42.2238 -42.2212 -42.2212 -42.2212 -42.2212
   -42.1933 -42.1933 -42.1932 -42.1932 -42.1914 -42.1910 -41.4672  -8.9721
    -8.8377  -8.7250  -8.7250  -8.3628  -8.2241  -8.1803  -8.1803  -0.5733
    -0.4620  -0.4620  -0.2916  -0.2916   0.0786   0.2139   0.3214   0.5149
     0.5149   0.8263   0.8392   0.8772   0.8772   0.9806   0.9806   1.1521
     1.2637   1.2637   1.3237   1.6857   1.6857   2.1212   2.1212   6.8456
     6.8457   6.8618   7.0475   7.1345   7.1345   7.2220   7.7108   8.6812

          k =-0.1443-0.7144 0.2500 ( 19654 PWs)   bands (ev):

   -42.4800 -42.4725 -42.2244 -42.2229 -42.2226 -42.2219 -42.2205 -42.2204
   -42.1941 -42.1938 -42.1927 -42.1921 -42.1920 -42.1908 -41.4672  -8.9511
    -8.8366  -8.7379  -8.7294  -8.3548  -8.2607  -8.1742  -8.1688  -0.4976
    -0.4278  -0.3736  -0.1745  -0.0590  -0.0201   0.1694   0.2922   0.4814
     0.6129   0.6149   0.6673   0.8219   0.9231   0.9867   1.0235   1.0900
     1.2688   1.3325   1.3475   1.5007   1.5764   1.9779   2.0495   6.6733
     7.1008   7.1011   7.2035   7.5384   7.7734   7.7816   7.9875   8.6964

          k = 0.2887-0.4082-0.5000 ( 19734 PWs)   bands (ev):

   -42.4800 -42.4725 -42.2239 -42.2238 -42.2222 -42.2222 -42.2204 -42.2202
   -42.1943 -42.1940 -42.1925 -42.1925 -42.1912 -42.1910 -41.4672  -8.8907
    -8.8902  -8.7338  -8.7338  -8.3473  -8.2878  -8.1683  -8.1683  -0.3334
    -0.2956  -0.2708  -0.2708   0.1419   0.1662   0.1966   0.1966   0.4404
     0.4549   0.4605   0.5564   0.8049   0.8049   0.9622   1.1177   1.1177
     1.1501   1.2659   1.2659   1.4679   1.5631   1.9476   1.9476   6.8007
     6.8541   7.5195   7.5195   8.0727   8.0727   8.0864   8.1982   8.6281

          k = 0.2887-0.1021 0.0000 ( 19666 PWs)   bands (ev):

   -42.4800 -42.4725 -42.2260 -42.2217 -42.2217 -42.2215 -42.2207 -42.2207
   -42.1940 -42.1940 -42.1933 -42.1926 -42.1926 -42.1894 -41.4672  -9.0419
    -8.7708  -8.7280  -8.7280  -8.3717  -8.1964  -8.1757  -8.1757  -0.7512
    -0.7345  -0.7345  -0.5537  -0.1272  -0.1272   0.2662   0.4426   0.4426
     0.6044   0.6633   0.7907   0.7907   1.2240   1.2895   1.2895   1.3788
     1.4532   1.4532   1.6385   1.6385   1.8241   2.1988   2.1988   5.9417
     5.9417   5.9447   6.6656   7.8404   7.9284   7.9285   8.0876   8.4404

          k = 0.5774 0.1021-0.5000 ( 19654 PWs)   bands (ev):

   -42.4800 -42.4725 -42.2244 -42.2229 -42.2226 -42.2219 -42.2205 -42.2204
   -42.1941 -42.1938 -42.1927 -42.1921 -42.1920 -42.1908 -41.4672  -8.9511
    -8.8366  -8.7379  -8.7294  -8.3548  -8.2607  -8.1742  -8.1688  -0.4976
    -0.4278  -0.3736  -0.1745  -0.0590  -0.0201   0.1694   0.2922   0.4814
     0.6129   0.6149   0.6673   0.8219   0.9231   0.9867   1.0235   1.0900
     1.2688   1.3325   1.3475   1.5007   1.5764   1.9779   2.0495   6.6733
     7.1008   7.1011   7.2035   7.5384   7.7734   7.7816   7.9875   8.5591

          k = 0.4330 0.0000-0.2500 ( 19681 PWs)   bands (ev):

   -42.4800 -42.4725 -42.2249 -42.2222 -42.2222 -42.2220 -42.2209 -42.2203
   -42.1941 -42.1934 -42.1926 -42.1925 -42.1924 -42.1903 -41.4672  -8.9807
    -8.8127  -8.7408  -8.7250  -8.3603  -8.2406  -8.1802  -8.1668  -0.6114
    -0.5736  -0.3236  -0.2754  -0.1214  -0.0285   0.0218   0.3639   0.6020
     0.6184   0.6279   0.7673   0.8721   0.8933   0.9971   1.1628   1.1837
     1.2399   1.3779   1.4387   1.5445   1.6143   1.9645   2.1618   6.6029
     6.6110   6.6347   7.1470   7.6239   7.8335   7.8808   7.9434   8.5265

          k = 0.2887 0.2041 0.0000 ( 19699 PWs)   bands (ev):

   -42.4800 -42.4725 -42.2258 -42.2224 -42.2213 -42.2213 -42.2211 -42.2204
   -42.1943 -42.1934 -42.1934 -42.1931 -42.1920 -42.1895 -41.4672  -9.0265
    -8.7728  -8.7323  -8.7323  -8.3694  -8.2216  -8.1698  -8.1698  -0.6654
    -0.6407  -0.6407  -0.6253  -0.0917  -0.0157   0.3761   0.4296   0.4296
     0.4334   0.5913   0.8045   0.8045   1.1703   1.2229   1.2229   1.2559
     1.4962   1.5266   1.5266   1.5677   1.8171   2.0974   2.0974   5.8886
     6.2267   6.2267   6.7869   8.1051   8.1874   8.1875   8.2809   8.4032

          k = 0.5774 0.4082-0.5000 ( 19681 PWs)   bands (ev):

   -42.4800 -42.4725 -42.2249 -42.2222 -42.2222 -42.2220 -42.2209 -42.2203
   -42.1941 -42.1934 -42.1926 -42.1925 -42.1924 -42.1903 -41.4672  -8.9807
    -8.8127  -8.7408  -8.7250  -8.3603  -8.2406  -8.1802  -8.1668  -0.6114
    -0.5736  -0.3236  -0.2754  -0.1214  -0.0285   0.0218   0.3639   0.6020
     0.6184   0.6279   0.7673   0.8721   0.8933   0.9971   1.1628   1.1837
     1.2399   1.3779   1.4387   1.5445   1.6143   1.9645   2.1618   6.6029
     6.6110   6.6347   7.1470   7.6239   7.8335   7.8808   7.9434   8.5265

          k = 0.4330 0.3062-0.2500 ( 19654 PWs)   bands (ev):

   -42.4800 -42.4725 -42.2244 -42.2229 -42.2226 -42.2219 -42.2205 -42.2204
   -42.1941 -42.1938 -42.1927 -42.1921 -42.1920 -42.1908 -41.4672  -8.9511
    -8.8366  -8.7379  -8.7294  -8.3548  -8.2607  -8.1742  -8.1688  -0.4976
    -0.4278  -0.3736  -0.1745  -0.0590  -0.0201   0.1694   0.2922   0.4814
     0.6129   0.6149   0.6673   0.8219   0.9231   0.9867   1.0235   1.0900
     1.2688   1.3325   1.3475   1.5007   1.5764   1.9779   2.0495   6.6733
     7.1008   7.1011   7.2035   7.5384   7.7734   7.7816   7.9875   8.6971

          k = 0.2887-0.7144-0.0000 ( 19654 PWs)   bands (ev):

   -42.4800 -42.4725 -42.2244 -42.2229 -42.2226 -42.2219 -42.2205 -42.2204
   -42.1941 -42.1938 -42.1927 -42.1921 -42.1920 -42.1908 -41.4672  -8.9511
    -8.8366  -8.7379  -8.7294  -8.3548  -8.2607  -8.1742  -8.1688  -0.4976
    -0.4278  -0.3736  -0.1745  -0.0590  -0.0201   0.1694   0.2922   0.4814
     0.6129   0.6149   0.6673   0.8219   0.9231   0.9867   1.0235   1.0900
     1.2688   1.3325   1.3475   1.5007   1.5764   1.9779   2.0495   6.6733
     7.1008   7.1011   7.2035   7.5384   7.7734   7.7816   7.9875   8.5584

          k = 0.4330-0.6124-0.2500 ( 19688 PWs)   bands (ev):

   -42.4800 -42.4725 -42.2232 -42.2230 -42.2230 -42.2229 -42.2203 -42.2202
   -42.1941 -42.1941 -42.1920 -42.1918 -42.1917 -42.1917 -41.4672  -8.8886
    -8.8871  -8.7391  -8.7372  -8.3431  -8.2850  -8.1701  -8.1697  -0.3805
    -0.3457  -0.2083  -0.1311   0.0709   0.0847   0.1417   0.1614   0.3738
     0.4212   0.6497   0.6928   0.8873   0.8904   0.8991   0.9420   1.1191
     1.1370   1.2125   1.3457   1.4663   1.5362   1.9148   1.9603   7.3392
     7.3895   7.4689   7.5021   7.6627   7.7270   7.7330   7.8118   8.8434

          k = 0.2887-0.4082 0.0000 ( 19681 PWs)   bands (ev):

   -42.4800 -42.4725 -42.2249 -42.2222 -42.2222 -42.2220 -42.2209 -42.2203
   -42.1941 -42.1934 -42.1926 -42.1925 -42.1924 -42.1903 -41.4672  -8.9807
    -8.8127  -8.7408  -8.7250  -8.3603  -8.2406  -8.1802  -8.1668  -0.6114
    -0.5736  -0.3236  -0.2754  -0.1214  -0.0285   0.0218   0.3639   0.6020
     0.6184   0.6279   0.7673   0.8721   0.8933   0.9971   1.1628   1.1837
     1.2399   1.3779   1.4387   1.5445   1.6143   1.9645   2.1618   6.6029
     6.6110   6.6347   7.1470   7.6239   7.8335   7.8808   7.9434   8.5266

          k = 0.5774-0.2041-0.5000 ( 19688 PWs)   bands (ev):

   -42.4800 -42.4725 -42.2232 -42.2230 -42.2230 -42.2229 -42.2203 -42.2202
   -42.1941 -42.1941 -42.1920 -42.1918 -42.1917 -42.1917 -41.4672  -8.8886
    -8.8871  -8.7391  -8.7372  -8.3431  -8.2850  -8.1701  -8.1697  -0.3805
    -0.3457  -0.2083  -0.1311   0.0709   0.0847   0.1417   0.1614   0.3738
     0.4212   0.6497   0.6928   0.8873   0.8904   0.8991   0.9420   1.1191
     1.1370   1.2125   1.3457   1.4663   1.5362   1.9148   1.9603   7.3392
     7.3895   7.4689   7.5021   7.6627   7.7270   7.7330   7.8118   8.8493

          k = 0.4330-0.3062-0.2500 ( 19654 PWs)   bands (ev):

   -42.4800 -42.4725 -42.2244 -42.2229 -42.2226 -42.2219 -42.2205 -42.2204
   -42.1941 -42.1938 -42.1927 -42.1921 -42.1920 -42.1908 -41.4672  -8.9511
    -8.8366  -8.7379  -8.7294  -8.3548  -8.2607  -8.1742  -8.1688  -0.4976
    -0.4278  -0.3736  -0.1745  -0.0590  -0.0201   0.1694   0.2922   0.4814
     0.6129   0.6149   0.6673   0.8219   0.9231   0.9867   1.0235   1.0900
     1.2688   1.3325   1.3475   1.5007   1.5764   1.9779   2.0495   6.6733
     7.1008   7.1011   7.2035   7.5384   7.7734   7.7816   7.9875   8.5593

          k =-0.5774 0.2041-0.0000 ( 19650 PWs)   bands (ev):

   -42.4800 -42.4725 -42.2241 -42.2238 -42.2212 -42.2212 -42.2212 -42.2212
   -42.1933 -42.1933 -42.1932 -42.1932 -42.1914 -42.1910 -41.4672  -8.9721
    -8.8377  -8.7250  -8.7250  -8.3628  -8.2241  -8.1803  -8.1803  -0.5733
    -0.4620  -0.4620  -0.2916  -0.2916   0.0786   0.2139   0.3214   0.5149
     0.5149   0.8263   0.8392   0.8772   0.8772   0.9806   0.9806   1.1521
     1.2637   1.2637   1.3237   1.6857   1.6857   2.1212   2.1212   6.8456
     6.8457   6.8618   7.0475   7.1345   7.1345   7.2220   7.7108   8.6812

          k =-0.5774 0.5103-0.0000 ( 19654 PWs)   bands (ev):

   -42.4800 -42.4725 -42.2244 -42.2229 -42.2226 -42.2219 -42.2205 -42.2204
   -42.1941 -42.1938 -42.1927 -42.1921 -42.1920 -42.1908 -41.4672  -8.9511
    -8.8366  -8.7379  -8.7294  -8.3548  -8.2607  -8.1742  -8.1688  -0.4976
    -0.4278  -0.3736  -0.1745  -0.0590  -0.0201   0.1694   0.2922   0.4814
     0.6129   0.6149   0.6673   0.8219   0.9231   0.9867   1.0235   1.0900
     1.2688   1.3325   1.3475   1.5007   1.5764   1.9779   2.0495   6.6733
     7.1008   7.1011   7.2035   7.5384   7.7734   7.7816   7.9875   8.5584

          k =-0.5774-0.4082-0.0000 ( 19734 PWs)   bands (ev):

   -42.4800 -42.4725 -42.2239 -42.2238 -42.2222 -42.2222 -42.2204 -42.2202
   -42.1943 -42.1940 -42.1925 -42.1925 -42.1912 -42.1910 -41.4672  -8.8907
    -8.8902  -8.7338  -8.7338  -8.3473  -8.2878  -8.1683  -8.1683  -0.3334
    -0.2956  -0.2708  -0.2708   0.1419   0.1662   0.1966   0.1966   0.4404
     0.4549   0.4605   0.5564   0.8049   0.8049   0.9622   1.1177   1.1177
     1.1501   1.2659   1.2659   1.4679   1.5631   1.9476   1.9476   6.8007
     6.8541   7.5195   7.5195   8.0727   8.0727   8.0864   8.1982   8.6278

     the Fermi energy is     2.9434 ev

!    total energy              =    -411.85682637 Ry
     estimated scf accuracy    <          4.2E-10 Ry
     smearing contrib. (-TS)   =      -0.00000000 Ry
     internal energy E=F+TS    =    -411.85682637 Ry

     The total energy is F=E-TS. E is the sum of the following terms:
     one-electron contribution =    -138.23366824 Ry
     hartree contribution      =      77.48720195 Ry
     xc contribution           =    -120.41380634 Ry
     ewald contribution        =    -230.69655373 Ry

     convergence has been achieved in  11 iterations

     Forces acting on atoms (cartesian axes, Ry/au):

     atom    1 type  1   force =     0.00353890    0.00250263    0.00000000
     atom    2 type  1   force =     0.00876757    0.00619971    0.00000000
     atom    3 type  2   force =    -0.00014101   -0.00009977    0.00024424
     atom    4 type  1   force =     0.00000014   -0.00000012    0.00000000
     atom    5 type  1   force =     0.00000001   -0.00000018   -0.00000000
     atom    6 type  2   force =    -0.00014101   -0.00009977   -0.00024424
     atom    7 type  1   force =     0.00176961   -0.00250254   -0.00306489
     atom    8 type  1   force =     0.00438372   -0.00619961   -0.00759273
     atom    9 type  2   force =     0.00460290   -0.00162735    0.00000000
     atom   10 type  1   force =     0.00176961   -0.00250254    0.00306489
     atom   11 type  1   force =     0.00438371   -0.00619961    0.00759273
     atom   12 type  2   force =     0.00000000    0.00029935    0.00000000
     atom   13 type  1   force =    -0.00176958    0.00250234   -0.00306496
     atom   14 type  1   force =    -0.00438371    0.00619958   -0.00759286
     atom   15 type  2   force =     0.00000002    0.00488243    0.00000000
     atom   16 type  1   force =    -0.00176958    0.00250234    0.00306496
     atom   17 type  1   force =    -0.00438371    0.00619958    0.00759286
     atom   18 type  2   force =     0.00028203   -0.00009973    0.00000000
     atom   19 type  1   force =     0.00000002    0.00000001    0.00000000
     atom   20 type  2   force =    -0.00230145   -0.00162734   -0.00398632
     atom   21 type  1   force =    -0.00353926   -0.00250241   -0.00000000
     atom   22 type  1   force =    -0.00876748   -0.00619965   -0.00000000
     atom   23 type  2   force =    -0.00230145   -0.00162734    0.00398632

     Total force =     0.030004     Total SCF correction =     0.000023
     Energy error            =      4.8E-03 Ry
     Gradient error          =      8.8E-03 Ry/Bohr

     number of scf cycles    =   5
     number of bfgs steps    =   4

     energy             old  =    -411.8520270822 Ry
     energy             new  =    -411.8568263680 Ry

     CASE: energy            _new < energy            _old

     new trust radius        =       0.0665324652 bohr
     new conv_thr            =       0.0000000009 Ry


ATOMIC_POSITIONS (angstrom)
Li               1.2056902497        0.8525506773        2.0170831005
Li               3.5706378357        2.5248214999        6.0512493013
S               -0.0001928996       -0.0001362873        0.0003350606
Li               1.1645619300        0.8234704013        6.0512488014
Li               3.4936891484        2.4704134797       10.0854150022
S               -0.0001929035       -0.0001362892        4.0338306404
Li               2.3496882878        4.0882733838        3.9985501769
Li               4.6967263195        5.7098829685        8.0016931917
S                1.2245537282        3.2726718632        2.0170833500
Li               2.3496882736        4.0882733746        8.1039484249
Li               4.6967262965        5.7098829530       12.1691378117
S                1.1645632727        3.2942894440        6.0512490510
Li               4.6376901345        0.8525522166        3.9985504862
Li               6.9489041684        2.5248224806        8.0016941042
S                3.4936901991        0.0636283779        2.0170833500
Li               4.6376901203        0.8525522074        8.1039481156
Li               6.9489041453        2.5248224652       12.1691368992
S                3.4940754643       -0.0001362397        6.0512490510
Li               8.1519414627        5.7642933481       10.0854160012
S                4.6282570824        3.2726722956        3.9822133361
Li               5.7816914817        4.0882721541       10.0854155013
Li               8.0749939076        5.7098839673       14.1195817021
S                4.6282570635        3.2726722831        8.1202857648



     Writing config-only to output data dir ./tmp/li2s_ep_initial.save/ :
     XML data file
     NEW-OLD atomic charge density approx. for the potential

     total cpu time spent up to now is     1571.5 secs

     Self-consistent Calculation

     iteration #  1     ecut=    60.00 Ry     beta= 0.30
     Davidson diagonalization with overlap
     c_bands:  1 eigenvalues not converged
     c_bands:  1 eigenvalues not converged
     c_bands:  1 eigenvalues not converged
     c_bands:  1 eigenvalues not converged
     ethr =  1.00E-06,  avg # of iterations = 13.6

     total cpu time spent up to now is     1638.5 secs

     total energy              =    -411.86112700 Ry
     estimated scf accuracy    <       0.00066069 Ry

     iteration #  2     ecut=    60.00 Ry     beta= 0.30
     Davidson diagonalization with overlap
     c_bands:  1 eigenvalues not converged
     c_bands:  1 eigenvalues not converged
     ethr =  7.03E-07,  avg # of iterations =  3.5

     total cpu time spent up to now is     1664.0 secs

     total energy              =    -411.86117516 Ry
     estimated scf accuracy    <       0.00007519 Ry

     iteration #  3     ecut=    60.00 Ry     beta= 0.30
     Davidson diagonalization with overlap
     c_bands:  1 eigenvalues not converged
     ethr =  8.00E-08,  avg # of iterations =  4.7

     total cpu time spent up to now is     1694.9 secs

     total energy              =    -411.86120279 Ry
     estimated scf accuracy    <       0.00001441 Ry

     iteration #  4     ecut=    60.00 Ry     beta= 0.30
     Davidson diagonalization with overlap
     ethr =  1.53E-08,  avg # of iterations =  2.5

     total cpu time spent up to now is     1718.2 secs

     total energy              =    -411.86120854 Ry
     estimated scf accuracy    <       0.00000511 Ry

     iteration #  5     ecut=    60.00 Ry     beta= 0.30
     Davidson diagonalization with overlap
     ethr =  5.44E-09,  avg # of iterations =  2.0

     total cpu time spent up to now is     1739.9 secs

     total energy              =    -411.86120770 Ry
     estimated scf accuracy    <       0.00000245 Ry

     iteration #  6     ecut=    60.00 Ry     beta= 0.30
     Davidson diagonalization with overlap
     ethr =  2.61E-09,  avg # of iterations =  3.8

     total cpu time spent up to now is     1766.3 secs

     total energy              =    -411.86120842 Ry
     estimated scf accuracy    <       0.00000006 Ry

     iteration #  7     ecut=    60.00 Ry     beta= 0.30
     Davidson diagonalization with overlap
     ethr =  6.56E-11,  avg # of iterations =  7.1

     total cpu time spent up to now is     1811.6 secs

     total energy              =    -411.86120844 Ry
     estimated scf accuracy    <       0.00000023 Ry

     iteration #  8     ecut=    60.00 Ry     beta= 0.30
     Davidson diagonalization with overlap
     ethr =  6.56E-11,  avg # of iterations =  4.0

     total cpu time spent up to now is     1841.5 secs

     total energy              =    -411.86120854 Ry
     estimated scf accuracy    <       0.00000017 Ry

     iteration #  9     ecut=    60.00 Ry     beta= 0.30
     Davidson diagonalization with overlap
     ethr =  6.56E-11,  avg # of iterations =  2.0

     total cpu time spent up to now is     1863.9 secs

     total energy              =    -411.86120854 Ry
     estimated scf accuracy    <       0.00000003 Ry

     iteration # 10     ecut=    60.00 Ry     beta= 0.30
     Davidson diagonalization with overlap
     ethr =  3.47E-11,  avg # of iterations =  3.0

     total cpu time spent up to now is     1888.1 secs

     End of self-consistent calculation

          k = 0.0000 0.0000 0.0000 ( 19603 PWs)   bands (ev):

   -42.3817 -42.3733 -42.2367 -42.2337 -42.2337 -42.2331 -42.2331 -42.2331
   -42.1774 -42.1774 -42.1774 -42.1763 -42.1763 -42.1746 -41.4827  -9.0265
    -8.6486  -8.6486  -8.6486  -8.4379  -8.2539  -8.2539  -8.2539  -0.8466
    -0.8466  -0.8466  -0.7966  -0.1704  -0.1704   0.1431   0.5874   0.5874
     0.5874   0.7440   0.7440   0.7440   1.5157   1.5157   1.5157   1.5515
     1.5515   1.6617   1.6617   1.6617   2.1884   2.1884   2.1884   5.4796
     5.4796   5.4796   6.2465   7.9640   7.9641   7.9641   8.2301   8.3491

          k =-0.1443-0.1021 0.2500 ( 19666 PWs)   bands (ev):

   -42.3817 -42.3733 -42.2362 -42.2337 -42.2336 -42.2336 -42.2332 -42.2332
   -42.1772 -42.1772 -42.1770 -42.1764 -42.1764 -42.1750 -41.4827  -8.9781
    -8.6924  -8.6441  -8.6441  -8.4366  -8.2758  -8.2599  -8.2599  -0.7145
    -0.7145  -0.6919  -0.5139  -0.1109  -0.1109   0.2038   0.4689   0.4689
     0.6082   0.6964   0.8151   0.8151   1.2666   1.2666   1.2674   1.3539
     1.4505   1.4505   1.6560   1.6560   1.7343   2.1208   2.1208   5.9587
     5.9587   5.9595   6.6787   7.8401   7.9431   7.9431   8.1073   8.4830

          k = 0.2887 0.2041-0.5000 ( 19650 PWs)   bands (ev):

   -42.3817 -42.3733 -42.2352 -42.2347 -42.2335 -42.2335 -42.2334 -42.2334
   -42.1769 -42.1769 -42.1768 -42.1768 -42.1762 -42.1757 -41.4827  -8.8966
    -8.7726  -8.6394  -8.6394  -8.4304  -8.2992  -8.2662  -8.2662  -0.4881
    -0.4329  -0.4329  -0.2847  -0.2847   0.0304   0.2888   0.3404   0.5862
     0.5862   0.7745   0.8260   0.8260   0.9287   1.0027   1.0027   1.0710
     1.2414   1.2513   1.2513   1.7073   1.7073   2.0365   2.0365   6.8673
     6.8673   6.9072   7.0333   7.1430   7.1430   7.2302   7.6978   8.7413

          k =-0.0000 0.3062 0.0000 ( 19666 PWs)   bands (ev):

   -42.3817 -42.3733 -42.2362 -42.2337 -42.2336 -42.2336 -42.2332 -42.2332
   -42.1772 -42.1772 -42.1770 -42.1764 -42.1764 -42.1750 -41.4827  -8.9781
    -8.6924  -8.6441  -8.6441  -8.4366  -8.2758  -8.2599  -8.2599  -0.7145
    -0.7145  -0.6919  -0.5139  -0.1109  -0.1109   0.2038   0.4689   0.4689
     0.6082   0.6964   0.8151   0.8151   1.2666   1.2666   1.2674   1.3539
     1.4505   1.4505   1.6560   1.6560   1.7343   2.1208   2.1208   5.9587
     5.9587   5.9595   6.6787   7.8401   7.9431   7.9432   8.1073   8.4830

          k =-0.1443 0.2041 0.2500 ( 19699 PWs)   bands (ev):

   -42.3817 -42.3733 -42.2361 -42.2340 -42.2336 -42.2336 -42.2333 -42.2331
   -42.1774 -42.1770 -42.1770 -42.1767 -42.1762 -42.1750 -41.4827  -8.9615
    -8.6884  -8.6505  -8.6505  -8.4386  -8.3039  -8.2519  -8.2519  -0.6287
    -0.6206  -0.6206  -0.5616  -0.0756   0.0020   0.3055   0.4570   0.4594
     0.4594   0.6082   0.8273   0.8273   1.1570   1.2040   1.2040   1.2830
     1.4755   1.5592   1.5592   1.5596   1.7354   2.0108   2.0108   5.9054
     6.2423   6.2423   6.7995   8.1432   8.1879   8.1882   8.3043   8.4280

          k = 0.2887 0.5103-0.5000 ( 19654 PWs)   bands (ev):

   -42.3817 -42.3733 -42.2352 -42.2344 -42.2341 -42.2338 -42.2330 -42.2330
   -42.1773 -42.1770 -42.1766 -42.1765 -42.1762 -42.1757 -41.4827  -8.8763
    -8.7581  -8.6610  -8.6462  -8.4295  -8.3357  -8.2578  -8.2517  -0.4474
    -0.3735  -0.3512  -0.1581  -0.0271   0.0066   0.1851   0.3216   0.4882
     0.5826   0.6758   0.6902   0.8069   0.8832   0.9620   1.0516   1.0830
     1.2422   1.3244   1.3278   1.4779   1.5856   1.8932   1.9667   6.6909
     7.1179   7.1180   7.2269   7.5371   7.7739   7.7947   7.9930   8.6055

          k = 0.1443 0.4082-0.2500 ( 19681 PWs)   bands (ev):

   -42.3817 -42.3733 -42.2355 -42.2340 -42.2340 -42.2338 -42.2332 -42.2330
   -42.1773 -42.1769 -42.1767 -42.1766 -42.1764 -42.1755 -41.4827  -8.9097
    -8.7324  -8.6663  -8.6395  -8.4295  -8.3173  -8.2661  -8.2492  -0.5559
    -0.5529  -0.2839  -0.2216  -0.1033  -0.0164   0.0325   0.3050   0.6427
     0.6575   0.6955   0.7702   0.8701   0.8988   0.9711   1.1431   1.1507
     1.2333   1.3612   1.4498   1.5575   1.5600   1.8737   2.0904   6.6138
     6.6295   6.6546   7.1640   7.6278   7.8451   7.8922   7.9483   8.5538

          k = 0.0000-0.6124-0.0000 ( 19650 PWs)   bands (ev):

   -42.3817 -42.3733 -42.2352 -42.2347 -42.2335 -42.2335 -42.2334 -42.2334
   -42.1769 -42.1769 -42.1768 -42.1768 -42.1762 -42.1757 -41.4827  -8.8966
    -8.7726  -8.6394  -8.6394  -8.4304  -8.2992  -8.2662  -8.2662  -0.4881
    -0.4329  -0.4329  -0.2847  -0.2847   0.0304   0.2888   0.3404   0.5862
     0.5862   0.7745   0.8260   0.8260   0.9287   1.0027   1.0027   1.0710
     1.2414   1.2513   1.2513   1.7073   1.7073   2.0365   2.0365   6.8673
     6.8673   6.9072   7.0333   7.1430   7.1430   7.2302   7.6978   8.7413

          k =-0.1443-0.7144 0.2500 ( 19654 PWs)   bands (ev):

   -42.3817 -42.3733 -42.2352 -42.2344 -42.2341 -42.2338 -42.2330 -42.2330
   -42.1773 -42.1770 -42.1766 -42.1765 -42.1762 -42.1757 -41.4827  -8.8763
    -8.7581  -8.6610  -8.6462  -8.4295  -8.3357  -8.2578  -8.2517  -0.4474
    -0.3735  -0.3512  -0.1581  -0.0271   0.0066   0.1851   0.3216   0.4882
     0.5826   0.6758   0.6902   0.8069   0.8832   0.9620   1.0516   1.0830
     1.2422   1.3244   1.3278   1.4779   1.5856   1.8932   1.9667   6.6909
     7.1179   7.1180   7.2269   7.5371   7.7739   7.7947   7.9930   8.6959

          k = 0.2887-0.4082-0.5000 ( 19734 PWs)   bands (ev):

   -42.3817 -42.3733 -42.2350 -42.2348 -42.2340 -42.2340 -42.2330 -42.2328
   -42.1774 -42.1771 -42.1766 -42.1766 -42.1759 -42.1757 -41.4827  -8.8125
    -8.8112  -8.6526  -8.6526  -8.4359  -8.3583  -8.2498  -8.2498  -0.2775
    -0.2563  -0.2563  -0.2167   0.1557   0.1910   0.2612   0.2612   0.3919
     0.4864   0.5341   0.5355   0.7484   0.7484   0.8586   1.0827   1.1844
     1.1844   1.2701   1.2701   1.4453   1.5581   1.8563   1.8563   6.8171
     6.8746   7.5324   7.5324   8.0769   8.0769   8.1221   8.2139   8.6329

          k = 0.2887-0.1021 0.0000 ( 19666 PWs)   bands (ev):

   -42.3817 -42.3733 -42.2362 -42.2337 -42.2336 -42.2336 -42.2332 -42.2332
   -42.1772 -42.1772 -42.1770 -42.1764 -42.1764 -42.1750 -41.4827  -8.9781
    -8.6924  -8.6441  -8.6441  -8.4366  -8.2758  -8.2599  -8.2599  -0.7145
    -0.7145  -0.6919  -0.5139  -0.1109  -0.1109   0.2038   0.4689   0.4689
     0.6082   0.6964   0.8151   0.8151   1.2666   1.2666   1.2674   1.3539
     1.4505   1.4505   1.6560   1.6560   1.7343   2.1208   2.1208   5.9587
     5.9587   5.9595   6.6787   7.8401   7.9431   7.9432   8.1073   8.4830

          k = 0.5774 0.1021-0.5000 ( 19654 PWs)   bands (ev):

   -42.3817 -42.3733 -42.2352 -42.2344 -42.2341 -42.2338 -42.2330 -42.2330
   -42.1773 -42.1770 -42.1766 -42.1765 -42.1762 -42.1757 -41.4827  -8.8763
    -8.7581  -8.6610  -8.6462  -8.4295  -8.3357  -8.2578  -8.2517  -0.4474
    -0.3735  -0.3512  -0.1581  -0.0271   0.0066   0.1851   0.3216   0.4882
     0.5826   0.6758   0.6902   0.8069   0.8832   0.9620   1.0516   1.0830
     1.2422   1.3244   1.3278   1.4779   1.5856   1.8932   1.9667   6.6909
     7.1179   7.1180   7.2269   7.5371   7.7739   7.7947   7.9930   8.6056

          k = 0.4330 0.0000-0.2500 ( 19681 PWs)   bands (ev):

   -42.3817 -42.3733 -42.2355 -42.2340 -42.2340 -42.2338 -42.2332 -42.2330
   -42.1773 -42.1769 -42.1767 -42.1766 -42.1764 -42.1755 -41.4827  -8.9097
    -8.7324  -8.6663  -8.6395  -8.4295  -8.3173  -8.2661  -8.2492  -0.5559
    -0.5529  -0.2839  -0.2216  -0.1033  -0.0164   0.0325   0.3050   0.6427
     0.6575   0.6955   0.7702   0.8701   0.8988   0.9711   1.1431   1.1507
     1.2333   1.3612   1.4498   1.5575   1.5600   1.8737   2.0904   6.6138
     6.6295   6.6546   7.1640   7.6278   7.8451   7.8922   7.9483   8.5537

          k = 0.2887 0.2041 0.0000 ( 19699 PWs)   bands (ev):

   -42.3817 -42.3733 -42.2361 -42.2340 -42.2336 -42.2336 -42.2333 -42.2331
   -42.1774 -42.1770 -42.1770 -42.1767 -42.1762 -42.1750 -41.4827  -8.9615
    -8.6884  -8.6505  -8.6505  -8.4386  -8.3039  -8.2519  -8.2519  -0.6287
    -0.6206  -0.6206  -0.5616  -0.0756   0.0020   0.3055   0.4570   0.4594
     0.4594   0.6082   0.8273   0.8273   1.1570   1.2040   1.2040   1.2830
     1.4755   1.5592   1.5592   1.5596   1.7354   2.0108   2.0108   5.9054
     6.2423   6.2423   6.7995   8.1432   8.1879   8.1881   8.3042   8.4281

          k = 0.5774 0.4082-0.5000 ( 19681 PWs)   bands (ev):

   -42.3817 -42.3733 -42.2355 -42.2340 -42.2340 -42.2338 -42.2332 -42.2330
   -42.1773 -42.1769 -42.1767 -42.1766 -42.1764 -42.1755 -41.4827  -8.9097
    -8.7324  -8.6663  -8.6395  -8.4295  -8.3173  -8.2661  -8.2492  -0.5559
    -0.5529  -0.2839  -0.2216  -0.1033  -0.0164   0.0325   0.3050   0.6427
     0.6575   0.6955   0.7702   0.8701   0.8988   0.9711   1.1431   1.1507
     1.2333   1.3612   1.4498   1.5575   1.5600   1.8737   2.0904   6.6138
     6.6295   6.6546   7.1640   7.6278   7.8451   7.8922   7.9483   8.5537

          k = 0.4330 0.3062-0.2500 ( 19654 PWs)   bands (ev):

   -42.3817 -42.3733 -42.2352 -42.2344 -42.2341 -42.2338 -42.2330 -42.2330
   -42.1773 -42.1770 -42.1766 -42.1765 -42.1762 -42.1757 -41.4827  -8.8763
    -8.7581  -8.6610  -8.6462  -8.4295  -8.3357  -8.2578  -8.2517  -0.4474
    -0.3735  -0.3512  -0.1581  -0.0271   0.0066   0.1851   0.3216   0.4882
     0.5826   0.6758   0.6902   0.8069   0.8832   0.9620   1.0516   1.0830
     1.2422   1.3244   1.3278   1.4779   1.5856   1.8932   1.9667   6.6909
     7.1179   7.1180   7.2269   7.5371   7.7739   7.7947   7.9930   8.6962

          k = 0.2887-0.7144-0.0000 ( 19654 PWs)   bands (ev):

   -42.3817 -42.3733 -42.2352 -42.2344 -42.2341 -42.2338 -42.2330 -42.2330
   -42.1773 -42.1770 -42.1766 -42.1765 -42.1762 -42.1757 -41.4827  -8.8763
    -8.7581  -8.6610  -8.6462  -8.4295  -8.3357  -8.2578  -8.2517  -0.4474
    -0.3735  -0.3512  -0.1581  -0.0271   0.0066   0.1851   0.3216   0.4882
     0.5826   0.6758   0.6902   0.8069   0.8832   0.9620   1.0516   1.0830
     1.2422   1.3244   1.3278   1.4779   1.5856   1.8932   1.9667   6.6909
     7.1179   7.1180   7.2269   7.5371   7.7739   7.7947   7.9930   8.6052

          k = 0.4330-0.6124-0.2500 ( 19688 PWs)   bands (ev):

   -42.3817 -42.3733 -42.2347 -42.2344 -42.2344 -42.2342 -42.2329 -42.2329
   -42.1773 -42.1772 -42.1765 -42.1761 -42.1761 -42.1760 -41.4827  -8.8079
    -8.8066  -8.6658  -8.6591  -8.4248  -8.3519  -8.2536  -8.2530  -0.3320
    -0.2814  -0.2033  -0.1040   0.1235   0.1468   0.1812   0.1903   0.3685
     0.4222   0.5941   0.6153   0.9218   0.9242   0.9646   0.9676   1.0502
     1.0999   1.1562   1.3436   1.4761   1.5386   1.8176   1.8747   7.3602
     7.3971   7.5068   7.5221   7.6983   7.7141   7.7408   7.7941   8.8428

          k = 0.2887-0.4082 0.0000 ( 19681 PWs)   bands (ev):

   -42.3817 -42.3733 -42.2355 -42.2340 -42.2340 -42.2338 -42.2332 -42.2330
   -42.1773 -42.1769 -42.1767 -42.1766 -42.1764 -42.1755 -41.4827  -8.9097
    -8.7324  -8.6663  -8.6395  -8.4295  -8.3173  -8.2661  -8.2492  -0.5559
    -0.5529  -0.2839  -0.2216  -0.1033  -0.0164   0.0325   0.3050   0.6427
     0.6575   0.6955   0.7702   0.8701   0.8988   0.9711   1.1431   1.1507
     1.2333   1.3612   1.4498   1.5575   1.5600   1.8737   2.0904   6.6138
     6.6295   6.6546   7.1640   7.6278   7.8451   7.8922   7.9483   8.5538

          k = 0.5774-0.2041-0.5000 ( 19688 PWs)   bands (ev):

   -42.3817 -42.3733 -42.2347 -42.2344 -42.2344 -42.2342 -42.2329 -42.2329
   -42.1773 -42.1772 -42.1765 -42.1761 -42.1761 -42.1760 -41.4827  -8.8079
    -8.8066  -8.6658  -8.6591  -8.4248  -8.3519  -8.2536  -8.2530  -0.3320
    -0.2814  -0.2033  -0.1040   0.1235   0.1468   0.1812   0.1903   0.3685
     0.4222   0.5941   0.6153   0.9218   0.9242   0.9646   0.9676   1.0502
     1.0999   1.1562   1.3436   1.4761   1.5386   1.8176   1.8747   7.3602
     7.3971   7.5068   7.5221   7.6982   7.7141   7.7408   7.7941   8.8236

          k = 0.4330-0.3062-0.2500 ( 19654 PWs)   bands (ev):

   -42.3817 -42.3733 -42.2352 -42.2344 -42.2341 -42.2338 -42.2330 -42.2330
   -42.1773 -42.1770 -42.1766 -42.1765 -42.1762 -42.1757 -41.4827  -8.8763
    -8.7581  -8.6610  -8.6462  -8.4295  -8.3357  -8.2578  -8.2517  -0.4474
    -0.3735  -0.3512  -0.1581  -0.0271   0.0066   0.1851   0.3216   0.4882
     0.5826   0.6758   0.6902   0.8069   0.8832   0.9620   1.0516   1.0830
     1.2422   1.3244   1.3278   1.4779   1.5856   1.8932   1.9667   6.6909
     7.1179   7.1180   7.2269   7.5371   7.7739   7.7947   7.9930   8.6050

          k =-0.5774 0.2041-0.0000 ( 19650 PWs)   bands (ev):

   -42.3817 -42.3733 -42.2352 -42.2347 -42.2335 -42.2335 -42.2334 -42.2334
   -42.1769 -42.1769 -42.1768 -42.1768 -42.1762 -42.1757 -41.4827  -8.8966
    -8.7726  -8.6394  -8.6394  -8.4304  -8.2992  -8.2662  -8.2662  -0.4881
    -0.4329  -0.4329  -0.2847  -0.2847   0.0304   0.2888   0.3404   0.5862
     0.5862   0.7745   0.8260   0.8260   0.9287   1.0027   1.0027   1.0710
     1.2414   1.2513   1.2513   1.7073   1.7073   2.0365   2.0365   6.8673
     6.8673   6.9072   7.0333   7.1430   7.1430   7.2302   7.6978   8.7413

          k =-0.5774 0.5103-0.0000 ( 19654 PWs)   bands (ev):

   -42.3817 -42.3733 -42.2352 -42.2344 -42.2341 -42.2338 -42.2330 -42.2330
   -42.1773 -42.1770 -42.1766 -42.1765 -42.1762 -42.1757 -41.4827  -8.8763
    -8.7581  -8.6610  -8.6462  -8.4295  -8.3357  -8.2578  -8.2517  -0.4474
    -0.3735  -0.3512  -0.1581  -0.0271   0.0066   0.1851   0.3216   0.4882
     0.5826   0.6758   0.6902   0.8069   0.8832   0.9620   1.0516   1.0830
     1.2422   1.3244   1.3278   1.4779   1.5856   1.8932   1.9667   6.6909
     7.1179   7.1180   7.2269   7.5371   7.7739   7.7947   7.9930   8.6052

          k =-0.5774-0.4082-0.0000 ( 19734 PWs)   bands (ev):

   -42.3817 -42.3733 -42.2350 -42.2348 -42.2340 -42.2340 -42.2330 -42.2328
   -42.1774 -42.1771 -42.1766 -42.1766 -42.1759 -42.1757 -41.4827  -8.8125
    -8.8112  -8.6526  -8.6526  -8.4359  -8.3583  -8.2498  -8.2498  -0.2775
    -0.2563  -0.2563  -0.2167   0.1557   0.1910   0.2612   0.2612   0.3919
     0.4864   0.5341   0.5355   0.7484   0.7484   0.8586   1.0827   1.1844
     1.1844   1.2701   1.2701   1.4453   1.5581   1.8563   1.8563   6.8171
     6.8746   7.5324   7.5324   8.0769   8.0769   8.1221   8.2139   8.6327

     the Fermi energy is     2.9499 ev

!    total energy              =    -411.86120855 Ry
     estimated scf accuracy    <          6.9E-10 Ry
     smearing contrib. (-TS)   =      -0.00000000 Ry
     internal energy E=F+TS    =    -411.86120855 Ry

     The total energy is F=E-TS. E is the sum of the following terms:
     one-electron contribution =    -138.51581762 Ry
     hartree contribution      =      77.65181868 Ry
     xc contribution           =    -120.42578413 Ry
     ewald contribution        =    -230.57142550 Ry

     convergence has been achieved in  10 iterations

     Forces acting on atoms (cartesian axes, Ry/au):

     atom    1 type  1   force =     0.00061713    0.00043627    0.00000000
     atom    2 type  1   force =     0.00543970    0.00384661    0.00000000
     atom    3 type  2   force =    -0.00025566   -0.00018090    0.00044288
     atom    4 type  1   force =     0.00000019   -0.00000011    0.00000000
     atom    5 type  1   force =     0.00000004   -0.00000049   -0.00000000
     atom    6 type  2   force =    -0.00025566   -0.00018090   -0.00044288
     atom    7 type  1   force =     0.00030867   -0.00043668   -0.00053447
     atom    8 type  1   force =     0.00272005   -0.00384652   -0.00471106
     atom    9 type  2   force =    -0.00000865    0.00000310   -0.00000000
     atom   10 type  1   force =     0.00030867   -0.00043668    0.00053447
     atom   11 type  1   force =     0.00272005   -0.00384652    0.00471106
     atom   12 type  2   force =     0.00000014    0.00054247    0.00000000
     atom   13 type  1   force =    -0.00030893    0.00043659   -0.00053468
     atom   14 type  1   force =    -0.00271971    0.00384682   -0.00471142
     atom   15 type  2   force =     0.00000006   -0.00000852   -0.00000000
     atom   16 type  1   force =    -0.00030893    0.00043659    0.00053468
     atom   17 type  1   force =    -0.00271971    0.00384682    0.00471142
     atom   18 type  2   force =     0.00051101   -0.00018045    0.00000000
     atom   19 type  1   force =     0.00000000   -0.00000007   -0.00000000
     atom   20 type  2   force =     0.00000431    0.00000308    0.00000731
     atom   21 type  1   force =    -0.00061731   -0.00043657   -0.00000000
     atom   22 type  1   force =    -0.00543978   -0.00384699   -0.00000000
     atom   23 type  2   force =     0.00000431    0.00000308   -0.00000731

     Total force =     0.016460     Total SCF correction =     0.000059
     Energy error            =      4.4E-03 Ry
     Gradient error          =      5.4E-03 Ry/Bohr

     number of scf cycles    =   6
     number of bfgs steps    =   5

     energy             old  =    -411.8568263680 Ry
     energy             new  =    -411.8612085545 Ry

     CASE: energy            _new < energy            _old

     new trust radius        =       0.0638267218 bohr
     new conv_thr            =       0.0000000005 Ry


ATOMIC_POSITIONS (angstrom)
Li               1.2177944598        0.8611092423        2.0170831005
Li               3.5982152673        2.5443216506        6.0512493013
S               -0.0005411505       -0.0003826663        0.0009386359
Li               1.1645619315        0.8234701451        6.0512488014
Li               3.4936891713        2.4704134612       10.0854150022
S               -0.0005411542       -0.0003826681        4.0332270651
Li               2.3557401368        4.0797146561        3.9880678060
Li               4.7105151591        5.6903827982        7.9778103193
S                1.2411220464        3.2668141290        2.0170833501
Li               2.3557401196        4.0797146448        8.1144307959
Li               4.7105151292        5.6903827779       12.1930206841
S                1.1645635038        3.2950279971        6.0512490510
Li               4.6316378571        0.8611113052        3.9880679959
Li               6.9351154973        2.5443229207        7.9778110623
S                3.4936904264        0.0812020043        2.0170833500
Li               4.6316378399        0.8611112939        8.1144306058
Li               6.9351154674        2.5443229004       12.1930199411
S                3.4947716909       -0.0003822611        6.0512490510
Li               8.1519414019        5.7642931627       10.0854160012
S                4.6199728652        3.2668145120        3.9678645758
Li               5.7695877449        4.0797130466       10.0854155013
Li               8.0474165158        5.6903834759       14.1195817021
S                4.6199728422        3.2668144966        8.1346345251



     Writing config-only to output data dir ./tmp/li2s_ep_initial.save/ :
     XML data file
     NEW-OLD atomic charge density approx. for the potential

     total cpu time spent up to now is     1893.8 secs

     Self-consistent Calculation

     iteration #  1     ecut=    60.00 Ry     beta= 0.30
     Davidson diagonalization with overlap
     c_bands:  1 eigenvalues not converged
     c_bands:  2 eigenvalues not converged
     c_bands:  1 eigenvalues not converged
     c_bands:  1 eigenvalues not converged
     ethr =  1.00E-06,  avg # of iterations = 14.7

     total cpu time spent up to now is     1962.6 secs

     total energy              =    -411.86256552 Ry
     estimated scf accuracy    <       0.00050183 Ry

     iteration #  2     ecut=    60.00 Ry     beta= 0.30
     Davidson diagonalization with overlap
     c_bands:  1 eigenvalues not converged
     ethr =  5.34E-07,  avg # of iterations =  3.2

     total cpu time spent up to now is     1987.9 secs

     total energy              =    -411.86260565 Ry
     estimated scf accuracy    <       0.00005778 Ry

     iteration #  3     ecut=    60.00 Ry     beta= 0.30
     Davidson diagonalization with overlap
     ethr =  6.15E-08,  avg # of iterations =  4.5

     total cpu time spent up to now is     2017.6 secs

     total energy              =    -411.86262788 Ry
     estimated scf accuracy    <       0.00000959 Ry

     iteration #  4     ecut=    60.00 Ry     beta= 0.30
     Davidson diagonalization with overlap
     ethr =  1.02E-08,  avg # of iterations =  2.0

     total cpu time spent up to now is     2039.4 secs

     total energy              =    -411.86263046 Ry
     estimated scf accuracy    <       0.00000252 Ry

     iteration #  5     ecut=    60.00 Ry     beta= 0.30
     Davidson diagonalization with overlap
     ethr =  2.69E-09,  avg # of iterations =  4.0

     total cpu time spent up to now is     2067.6 secs

     total energy              =    -411.86263064 Ry
     estimated scf accuracy    <       0.00000130 Ry

     iteration #  6     ecut=    60.00 Ry     beta= 0.30
     Davidson diagonalization with overlap
     ethr =  1.39E-09,  avg # of iterations =  2.5

     total cpu time spent up to now is     2090.8 secs

     total energy              =    -411.86263112 Ry
     estimated scf accuracy    <       0.00000012 Ry

     iteration #  7     ecut=    60.00 Ry     beta= 0.30
     Davidson diagonalization with overlap
     ethr =  1.25E-10,  avg # of iterations =  4.8

     total cpu time spent up to now is     2122.5 secs

     total energy              =    -411.86263120 Ry
     estimated scf accuracy    <          8.9E-09 Ry

     iteration #  8     ecut=    60.00 Ry     beta= 0.30
     Davidson diagonalization with overlap
     ethr =  9.42E-12,  avg # of iterations =  6.1

     total cpu time spent up to now is     2161.4 secs

     total energy              =    -411.86263120 Ry
     estimated scf accuracy    <       0.00000004 Ry

     iteration #  9     ecut=    60.00 Ry     beta= 0.30
     Davidson diagonalization with overlap
     ethr =  9.42E-12,  avg # of iterations =  4.0

     total cpu time spent up to now is     2191.3 secs

     total energy              =    -411.86263122 Ry
     estimated scf accuracy    <          6.7E-09 Ry

     iteration # 10     ecut=    60.00 Ry     beta= 0.30
     Davidson diagonalization with overlap
     ethr =  7.11E-12,  avg # of iterations =  1.0

     total cpu time spent up to now is     2209.5 secs

     total energy              =    -411.86263122 Ry
     estimated scf accuracy    <          2.5E-09 Ry

     iteration # 11     ecut=    60.00 Ry     beta= 0.30
     Davidson diagonalization with overlap
     ethr =  2.64E-12,  avg # of iterations =  4.0

     total cpu time spent up to now is     2237.2 secs

     End of self-consistent calculation

          k = 0.0000 0.0000 0.0000 ( 19603 PWs)   bands (ev):

   -42.2912 -42.2855 -42.2489 -42.2472 -42.2472 -42.2469 -42.2469 -42.2469
   -42.1633 -42.1633 -42.1633 -42.1624 -42.1624 -42.1614 -41.5069  -8.9830
    -8.5769  -8.5769  -8.5769  -8.4827  -8.3252  -8.3252  -8.3252  -0.8328
    -0.8328  -0.8328  -0.7420  -0.1592  -0.1592   0.0874   0.5985   0.5985
     0.5985   0.7559   0.7559   0.7559   1.5144   1.5144   1.5144   1.5449
     1.5449   1.6836   1.6836   1.6836   2.1308   2.1308   2.1308   5.4915
     5.4915   5.4915   6.2525   7.9696   7.9696   7.9696   8.2180   8.4087

          k =-0.1443-0.1021 0.2500 ( 19666 PWs)   bands (ev):

   -42.2912 -42.2855 -42.2487 -42.2471 -42.2471 -42.2471 -42.2469 -42.2469
   -42.1631 -42.1631 -42.1630 -42.1625 -42.1625 -42.1616 -41.5069  -8.9301
    -8.6288  -8.5692  -8.5692  -8.4816  -8.3432  -8.3345  -8.3345  -0.7004
    -0.7004  -0.6516  -0.4781  -0.0995  -0.0995   0.1490   0.4818   0.4818
     0.6097   0.7096   0.8317   0.8317   1.2568   1.2568   1.3154   1.3507
     1.4508   1.4508   1.6557   1.6755   1.6755   2.0616   2.0617   5.9678
     5.9703   5.9703   6.6868   7.8379   7.9551   7.9552   8.1112   8.5161

          k = 0.2887 0.2041-0.5000 ( 19650 PWs)   bands (ev):

   -42.2911 -42.2854 -42.2485 -42.2474 -42.2471 -42.2471 -42.2469 -42.2469
   -42.1629 -42.1629 -42.1628 -42.1628 -42.1627 -42.1620 -41.5069  -8.8315
    -8.7331  -8.5609  -8.5609  -8.4719  -8.3630  -8.3443  -8.3443  -0.4120
    -0.4120  -0.4116  -0.2814  -0.2814  -0.0313   0.3358   0.3669   0.6522
     0.6522   0.7539   0.7695   0.7695   0.9933   1.0165   1.0246   1.0246
     1.1682   1.2442   1.2442   1.7364   1.7364   1.9659   1.9659   6.8809
     6.8809   6.9036   7.0541   7.1509   7.1509   7.2372   7.6823   8.7977

          k =-0.0000 0.3062 0.0000 ( 19666 PWs)   bands (ev):

   -42.2912 -42.2855 -42.2487 -42.2471 -42.2471 -42.2471 -42.2469 -42.2469
   -42.1631 -42.1631 -42.1630 -42.1625 -42.1625 -42.1616 -41.5069  -8.9301
    -8.6288  -8.5692  -8.5692  -8.4816  -8.3432  -8.3345  -8.3345  -0.7004
    -0.7004  -0.6516  -0.4781  -0.0995  -0.0995   0.1490   0.4818   0.4818
     0.6097   0.7096   0.8317   0.8317   1.2568   1.2568   1.3154   1.3507
     1.4508   1.4508   1.6557   1.6755   1.6755   2.0616   2.0616   5.9678
     5.9703   5.9703   6.6867   7.8379   7.9551   7.9552   8.1112   8.5161

          k =-0.1443 0.2041 0.2500 ( 19699 PWs)   bands (ev):

   -42.2912 -42.2855 -42.2487 -42.2474 -42.2472 -42.2472 -42.2469 -42.2467
   -42.1633 -42.1630 -42.1630 -42.1627 -42.1624 -42.1617 -41.5069  -8.9124
    -8.6114  -8.5799  -8.5799  -8.4920  -8.3773  -8.3222  -8.3222  -0.6106
    -0.6069  -0.6069  -0.5016  -0.0644   0.0122   0.2484   0.4690   0.4745
     0.4745   0.6176   0.8393   0.8393   1.1450   1.2017   1.2017   1.3172
     1.4682   1.5580   1.5942   1.5942   1.6689   1.9398   1.9398   5.9165
     6.2519   6.2519   6.8069   8.1727   8.1883   8.1886   8.3181   8.4469

          k = 0.2887 0.5103-0.5000 ( 19654 PWs)   bands (ev):

   -42.2911 -42.2854 -42.2483 -42.2477 -42.2474 -42.2473 -42.2467 -42.2466
   -42.1632 -42.1629 -42.1627 -42.1627 -42.1624 -42.1620 -41.5069  -8.8141
    -8.6944  -8.6039  -8.5726  -8.4774  -8.3984  -8.3311  -8.3244  -0.4209
    -0.3375  -0.3174  -0.1467  -0.0318   0.0438   0.1877   0.3397   0.4880
     0.5528   0.7156   0.7210   0.7957   0.8413   0.9464   1.0788   1.0868
     1.2328   1.3072   1.3312   1.4770   1.6026   1.8236   1.9001   6.7006
     7.1225   7.1273   7.2433   7.5381   7.7725   7.8051   7.9951   8.6437

          k = 0.1443 0.4082-0.2500 ( 19681 PWs)   bands (ev):

   -42.2911 -42.2854 -42.2485 -42.2475 -42.2473 -42.2472 -42.2468 -42.2467
   -42.1631 -42.1630 -42.1627 -42.1627 -42.1625 -42.1619 -41.5069  -8.8531
    -8.6636  -8.6154  -8.5611  -8.4698  -8.3817  -8.3442  -8.3212  -0.5386
    -0.5169  -0.2562  -0.1732  -0.0916  -0.0099   0.0362   0.2484   0.6624
     0.6682   0.7559   0.7995   0.8283   0.8931   0.9780   1.1315   1.1422
     1.2331   1.3550   1.4720   1.5285   1.5706   1.7937   2.0381   6.6164
     6.6421   6.6665   7.1757   7.6294   7.8517   7.9002   7.9515   8.5735

          k = 0.0000-0.6124-0.0000 ( 19650 PWs)   bands (ev):

   -42.2911 -42.2854 -42.2485 -42.2474 -42.2471 -42.2471 -42.2469 -42.2469
   -42.1629 -42.1629 -42.1628 -42.1628 -42.1627 -42.1620 -41.5069  -8.8315
    -8.7331  -8.5609  -8.5609  -8.4719  -8.3630  -8.3443  -8.3443  -0.4120
    -0.4120  -0.4116  -0.2814  -0.2814  -0.0313   0.3358   0.3669   0.6522
     0.6522   0.7539   0.7695   0.7695   0.9933   1.0165   1.0246   1.0246
     1.1683   1.2442   1.2442   1.7364   1.7364   1.9659   1.9659   6.8809
     6.8809   6.9036   7.0541   7.1509   7.1509   7.2372   7.6823   8.7977

          k =-0.1443-0.7144 0.2500 ( 19654 PWs)   bands (ev):

   -42.2911 -42.2854 -42.2483 -42.2477 -42.2474 -42.2473 -42.2467 -42.2466
   -42.1632 -42.1629 -42.1627 -42.1627 -42.1624 -42.1620 -41.5069  -8.8141
    -8.6944  -8.6039  -8.5726  -8.4774  -8.3984  -8.3311  -8.3244  -0.4209
    -0.3375  -0.3174  -0.1467  -0.0318   0.0438   0.1877   0.3397   0.4880
     0.5528   0.7156   0.7210   0.7957   0.8413   0.9464   1.0788   1.0868
     1.2328   1.3072   1.3312   1.4770   1.6026   1.8236   1.9001   6.7006
     7.1225   7.1272   7.2433   7.5381   7.7725   7.8051   7.9951   8.6950

          k = 0.2887-0.4082-0.5000 ( 19734 PWs)   bands (ev):

   -42.2911 -42.2854 -42.2481 -42.2480 -42.2475 -42.2475 -42.2466 -42.2464
   -42.1634 -42.1630 -42.1627 -42.1627 -42.1622 -42.1621 -41.5069  -8.7480
    -8.7412  -8.5831  -8.5831  -8.5089  -8.4202  -8.3190  -8.3190  -0.2494
    -0.2494  -0.2385  -0.1472   0.1614   0.2094   0.3099   0.3099   0.3549
     0.4304   0.5918   0.6065   0.7097   0.7097   0.7768   1.0186   1.1977
     1.1977   1.3230   1.3230   1.4351   1.5586   1.7782   1.7782   6.8276
     6.8868   7.5363   7.5363   8.0794   8.0794   8.1543   8.2253   8.6428

          k = 0.2887-0.1021 0.0000 ( 19666 PWs)   bands (ev):

   -42.2912 -42.2855 -42.2487 -42.2471 -42.2471 -42.2471 -42.2469 -42.2469
   -42.1631 -42.1631 -42.1630 -42.1625 -42.1625 -42.1616 -41.5069  -8.9301
    -8.6288  -8.5692  -8.5692  -8.4816  -8.3432  -8.3345  -8.3345  -0.7004
    -0.7004  -0.6516  -0.4781  -0.0995  -0.0995   0.1490   0.4818   0.4818
     0.6097   0.7096   0.8317   0.8317   1.2568   1.2568   1.3154   1.3507
     1.4508   1.4508   1.6557   1.6755   1.6755   2.0616   2.0617   5.9678
     5.9703   5.9703   6.6867   7.8379   7.9551   7.9552   8.1112   8.5161

          k = 0.5774 0.1021-0.5000 ( 19654 PWs)   bands (ev):

   -42.2911 -42.2854 -42.2483 -42.2477 -42.2474 -42.2473 -42.2467 -42.2466
   -42.1632 -42.1629 -42.1627 -42.1627 -42.1624 -42.1620 -41.5069  -8.8141
    -8.6944  -8.6039  -8.5726  -8.4774  -8.3984  -8.3311  -8.3244  -0.4209
    -0.3375  -0.3174  -0.1467  -0.0318   0.0438   0.1877   0.3397   0.4880
     0.5528   0.7156   0.7210   0.7957   0.8413   0.9464   1.0788   1.0868
     1.2328   1.3072   1.3312   1.4770   1.6026   1.8236   1.9001   6.7006
     7.1224   7.1273   7.2433   7.5381   7.7725   7.8051   7.9951   8.6437

          k = 0.4330 0.0000-0.2500 ( 19681 PWs)   bands (ev):

   -42.2911 -42.2854 -42.2485 -42.2475 -42.2473 -42.2472 -42.2468 -42.2467
   -42.1631 -42.1630 -42.1627 -42.1627 -42.1625 -42.1619 -41.5069  -8.8531
    -8.6636  -8.6154  -8.5611  -8.4698  -8.3817  -8.3442  -8.3212  -0.5386
    -0.5169  -0.2562  -0.1732  -0.0916  -0.0099   0.0362   0.2484   0.6624
     0.6682   0.7559   0.7995   0.8283   0.8931   0.9780   1.1315   1.1422
     1.2331   1.3550   1.4720   1.5285   1.5706   1.7937   2.0381   6.6164
     6.6421   6.6665   7.1757   7.6294   7.8517   7.9002   7.9515   8.5735

          k = 0.2887 0.2041 0.0000 ( 19699 PWs)   bands (ev):

   -42.2912 -42.2855 -42.2487 -42.2474 -42.2472 -42.2472 -42.2469 -42.2467
   -42.1633 -42.1630 -42.1630 -42.1627 -42.1624 -42.1617 -41.5069  -8.9124
    -8.6114  -8.5799  -8.5799  -8.4920  -8.3773  -8.3222  -8.3222  -0.6106
    -0.6069  -0.6069  -0.5016  -0.0644   0.0122   0.2484   0.4690   0.4745
     0.4745   0.6176   0.8393   0.8393   1.1450   1.2017   1.2017   1.3172
     1.4682   1.5580   1.5942   1.5942   1.6689   1.9398   1.9398   5.9165
     6.2519   6.2519   6.8069   8.1727   8.1883   8.1886   8.3182   8.4458

          k = 0.5774 0.4082-0.5000 ( 19681 PWs)   bands (ev):

   -42.2911 -42.2854 -42.2485 -42.2475 -42.2473 -42.2472 -42.2468 -42.2467
   -42.1631 -42.1630 -42.1627 -42.1627 -42.1625 -42.1619 -41.5069  -8.8531
    -8.6636  -8.6154  -8.5611  -8.4698  -8.3817  -8.3442  -8.3212  -0.5386
    -0.5169  -0.2562  -0.1732  -0.0916  -0.0099   0.0362   0.2484   0.6624
     0.6682   0.7559   0.7995   0.8283   0.8931   0.9780   1.1315   1.1422
     1.2331   1.3550   1.4720   1.5285   1.5706   1.7937   2.0381   6.6164
     6.6421   6.6665   7.1757   7.6294   7.8517   7.9002   7.9515   8.5735

          k = 0.4330 0.3062-0.2500 ( 19654 PWs)   bands (ev):

   -42.2911 -42.2854 -42.2483 -42.2477 -42.2474 -42.2473 -42.2467 -42.2466
   -42.1632 -42.1629 -42.1627 -42.1627 -42.1624 -42.1620 -41.5069  -8.8141
    -8.6944  -8.6039  -8.5726  -8.4774  -8.3984  -8.3311  -8.3244  -0.4209
    -0.3375  -0.3174  -0.1467  -0.0318   0.0438   0.1877   0.3397   0.4880
     0.5528   0.7156   0.7210   0.7957   0.8413   0.9464   1.0788   1.0868
     1.2328   1.3072   1.3312   1.4770   1.6026   1.8236   1.9001   6.7006
     7.1225   7.1272   7.2433   7.5381   7.7725   7.8051   7.9952   8.6949

          k = 0.2887-0.7144-0.0000 ( 19654 PWs)   bands (ev):

   -42.2911 -42.2854 -42.2483 -42.2477 -42.2474 -42.2473 -42.2467 -42.2466
   -42.1632 -42.1629 -42.1627 -42.1627 -42.1624 -42.1620 -41.5069  -8.8141
    -8.6944  -8.6039  -8.5726  -8.4774  -8.3984  -8.3311  -8.3244  -0.4209
    -0.3375  -0.3174  -0.1467  -0.0318   0.0438   0.1877   0.3397   0.4880
     0.5528   0.7156   0.7210   0.7957   0.8413   0.9464   1.0788   1.0868
     1.2328   1.3072   1.3312   1.4770   1.6026   1.8236   1.9001   6.7006
     7.1225   7.1273   7.2433   7.5381   7.7725   7.8051   7.9951   8.6436

          k = 0.4330-0.6124-0.2500 ( 19688 PWs)   bands (ev):

   -42.2911 -42.2854 -42.2481 -42.2478 -42.2477 -42.2472 -42.2467 -42.2465
   -42.1632 -42.1630 -42.1628 -42.1624 -42.1624 -42.1622 -41.5069  -8.7353
    -8.7345  -8.6262  -8.5983  -8.4706  -8.4030  -8.3277  -8.3269  -0.2978
    -0.2286  -0.2087  -0.0867   0.1690   0.1956   0.2011   0.2175   0.3716
     0.4092   0.5370   0.5482   0.9262   0.9690   1.0059   1.0171   1.0179
     1.0743   1.1068   1.3466   1.5033   1.5529   1.7305   1.8006   7.3755
     7.3845   7.5000   7.5651   7.6961   7.7299   7.7612   7.7763   8.7900

          k = 0.2887-0.4082 0.0000 ( 19681 PWs)   bands (ev):

   -42.2911 -42.2854 -42.2485 -42.2475 -42.2473 -42.2472 -42.2468 -42.2467
   -42.1631 -42.1630 -42.1627 -42.1627 -42.1625 -42.1619 -41.5069  -8.8531
    -8.6636  -8.6154  -8.5611  -8.4698  -8.3817  -8.3442  -8.3212  -0.5386
    -0.5169  -0.2562  -0.1732  -0.0916  -0.0099   0.0362   0.2484   0.6624
     0.6682   0.7559   0.7995   0.8283   0.8931   0.9780   1.1315   1.1422
     1.2331   1.3550   1.4720   1.5285   1.5706   1.7937   2.0381   6.6164
     6.6421   6.6665   7.1757   7.6294   7.8517   7.9002   7.9515   8.5735

          k = 0.5774-0.2041-0.5000 ( 19688 PWs)   bands (ev):

   -42.2911 -42.2854 -42.2481 -42.2478 -42.2477 -42.2472 -42.2467 -42.2465
   -42.1632 -42.1630 -42.1628 -42.1624 -42.1624 -42.1622 -41.5069  -8.7353
    -8.7345  -8.6262  -8.5983  -8.4706  -8.4030  -8.3277  -8.3269  -0.2978
    -0.2286  -0.2087  -0.0867   0.1690   0.1956   0.2011   0.2175   0.3716
     0.4092   0.5370   0.5482   0.9262   0.9690   1.0059   1.0171   1.0179
     1.0743   1.1068   1.3466   1.5033   1.5529   1.7305   1.8006   7.3755
     7.3845   7.5000   7.5651   7.6961   7.7299   7.7612   7.7763   8.7918

          k = 0.4330-0.3062-0.2500 ( 19654 PWs)   bands (ev):

   -42.2911 -42.2854 -42.2483 -42.2477 -42.2474 -42.2473 -42.2467 -42.2466
   -42.1632 -42.1629 -42.1627 -42.1627 -42.1624 -42.1620 -41.5069  -8.8141
    -8.6944  -8.6039  -8.5726  -8.4774  -8.3984  -8.3311  -8.3244  -0.4209
    -0.3375  -0.3174  -0.1467  -0.0318   0.0438   0.1877   0.3397   0.4880
     0.5528   0.7156   0.7210   0.7957   0.8413   0.9464   1.0788   1.0868
     1.2328   1.3072   1.3312   1.4770   1.6026   1.8236   1.9001   6.7006
     7.1225   7.1273   7.2433   7.5381   7.7725   7.8051   7.9951   8.6438

          k =-0.5774 0.2041-0.0000 ( 19650 PWs)   bands (ev):

   -42.2911 -42.2854 -42.2485 -42.2474 -42.2471 -42.2471 -42.2469 -42.2469
   -42.1629 -42.1629 -42.1628 -42.1628 -42.1627 -42.1620 -41.5069  -8.8315
    -8.7331  -8.5609  -8.5609  -8.4719  -8.3630  -8.3443  -8.3443  -0.4120
    -0.4120  -0.4116  -0.2814  -0.2814  -0.0313   0.3358   0.3669   0.6522
     0.6522   0.7539   0.7695   0.7695   0.9933   1.0165   1.0246   1.0246
     1.1682   1.2442   1.2442   1.7364   1.7364   1.9659   1.9659   6.8809
     6.8809   6.9036   7.0541   7.1509   7.1509   7.2372   7.6823   8.7977

          k =-0.5774 0.5103-0.0000 ( 19654 PWs)   bands (ev):

   -42.2911 -42.2854 -42.2483 -42.2477 -42.2474 -42.2473 -42.2467 -42.2466
   -42.1632 -42.1629 -42.1627 -42.1627 -42.1624 -42.1620 -41.5069  -8.8141
    -8.6944  -8.6039  -8.5726  -8.4774  -8.3984  -8.3311  -8.3244  -0.4209
    -0.3375  -0.3174  -0.1467  -0.0318   0.0438   0.1877   0.3397   0.4880
     0.5528   0.7156   0.7210   0.7957   0.8413   0.9464   1.0788   1.0868
     1.2328   1.3072   1.3312   1.4770   1.6026   1.8236   1.9001   6.7006
     7.1225   7.1273   7.2433   7.5381   7.7725   7.8051   7.9951   8.6436

          k =-0.5774-0.4082-0.0000 ( 19734 PWs)   bands (ev):

   -42.2911 -42.2854 -42.2481 -42.2480 -42.2475 -42.2475 -42.2466 -42.2464
   -42.1634 -42.1630 -42.1627 -42.1627 -42.1622 -42.1621 -41.5069  -8.7480
    -8.7412  -8.5831  -8.5831  -8.5089  -8.4202  -8.3190  -8.3190  -0.2494
    -0.2494  -0.2385  -0.1472   0.1614   0.2094   0.3099   0.3099   0.3549
     0.4304   0.5918   0.6065   0.7097   0.7097   0.7768   1.0186   1.1977
     1.1977   1.3230   1.3230   1.4351   1.5586   1.7782   1.7782   6.8276
     6.8868   7.5363   7.5363   8.0794   8.0794   8.1543   8.2253   8.6427

     the Fermi energy is     2.9218 ev

!    total energy              =    -411.86263123 Ry
     estimated scf accuracy    <          6.7E-11 Ry
     smearing contrib. (-TS)   =      -0.00000000 Ry
     internal energy E=F+TS    =    -411.86263123 Ry

     The total energy is F=E-TS. E is the sum of the following terms:
     one-electron contribution =    -138.75785675 Ry
     hartree contribution      =      77.79238355 Ry
     xc contribution           =    -120.43603011 Ry
     ewald contribution        =    -230.46112791 Ry

     convergence has been achieved in  11 iterations

     Forces acting on atoms (cartesian axes, Ry/au):

     atom    1 type  1   force =    -0.00199356   -0.00140938   -0.00000000
     atom    2 type  1   force =     0.00237798    0.00168172    0.00000000
     atom    3 type  2   force =    -0.00032124   -0.00022714    0.00055617
     atom    4 type  1   force =     0.00000009   -0.00000008    0.00000000
     atom    5 type  1   force =     0.00000000   -0.00000032   -0.00000000
     atom    6 type  2   force =    -0.00032124   -0.00022714   -0.00055617
     atom    7 type  1   force =    -0.00099652    0.00140935    0.00172637
     atom    8 type  1   force =     0.00118895   -0.00168152   -0.00205915
     atom    9 type  2   force =    -0.00385378    0.00136255   -0.00000000
     atom   10 type  1   force =    -0.00099652    0.00140935   -0.00172637
     atom   11 type  1   force =     0.00118895   -0.00168152    0.00205915
     atom   12 type  2   force =    -0.00000010    0.00068162    0.00000000
     atom   13 type  1   force =     0.00099658   -0.00140961    0.00172636
     atom   14 type  1   force =    -0.00118892    0.00168130   -0.00205931
     atom   15 type  2   force =    -0.00000001   -0.00408714   -0.00000000
     atom   16 type  1   force =     0.00099658   -0.00140961   -0.00172636
     atom   17 type  1   force =    -0.00118892    0.00168130    0.00205931
     atom   18 type  2   force =     0.00064245   -0.00022719    0.00000000
     atom   19 type  1   force =     0.00000003    0.00000006    0.00000000
     atom   20 type  2   force =     0.00192690    0.00136265    0.00333746
     atom   21 type  1   force =     0.00199326    0.00140961    0.00000000
     atom   22 type  1   force =    -0.00237787   -0.00168152   -0.00000000
     atom   23 type  2   force =     0.00192690    0.00136265   -0.00333746

     Total force =     0.012463     Total SCF correction =     0.000021
     Energy error            =      1.4E-03 Ry
     Gradient error          =      4.1E-03 Ry/Bohr

     number of scf cycles    =   7
     number of bfgs steps    =   6

     energy             old  =    -411.8612085545 Ry
     energy             new  =    -411.8626312250 Ry

     CASE: energy            _new < energy            _old

     new trust radius        =       0.0084296933 bohr
     new conv_thr            =       0.0000000004 Ry


ATOMIC_POSITIONS (angstrom)
Li               1.2177504107        0.8610782157        2.0170831005
Li               3.6018574440        2.5468971699        6.0512493013
S               -0.0007438624       -0.0005259976        0.0012896316
Li               1.1645619567        0.8234700838        6.0512488014
Li               3.4936891651        2.4704133136       10.0854150022
S               -0.0007438661       -0.0005259993        4.0328760694
Li               2.3557182154        4.0797456792        3.9881059181
Li               4.7123362270        5.6878073862        7.9746562345
S                1.2404648293        3.2670465104        2.0170833501
Li               2.3557181982        4.0797456679        8.1143926837
Li               4.7123361962        5.6878073652       12.1961747690
S                1.1645634635        3.2954580536        6.0512490510
Li               4.6316597741        0.8610801905        3.9881060990
Li               6.9332944490        2.5468982313        7.9746568913
S                3.4936904533        0.0805051227        2.0170833500
Li               4.6316597569        0.8610801792        8.1143925028
Li               6.9332944183        2.5468982103       12.1961741120
S                3.4951770865       -0.0005256171        6.0512490510
Li               8.1519414089        5.7642931721       10.0854160012
S                4.6203014731        3.2670469448        3.9684337260
Li               5.7696316995        4.0797441666       10.0854155013
Li               8.0437744214        5.6878080468       14.1195817021
S                4.6203014503        3.2670469295        8.1340653748



     Writing config-only to output data dir ./tmp/li2s_ep_initial.save/ :
     XML data file
     NEW-OLD atomic charge density approx. for the potential

     total cpu time spent up to now is     2242.8 secs

     Self-consistent Calculation

     iteration #  1     ecut=    60.00 Ry     beta= 0.30
     Davidson diagonalization with overlap
     ethr =  1.00E-06,  avg # of iterations =  4.0

     Threshold (ethr) on eigenvalues was too large:
     Diagonalizing with lowered threshold

     Davidson diagonalization with overlap
     ethr =  1.44E-08,  avg # of iterations =  4.5

     total cpu time spent up to now is     2300.9 secs

     total energy              =    -411.86278568 Ry
     estimated scf accuracy    <       0.00003354 Ry

     iteration #  2     ecut=    60.00 Ry     beta= 0.30
     Davidson diagonalization with overlap
     ethr =  3.57E-08,  avg # of iterations =  2.0

     total cpu time spent up to now is     2322.5 secs

     total energy              =    -411.86279029 Ry
     estimated scf accuracy    <       0.00000107 Ry

     iteration #  3     ecut=    60.00 Ry     beta= 0.30
     Davidson diagonalization with overlap
     ethr =  1.14E-09,  avg # of iterations =  5.0

     total cpu time spent up to now is     2357.3 secs

     total energy              =    -411.86279101 Ry
     estimated scf accuracy    <       0.00000047 Ry

     iteration #  4     ecut=    60.00 Ry     beta= 0.30
     Davidson diagonalization with overlap
     ethr =  5.02E-10,  avg # of iterations =  2.0

     total cpu time spent up to now is     2379.8 secs

     total energy              =    -411.86279108 Ry
     estimated scf accuracy    <       0.00000007 Ry

     iteration #  5     ecut=    60.00 Ry     beta= 0.30
     Davidson diagonalization with overlap
     ethr =  7.31E-11,  avg # of iterations =  4.0

     total cpu time spent up to now is     2408.5 secs

     total energy              =    -411.86279111 Ry
     estimated scf accuracy    <          9.6E-09 Ry

     iteration #  6     ecut=    60.00 Ry     beta= 0.30
     Davidson diagonalization with overlap
     ethr =  1.03E-11,  avg # of iterations =  4.0

     total cpu time spent up to now is     2436.4 secs

     total energy              =    -411.86279111 Ry
     estimated scf accuracy    <          2.1E-09 Ry

     iteration #  7     ecut=    60.00 Ry     beta= 0.30
     Davidson diagonalization with overlap
     ethr =  2.26E-12,  avg # of iterations =  4.3

     total cpu time spent up to now is     2467.1 secs

     total energy              =    -411.86279111 Ry
     estimated scf accuracy    <          9.7E-10 Ry

     iteration #  8     ecut=    60.00 Ry     beta= 0.30
     Davidson diagonalization with overlap
     ethr =  1.03E-12,  avg # of iterations =  3.5

     total cpu time spent up to now is     2493.5 secs

     total energy              =    -411.86279111 Ry
     estimated scf accuracy    <          5.6E-10 Ry

     iteration #  9     ecut=    60.00 Ry     beta= 0.30
     Davidson diagonalization with overlap
     ethr =  5.99E-13,  avg # of iterations =  2.0

     total cpu time spent up to now is     2515.9 secs

     End of self-consistent calculation

          k = 0.0000 0.0000 0.0000 ( 19603 PWs)   bands (ev):

   -42.2817 -42.2786 -42.2482 -42.2466 -42.2466 -42.2463 -42.2463 -42.2463
   -42.1632 -42.1632 -42.1632 -42.1624 -42.1624 -42.1614 -41.5175  -8.9794
    -8.5706  -8.5706  -8.5706  -8.4854  -8.3310  -8.3310  -8.3310  -0.8313
    -0.8313  -0.8313  -0.7377  -0.1581  -0.1581   0.0827   0.5988   0.5988
     0.5988   0.7577   0.7577   0.7577   1.5149   1.5149   1.5149   1.5452
     1.5452   1.6857   1.6857   1.6857   2.1264   2.1264   2.1264   5.4920
     5.4920   5.4920   6.2529   7.9699   7.9699   7.9699   8.2145   8.4144

          k =-0.1443-0.1021 0.2500 ( 19666 PWs)   bands (ev):

   -42.2817 -42.2786 -42.2481 -42.2465 -42.2465 -42.2465 -42.2463 -42.2463
   -42.1631 -42.1631 -42.1630 -42.1625 -42.1625 -42.1616 -41.5175  -8.9262
    -8.6236  -8.5624  -8.5624  -8.4837  -8.3486  -8.3407  -8.3407  -0.6989
    -0.6989  -0.6484  -0.4748  -0.0985  -0.0985   0.1443   0.4826   0.4826
     0.6106   0.7098   0.8336   0.8336   1.2569   1.2569   1.3208   1.3513
     1.4514   1.4514   1.6481   1.6775   1.6775   2.0569   2.0569   5.9682
     5.9708   5.9708   6.6873   7.8377   7.9561   7.9561   8.1105   8.5190

          k = 0.2887 0.2041-0.5000 ( 19650 PWs)   bands (ev):

   -42.2816 -42.2786 -42.2479 -42.2467 -42.2465 -42.2465 -42.2464 -42.2464
   -42.1628 -42.1628 -42.1627 -42.1627 -42.1627 -42.1619 -41.5175  -8.8257
    -8.7308  -8.5536  -8.5536  -8.4731  -8.3684  -8.3511  -8.3511  -0.4097
    -0.4097  -0.4044  -0.2814  -0.2814  -0.0369   0.3366   0.3722   0.6585
     0.6585   0.7548   0.7648   0.7648   0.9884   1.0223   1.0268   1.0268
     1.1602   1.2442   1.2442   1.7398   1.7398   1.9595   1.9595   6.8819
     6.8819   6.9024   7.0570   7.1512   7.1512   7.2378   7.6799   8.8031

          k =-0.0000 0.3062 0.0000 ( 19666 PWs)   bands (ev):

   -42.2817 -42.2786 -42.2481 -42.2465 -42.2465 -42.2465 -42.2463 -42.2463
   -42.1631 -42.1631 -42.1630 -42.1625 -42.1625 -42.1616 -41.5175  -8.9262
    -8.6236  -8.5624  -8.5624  -8.4837  -8.3486  -8.3407  -8.3407  -0.6989
    -0.6989  -0.6484  -0.4748  -0.0985  -0.0985   0.1443   0.4826   0.4826
     0.6106   0.7098   0.8336   0.8336   1.2569   1.2569   1.3208   1.3513
     1.4514   1.4514   1.6481   1.6775   1.6775   2.0569   2.0569   5.9682
     5.9708   5.9708   6.6873   7.8377   7.9561   7.9561   8.1105   8.5190

          k =-0.1443 0.2041 0.2500 ( 19699 PWs)   bands (ev):

   -42.2817 -42.2786 -42.2480 -42.2468 -42.2466 -42.2466 -42.2463 -42.2460
   -42.1633 -42.1629 -42.1629 -42.1626 -42.1623 -42.1616 -41.5175  -8.9084
    -8.6043  -8.5738  -8.5738  -8.4952  -8.3838  -8.3278  -8.3278  -0.6087
    -0.6055  -0.6055  -0.4967  -0.0633   0.0131   0.2437   0.4696   0.4757
     0.4757   0.6191   0.8405   0.8405   1.1452   1.2023   1.2023   1.3201
     1.4687   1.5580   1.5981   1.5981   1.6631   1.9334   1.9334   5.9171
     6.2524   6.2524   6.8074   8.1751   8.1883   8.1885   8.3191   8.4484

          k = 0.2887 0.5103-0.5000 ( 19654 PWs)   bands (ev):

   -42.2816 -42.2786 -42.2478 -42.2471 -42.2468 -42.2467 -42.2461 -42.2459
   -42.1632 -42.1629 -42.1627 -42.1627 -42.1624 -42.1620 -41.5175  -8.8088
    -8.6893  -8.5995  -8.5660  -8.4788  -8.4036  -8.3371  -8.3305  -0.4186
    -0.3359  -0.3119  -0.1459  -0.0328   0.0470   0.1879   0.3411   0.4873
     0.5523   0.7173   0.7243   0.7963   0.8385   0.9454   1.0812   1.0874
     1.2336   1.3053   1.3318   1.4775   1.6045   1.8176   1.8942   6.7013
     7.1223   7.1277   7.2446   7.5384   7.7728   7.8057   7.9950   8.6470

          k = 0.1443 0.4082-0.2500 ( 19681 PWs)   bands (ev):

   -42.2816 -42.2786 -42.2479 -42.2469 -42.2467 -42.2466 -42.2461 -42.2461
   -42.1631 -42.1630 -42.1627 -42.1627 -42.1625 -42.1618 -41.5175  -8.8484
    -8.6577  -8.6120  -8.5537  -8.4704  -8.3870  -8.3510  -8.3271  -0.5371
    -0.5136  -0.2533  -0.1690  -0.0907  -0.0092   0.0365   0.2433   0.6638
     0.6690   0.7610   0.8038   0.8246   0.8933   0.9788   1.1301   1.1430
     1.2338   1.3554   1.4746   1.5259   1.5714   1.7864   2.0340   6.6167
     6.6428   6.6671   7.1767   7.6297   7.8516   7.9007   7.9518   8.5752

          k = 0.0000-0.6124-0.0000 ( 19650 PWs)   bands (ev):

   -42.2816 -42.2786 -42.2479 -42.2467 -42.2465 -42.2465 -42.2464 -42.2464
   -42.1628 -42.1628 -42.1627 -42.1627 -42.1627 -42.1619 -41.5175  -8.8257
    -8.7308  -8.5536  -8.5536  -8.4731  -8.3684  -8.3511  -8.3511  -0.4097
    -0.4097  -0.4044  -0.2814  -0.2814  -0.0369   0.3366   0.3722   0.6585
     0.6585   0.7548   0.7648   0.7648   0.9884   1.0223   1.0268   1.0268
     1.1602   1.2442   1.2442   1.7398   1.7398   1.9595   1.9595   6.8819
     6.8819   6.9024   7.0570   7.1512   7.1512   7.2378   7.6799   8.8031

          k =-0.1443-0.7144 0.2500 ( 19654 PWs)   bands (ev):

   -42.2816 -42.2786 -42.2478 -42.2471 -42.2468 -42.2467 -42.2461 -42.2459
   -42.1632 -42.1629 -42.1627 -42.1627 -42.1624 -42.1620 -41.5175  -8.8088
    -8.6893  -8.5995  -8.5660  -8.4788  -8.4036  -8.3371  -8.3305  -0.4186
    -0.3359  -0.3119  -0.1459  -0.0328   0.0470   0.1879   0.3411   0.4873
     0.5523   0.7173   0.7243   0.7963   0.8385   0.9454   1.0812   1.0874
     1.2336   1.3053   1.3318   1.4775   1.6045   1.8176   1.8942   6.7013
     7.1223   7.1277   7.2446   7.5384   7.7728   7.8057   7.9950   8.6948

          k = 0.2887-0.4082-0.5000 ( 19734 PWs)   bands (ev):

   -42.2816 -42.2786 -42.2474 -42.2474 -42.2469 -42.2469 -42.2460 -42.2457
   -42.1633 -42.1629 -42.1627 -42.1627 -42.1621 -42.1621 -41.5175  -8.7427
    -8.7349  -8.5771  -8.5771  -8.5134  -8.4259  -8.3244  -8.3244  -0.2485
    -0.2485  -0.2347  -0.1412   0.1620   0.2106   0.3137   0.3137   0.3529
     0.4259   0.5966   0.6136   0.7075   0.7075   0.7716   1.0103   1.1982
     1.1982   1.3295   1.3295   1.4355   1.5585   1.7707   1.7707   6.8281
     6.8882   7.5360   7.5360   8.0797   8.0797   8.1568   8.2269   8.6474

          k = 0.2887-0.1021 0.0000 ( 19666 PWs)   bands (ev):

   -42.2817 -42.2786 -42.2481 -42.2465 -42.2465 -42.2465 -42.2463 -42.2463
   -42.1631 -42.1631 -42.1630 -42.1625 -42.1625 -42.1616 -41.5175  -8.9262
    -8.6236  -8.5624  -8.5624  -8.4837  -8.3486  -8.3407  -8.3407  -0.6989
    -0.6989  -0.6484  -0.4748  -0.0985  -0.0985   0.1443   0.4826   0.4826
     0.6106   0.7098   0.8336   0.8336   1.2569   1.2569   1.3208   1.3513
     1.4514   1.4514   1.6481   1.6775   1.6775   2.0569   2.0569   5.9682
     5.9708   5.9708   6.6873   7.8377   7.9561   7.9561   8.1105   8.5190

          k = 0.5774 0.1021-0.5000 ( 19654 PWs)   bands (ev):

   -42.2816 -42.2786 -42.2478 -42.2471 -42.2468 -42.2467 -42.2461 -42.2459
   -42.1632 -42.1629 -42.1627 -42.1627 -42.1624 -42.1620 -41.5175  -8.8088
    -8.6893  -8.5995  -8.5660  -8.4788  -8.4036  -8.3371  -8.3305  -0.4186
    -0.3359  -0.3119  -0.1459  -0.0328   0.0470   0.1879   0.3411   0.4873
     0.5523   0.7173   0.7243   0.7963   0.8385   0.9454   1.0812   1.0874
     1.2336   1.3053   1.3318   1.4775   1.6045   1.8176   1.8942   6.7013
     7.1223   7.1277   7.2446   7.5384   7.7728   7.8057   7.9950   8.6470

          k = 0.4330 0.0000-0.2500 ( 19681 PWs)   bands (ev):

   -42.2816 -42.2786 -42.2479 -42.2469 -42.2467 -42.2466 -42.2461 -42.2461
   -42.1631 -42.1630 -42.1627 -42.1627 -42.1625 -42.1618 -41.5175  -8.8484
    -8.6577  -8.6120  -8.5537  -8.4704  -8.3870  -8.3510  -8.3271  -0.5371
    -0.5136  -0.2533  -0.1690  -0.0907  -0.0092   0.0365   0.2433   0.6638
     0.6690   0.7610   0.8038   0.8246   0.8933   0.9788   1.1301   1.1430
     1.2338   1.3555   1.4746   1.5259   1.5714   1.7864   2.0340   6.6167
     6.6428   6.6671   7.1767   7.6297   7.8516   7.9007   7.9518   8.5752

          k = 0.2887 0.2041 0.0000 ( 19699 PWs)   bands (ev):

   -42.2817 -42.2786 -42.2480 -42.2468 -42.2466 -42.2466 -42.2463 -42.2460
   -42.1633 -42.1629 -42.1629 -42.1626 -42.1623 -42.1616 -41.5175  -8.9084
    -8.6043  -8.5738  -8.5738  -8.4952  -8.3838  -8.3278  -8.3278  -0.6087
    -0.6055  -0.6055  -0.4967  -0.0633   0.0131   0.2437   0.4696   0.4757
     0.4757   0.6191   0.8405   0.8405   1.1452   1.2023   1.2023   1.3201
     1.4687   1.5580   1.5981   1.5981   1.6631   1.9334   1.9334   5.9171
     6.2524   6.2524   6.8074   8.1751   8.1883   8.1885   8.3191   8.4472

          k = 0.5774 0.4082-0.5000 ( 19681 PWs)   bands (ev):

   -42.2816 -42.2786 -42.2479 -42.2469 -42.2467 -42.2466 -42.2461 -42.2461
   -42.1631 -42.1630 -42.1627 -42.1627 -42.1625 -42.1618 -41.5175  -8.8484
    -8.6577  -8.6120  -8.5537  -8.4704  -8.3870  -8.3510  -8.3271  -0.5371
    -0.5136  -0.2533  -0.1690  -0.0907  -0.0092   0.0365   0.2433   0.6638
     0.6690   0.7610   0.8038   0.8246   0.8933   0.9788   1.1301   1.1430
     1.2338   1.3554   1.4746   1.5259   1.5714   1.7864   2.0340   6.6167
     6.6428   6.6671   7.1767   7.6297   7.8516   7.9007   7.9518   8.5752

          k = 0.4330 0.3062-0.2500 ( 19654 PWs)   bands (ev):

   -42.2816 -42.2786 -42.2478 -42.2471 -42.2468 -42.2467 -42.2461 -42.2459
   -42.1632 -42.1629 -42.1627 -42.1627 -42.1624 -42.1620 -41.5175  -8.8088
    -8.6893  -8.5995  -8.5660  -8.4788  -8.4036  -8.3371  -8.3305  -0.4186
    -0.3359  -0.3119  -0.1459  -0.0328   0.0470   0.1879   0.3411   0.4873
     0.5523   0.7173   0.7243   0.7963   0.8385   0.9454   1.0812   1.0874
     1.2336   1.3053   1.3318   1.4775   1.6045   1.8176   1.8942   6.7013
     7.1223   7.1277   7.2446   7.5384   7.7728   7.8057   7.9950   8.6947

          k = 0.2887-0.7144-0.0000 ( 19654 PWs)   bands (ev):

   -42.2816 -42.2786 -42.2478 -42.2471 -42.2468 -42.2467 -42.2461 -42.2459
   -42.1632 -42.1629 -42.1627 -42.1627 -42.1624 -42.1620 -41.5175  -8.8088
    -8.6893  -8.5995  -8.5660  -8.4788  -8.4036  -8.3371  -8.3305  -0.4186
    -0.3359  -0.3119  -0.1459  -0.0328   0.0470   0.1879   0.3411   0.4873
     0.5523   0.7173   0.7243   0.7963   0.8385   0.9454   1.0812   1.0874
     1.2336   1.3053   1.3318   1.4775   1.6045   1.8176   1.8942   6.7013
     7.1223   7.1277   7.2446   7.5384   7.7728   7.8057   7.9950   8.6470

          k = 0.4330-0.6124-0.2500 ( 19688 PWs)   bands (ev):

   -42.2816 -42.2786 -42.2476 -42.2472 -42.2471 -42.2466 -42.2461 -42.2458
   -42.1632 -42.1630 -42.1627 -42.1624 -42.1624 -42.1621 -41.5175  -8.7285
    -8.7280  -8.6250  -8.5939  -8.4707  -8.4067  -8.3340  -8.3331  -0.2942
    -0.2244  -0.2083  -0.0862   0.1732   0.1956   0.2063   0.2211   0.3735
     0.4074   0.5311   0.5440   0.9248   0.9744   1.0100   1.0166   1.0224
     1.0745   1.1008   1.3461   1.5072   1.5542   1.7229   1.7932   7.3761
     7.3837   7.5002   7.5688   7.6930   7.7326   7.7639   7.7740   8.7878

          k = 0.2887-0.4082 0.0000 ( 19681 PWs)   bands (ev):

   -42.2816 -42.2786 -42.2479 -42.2469 -42.2467 -42.2466 -42.2461 -42.2461
   -42.1631 -42.1630 -42.1627 -42.1627 -42.1625 -42.1618 -41.5175  -8.8484
    -8.6577  -8.6120  -8.5537  -8.4704  -8.3870  -8.3510  -8.3271  -0.5371
    -0.5136  -0.2533  -0.1690  -0.0907  -0.0092   0.0365   0.2433   0.6638
     0.6690   0.7610   0.8038   0.8246   0.8933   0.9788   1.1301   1.1430
     1.2338   1.3555   1.4746   1.5259   1.5714   1.7864   2.0340   6.6167
     6.6428   6.6671   7.1767   7.6297   7.8516   7.9007   7.9518   8.5752

          k = 0.5774-0.2041-0.5000 ( 19688 PWs)   bands (ev):

   -42.2816 -42.2786 -42.2476 -42.2472 -42.2471 -42.2466 -42.2461 -42.2458
   -42.1632 -42.1630 -42.1627 -42.1624 -42.1624 -42.1621 -41.5175  -8.7285
    -8.7280  -8.6250  -8.5939  -8.4707  -8.4067  -8.3340  -8.3331  -0.2942
    -0.2244  -0.2083  -0.0862   0.1732   0.1956   0.2063   0.2211   0.3735
     0.4074   0.5311   0.5440   0.9248   0.9744   1.0100   1.0166   1.0224
     1.0745   1.1008   1.3461   1.5072   1.5542   1.7229   1.7932   7.3761
     7.3837   7.5002   7.5688   7.6930   7.7326   7.7639   7.7740   8.7890

          k = 0.4330-0.3062-0.2500 ( 19654 PWs)   bands (ev):

   -42.2816 -42.2786 -42.2478 -42.2471 -42.2468 -42.2467 -42.2461 -42.2459
   -42.1632 -42.1629 -42.1627 -42.1627 -42.1624 -42.1620 -41.5175  -8.8088
    -8.6893  -8.5995  -8.5660  -8.4788  -8.4036  -8.3371  -8.3305  -0.4186
    -0.3359  -0.3119  -0.1459  -0.0328   0.0470   0.1879   0.3411   0.4873
     0.5523   0.7173   0.7243   0.7963   0.8385   0.9454   1.0812   1.0874
     1.2336   1.3053   1.3318   1.4775   1.6045   1.8176   1.8942   6.7013
     7.1223   7.1277   7.2446   7.5384   7.7728   7.8057   7.9950   8.6472

          k =-0.5774 0.2041-0.0000 ( 19650 PWs)   bands (ev):

   -42.2816 -42.2786 -42.2479 -42.2467 -42.2465 -42.2465 -42.2464 -42.2464
   -42.1628 -42.1628 -42.1627 -42.1627 -42.1627 -42.1619 -41.5175  -8.8257
    -8.7308  -8.5536  -8.5536  -8.4731  -8.3684  -8.3511  -8.3511  -0.4097
    -0.4097  -0.4044  -0.2814  -0.2814  -0.0369   0.3366   0.3722   0.6585
     0.6585   0.7548   0.7648   0.7648   0.9884   1.0223   1.0268   1.0268
     1.1602   1.2442   1.2442   1.7398   1.7398   1.9595   1.9595   6.8819
     6.8819   6.9024   7.0570   7.1512   7.1512   7.2378   7.6799   8.8031

          k =-0.5774 0.5103-0.0000 ( 19654 PWs)   bands (ev):

   -42.2816 -42.2786 -42.2478 -42.2471 -42.2468 -42.2467 -42.2461 -42.2459
   -42.1632 -42.1629 -42.1627 -42.1627 -42.1624 -42.1620 -41.5175  -8.8088
    -8.6893  -8.5995  -8.5660  -8.4788  -8.4036  -8.3371  -8.3305  -0.4186
    -0.3359  -0.3119  -0.1459  -0.0328   0.0470   0.1879   0.3411   0.4873
     0.5523   0.7173   0.7243   0.7963   0.8385   0.9454   1.0812   1.0874
     1.2336   1.3053   1.3318   1.4775   1.6045   1.8176   1.8942   6.7013
     7.1223   7.1277   7.2446   7.5384   7.7728   7.8057   7.9950   8.6470

          k =-0.5774-0.4082-0.0000 ( 19734 PWs)   bands (ev):

   -42.2816 -42.2786 -42.2474 -42.2474 -42.2469 -42.2469 -42.2460 -42.2457
   -42.1633 -42.1629 -42.1627 -42.1627 -42.1621 -42.1621 -41.5175  -8.7427
    -8.7349  -8.5771  -8.5771  -8.5134  -8.4259  -8.3244  -8.3244  -0.2485
    -0.2485  -0.2347  -0.1412   0.1620   0.2106   0.3137   0.3137   0.3529
     0.4259   0.5966   0.6136   0.7075   0.7075   0.7716   1.0103   1.1982
     1.1982   1.3295   1.3295   1.4355   1.5585   1.7707   1.7707   6.8281
     6.8882   7.5359   7.5360   8.0797   8.0797   8.1568   8.2269   8.6474

     the Fermi energy is     2.9277 ev

!    total energy              =    -411.86279111 Ry
     estimated scf accuracy    <          3.9E-12 Ry
     smearing contrib. (-TS)   =      -0.00000000 Ry
     internal energy E=F+TS    =    -411.86279111 Ry

     The total energy is F=E-TS. E is the sum of the following terms:
     one-electron contribution =    -138.70765054 Ry
     hartree contribution      =      77.76870971 Ry
     xc contribution           =    -120.43599605 Ry
     ewald contribution        =    -230.48785423 Ry

     convergence has been achieved in   9 iterations

     Forces acting on atoms (cartesian axes, Ry/au):

     atom    1 type  1   force =    -0.00209719   -0.00148281   -0.00000000
     atom    2 type  1   force =     0.00199541    0.00141101    0.00000000
     atom    3 type  2   force =    -0.00028850   -0.00020398    0.00049948
     atom    4 type  1   force =     0.00000012   -0.00000006    0.00000000
     atom    5 type  1   force =     0.00000006   -0.00000025   -0.00000000
     atom    6 type  2   force =    -0.00028850   -0.00020398   -0.00049948
     atom    7 type  1   force =    -0.00104847    0.00148274    0.00181620
     atom    8 type  1   force =     0.00099774   -0.00141097   -0.00172796
     atom    9 type  2   force =    -0.00357884    0.00126530   -0.00000000
     atom   10 type  1   force =    -0.00104847    0.00148274   -0.00181620
     atom   11 type  1   force =     0.00099774   -0.00141097    0.00172796
     atom   12 type  2   force =    -0.00000009    0.00061227    0.00000000
     atom   13 type  1   force =     0.00104851   -0.00148304    0.00181614
     atom   14 type  1   force =    -0.00099761    0.00141087   -0.00172817
     atom   15 type  2   force =    -0.00000005   -0.00379551   -0.00000000
     atom   16 type  1   force =     0.00104851   -0.00148304   -0.00181614
     atom   17 type  1   force =    -0.00099761    0.00141087    0.00172817
     atom   18 type  2   force =     0.00057697   -0.00020401    0.00000000
     atom   19 type  1   force =     0.00000001    0.00000007    0.00000000
     atom   20 type  2   force =     0.00178938    0.00126540    0.00309926
     atom   21 type  1   force =     0.00209693    0.00148292    0.00000000
     atom   22 type  1   force =    -0.00199542   -0.00141097   -0.00000000
     atom   23 type  2   force =     0.00178939    0.00126540   -0.00309926

     Total force =     0.011599     Total SCF correction =     0.000004
     Energy error            =      1.6E-04 Ry
     Gradient error          =      3.8E-03 Ry/Bohr

     number of scf cycles    =   8
     number of bfgs steps    =   7

     energy             old  =    -411.8626312250 Ry
     energy             new  =    -411.8627911119 Ry

     CASE: energy            _new < energy            _old


     WARNING: bfgs curvature condition failed, Theta= 0.938
     new trust radius        =       0.0092726626 bohr
     new conv_thr            =       0.0000000002 Ry


ATOMIC_POSITIONS (angstrom)
Li               1.2166586184        0.8603063300        2.0170831005
Li               3.6058638636        2.5497302055        6.0512493014
S               -0.0010520840       -0.0007439204        0.0018232793
Li               1.1645620246        0.8234700057        6.0512488014
Li               3.4936891953        2.4704130898       10.0854150022
S               -0.0010520874       -0.0007439220        4.0323424217
Li               2.3551724266        4.0805175231        3.9890514168
Li               4.7143394517        5.6849744299        7.9711867174
S                1.2381978806        3.2678480017        2.0170833501
Li               2.3551724097        4.0805175120        8.1134471850
Li               4.7143394199        5.6849744082       12.1996442860
S                1.1645633885        3.2961120477        6.0512490510
Li               4.6322055617        0.8603081306        3.9890515521
Li               6.9312913291        2.5497310856        7.9711871919
S                3.4936904547        0.0781010275        2.0170833500
Li               4.6322055448        0.8603081194        8.1134470497
Li               6.9312912974        2.5497310639       12.1996438115
S                3.4957934876       -0.0007435700        6.0512490510
Li               8.1519414096        5.7642932040       10.0854160012
S                4.6214349200        3.2678485204        3.9703968782
Li               5.7707233064        4.0805161628       10.0854155013
Li               8.0397680525        5.6849750645       14.1195817020
S                4.6214348978        3.2678485055        8.1321022227



     Writing config-only to output data dir ./tmp/li2s_ep_initial.save/ :
     XML data file
     NEW-OLD atomic charge density approx. for the potential

     total cpu time spent up to now is     2521.3 secs

     Self-consistent Calculation

     iteration #  1     ecut=    60.00 Ry     beta= 0.30
     Davidson diagonalization with overlap
     ethr =  1.00E-06,  avg # of iterations =  4.0

     Threshold (ethr) on eigenvalues was too large:
     Diagonalizing with lowered threshold

     Davidson diagonalization with overlap
     ethr =  3.06E-08,  avg # of iterations =  4.9

     total cpu time spent up to now is     2583.4 secs

     total energy              =    -411.86300193 Ry
     estimated scf accuracy    <       0.00008819 Ry

     iteration #  2     ecut=    60.00 Ry     beta= 0.30
     Davidson diagonalization with overlap
     ethr =  9.38E-08,  avg # of iterations =  2.0

     total cpu time spent up to now is     2605.6 secs

     total energy              =    -411.86301439 Ry
     estimated scf accuracy    <       0.00000243 Ry

     iteration #  3     ecut=    60.00 Ry     beta= 0.30
     Davidson diagonalization with overlap
     ethr =  2.59E-09,  avg # of iterations =  4.0

     total cpu time spent up to now is     2635.6 secs

     total energy              =    -411.86301623 Ry
     estimated scf accuracy    <       0.00000117 Ry

     iteration #  4     ecut=    60.00 Ry     beta= 0.30
     Davidson diagonalization with overlap
     ethr =  1.24E-09,  avg # of iterations =  2.0

     total cpu time spent up to now is     2657.2 secs

     total energy              =    -411.86301629 Ry
     estimated scf accuracy    <       0.00000029 Ry

     iteration #  5     ecut=    60.00 Ry     beta= 0.30
     Davidson diagonalization with overlap
     ethr =  3.08E-10,  avg # of iterations =  3.9

     total cpu time spent up to now is     2684.7 secs

     total energy              =    -411.86301637 Ry
     estimated scf accuracy    <       0.00000001 Ry

     iteration #  6     ecut=    60.00 Ry     beta= 0.30
     Davidson diagonalization with overlap
     ethr =  1.52E-11,  avg # of iterations =  5.3

     total cpu time spent up to now is     2720.5 secs

     total energy              =    -411.86301636 Ry
     estimated scf accuracy    <       0.00000005 Ry

     iteration #  7     ecut=    60.00 Ry     beta= 0.30
     Davidson diagonalization with overlap
     ethr =  1.52E-11,  avg # of iterations =  3.3

     total cpu time spent up to now is     2746.5 secs

     total energy              =    -411.86301637 Ry
     estimated scf accuracy    <          1.1E-09 Ry

     iteration #  8     ecut=    60.00 Ry     beta= 0.30
     Davidson diagonalization with overlap
     ethr =  1.12E-12,  avg # of iterations =  4.8

     total cpu time spent up to now is     2778.0 secs

     total energy              =    -411.86301638 Ry
     estimated scf accuracy    <          3.1E-10 Ry

     iteration #  9     ecut=    60.00 Ry     beta= 0.30
     Davidson diagonalization with overlap
     ethr =  3.25E-13,  avg # of iterations =  4.8

     total cpu time spent up to now is     2810.8 secs

     End of self-consistent calculation

          k = 0.0000 0.0000 0.0000 ( 19603 PWs)   bands (ev):

   -42.2739 -42.2728 -42.2461 -42.2445 -42.2445 -42.2442 -42.2442 -42.2442
   -42.1642 -42.1642 -42.1642 -42.1633 -42.1633 -42.1622 -41.5328  -8.9764
    -8.5653  -8.5653  -8.5653  -8.4868  -8.3353  -8.3353  -8.3353  -0.8298
    -0.8298  -0.8298  -0.7343  -0.1571  -0.1571   0.0787   0.5989   0.5989
     0.5989   0.7600   0.7600   0.7600   1.5154   1.5154   1.5154   1.5460
     1.5460   1.6878   1.6878   1.6878   2.1229   2.1229   2.1229   5.4920
     5.4920   5.4920   6.2531   7.9701   7.9701   7.9701   8.2111   8.4193

          k =-0.1443-0.1021 0.2500 ( 19666 PWs)   bands (ev):

   -42.2738 -42.2728 -42.2460 -42.2444 -42.2444 -42.2444 -42.2442 -42.2442
   -42.1641 -42.1641 -42.1640 -42.1634 -42.1634 -42.1625 -41.5328  -8.9228
    -8.6194  -8.5568  -8.5568  -8.4847  -8.3529  -8.3454  -8.3454  -0.6973
    -0.6973  -0.6455  -0.4722  -0.0974  -0.0974   0.1404   0.4834   0.4834
     0.6121   0.7099   0.8357   0.8357   1.2573   1.2573   1.3257   1.3519
     1.4523   1.4523   1.6414   1.6793   1.6793   2.0530   2.0530   5.9684
     5.9710   5.9710   6.6878   7.8378   7.9570   7.9570   8.1095   8.5216

          k = 0.2887 0.2041-0.5000 ( 19650 PWs)   bands (ev):

   -42.2738 -42.2728 -42.2458 -42.2445 -42.2444 -42.2444 -42.2442 -42.2442
   -42.1638 -42.1638 -42.1637 -42.1637 -42.1636 -42.1628 -41.5328  -8.8208
    -8.7288  -8.5474  -8.5474  -8.4732  -8.3727  -8.3564  -8.3564  -0.4071
    -0.4071  -0.3983  -0.2815  -0.2815  -0.0412   0.3374   0.3768   0.6639
     0.6639   0.7567   0.7614   0.7614   0.9835   1.0279   1.0290   1.0290
     1.1523   1.2445   1.2445   1.7430   1.7430   1.9539   1.9539   6.8827
     6.8827   6.9022   7.0593   7.1512   7.1512   7.2382   7.6772   8.8078

          k =-0.0000 0.3062 0.0000 ( 19666 PWs)   bands (ev):

   -42.2738 -42.2728 -42.2460 -42.2444 -42.2444 -42.2444 -42.2442 -42.2442
   -42.1641 -42.1641 -42.1640 -42.1634 -42.1634 -42.1625 -41.5328  -8.9228
    -8.6194  -8.5568  -8.5568  -8.4847  -8.3529  -8.3454  -8.3454  -0.6973
    -0.6973  -0.6455  -0.4722  -0.0974  -0.0974   0.1404   0.4834   0.4834
     0.6121   0.7099   0.8357   0.8357   1.2573   1.2573   1.3257   1.3519
     1.4523   1.4523   1.6414   1.6793   1.6793   2.0530   2.0530   5.9684
     5.9710   5.9710   6.6878   7.8378   7.9570   7.9570   8.1095   8.5216

          k =-0.1443 0.2041 0.2500 ( 19699 PWs)   bands (ev):

   -42.2738 -42.2728 -42.2459 -42.2447 -42.2445 -42.2445 -42.2442 -42.2439
   -42.1642 -42.1639 -42.1639 -42.1636 -42.1633 -42.1625 -41.5328  -8.9050
    -8.5983  -8.5686  -8.5686  -8.4970  -8.3889  -8.3320  -8.3320  -0.6066
    -0.6040  -0.6040  -0.4930  -0.0623   0.0139   0.2398   0.4700   0.4769
     0.4769   0.6211   0.8418   0.8418   1.1464   1.2030   1.2030   1.3223
     1.4698   1.5581   1.6019   1.6019   1.6581   1.9278   1.9278   5.9175
     6.2525   6.2525   6.8079   8.1777   8.1884   8.1885   8.3204   8.4496

          k = 0.2887 0.5103-0.5000 ( 19654 PWs)   bands (ev):

   -42.2737 -42.2729 -42.2457 -42.2450 -42.2447 -42.2446 -42.2440 -42.2438
   -42.1641 -42.1639 -42.1636 -42.1636 -42.1633 -42.1629 -41.5328  -8.8043
    -8.6850  -8.5959  -8.5605  -8.4790  -8.4079  -8.3417  -8.3351  -0.4164
    -0.3340  -0.3071  -0.1453  -0.0334   0.0498   0.1883   0.3423   0.4870
     0.5527   0.7188   0.7271   0.7976   0.8366   0.9448   1.0836   1.0879
     1.2349   1.3031   1.3324   1.4780   1.6061   1.8126   1.8892   6.7019
     7.1221   7.1279   7.2459   7.5387   7.7736   7.8061   7.9946   8.6500

          k = 0.1443 0.4082-0.2500 ( 19681 PWs)   bands (ev):

   -42.2738 -42.2728 -42.2458 -42.2448 -42.2446 -42.2445 -42.2440 -42.2440
   -42.1641 -42.1639 -42.1636 -42.1636 -42.1635 -42.1627 -41.5328  -8.8444
    -8.6528  -8.6092  -8.5475  -8.4699  -8.3913  -8.3562  -8.3316  -0.5354
    -0.5106  -0.2503  -0.1657  -0.0898  -0.0082   0.0369   0.2392   0.6651
     0.6700   0.7650   0.8079   0.8222   0.8943   0.9795   1.1286   1.1440
     1.2347   1.3564   1.4770   1.5232   1.5718   1.7804   2.0306   6.6171
     6.6431   6.6674   7.1776   7.6302   7.8511   7.9012   7.9522   8.5768

          k = 0.0000-0.6124-0.0000 ( 19650 PWs)   bands (ev):

   -42.2738 -42.2728 -42.2458 -42.2445 -42.2444 -42.2444 -42.2442 -42.2442
   -42.1638 -42.1638 -42.1637 -42.1637 -42.1636 -42.1628 -41.5328  -8.8208
    -8.7288  -8.5474  -8.5474  -8.4732  -8.3727  -8.3564  -8.3564  -0.4071
    -0.4071  -0.3983  -0.2815  -0.2815  -0.0412   0.3374   0.3768   0.6639
     0.6639   0.7567   0.7614   0.7614   0.9835   1.0279   1.0290   1.0290
     1.1523   1.2445   1.2445   1.7430   1.7430   1.9539   1.9539   6.8827
     6.8827   6.9022   7.0593   7.1512   7.1512   7.2382   7.6772   8.8078

          k =-0.1443-0.7144 0.2500 ( 19654 PWs)   bands (ev):

   -42.2737 -42.2729 -42.2457 -42.2450 -42.2447 -42.2446 -42.2440 -42.2438
   -42.1641 -42.1639 -42.1636 -42.1636 -42.1633 -42.1629 -41.5328  -8.8043
    -8.6850  -8.5959  -8.5605  -8.4790  -8.4079  -8.3417  -8.3351  -0.4164
    -0.3340  -0.3071  -0.1453  -0.0334   0.0498   0.1883   0.3423   0.4870
     0.5527   0.7188   0.7271   0.7976   0.8366   0.9448   1.0836   1.0879
     1.2349   1.3031   1.3324   1.4780   1.6061   1.8126   1.8892   6.7019
     7.1221   7.1279   7.2459   7.5387   7.7736   7.8061   7.9946   8.6947

          k = 0.2887-0.4082-0.5000 ( 19734 PWs)   bands (ev):

   -42.2737 -42.2729 -42.2454 -42.2453 -42.2448 -42.2448 -42.2439 -42.2436
   -42.1643 -42.1639 -42.1636 -42.1636 -42.1630 -42.1630 -41.5328  -8.7383
    -8.7294  -8.5721  -8.5721  -8.5160  -8.4308  -8.3285  -8.3285  -0.2472
    -0.2472  -0.2309  -0.1365   0.1628   0.2115   0.3167   0.3167   0.3519
     0.4229   0.6009   0.6198   0.7061   0.7061   0.7681   1.0015   1.1991
     1.1991   1.3351   1.3351   1.4367   1.5582   1.7640   1.7640   6.8281
     6.8897   7.5352   7.5352   8.0802   8.0802   8.1585   8.2288   8.6543

          k = 0.2887-0.1021 0.0000 ( 19666 PWs)   bands (ev):

   -42.2738 -42.2728 -42.2460 -42.2444 -42.2444 -42.2444 -42.2442 -42.2442
   -42.1641 -42.1641 -42.1640 -42.1634 -42.1634 -42.1625 -41.5328  -8.9228
    -8.6194  -8.5568  -8.5568  -8.4847  -8.3529  -8.3454  -8.3454  -0.6973
    -0.6973  -0.6455  -0.4722  -0.0974  -0.0974   0.1404   0.4834   0.4834
     0.6121   0.7099   0.8357   0.8357   1.2573   1.2573   1.3257   1.3519
     1.4523   1.4523   1.6414   1.6793   1.6793   2.0530   2.0530   5.9684
     5.9710   5.9710   6.6878   7.8378   7.9570   7.9570   8.1095   8.5216

          k = 0.5774 0.1021-0.5000 ( 19654 PWs)   bands (ev):

   -42.2737 -42.2729 -42.2457 -42.2450 -42.2447 -42.2446 -42.2440 -42.2438
   -42.1641 -42.1639 -42.1636 -42.1636 -42.1633 -42.1629 -41.5328  -8.8043
    -8.6850  -8.5959  -8.5605  -8.4790  -8.4079  -8.3417  -8.3351  -0.4164
    -0.3340  -0.3071  -0.1453  -0.0334   0.0498   0.1883   0.3423   0.4870
     0.5527   0.7188   0.7271   0.7976   0.8366   0.9448   1.0836   1.0879
     1.2349   1.3031   1.3324   1.4780   1.6061   1.8126   1.8892   6.7019
     7.1221   7.1279   7.2459   7.5387   7.7736   7.8061   7.9946   8.6500

          k = 0.4330 0.0000-0.2500 ( 19681 PWs)   bands (ev):

   -42.2738 -42.2728 -42.2458 -42.2448 -42.2446 -42.2445 -42.2440 -42.2440
   -42.1641 -42.1639 -42.1636 -42.1636 -42.1635 -42.1627 -41.5328  -8.8444
    -8.6528  -8.6092  -8.5475  -8.4699  -8.3913  -8.3562  -8.3316  -0.5354
    -0.5106  -0.2503  -0.1657  -0.0898  -0.0082   0.0369   0.2392   0.6651
     0.6700   0.7650   0.8079   0.8222   0.8943   0.9795   1.1286   1.1440
     1.2347   1.3564   1.4770   1.5232   1.5718   1.7804   2.0306   6.6171
     6.6431   6.6674   7.1776   7.6302   7.8511   7.9012   7.9522   8.5767

          k = 0.2887 0.2041 0.0000 ( 19699 PWs)   bands (ev):

   -42.2738 -42.2728 -42.2459 -42.2447 -42.2445 -42.2445 -42.2442 -42.2439
   -42.1642 -42.1639 -42.1639 -42.1636 -42.1633 -42.1625 -41.5328  -8.9050
    -8.5983  -8.5686  -8.5686  -8.4970  -8.3889  -8.3320  -8.3320  -0.6066
    -0.6040  -0.6040  -0.4930  -0.0623   0.0139   0.2398   0.4700   0.4769
     0.4769   0.6211   0.8418   0.8418   1.1464   1.2030   1.2030   1.3223
     1.4698   1.5581   1.6019   1.6019   1.6581   1.9278   1.9278   5.9175
     6.2525   6.2525   6.8079   8.1777   8.1884   8.1885   8.3204   8.4484

          k = 0.5774 0.4082-0.5000 ( 19681 PWs)   bands (ev):

   -42.2738 -42.2728 -42.2458 -42.2448 -42.2446 -42.2445 -42.2440 -42.2440
   -42.1641 -42.1639 -42.1636 -42.1636 -42.1635 -42.1627 -41.5328  -8.8444
    -8.6528  -8.6092  -8.5475  -8.4699  -8.3913  -8.3562  -8.3316  -0.5354
    -0.5106  -0.2503  -0.1657  -0.0898  -0.0082   0.0369   0.2392   0.6651
     0.6700   0.7650   0.8079   0.8222   0.8943   0.9795   1.1286   1.1440
     1.2347   1.3564   1.4770   1.5232   1.5718   1.7804   2.0306   6.6171
     6.6431   6.6674   7.1776   7.6302   7.8511   7.9012   7.9522   8.5767

          k = 0.4330 0.3062-0.2500 ( 19654 PWs)   bands (ev):

   -42.2737 -42.2729 -42.2457 -42.2450 -42.2447 -42.2446 -42.2440 -42.2438
   -42.1641 -42.1639 -42.1636 -42.1636 -42.1633 -42.1629 -41.5328  -8.8043
    -8.6850  -8.5959  -8.5605  -8.4790  -8.4079  -8.3417  -8.3351  -0.4164
    -0.3340  -0.3071  -0.1453  -0.0334   0.0498   0.1883   0.3423   0.4870
     0.5527   0.7188   0.7271   0.7976   0.8366   0.9448   1.0836   1.0879
     1.2349   1.3031   1.3324   1.4780   1.6061   1.8126   1.8892   6.7019
     7.1221   7.1279   7.2459   7.5387   7.7736   7.8061   7.9946   8.6946

          k = 0.2887-0.7144-0.0000 ( 19654 PWs)   bands (ev):

   -42.2737 -42.2729 -42.2457 -42.2450 -42.2447 -42.2446 -42.2440 -42.2438
   -42.1641 -42.1639 -42.1636 -42.1636 -42.1633 -42.1629 -41.5328  -8.8043
    -8.6850  -8.5959  -8.5605  -8.4790  -8.4079  -8.3417  -8.3351  -0.4164
    -0.3340  -0.3071  -0.1453  -0.0334   0.0498   0.1883   0.3423   0.4870
     0.5527   0.7188   0.7271   0.7976   0.8366   0.9448   1.0836   1.0879
     1.2349   1.3031   1.3324   1.4780   1.6061   1.8126   1.8892   6.7019
     7.1221   7.1279   7.2459   7.5387   7.7736   7.8061   7.9946   8.6500

          k = 0.4330-0.6124-0.2500 ( 19688 PWs)   bands (ev):

   -42.2737 -42.2729 -42.2455 -42.2451 -42.2450 -42.2445 -42.2440 -42.2437
   -42.1641 -42.1640 -42.1637 -42.1633 -42.1633 -42.1630 -41.5328  -8.7227
    -8.7227  -8.6237  -8.5905  -8.4696  -8.4097  -8.3388  -8.3379  -0.2904
    -0.2213  -0.2067  -0.0863   0.1767   0.1961   0.2108   0.2241   0.3758
     0.4058   0.5274   0.5402   0.9239   0.9796   1.0133   1.0165   1.0263
     1.0765   1.0943   1.3448   1.5111   1.5550   1.7171   1.7865   7.3761
     7.3838   7.5015   7.5719   7.6892   7.7352   7.7667   7.7712   8.7868

          k = 0.2887-0.4082 0.0000 ( 19681 PWs)   bands (ev):

   -42.2738 -42.2728 -42.2458 -42.2448 -42.2446 -42.2445 -42.2440 -42.2440
   -42.1641 -42.1639 -42.1636 -42.1636 -42.1635 -42.1627 -41.5328  -8.8444
    -8.6528  -8.6092  -8.5475  -8.4699  -8.3913  -8.3562  -8.3316  -0.5354
    -0.5106  -0.2503  -0.1657  -0.0898  -0.0082   0.0369   0.2392   0.6651
     0.6700   0.7650   0.8079   0.8222   0.8943   0.9795   1.1286   1.1440
     1.2347   1.3564   1.4770   1.5232   1.5718   1.7804   2.0306   6.6171
     6.6431   6.6674   7.1776   7.6302   7.8511   7.9012   7.9522   8.5768

          k = 0.5774-0.2041-0.5000 ( 19688 PWs)   bands (ev):

   -42.2737 -42.2729 -42.2455 -42.2451 -42.2450 -42.2445 -42.2440 -42.2437
   -42.1641 -42.1640 -42.1637 -42.1633 -42.1633 -42.1630 -41.5328  -8.7227
    -8.7227  -8.6237  -8.5905  -8.4696  -8.4097  -8.3388  -8.3379  -0.2904
    -0.2213  -0.2067  -0.0863   0.1767   0.1961   0.2108   0.2241   0.3758
     0.4058   0.5274   0.5402   0.9239   0.9796   1.0133   1.0165   1.0263
     1.0765   1.0943   1.3448   1.5111   1.5550   1.7171   1.7865   7.3761
     7.3838   7.5015   7.5719   7.6892   7.7352   7.7667   7.7712   8.7880

          k = 0.4330-0.3062-0.2500 ( 19654 PWs)   bands (ev):

   -42.2737 -42.2729 -42.2457 -42.2450 -42.2447 -42.2446 -42.2440 -42.2438
   -42.1641 -42.1639 -42.1636 -42.1636 -42.1633 -42.1629 -41.5328  -8.8043
    -8.6850  -8.5959  -8.5605  -8.4790  -8.4079  -8.3417  -8.3351  -0.4164
    -0.3340  -0.3071  -0.1453  -0.0334   0.0498   0.1883   0.3423   0.4870
     0.5527   0.7188   0.7271   0.7976   0.8366   0.9448   1.0836   1.0879
     1.2349   1.3031   1.3324   1.4780   1.6061   1.8126   1.8892   6.7019
     7.1221   7.1279   7.2459   7.5387   7.7736   7.8061   7.9946   8.6502

          k =-0.5774 0.2041-0.0000 ( 19650 PWs)   bands (ev):

   -42.2738 -42.2728 -42.2458 -42.2445 -42.2444 -42.2444 -42.2442 -42.2442
   -42.1638 -42.1638 -42.1637 -42.1637 -42.1636 -42.1628 -41.5328  -8.8208
    -8.7288  -8.5474  -8.5474  -8.4732  -8.3727  -8.3564  -8.3564  -0.4071
    -0.4071  -0.3983  -0.2815  -0.2815  -0.0412   0.3374   0.3768   0.6639
     0.6639   0.7567   0.7614   0.7614   0.9835   1.0279   1.0290   1.0290
     1.1523   1.2445   1.2445   1.7430   1.7430   1.9539   1.9539   6.8827
     6.8827   6.9022   7.0593   7.1512   7.1512   7.2382   7.6772   8.8078

          k =-0.5774 0.5103-0.0000 ( 19654 PWs)   bands (ev):

   -42.2737 -42.2729 -42.2457 -42.2450 -42.2447 -42.2446 -42.2440 -42.2438
   -42.1641 -42.1639 -42.1636 -42.1636 -42.1633 -42.1629 -41.5328  -8.8043
    -8.6850  -8.5959  -8.5605  -8.4790  -8.4079  -8.3417  -8.3351  -0.4164
    -0.3340  -0.3071  -0.1453  -0.0334   0.0498   0.1883   0.3423   0.4870
     0.5527   0.7188   0.7271   0.7976   0.8366   0.9448   1.0836   1.0879
     1.2349   1.3031   1.3324   1.4780   1.6061   1.8126   1.8892   6.7019
     7.1221   7.1279   7.2459   7.5387   7.7736   7.8061   7.9945   8.6500

          k =-0.5774-0.4082-0.0000 ( 19734 PWs)   bands (ev):

   -42.2737 -42.2729 -42.2454 -42.2453 -42.2448 -42.2448 -42.2439 -42.2436
   -42.1643 -42.1639 -42.1636 -42.1636 -42.1630 -42.1630 -41.5328  -8.7383
    -8.7294  -8.5721  -8.5721  -8.5160  -8.4308  -8.3285  -8.3285  -0.2472
    -0.2472  -0.2309  -0.1365   0.1628   0.2115   0.3167   0.3167   0.3519
     0.4229   0.6009   0.6198   0.7061   0.7061   0.7681   1.0015   1.1991
     1.1991   1.3351   1.3351   1.4367   1.5582   1.7640   1.7640   6.8281
     6.8897   7.5352   7.5352   8.0802   8.0802   8.1585   8.2288   8.6543

     the Fermi energy is     2.9328 ev

!    total energy              =    -411.86301638 Ry
     estimated scf accuracy    <          6.9E-11 Ry
     smearing contrib. (-TS)   =      -0.00000000 Ry
     internal energy E=F+TS    =    -411.86301638 Ry

     The total energy is F=E-TS. E is the sum of the following terms:
     one-electron contribution =    -138.60706302 Ry
     hartree contribution      =      77.71943070 Ry
     xc contribution           =    -120.43521900 Ry
     ewald contribution        =    -230.54016506 Ry

     convergence has been achieved in   9 iterations

     Forces acting on atoms (cartesian axes, Ry/au):

     atom    1 type  1   force =    -0.00205901   -0.00145577   -0.00000000
     atom    2 type  1   force =     0.00158810    0.00112309    0.00000000
     atom    3 type  2   force =    -0.00022749   -0.00016085    0.00039384
     atom    4 type  1   force =     0.00000009   -0.00000002    0.00000000
     atom    5 type  1   force =     0.00000001   -0.00000018   -0.00000000
     atom    6 type  2   force =    -0.00022749   -0.00016085   -0.00039384
     atom    7 type  1   force =    -0.00102937    0.00145570    0.00178308
     atom    8 type  1   force =     0.00079417   -0.00112304   -0.00137533
     atom    9 type  2   force =    -0.00283927    0.00100381   -0.00000000
     atom   10 type  1   force =    -0.00102937    0.00145570   -0.00178308
     atom   11 type  1   force =     0.00079417   -0.00112304    0.00137533
     atom   12 type  2   force =    -0.00000006    0.00048270    0.00000000
     atom   13 type  1   force =     0.00102940   -0.00145602    0.00178311
     atom   14 type  1   force =    -0.00079401    0.00112306   -0.00137548
     atom   15 type  2   force =    -0.00000009   -0.00301115   -0.00000000
     atom   16 type  1   force =     0.00102940   -0.00145602   -0.00178311
     atom   17 type  1   force =    -0.00079401    0.00112306    0.00137548
     atom   18 type  2   force =     0.00045505   -0.00016087    0.00000000
     atom   19 type  1   force =     0.00000003    0.00000008    0.00000000
     atom   20 type  2   force =     0.00141965    0.00100391    0.00245888
     atom   21 type  1   force =     0.00205865    0.00145582    0.00000000
     atom   22 type  1   force =    -0.00158818   -0.00112303   -0.00000000
     atom   23 type  2   force =     0.00141965    0.00100391   -0.00245888

     Total force =     0.009902     Total SCF correction =     0.000021
     Energy error            =      2.3E-04 Ry
     Gradient error          =      3.0E-03 Ry/Bohr

     number of scf cycles    =   9
     number of bfgs steps    =   8

     energy             old  =    -411.8627911119 Ry
     energy             new  =    -411.8630163755 Ry

     CASE: energy            _new < energy            _old

     new trust radius        =       0.0139089939 bohr
     new conv_thr            =       0.0000000002 Ry


ATOMIC_POSITIONS (angstrom)
Li               1.2138455198        0.8583175027        2.0170831005
Li               3.6118734162        2.5539798673        6.0512493014
S               -0.0015832912       -0.0011195043        0.0027429656
Li               1.1645621386        0.8234699101        6.0512488014
Li               3.4936891970        2.4704126967       10.0854150022
S               -0.0015832944       -0.0011195057        4.0314227354
Li               2.3537661335        4.0825062774        3.9914875114
Li               4.7173443405        5.6807249462        7.9659824640
S                1.2335187399        3.2695023243        2.0170833501
Li               2.3537661173        4.0825062667        8.1110110904
Li               4.7173443072        5.6807249235       12.2048485394
S                1.1645632594        3.2972390861        6.0512490510
Li               4.6336118697        0.8583188995        3.9914876637
Li               6.9282866637        2.5539804780        7.9659826449
S                3.4936904031        0.0731387029        2.0170833500
Li               4.6336118535        0.8583188888        8.1110109381
Li               6.9282866304        2.5539804553       12.2048483585
S                3.4968559331       -0.0011192217        6.0512490510
Li               8.1519414462        5.7642932898       10.0854160012
S                4.6237744963        3.2695030111        3.9744490975
Li               5.7735358961        4.0825051772       10.0854155013
Li               8.0337585180        5.6807255563       14.1195817020
S                4.6237744752        3.2695029970        8.1280500034



     Writing config-only to output data dir ./tmp/li2s_ep_initial.save/ :
     XML data file
     NEW-OLD atomic charge density approx. for the potential

     total cpu time spent up to now is     2816.9 secs

     Self-consistent Calculation

     iteration #  1     ecut=    60.00 Ry     beta= 0.30
     Davidson diagonalization with overlap
     ethr =  1.00E-06,  avg # of iterations =  6.0

     total cpu time spent up to now is     2853.9 secs

     total energy              =    -411.86329799 Ry
     estimated scf accuracy    <       0.00018665 Ry

     iteration #  2     ecut=    60.00 Ry     beta= 0.30
     Davidson diagonalization with overlap
     ethr =  1.99E-07,  avg # of iterations =  2.4

     total cpu time spent up to now is     2876.7 secs

     total energy              =    -411.86331117 Ry
     estimated scf accuracy    <       0.00002754 Ry

     iteration #  3     ecut=    60.00 Ry     beta= 0.30
     Davidson diagonalization with overlap
     ethr =  2.93E-08,  avg # of iterations =  4.0

     total cpu time spent up to now is     2906.7 secs

     total energy              =    -411.86332665 Ry
     estimated scf accuracy    <       0.00000991 Ry

     iteration #  4     ecut=    60.00 Ry     beta= 0.30
     Davidson diagonalization with overlap
     ethr =  1.05E-08,  avg # of iterations =  2.3

     total cpu time spent up to now is     2929.4 secs

     total energy              =    -411.86332771 Ry
     estimated scf accuracy    <       0.00000100 Ry

     iteration #  5     ecut=    60.00 Ry     beta= 0.30
     Davidson diagonalization with overlap
     ethr =  1.06E-09,  avg # of iterations =  5.0

     total cpu time spent up to now is     2962.8 secs

     total energy              =    -411.86332849 Ry
     estimated scf accuracy    <       0.00000065 Ry

     iteration #  6     ecut=    60.00 Ry     beta= 0.30
     Davidson diagonalization with overlap
     ethr =  6.94E-10,  avg # of iterations =  1.0

     total cpu time spent up to now is     2980.6 secs

     total energy              =    -411.86332836 Ry
     estimated scf accuracy    <       0.00000038 Ry

     iteration #  7     ecut=    60.00 Ry     beta= 0.30
     Davidson diagonalization with overlap
     ethr =  4.05E-10,  avg # of iterations =  2.2

     total cpu time spent up to now is     3003.0 secs

     total energy              =    -411.86332843 Ry
     estimated scf accuracy    <       0.00000002 Ry

     iteration #  8     ecut=    60.00 Ry     beta= 0.30
     Davidson diagonalization with overlap
     ethr =  1.64E-11,  avg # of iterations =  6.0

     total cpu time spent up to now is     3041.9 secs

     total energy              =    -411.86332845 Ry
     estimated scf accuracy    <          1.4E-09 Ry

     iteration #  9     ecut=    60.00 Ry     beta= 0.30
     Davidson diagonalization with overlap
     ethr =  1.47E-12,  avg # of iterations =  5.7

     total cpu time spent up to now is     3078.5 secs

     total energy              =    -411.86332845 Ry
     estimated scf accuracy    <          3.2E-09 Ry

     iteration # 10     ecut=    60.00 Ry     beta= 0.30
     Davidson diagonalization with overlap
     ethr =  1.47E-12,  avg # of iterations =  3.8

     total cpu time spent up to now is     3105.6 secs

     total energy              =    -411.86332845 Ry
     estimated scf accuracy    <          4.4E-10 Ry

     iteration # 11     ecut=    60.00 Ry     beta= 0.30
     Davidson diagonalization with overlap
     ethr =  4.68E-13,  avg # of iterations =  2.6

     total cpu time spent up to now is     3128.9 secs

     End of self-consistent calculation

          k = 0.0000 0.0000 0.0000 ( 19603 PWs)   bands (ev):

   -42.2694 -42.2620 -42.2418 -42.2400 -42.2400 -42.2397 -42.2397 -42.2397
   -42.1665 -42.1665 -42.1665 -42.1656 -42.1656 -42.1643 -41.5580  -8.9727
    -8.5594  -8.5594  -8.5594  -8.4877  -8.3396  -8.3396  -8.3396  -0.8278
    -0.8278  -0.8278  -0.7308  -0.1556  -0.1556   0.0742   0.5990   0.5990
     0.5990   0.7634   0.7634   0.7634   1.5160   1.5160   1.5160   1.5478
     1.5478   1.6906   1.6906   1.6906   2.1192   2.1192   2.1192   5.4917
     5.4917   5.4917   6.2532   7.9704   7.9704   7.9704   8.2062   8.4248

          k =-0.1443-0.1021 0.2500 ( 19666 PWs)   bands (ev):

   -42.2694 -42.2620 -42.2416 -42.2399 -42.2399 -42.2399 -42.2397 -42.2397
   -42.1664 -42.1664 -42.1662 -42.1657 -42.1657 -42.1645 -41.5580  -8.9189
    -8.6145  -8.5504  -8.5504  -8.4848  -8.3571  -8.3502  -8.3502  -0.6952
    -0.6952  -0.6419  -0.4692  -0.0960  -0.0960   0.1361   0.4846   0.4846
     0.6147   0.7098   0.8386   0.8386   1.2584   1.2584   1.3320   1.3527
     1.4537   1.4537   1.6334   1.6817   1.6817   2.0486   2.0486   5.9686
     5.9709   5.9709   6.6883   7.8379   7.9580   7.9580   8.1078   8.5248

          k = 0.2887 0.2041-0.5000 ( 19650 PWs)   bands (ev):

   -42.2693 -42.2619 -42.2414 -42.2402 -42.2399 -42.2399 -42.2397 -42.2397
   -42.1661 -42.1661 -42.1660 -42.1660 -42.1658 -42.1649 -41.5580  -8.8151
    -8.7264  -8.5404  -8.5404  -8.4722  -8.3774  -8.3619  -8.3619  -0.4033
    -0.4033  -0.3912  -0.2818  -0.2818  -0.0455   0.3385   0.3823   0.6700
     0.6700   0.7583   0.7583   0.7601   0.9775   1.0322   1.0322   1.0346
     1.1420   1.2453   1.2453   1.7472   1.7472   1.9474   1.9474   6.8833
     6.8833   6.9025   7.0620   7.1510   7.1510   7.2386   7.6732   8.8134

          k =-0.0000 0.3062 0.0000 ( 19666 PWs)   bands (ev):

   -42.2694 -42.2620 -42.2416 -42.2399 -42.2399 -42.2399 -42.2397 -42.2397
   -42.1664 -42.1664 -42.1662 -42.1657 -42.1657 -42.1645 -41.5580  -8.9189
    -8.6145  -8.5504  -8.5504  -8.4848  -8.3571  -8.3502  -8.3502  -0.6952
    -0.6952  -0.6419  -0.4692  -0.0960  -0.0960   0.1361   0.4846   0.4846
     0.6147   0.7098   0.8386   0.8386   1.2584   1.2584   1.3320   1.3527
     1.4537   1.4537   1.6334   1.6817   1.6817   2.0486   2.0486   5.9686
     5.9709   5.9709   6.6883   7.8379   7.9580   7.9580   8.1078   8.5248

          k =-0.1443 0.2041 0.2500 ( 19699 PWs)   bands (ev):

   -42.2694 -42.2620 -42.2415 -42.2403 -42.2400 -42.2400 -42.2397 -42.2394
   -42.1665 -42.1662 -42.1662 -42.1659 -42.1655 -42.1646 -41.5580  -8.9010
    -8.5915  -8.5629  -8.5629  -8.4979  -8.3945  -8.3362  -8.3362  -0.6036
    -0.6019  -0.6019  -0.4892  -0.0609   0.0150   0.2354   0.4705   0.4786
     0.4786   0.6242   0.8436   0.8436   1.1490   1.2040   1.2040   1.3244
     1.4717   1.5582   1.6069   1.6069   1.6524   1.9212   1.9212   5.9177
     6.2525   6.2525   6.8083   8.1813   8.1884   8.1885   8.3223   8.4509

          k = 0.2887 0.5103-0.5000 ( 19654 PWs)   bands (ev):

   -42.2693 -42.2619 -42.2413 -42.2405 -42.2402 -42.2402 -42.2395 -42.2393
   -42.1664 -42.1662 -42.1659 -42.1659 -42.1655 -42.1650 -41.5580  -8.7991
    -8.6802  -8.5915  -8.5543  -8.4781  -8.4124  -8.3463  -8.3398  -0.4133
    -0.3311  -0.3014  -0.1447  -0.0338   0.0531   0.1890   0.3438   0.4868
     0.5543   0.7206   0.7303   0.8000   0.8347   0.9444   1.0869   1.0884
     1.2372   1.3002   1.3332   1.4786   1.6081   1.8069   1.8833   6.7027
     7.1215   7.1278   7.2475   7.5393   7.7751   7.8062   7.9937   8.6535

          k = 0.1443 0.4082-0.2500 ( 19681 PWs)   bands (ev):

   -42.2694 -42.2619 -42.2414 -42.2403 -42.2402 -42.2400 -42.2395 -42.2395
   -42.1664 -42.1662 -42.1659 -42.1659 -42.1657 -42.1649 -41.5580  -8.8398
    -8.6473  -8.6059  -8.5405  -8.4683  -8.3960  -8.3617  -8.3362  -0.5330
    -0.5069  -0.2460  -0.1623  -0.0888  -0.0068   0.0376   0.2347   0.6669
     0.6719   0.7692   0.8133   0.8202   0.8966   0.9806   1.1262   1.1458
     1.2362   1.3583   1.4803   1.5194   1.5721   1.7736   2.0270   6.6179
     6.6430   6.6674   7.1787   7.6311   7.8501   7.9016   7.9527   8.5786

          k = 0.0000-0.6124-0.0000 ( 19650 PWs)   bands (ev):

   -42.2693 -42.2619 -42.2414 -42.2402 -42.2399 -42.2399 -42.2397 -42.2397
   -42.1661 -42.1661 -42.1660 -42.1660 -42.1658 -42.1649 -41.5580  -8.8151
    -8.7264  -8.5404  -8.5404  -8.4722  -8.3774  -8.3619  -8.3619  -0.4033
    -0.4033  -0.3912  -0.2818  -0.2818  -0.0455   0.3385   0.3823   0.6700
     0.6700   0.7583   0.7583   0.7601   0.9775   1.0322   1.0322   1.0346
     1.1420   1.2453   1.2453   1.7472   1.7472   1.9474   1.9474   6.8833
     6.8833   6.9025   7.0620   7.1510   7.1510   7.2386   7.6732   8.8134

          k =-0.1443-0.7144 0.2500 ( 19654 PWs)   bands (ev):

   -42.2693 -42.2619 -42.2413 -42.2405 -42.2402 -42.2402 -42.2395 -42.2393
   -42.1664 -42.1662 -42.1659 -42.1659 -42.1655 -42.1650 -41.5580  -8.7991
    -8.6802  -8.5915  -8.5543  -8.4781  -8.4124  -8.3463  -8.3398  -0.4133
    -0.3311  -0.3014  -0.1447  -0.0338   0.0531   0.1890   0.3438   0.4868
     0.5543   0.7206   0.7303   0.8000   0.8347   0.9444   1.0869   1.0884
     1.2372   1.3002   1.3332   1.4786   1.6081   1.8069   1.8833   6.7027
     7.1215   7.1278   7.2475   7.5393   7.7751   7.8062   7.9937   8.6948

          k = 0.2887-0.4082-0.5000 ( 19734 PWs)   bands (ev):

   -42.2693 -42.2619 -42.2409 -42.2409 -42.2403 -42.2403 -42.2393 -42.2391
   -42.1666 -42.1662 -42.1659 -42.1659 -42.1652 -42.1652 -41.5580  -8.7332
    -8.7232  -8.5665  -8.5665  -8.5173  -8.4364  -8.3326  -8.3326  -0.2452
    -0.2452  -0.2258  -0.1315   0.1642   0.2122   0.3201   0.3201   0.3516
     0.4205   0.6064   0.6270   0.7052   0.7052   0.7650   0.9893   1.2010
     1.2010   1.3417   1.3417   1.4389   1.5578   1.7560   1.7560   6.8277
     6.8920   7.5336   7.5336   8.0811   8.0811   8.1600   8.2315   8.6660

          k = 0.2887-0.1021 0.0000 ( 19666 PWs)   bands (ev):

   -42.2694 -42.2620 -42.2416 -42.2399 -42.2399 -42.2399 -42.2397 -42.2397
   -42.1664 -42.1664 -42.1662 -42.1657 -42.1657 -42.1645 -41.5580  -8.9189
    -8.6145  -8.5504  -8.5504  -8.4848  -8.3571  -8.3502  -8.3502  -0.6952
    -0.6952  -0.6419  -0.4692  -0.0960  -0.0960   0.1361   0.4846   0.4846
     0.6147   0.7098   0.8386   0.8386   1.2584   1.2584   1.3320   1.3527
     1.4537   1.4537   1.6334   1.6817   1.6817   2.0486   2.0486   5.9686
     5.9709   5.9709   6.6883   7.8379   7.9580   7.9580   8.1078   8.5248

          k = 0.5774 0.1021-0.5000 ( 19654 PWs)   bands (ev):

   -42.2693 -42.2619 -42.2413 -42.2405 -42.2402 -42.2402 -42.2395 -42.2393
   -42.1664 -42.1662 -42.1659 -42.1659 -42.1655 -42.1650 -41.5580  -8.7991
    -8.6802  -8.5915  -8.5543  -8.4781  -8.4124  -8.3463  -8.3398  -0.4133
    -0.3311  -0.3014  -0.1447  -0.0338   0.0531   0.1890   0.3438   0.4868
     0.5543   0.7206   0.7303   0.8000   0.8347   0.9444   1.0869   1.0884
     1.2372   1.3002   1.3332   1.4786   1.6081   1.8069   1.8833   6.7027
     7.1215   7.1278   7.2475   7.5393   7.7751   7.8062   7.9937   8.6535

          k = 0.4330 0.0000-0.2500 ( 19681 PWs)   bands (ev):

   -42.2694 -42.2619 -42.2414 -42.2403 -42.2402 -42.2400 -42.2395 -42.2395
   -42.1664 -42.1662 -42.1659 -42.1659 -42.1657 -42.1649 -41.5580  -8.8398
    -8.6473  -8.6059  -8.5405  -8.4683  -8.3960  -8.3617  -8.3362  -0.5330
    -0.5069  -0.2460  -0.1623  -0.0888  -0.0068   0.0376   0.2347   0.6669
     0.6719   0.7692   0.8133   0.8202   0.8966   0.9806   1.1262   1.1458
     1.2362   1.3583   1.4803   1.5194   1.5721   1.7736   2.0270   6.6179
     6.6430   6.6674   7.1787   7.6311   7.8501   7.9016   7.9527   8.5786

          k = 0.2887 0.2041 0.0000 ( 19699 PWs)   bands (ev):

   -42.2694 -42.2620 -42.2415 -42.2403 -42.2400 -42.2400 -42.2397 -42.2394
   -42.1665 -42.1662 -42.1662 -42.1659 -42.1655 -42.1646 -41.5580  -8.9010
    -8.5915  -8.5629  -8.5629  -8.4979  -8.3945  -8.3362  -8.3362  -0.6036
    -0.6019  -0.6019  -0.4892  -0.0609   0.0150   0.2354   0.4705   0.4786
     0.4786   0.6242   0.8436   0.8436   1.1490   1.2040   1.2040   1.3244
     1.4717   1.5582   1.6069   1.6069   1.6524   1.9212   1.9212   5.9177
     6.2525   6.2525   6.8083   8.1813   8.1884   8.1885   8.3223   8.4498

          k = 0.5774 0.4082-0.5000 ( 19681 PWs)   bands (ev):

   -42.2694 -42.2619 -42.2414 -42.2403 -42.2402 -42.2400 -42.2395 -42.2395
   -42.1664 -42.1662 -42.1659 -42.1659 -42.1657 -42.1649 -41.5580  -8.8398
    -8.6473  -8.6059  -8.5405  -8.4683  -8.3960  -8.3617  -8.3362  -0.5330
    -0.5069  -0.2460  -0.1623  -0.0888  -0.0068   0.0376   0.2347   0.6669
     0.6719   0.7692   0.8133   0.8202   0.8966   0.9806   1.1262   1.1458
     1.2362   1.3583   1.4803   1.5194   1.5721   1.7736   2.0270   6.6179
     6.6430   6.6674   7.1787   7.6311   7.8501   7.9016   7.9527   8.5786

          k = 0.4330 0.3062-0.2500 ( 19654 PWs)   bands (ev):

   -42.2693 -42.2619 -42.2413 -42.2405 -42.2402 -42.2402 -42.2395 -42.2393
   -42.1664 -42.1662 -42.1659 -42.1659 -42.1655 -42.1650 -41.5580  -8.7991
    -8.6802  -8.5915  -8.5543  -8.4781  -8.4124  -8.3463  -8.3398  -0.4133
    -0.3311  -0.3014  -0.1447  -0.0338   0.0531   0.1890   0.3438   0.4868
     0.5543   0.7206   0.7303   0.8000   0.8347   0.9444   1.0869   1.0884
     1.2372   1.3002   1.3332   1.4786   1.6081   1.8069   1.8833   6.7027
     7.1215   7.1278   7.2475   7.5393   7.7751   7.8062   7.9937   8.6947

          k = 0.2887-0.7144-0.0000 ( 19654 PWs)   bands (ev):

   -42.2693 -42.2619 -42.2413 -42.2405 -42.2402 -42.2402 -42.2395 -42.2393
   -42.1664 -42.1662 -42.1659 -42.1659 -42.1655 -42.1650 -41.5580  -8.7991
    -8.6802  -8.5915  -8.5543  -8.4781  -8.4124  -8.3463  -8.3398  -0.4133
    -0.3311  -0.3014  -0.1447  -0.0338   0.0531   0.1890   0.3438   0.4868
     0.5543   0.7206   0.7303   0.8000   0.8347   0.9444   1.0869   1.0884
     1.2372   1.3002   1.3332   1.4786   1.6081   1.8069   1.8833   6.7027
     7.1215   7.1278   7.2475   7.5393   7.7751   7.8062   7.9937   8.6535

          k = 0.4330-0.6124-0.2500 ( 19688 PWs)   bands (ev):

   -42.2693 -42.2619 -42.2410 -42.2406 -42.2406 -42.2400 -42.2394 -42.2392
   -42.1664 -42.1663 -42.1659 -42.1656 -42.1655 -42.1652 -41.5580  -8.7168
    -8.7159  -8.6218  -8.5872  -8.4672  -8.4127  -8.3437  -8.3428  -0.2850
    -0.2183  -0.2034  -0.0873   0.1807   0.1976   0.2163   0.2275   0.3794
     0.4038   0.5249   0.5355   0.9233   0.9863   1.0167   1.0169   1.0308
     1.0811   1.0853   1.3426   1.5163   1.5553   1.7112   1.7781   7.3756
     7.3848   7.5039   7.5754   7.6832   7.7387   7.7665   7.7710   8.7868

          k = 0.2887-0.4082 0.0000 ( 19681 PWs)   bands (ev):

   -42.2694 -42.2619 -42.2414 -42.2403 -42.2402 -42.2400 -42.2395 -42.2395
   -42.1664 -42.1662 -42.1659 -42.1659 -42.1657 -42.1649 -41.5580  -8.8398
    -8.6473  -8.6059  -8.5405  -8.4683  -8.3960  -8.3617  -8.3362  -0.5330
    -0.5069  -0.2460  -0.1623  -0.0888  -0.0068   0.0376   0.2347   0.6669
     0.6719   0.7692   0.8133   0.8202   0.8966   0.9806   1.1262   1.1458
     1.2362   1.3583   1.4803   1.5194   1.5721   1.7736   2.0270   6.6179
     6.6430   6.6674   7.1787   7.6311   7.8501   7.9016   7.9527   8.5786

          k = 0.5774-0.2041-0.5000 ( 19688 PWs)   bands (ev):

   -42.2693 -42.2619 -42.2410 -42.2406 -42.2406 -42.2400 -42.2394 -42.2392
   -42.1664 -42.1663 -42.1659 -42.1656 -42.1655 -42.1652 -41.5580  -8.7168
    -8.7159  -8.6218  -8.5872  -8.4672  -8.4127  -8.3437  -8.3428  -0.2850
    -0.2183  -0.2034  -0.0873   0.1807   0.1976   0.2163   0.2275   0.3794
     0.4038   0.5249   0.5355   0.9233   0.9863   1.0167   1.0169   1.0308
     1.0811   1.0853   1.3426   1.5163   1.5553   1.7112   1.7781   7.3756
     7.3848   7.5039   7.5754   7.6832   7.7387   7.7665   7.7710   8.7877

          k = 0.4330-0.3062-0.2500 ( 19654 PWs)   bands (ev):

   -42.2693 -42.2619 -42.2413 -42.2405 -42.2402 -42.2402 -42.2395 -42.2393
   -42.1664 -42.1662 -42.1659 -42.1659 -42.1655 -42.1650 -41.5580  -8.7991
    -8.6802  -8.5915  -8.5543  -8.4781  -8.4124  -8.3463  -8.3398  -0.4133
    -0.3311  -0.3014  -0.1447  -0.0338   0.0531   0.1890   0.3438   0.4868
     0.5543   0.7206   0.7303   0.8000   0.8347   0.9444   1.0869   1.0884
     1.2372   1.3002   1.3332   1.4786   1.6081   1.8069   1.8833   6.7027
     7.1215   7.1278   7.2475   7.5393   7.7751   7.8062   7.9937   8.6536

          k =-0.5774 0.2041-0.0000 ( 19650 PWs)   bands (ev):

   -42.2693 -42.2619 -42.2414 -42.2402 -42.2399 -42.2399 -42.2397 -42.2397
   -42.1661 -42.1661 -42.1660 -42.1660 -42.1658 -42.1649 -41.5580  -8.8151
    -8.7264  -8.5404  -8.5404  -8.4722  -8.3774  -8.3619  -8.3619  -0.4033
    -0.4033  -0.3912  -0.2818  -0.2818  -0.0455   0.3385   0.3823   0.6700
     0.6700   0.7583   0.7583   0.7601   0.9775   1.0322   1.0322   1.0346
     1.1420   1.2453   1.2453   1.7472   1.7472   1.9474   1.9474   6.8833
     6.8833   6.9025   7.0620   7.1510   7.1510   7.2386   7.6732   8.8134

          k =-0.5774 0.5103-0.0000 ( 19654 PWs)   bands (ev):

   -42.2693 -42.2619 -42.2413 -42.2405 -42.2402 -42.2402 -42.2395 -42.2393
   -42.1664 -42.1662 -42.1659 -42.1659 -42.1655 -42.1650 -41.5580  -8.7991
    -8.6802  -8.5915  -8.5543  -8.4781  -8.4124  -8.3463  -8.3398  -0.4133
    -0.3311  -0.3014  -0.1447  -0.0338   0.0531   0.1890   0.3438   0.4868
     0.5543   0.7206   0.7303   0.8000   0.8347   0.9444   1.0869   1.0884
     1.2372   1.3002   1.3332   1.4786   1.6081   1.8069   1.8833   6.7027
     7.1215   7.1278   7.2475   7.5393   7.7751   7.8062   7.9937   8.6535

          k =-0.5774-0.4082-0.0000 ( 19734 PWs)   bands (ev):

   -42.2693 -42.2619 -42.2409 -42.2409 -42.2403 -42.2403 -42.2393 -42.2391
   -42.1666 -42.1662 -42.1659 -42.1659 -42.1652 -42.1652 -41.5580  -8.7332
    -8.7232  -8.5665  -8.5665  -8.5173  -8.4364  -8.3326  -8.3326  -0.2452
    -0.2452  -0.2258  -0.1315   0.1642   0.2122   0.3201   0.3201   0.3516
     0.4205   0.6064   0.6270   0.7052   0.7052   0.7650   0.9893   1.2010
     1.2010   1.3417   1.3417   1.4389   1.5578   1.7560   1.7560   6.8277
     6.8920   7.5336   7.5336   8.0811   8.0811   8.1600   8.2315   8.6660

     the Fermi energy is     2.9382 ev

!    total energy              =    -411.86332845 Ry
     estimated scf accuracy    <          9.9E-12 Ry
     smearing contrib. (-TS)   =      -0.00000000 Ry
     internal energy E=F+TS    =    -411.86332845 Ry

     The total energy is F=E-TS. E is the sum of the following terms:
     one-electron contribution =    -138.42246279 Ry
     hartree contribution      =      77.62821538 Ry
     xc contribution           =    -120.43350816 Ry
     ewald contribution        =    -230.63557287 Ry

     convergence has been achieved in  11 iterations

     Forces acting on atoms (cartesian axes, Ry/au):

     atom    1 type  1   force =    -0.00183262   -0.00129579   -0.00000000
     atom    2 type  1   force =     0.00099333    0.00070244    0.00000000
     atom    3 type  2   force =    -0.00012119   -0.00008565    0.00020976
     atom    4 type  1   force =     0.00000009    0.00000002    0.00000000
     atom    5 type  1   force =     0.00000003   -0.00000012   -0.00000000
     atom    6 type  2   force =    -0.00012119   -0.00008565   -0.00020976
     atom    7 type  1   force =    -0.00091617    0.00129562    0.00158704
     atom    8 type  1   force =     0.00049671   -0.00070240   -0.00086026
     atom    9 type  2   force =    -0.00137452    0.00048595   -0.00000000
     atom   10 type  1   force =    -0.00091617    0.00129562   -0.00158704
     atom   11 type  1   force =     0.00049671   -0.00070240    0.00086026
     atom   12 type  2   force =    -0.00000006    0.00025718    0.00000000
     atom   13 type  1   force =     0.00091621   -0.00129583    0.00158700
     atom   14 type  1   force =    -0.00049662    0.00070243   -0.00086032
     atom   15 type  2   force =    -0.00000006   -0.00145765   -0.00000000
     atom   16 type  1   force =     0.00091621   -0.00129583   -0.00158700
     atom   17 type  1   force =    -0.00049662    0.00070243    0.00086032
     atom   18 type  2   force =     0.00024229   -0.00008566    0.00000000
     atom   19 type  1   force =     0.00000004   -0.00000001    0.00000000
     atom   20 type  2   force =     0.00068727    0.00048593    0.00119029
     atom   21 type  1   force =     0.00183243    0.00129586    0.00000000
     atom   22 type  1   force =    -0.00099337   -0.00070241   -0.00000000
     atom   23 type  2   force =     0.00068727    0.00048593   -0.00119029

     Total force =     0.006919     Total SCF correction =     0.000005
     Energy error            =      3.1E-04 Ry
     Gradient error          =      1.8E-03 Ry/Bohr

     number of scf cycles    =  10
     number of bfgs steps    =   9

     energy             old  =    -411.8630163755 Ry
     energy             new  =    -411.8633284472 Ry

     CASE: energy            _new < energy            _old

     new trust radius        =       0.0208634908 bohr
     new conv_thr            =       0.0000000002 Ry


ATOMIC_POSITIONS (angstrom)
Li               1.2082617684        0.8543697117        2.0170831005
Li               3.6208877452        2.5603543600        6.0512493014
S               -0.0024136366       -0.0017065410        0.0041804834
Li               1.1645623676        0.8234697923        6.0512488014
Li               3.4936892269        2.4704120329       10.0854150022
S               -0.0024136394       -0.0017065421        4.0299852176
Li               2.3509747619        4.0864537875        3.9963229694
Li               4.7218516374        5.6743507689        7.9581761057
S                1.2259167744        3.2721900239        2.0170833501
Li               2.3509747471        4.0864537778        8.1061756324
Li               4.7218516019        5.6743507446       12.2126548977
S                1.1645630151        3.2990008327        6.0512490510
Li               4.6364033015        0.8543706038        3.9963230633
Li               6.9237797059        2.5603545022        7.9581758627
S                3.4936903211        0.0650766907        2.0170833500
Li               4.6364032867        0.8543705941        8.1061755384
Li               6.9237796704        2.5603544779       12.2126551407
S                3.4985164957       -0.0017063612        6.0512490510
Li               8.1519415323        5.7642933523       10.0854160012
S                4.6275754905        3.2721908789        3.9810324408
Li               5.7791188641        4.0864533461       10.0854155013
Li               8.0247442598        5.6743513251       14.1195817020
S                4.6275754713        3.2721908661        8.1214666601



     Writing config-only to output data dir ./tmp/li2s_ep_initial.save/ :
     XML data file
     NEW-OLD atomic charge density approx. for the potential

     total cpu time spent up to now is     3135.4 secs

     Self-consistent Calculation

     iteration #  1     ecut=    60.00 Ry     beta= 0.30
     Davidson diagonalization with overlap
     ethr =  1.00E-06,  avg # of iterations =  6.0

     total cpu time spent up to now is     3176.2 secs

     total energy              =    -411.86346052 Ry
     estimated scf accuracy    <       0.00073748 Ry

     iteration #  2     ecut=    60.00 Ry     beta= 0.30
     Davidson diagonalization with overlap
     ethr =  7.85E-07,  avg # of iterations =  2.0

     total cpu time spent up to now is     3198.5 secs

     total energy              =    -411.86354644 Ry
     estimated scf accuracy    <       0.00004039 Ry

     iteration #  3     ecut=    60.00 Ry     beta= 0.30
     Davidson diagonalization with overlap
     ethr =  4.30E-08,  avg # of iterations =  4.0

     total cpu time spent up to now is     3227.9 secs

     total energy              =    -411.86357433 Ry
     estimated scf accuracy    <       0.00002069 Ry

     iteration #  4     ecut=    60.00 Ry     beta= 0.30
     Davidson diagonalization with overlap
     ethr =  2.20E-08,  avg # of iterations =  2.0

     total cpu time spent up to now is     3250.1 secs

     total energy              =    -411.86357559 Ry
     estimated scf accuracy    <       0.00000308 Ry

     iteration #  5     ecut=    60.00 Ry     beta= 0.30
     Davidson diagonalization with overlap
     ethr =  3.28E-09,  avg # of iterations =  4.1

     total cpu time spent up to now is     3279.3 secs

     total energy              =    -411.86357712 Ry
     estimated scf accuracy    <       0.00000114 Ry

     iteration #  6     ecut=    60.00 Ry     beta= 0.30
     Davidson diagonalization with overlap
     ethr =  1.21E-09,  avg # of iterations =  1.5

     total cpu time spent up to now is     3299.3 secs

     total energy              =    -411.86357667 Ry
     estimated scf accuracy    <       0.00000067 Ry

     iteration #  7     ecut=    60.00 Ry     beta= 0.30
     Davidson diagonalization with overlap
     ethr =  7.08E-10,  avg # of iterations =  4.0

     total cpu time spent up to now is     3327.4 secs

     total energy              =    -411.86357687 Ry
     estimated scf accuracy    <       0.00000106 Ry

     iteration #  8     ecut=    60.00 Ry     beta= 0.30
     Davidson diagonalization with overlap
     ethr =  7.08E-10,  avg # of iterations =  2.0

     total cpu time spent up to now is     3349.9 secs

     total energy              =    -411.86357704 Ry
     estimated scf accuracy    <       0.00000002 Ry

     iteration #  9     ecut=    60.00 Ry     beta= 0.30
     Davidson diagonalization with overlap
     ethr =  2.09E-11,  avg # of iterations =  6.0

     total cpu time spent up to now is     3390.0 secs

     total energy              =    -411.86357706 Ry
     estimated scf accuracy    <          2.2E-09 Ry

     iteration # 10     ecut=    60.00 Ry     beta= 0.30
     Davidson diagonalization with overlap
     ethr =  2.39E-12,  avg # of iterations =  4.9

     total cpu time spent up to now is     3422.4 secs

     total energy              =    -411.86357706 Ry
     estimated scf accuracy    <          6.7E-09 Ry

     iteration # 11     ecut=    60.00 Ry     beta= 0.30
     Davidson diagonalization with overlap
     ethr =  2.39E-12,  avg # of iterations =  3.6

     total cpu time spent up to now is     3448.9 secs

     total energy              =    -411.86357706 Ry
     estimated scf accuracy    <          3.2E-10 Ry

     iteration # 12     ecut=    60.00 Ry     beta= 0.30
     Davidson diagonalization with overlap
     ethr =  3.44E-13,  avg # of iterations =  4.0

     total cpu time spent up to now is     3477.8 secs

     End of self-consistent calculation

          k = 0.0000 0.0000 0.0000 ( 19603 PWs)   bands (ev):

   -42.2660 -42.2488 -42.2347 -42.2324 -42.2324 -42.2320 -42.2320 -42.2320
   -42.1704 -42.1704 -42.1704 -42.1693 -42.1693 -42.1676 -41.5947  -8.9685
    -8.5530  -8.5530  -8.5530  -8.4876  -8.3436  -8.3436  -8.3436  -0.8249
    -0.8249  -0.8249  -0.7273  -0.1536  -0.1536   0.0690   0.5990   0.5990
     0.5990   0.7683   0.7683   0.7683   1.5169   1.5169   1.5169   1.5508
     1.5508   1.6940   1.6940   1.6940   2.1154   2.1154   2.1154   5.4908
     5.4908   5.4908   6.2530   7.9705   7.9705   7.9705   8.1987   8.4309

          k =-0.1443-0.1021 0.2500 ( 19666 PWs)   bands (ev):

   -42.2660 -42.2488 -42.2344 -42.2324 -42.2324 -42.2324 -42.2321 -42.2321
   -42.1702 -42.1702 -42.1700 -42.1695 -42.1695 -42.1679 -41.5947  -8.9143
    -8.6092  -8.5434  -8.5434  -8.4839  -8.3613  -8.3548  -8.3548  -0.6923
    -0.6923  -0.6378  -0.4660  -0.0941  -0.0941   0.1312   0.4861   0.4861
     0.6185   0.7096   0.8425   0.8425   1.2604   1.2604   1.3397   1.3538
     1.4560   1.4560   1.6239   1.6847   1.6847   2.0440   2.0440   5.9685
     5.9703   5.9703   6.6886   7.8380   7.9592   7.9592   8.1049   8.5286

          k = 0.2887 0.2041-0.5000 ( 19650 PWs)   bands (ev):

   -42.2659 -42.2487 -42.2340 -42.2329 -42.2323 -42.2323 -42.2321 -42.2321
   -42.1699 -42.1699 -42.1698 -42.1698 -42.1694 -42.1685 -41.5947  -8.8087
    -8.7236  -8.5326  -8.5326  -8.4700  -8.3822  -8.3672  -8.3672  -0.3981
    -0.3981  -0.3833  -0.2823  -0.2823  -0.0499   0.3401   0.3884   0.6769
     0.6769   0.7555   0.7555   0.7654   0.9707   1.0368   1.0368   1.0423
     1.1290   1.2468   1.2468   1.7524   1.7524   1.9398   1.9398   6.8836
     6.8836   6.9028   7.0652   7.1508   7.1508   7.2387   7.6675   8.8198

          k =-0.0000 0.3062 0.0000 ( 19666 PWs)   bands (ev):

   -42.2660 -42.2488 -42.2344 -42.2324 -42.2324 -42.2324 -42.2321 -42.2321
   -42.1702 -42.1702 -42.1700 -42.1695 -42.1695 -42.1679 -41.5947  -8.9143
    -8.6092  -8.5434  -8.5434  -8.4839  -8.3613  -8.3548  -8.3548  -0.6923
    -0.6923  -0.6378  -0.4660  -0.0941  -0.0941   0.1312   0.4861   0.4861
     0.6185   0.7096   0.8425   0.8425   1.2604   1.2604   1.3397   1.3538
     1.4560   1.4560   1.6239   1.6847   1.6847   2.0440   2.0440   5.9685
     5.9703   5.9703   6.6886   7.8380   7.9592   7.9592   8.1049   8.5286

          k =-0.1443 0.2041 0.2500 ( 19699 PWs)   bands (ev):

   -42.2660 -42.2488 -42.2343 -42.2328 -42.2324 -42.2324 -42.2321 -42.2318
   -42.1704 -42.1700 -42.1700 -42.1697 -42.1693 -42.1680 -41.5947  -8.8963
    -8.5840  -8.5566  -8.5566  -8.4976  -8.4003  -8.3400  -8.3400  -0.5994
    -0.5991  -0.5991  -0.4855  -0.0591   0.0165   0.2306   0.4710   0.4810
     0.4810   0.6287   0.8461   0.8461   1.1534   1.2055   1.2055   1.3262
     1.4745   1.5588   1.6130   1.6130   1.6460   1.9136   1.9136   5.9176
     6.2520   6.2520   6.8085   8.1857   8.1884   8.1885   8.3247   8.4522

          k = 0.2887 0.5103-0.5000 ( 19654 PWs)   bands (ev):

   -42.2659 -42.2487 -42.2339 -42.2330 -42.2327 -42.2326 -42.2318 -42.2318
   -42.1702 -42.1700 -42.1697 -42.1696 -42.1692 -42.1685 -41.5947  -8.7933
    -8.6749  -8.5865  -8.5476  -8.4761  -8.4171  -8.3507  -8.3443  -0.4093
    -0.3271  -0.2947  -0.1440  -0.0341   0.0568   0.1901   0.3457   0.4868
     0.5573   0.7227   0.7338   0.8041   0.8331   0.9439   1.0889   1.0914
     1.2406   1.2965   1.3344   1.4796   1.6104   1.8007   1.8768   6.7035
     7.1201   7.1272   7.2493   7.5402   7.7772   7.8061   7.9923   8.6571

          k = 0.1443 0.4082-0.2500 ( 19681 PWs)   bands (ev):

   -42.2659 -42.2487 -42.2341 -42.2328 -42.2326 -42.2326 -42.2320 -42.2318
   -42.1702 -42.1699 -42.1697 -42.1696 -42.1695 -42.1683 -41.5947  -8.8345
    -8.6411  -8.6021  -8.5327  -8.4654  -8.4008  -8.3670  -8.3405  -0.5297
    -0.5025  -0.2403  -0.1589  -0.0874  -0.0048   0.0388   0.2298   0.6692
     0.6745   0.7734   0.8191   0.8200   0.9004   0.9822   1.1229   1.1485
     1.2386   1.3612   1.4847   1.5144   1.5721   1.7662   2.0231   6.6190
     6.6424   6.6669   7.1798   7.6323   7.8483   7.9019   7.9532   8.5808

          k = 0.0000-0.6124-0.0000 ( 19650 PWs)   bands (ev):

   -42.2659 -42.2487 -42.2340 -42.2329 -42.2323 -42.2323 -42.2321 -42.2321
   -42.1699 -42.1699 -42.1698 -42.1698 -42.1694 -42.1685 -41.5947  -8.8087
    -8.7236  -8.5326  -8.5326  -8.4700  -8.3822  -8.3672  -8.3672  -0.3981
    -0.3981  -0.3833  -0.2823  -0.2823  -0.0499   0.3401   0.3884   0.6769
     0.6769   0.7555   0.7555   0.7654   0.9707   1.0368   1.0368   1.0423
     1.1290   1.2468   1.2468   1.7524   1.7524   1.9398   1.9398   6.8836
     6.8836   6.9028   7.0652   7.1508   7.1508   7.2387   7.6675   8.8198

          k =-0.1443-0.7144 0.2500 ( 19654 PWs)   bands (ev):

   -42.2659 -42.2487 -42.2339 -42.2330 -42.2327 -42.2326 -42.2318 -42.2318
   -42.1702 -42.1700 -42.1697 -42.1696 -42.1692 -42.1685 -41.5947  -8.7933
    -8.6749  -8.5865  -8.5476  -8.4761  -8.4171  -8.3507  -8.3443  -0.4093
    -0.3271  -0.2947  -0.1440  -0.0341   0.0568   0.1901   0.3457   0.4868
     0.5573   0.7227   0.7338   0.8041   0.8331   0.9439   1.0889   1.0914
     1.2406   1.2965   1.3344   1.4796   1.6104   1.8007   1.8768   6.7035
     7.1201   7.1272   7.2493   7.5402   7.7772   7.8061   7.9923   8.6950

          k = 0.2887-0.4082-0.5000 ( 19734 PWs)   bands (ev):

   -42.2659 -42.2487 -42.2336 -42.2335 -42.2328 -42.2328 -42.2317 -42.2316
   -42.1704 -42.1701 -42.1696 -42.1696 -42.1689 -42.1687 -41.5947  -8.7276
    -8.7162  -8.5604  -8.5604  -8.5172  -8.4425  -8.3363  -8.3363  -0.2421
    -0.2421  -0.2193  -0.1264   0.1662   0.2129   0.3238   0.3238   0.3519
     0.4188   0.6135   0.6355   0.7049   0.7049   0.7625   0.9734   1.2041
     1.2041   1.3493   1.3493   1.4424   1.5574   1.7465   1.7465   6.8268
     6.8951   7.5303   7.5303   8.0832   8.0832   8.1610   8.2348   8.6837

          k = 0.2887-0.1021 0.0000 ( 19666 PWs)   bands (ev):

   -42.2660 -42.2488 -42.2344 -42.2324 -42.2324 -42.2324 -42.2321 -42.2321
   -42.1702 -42.1702 -42.1700 -42.1695 -42.1695 -42.1679 -41.5947  -8.9143
    -8.6092  -8.5434  -8.5434  -8.4839  -8.3613  -8.3548  -8.3548  -0.6923
    -0.6923  -0.6378  -0.4660  -0.0941  -0.0941   0.1312   0.4861   0.4861
     0.6185   0.7096   0.8425   0.8425   1.2604   1.2604   1.3397   1.3538
     1.4560   1.4560   1.6239   1.6847   1.6847   2.0440   2.0440   5.9685
     5.9703   5.9703   6.6886   7.8380   7.9592   7.9592   8.1049   8.5286

          k = 0.5774 0.1021-0.5000 ( 19654 PWs)   bands (ev):

   -42.2659 -42.2487 -42.2339 -42.2330 -42.2327 -42.2326 -42.2318 -42.2318
   -42.1702 -42.1700 -42.1697 -42.1696 -42.1692 -42.1685 -41.5947  -8.7933
    -8.6749  -8.5865  -8.5476  -8.4761  -8.4171  -8.3507  -8.3443  -0.4093
    -0.3271  -0.2947  -0.1440  -0.0341   0.0568   0.1901   0.3457   0.4868
     0.5573   0.7227   0.7338   0.8041   0.8331   0.9439   1.0889   1.0914
     1.2406   1.2965   1.3344   1.4796   1.6104   1.8007   1.8768   6.7035
     7.1201   7.1272   7.2493   7.5402   7.7772   7.8061   7.9923   8.6571

          k = 0.4330 0.0000-0.2500 ( 19681 PWs)   bands (ev):

   -42.2659 -42.2487 -42.2341 -42.2328 -42.2326 -42.2326 -42.2320 -42.2318
   -42.1702 -42.1699 -42.1697 -42.1696 -42.1695 -42.1683 -41.5947  -8.8345
    -8.6411  -8.6021  -8.5327  -8.4654  -8.4008  -8.3670  -8.3405  -0.5297
    -0.5025  -0.2403  -0.1589  -0.0874  -0.0048   0.0388   0.2298   0.6692
     0.6745   0.7734   0.8191   0.8200   0.9004   0.9822   1.1229   1.1485
     1.2386   1.3612   1.4847   1.5144   1.5721   1.7662   2.0231   6.6190
     6.6424   6.6669   7.1798   7.6323   7.8483   7.9019   7.9532   8.5808

          k = 0.2887 0.2041 0.0000 ( 19699 PWs)   bands (ev):

   -42.2660 -42.2488 -42.2343 -42.2328 -42.2324 -42.2324 -42.2321 -42.2318
   -42.1704 -42.1700 -42.1700 -42.1697 -42.1693 -42.1680 -41.5947  -8.8963
    -8.5840  -8.5566  -8.5566  -8.4976  -8.4003  -8.3400  -8.3400  -0.5994
    -0.5991  -0.5991  -0.4855  -0.0591   0.0165   0.2306   0.4710   0.4810
     0.4810   0.6287   0.8461   0.8461   1.1534   1.2055   1.2055   1.3262
     1.4745   1.5588   1.6130   1.6130   1.6460   1.9136   1.9136   5.9176
     6.2520   6.2520   6.8085   8.1857   8.1884   8.1885   8.3247   8.4514

          k = 0.5774 0.4082-0.5000 ( 19681 PWs)   bands (ev):

   -42.2659 -42.2487 -42.2341 -42.2328 -42.2326 -42.2326 -42.2320 -42.2318
   -42.1702 -42.1699 -42.1697 -42.1696 -42.1695 -42.1683 -41.5947  -8.8345
    -8.6411  -8.6021  -8.5327  -8.4654  -8.4008  -8.3670  -8.3405  -0.5297
    -0.5025  -0.2403  -0.1589  -0.0874  -0.0048   0.0388   0.2298   0.6692
     0.6745   0.7734   0.8191   0.8200   0.9004   0.9822   1.1229   1.1485
     1.2386   1.3612   1.4847   1.5144   1.5721   1.7662   2.0231   6.6190
     6.6424   6.6669   7.1798   7.6323   7.8483   7.9019   7.9532   8.5808

          k = 0.4330 0.3062-0.2500 ( 19654 PWs)   bands (ev):

   -42.2659 -42.2487 -42.2339 -42.2330 -42.2327 -42.2326 -42.2318 -42.2318
   -42.1702 -42.1700 -42.1697 -42.1696 -42.1692 -42.1685 -41.5947  -8.7933
    -8.6749  -8.5865  -8.5476  -8.4761  -8.4171  -8.3507  -8.3443  -0.4093
    -0.3271  -0.2947  -0.1440  -0.0341   0.0568   0.1901   0.3457   0.4868
     0.5573   0.7227   0.7338   0.8041   0.8331   0.9439   1.0889   1.0914
     1.2406   1.2965   1.3344   1.4796   1.6104   1.8007   1.8768   6.7035
     7.1201   7.1272   7.2493   7.5402   7.7772   7.8061   7.9923   8.6949

          k = 0.2887-0.7144-0.0000 ( 19654 PWs)   bands (ev):

   -42.2659 -42.2487 -42.2339 -42.2330 -42.2327 -42.2326 -42.2318 -42.2318
   -42.1702 -42.1700 -42.1697 -42.1696 -42.1692 -42.1685 -41.5947  -8.7933
    -8.6749  -8.5865  -8.5476  -8.4761  -8.4171  -8.3507  -8.3443  -0.4093
    -0.3271  -0.2947  -0.1440  -0.0341   0.0568   0.1901   0.3457   0.4868
     0.5573   0.7227   0.7338   0.8041   0.8331   0.9439   1.0889   1.0914
     1.2406   1.2965   1.3344   1.4796   1.6104   1.8007   1.8768   6.7035
     7.1201   7.1272   7.2493   7.5402   7.7772   7.8061   7.9923   8.6571

          k = 0.4330-0.6124-0.2500 ( 19688 PWs)   bands (ev):

   -42.2659 -42.2487 -42.2336 -42.2332 -42.2331 -42.2326 -42.2318 -42.2316
   -42.1703 -42.1701 -42.1696 -42.1692 -42.1692 -42.1688 -41.5947  -8.7104
    -8.7081  -8.6191  -8.5840  -8.4634  -8.4157  -8.3485  -8.3475  -0.2776
    -0.2157  -0.1978  -0.0894   0.1851   0.2002   0.2230   0.2312   0.3846
     0.4012   0.5244   0.5294   0.9230   0.9948   1.0176   1.0206   1.0360
     1.0736   1.0889   1.3393   1.5230   1.5553   1.7057   1.7680   7.3745
     7.3864   7.5068   7.5790   7.6732   7.7446   7.7587   7.7781   8.7873

          k = 0.2887-0.4082 0.0000 ( 19681 PWs)   bands (ev):

   -42.2659 -42.2487 -42.2341 -42.2328 -42.2326 -42.2326 -42.2320 -42.2318
   -42.1702 -42.1699 -42.1697 -42.1696 -42.1695 -42.1683 -41.5947  -8.8345
    -8.6411  -8.6021  -8.5327  -8.4654  -8.4008  -8.3670  -8.3405  -0.5297
    -0.5025  -0.2403  -0.1589  -0.0874  -0.0048   0.0388   0.2298   0.6692
     0.6745   0.7734   0.8191   0.8200   0.9004   0.9822   1.1229   1.1485
     1.2386   1.3612   1.4847   1.5144   1.5721   1.7662   2.0231   6.6190
     6.6424   6.6669   7.1798   7.6323   7.8483   7.9019   7.9532   8.5808

          k = 0.5774-0.2041-0.5000 ( 19688 PWs)   bands (ev):

   -42.2659 -42.2487 -42.2336 -42.2332 -42.2331 -42.2326 -42.2318 -42.2316
   -42.1703 -42.1701 -42.1696 -42.1692 -42.1692 -42.1688 -41.5947  -8.7104
    -8.7081  -8.6191  -8.5840  -8.4634  -8.4157  -8.3485  -8.3475  -0.2776
    -0.2157  -0.1978  -0.0894   0.1851   0.2002   0.2230   0.2312   0.3846
     0.4012   0.5244   0.5294   0.9230   0.9948   1.0176   1.0206   1.0360
     1.0736   1.0889   1.3393   1.5230   1.5553   1.7057   1.7680   7.3745
     7.3864   7.5068   7.5790   7.6732   7.7446   7.7587   7.7781   8.7882

          k = 0.4330-0.3062-0.2500 ( 19654 PWs)   bands (ev):

   -42.2659 -42.2487 -42.2339 -42.2330 -42.2327 -42.2326 -42.2318 -42.2318
   -42.1702 -42.1700 -42.1697 -42.1696 -42.1692 -42.1685 -41.5947  -8.7933
    -8.6749  -8.5865  -8.5476  -8.4761  -8.4171  -8.3507  -8.3443  -0.4093
    -0.3271  -0.2947  -0.1440  -0.0341   0.0568   0.1901   0.3457   0.4868
     0.5573   0.7227   0.7338   0.8041   0.8331   0.9439   1.0889   1.0914
     1.2406   1.2965   1.3344   1.4796   1.6104   1.8007   1.8768   6.7035
     7.1201   7.1272   7.2493   7.5402   7.7772   7.8061   7.9923   8.6572

          k =-0.5774 0.2041-0.0000 ( 19650 PWs)   bands (ev):

   -42.2659 -42.2487 -42.2340 -42.2329 -42.2323 -42.2323 -42.2321 -42.2321
   -42.1699 -42.1699 -42.1698 -42.1698 -42.1694 -42.1685 -41.5947  -8.8087
    -8.7236  -8.5326  -8.5326  -8.4700  -8.3822  -8.3672  -8.3672  -0.3981
    -0.3981  -0.3833  -0.2823  -0.2823  -0.0499   0.3401   0.3884   0.6769
     0.6769   0.7555   0.7555   0.7654   0.9707   1.0368   1.0368   1.0423
     1.1290   1.2468   1.2468   1.7524   1.7524   1.9398   1.9398   6.8836
     6.8836   6.9028   7.0652   7.1508   7.1508   7.2387   7.6675   8.8198

          k =-0.5774 0.5103-0.0000 ( 19654 PWs)   bands (ev):

   -42.2659 -42.2487 -42.2339 -42.2330 -42.2327 -42.2326 -42.2318 -42.2318
   -42.1702 -42.1700 -42.1697 -42.1696 -42.1692 -42.1685 -41.5947  -8.7933
    -8.6749  -8.5865  -8.5476  -8.4761  -8.4171  -8.3507  -8.3443  -0.4093
    -0.3271  -0.2947  -0.1440  -0.0341   0.0568   0.1901   0.3457   0.4868
     0.5573   0.7227   0.7338   0.8041   0.8331   0.9439   1.0889   1.0914
     1.2406   1.2965   1.3344   1.4796   1.6104   1.8007   1.8768   6.7035
     7.1201   7.1272   7.2493   7.5402   7.7772   7.8061   7.9923   8.6571

          k =-0.5774-0.4082-0.0000 ( 19734 PWs)   bands (ev):

   -42.2659 -42.2487 -42.2336 -42.2335 -42.2328 -42.2328 -42.2317 -42.2316
   -42.1704 -42.1701 -42.1696 -42.1696 -42.1689 -42.1687 -41.5947  -8.7276
    -8.7162  -8.5604  -8.5604  -8.5172  -8.4425  -8.3363  -8.3363  -0.2421
    -0.2421  -0.2193  -0.1264   0.1662   0.2129   0.3238   0.3238   0.3519
     0.4188   0.6135   0.6355   0.7049   0.7049   0.7625   0.9734   1.2041
     1.2041   1.3493   1.3493   1.4424   1.5574   1.7465   1.7465   6.8268
     6.8951   7.5303   7.5303   8.0832   8.0832   8.1610   8.2348   8.6837

     the Fermi energy is     2.9443 ev

!    total energy              =    -411.86357706 Ry
     estimated scf accuracy    <          4.4E-11 Ry
     smearing contrib. (-TS)   =      -0.00000000 Ry
     internal energy E=F+TS    =    -411.86357706 Ry

     The total energy is F=E-TS. E is the sum of the following terms:
     one-electron contribution =    -138.14248809 Ry
     hartree contribution      =      77.48973176 Ry
     xc contribution           =    -120.43092361 Ry
     ewald contribution        =    -230.77989712 Ry

     convergence has been achieved in  12 iterations

     Forces acting on atoms (cartesian axes, Ry/au):

     atom    1 type  1   force =    -0.00130660   -0.00092390   -0.00000000
     atom    2 type  1   force =     0.00012995    0.00009192    0.00000000
     atom    3 type  2   force =     0.00004378    0.00003092   -0.00007577
     atom    4 type  1   force =     0.00000006    0.00000001    0.00000000
     atom    5 type  1   force =     0.00000001    0.00000007    0.00000000
     atom    6 type  2   force =     0.00004378    0.00003092    0.00007577
     atom    7 type  1   force =    -0.00065325    0.00092379    0.00113147
     atom    8 type  1   force =     0.00006506   -0.00009186   -0.00011260
     atom    9 type  2   force =     0.00099861   -0.00035307    0.00000000
     atom   10 type  1   force =    -0.00065325    0.00092379   -0.00113147
     atom   11 type  1   force =     0.00006506   -0.00009186    0.00011260
     atom   12 type  2   force =     0.00000002   -0.00009273   -0.00000000
     atom   13 type  1   force =     0.00065326   -0.00092389    0.00113144
     atom   14 type  1   force =    -0.00006501    0.00009195   -0.00011262
     atom   15 type  2   force =    -0.00000014    0.00105909    0.00000000
     atom   16 type  1   force =     0.00065326   -0.00092389   -0.00113144
     atom   17 type  1   force =    -0.00006501    0.00009195    0.00011262
     atom   18 type  2   force =    -0.00008751    0.00003097   -0.00000000
     atom   19 type  1   force =     0.00000006    0.00000006    0.00000000
     atom   20 type  2   force =    -0.00049932   -0.00035314   -0.00086480
     atom   21 type  1   force =     0.00130647    0.00092390    0.00000000
     atom   22 type  1   force =    -0.00012997   -0.00009185   -0.00000000
     atom   23 type  2   force =    -0.00049932   -0.00035314    0.00086480

     Total force =     0.004476     Total SCF correction =     0.000019
     Energy error            =      2.5E-04 Ry
     Gradient error          =      1.3E-03 Ry/Bohr

     number of scf cycles    =  11
     number of bfgs steps    =  10

     energy             old  =    -411.8633284472 Ry
     energy             new  =    -411.8635770635 Ry

     CASE: energy            _new < energy            _old

     new trust radius        =       0.0050654432 bohr
     new conv_thr            =       0.0000000001 Ry


ATOMIC_POSITIONS (angstrom)
Li               1.2060730698        0.8528222070        2.0170831005
Li               3.6229065519        2.5617819957        6.0512493014
S               -0.0025858181       -0.0018282904        0.0044785792
Li               1.1645624547        0.8234697659        6.0512488014
Li               3.4936892370        2.4704119093       10.0854150022
S               -0.0025858208       -0.0018282915        4.0296871218
Li               2.3498805673        4.0880011741        3.9982183351
Li               4.7228611125        5.6729232553        7.9564278145
S                1.2245282075        3.2726809518        2.0170833500
Li               2.3498805530        4.0880011648        8.1042802667
Li               4.7228610765        5.6729232306       12.2144031889
S                1.1645629712        3.2993662462        6.0512490510
Li               4.6374975181        0.8528229740        3.9982184030
Li               6.9227703319        2.5617820137        7.9564274602
S                3.4936902200        0.0636040830        2.0170833500
Li               4.6374975038        0.8528229648        8.1042801988
Li               6.9227702959        2.5617819891       12.2144035431
S                3.4988608638       -0.0018281053        6.0512490510
Li               8.1519415912        5.7642934144       10.0854160012
S                4.6282697672        3.2726818103        3.9822349634
Li               5.7813072954        4.0880009559       10.0854155013
Li               8.0227254709        5.6729238086       14.1195817020
S                4.6282697483        3.2726817978        8.1202641375



     Writing config-only to output data dir ./tmp/li2s_ep_initial.save/ :
     XML data file
     NEW-OLD atomic charge density approx. for the potential

     total cpu time spent up to now is     3483.4 secs

     Self-consistent Calculation

     iteration #  1     ecut=    60.00 Ry     beta= 0.30
     Davidson diagonalization with overlap
     ethr =  1.00E-06,  avg # of iterations =  3.0

     Threshold (ethr) on eigenvalues was too large:
     Diagonalizing with lowered threshold

     Davidson diagonalization with overlap
     ethr =  1.68E-08,  avg # of iterations =  5.0

     total cpu time spent up to now is     3542.5 secs

     total energy              =    -411.86359976 Ry
     estimated scf accuracy    <       0.00005123 Ry

     iteration #  2     ecut=    60.00 Ry     beta= 0.30
     Davidson diagonalization with overlap
     ethr =  5.45E-08,  avg # of iterations =  2.0

     total cpu time spent up to now is     3564.7 secs

     total energy              =    -411.86360684 Ry
     estimated scf accuracy    <       0.00000148 Ry

     iteration #  3     ecut=    60.00 Ry     beta= 0.30
     Davidson diagonalization with overlap
     ethr =  1.57E-09,  avg # of iterations =  4.0

     total cpu time spent up to now is     3594.9 secs

     total energy              =    -411.86360798 Ry
     estimated scf accuracy    <       0.00000074 Ry

     iteration #  4     ecut=    60.00 Ry     beta= 0.30
     Davidson diagonalization with overlap
     ethr =  7.88E-10,  avg # of iterations =  2.0

     total cpu time spent up to now is     3616.6 secs

     total energy              =    -411.86360798 Ry
     estimated scf accuracy    <       0.00000019 Ry

     iteration #  5     ecut=    60.00 Ry     beta= 0.30
     Davidson diagonalization with overlap
     ethr =  2.05E-10,  avg # of iterations =  4.0

     total cpu time spent up to now is     3644.5 secs

     total energy              =    -411.86360805 Ry
     estimated scf accuracy    <       0.00000004 Ry

     iteration #  6     ecut=    60.00 Ry     beta= 0.30
     Davidson diagonalization with overlap
     ethr =  3.75E-11,  avg # of iterations =  2.3

     total cpu time spent up to now is     3667.2 secs

     total energy              =    -411.86360804 Ry
     estimated scf accuracy    <       0.00000003 Ry

     iteration #  7     ecut=    60.00 Ry     beta= 0.30
     Davidson diagonalization with overlap
     ethr =  2.69E-11,  avg # of iterations =  2.6

     total cpu time spent up to now is     3691.1 secs

     total energy              =    -411.86360805 Ry
     estimated scf accuracy    <          1.4E-09 Ry

     iteration #  8     ecut=    60.00 Ry     beta= 0.30
     Davidson diagonalization with overlap
     ethr =  1.50E-12,  avg # of iterations =  5.9

     total cpu time spent up to now is     3728.7 secs

     total energy              =    -411.86360805 Ry
     estimated scf accuracy    <          1.8E-09 Ry

     iteration #  9     ecut=    60.00 Ry     beta= 0.30
     Davidson diagonalization with overlap
     ethr =  1.50E-12,  avg # of iterations =  2.0

     total cpu time spent up to now is     3750.7 secs

     total energy              =    -411.86360805 Ry
     estimated scf accuracy    <          1.8E-10 Ry

     iteration # 10     ecut=    60.00 Ry     beta= 0.30
     Davidson diagonalization with overlap
     ethr =  1.92E-13,  avg # of iterations =  5.2

     total cpu time spent up to now is     3783.7 secs

     total energy              =    -411.86360805 Ry
     estimated scf accuracy    <          3.6E-10 Ry

     iteration # 11     ecut=    60.00 Ry     beta= 0.30
     Davidson diagonalization with overlap
     ethr =  1.92E-13,  avg # of iterations =  2.0

     total cpu time spent up to now is     3806.1 secs

     End of self-consistent calculation

          k = 0.0000 0.0000 0.0000 ( 19603 PWs)   bands (ev):

   -42.2671 -42.2484 -42.2332 -42.2308 -42.2308 -42.2304 -42.2304 -42.2304
   -42.1711 -42.1711 -42.1711 -42.1701 -42.1701 -42.1682 -41.5992  -8.9683
    -8.5531  -8.5531  -8.5531  -8.4869  -8.3430  -8.3430  -8.3430  -0.8246
    -0.8246  -0.8246  -0.7276  -0.1533  -0.1533   0.0689   0.5992   0.5992
     0.5992   0.7690   0.7690   0.7690   1.5170   1.5170   1.5170   1.5516
     1.5516   1.6943   1.6943   1.6943   2.1155   2.1155   2.1155   5.4905
     5.4905   5.4905   6.2527   7.9705   7.9705   7.9705   8.1974   8.4308

          k =-0.1443-0.1021 0.2500 ( 19666 PWs)   bands (ev):

   -42.2671 -42.2483 -42.2329 -42.2308 -42.2308 -42.2308 -42.2304 -42.2304
   -42.1710 -42.1710 -42.1708 -42.1702 -42.1702 -42.1686 -41.5992  -8.9142
    -8.6091  -8.5435  -8.5435  -8.4832  -8.3607  -8.3541  -8.3541  -0.6919
    -0.6918  -0.6376  -0.4660  -0.0939  -0.0939   0.1313   0.4864   0.4864
     0.6191   0.7098   0.8431   0.8431   1.2609   1.2609   1.3400   1.3539
     1.4565   1.4565   1.6237   1.6849   1.6849   2.0440   2.0440   5.9683
     5.9701   5.9701   6.6884   7.8378   7.9593   7.9593   8.1043   8.5287

          k = 0.2887 0.2041-0.5000 ( 19650 PWs)   bands (ev):

   -42.2671 -42.2483 -42.2324 -42.2314 -42.2307 -42.2307 -42.2305 -42.2305
   -42.1706 -42.1706 -42.1706 -42.1706 -42.1701 -42.1692 -41.5992  -8.8087
    -8.7233  -8.5328  -8.5328  -8.4693  -8.3817  -8.3665  -8.3665  -0.3973
    -0.3973  -0.3834  -0.2824  -0.2824  -0.0493   0.3405   0.3884   0.6769
     0.6769   0.7561   0.7561   0.7661   0.9712   1.0377   1.0377   1.0421
     1.1283   1.2471   1.2471   1.7527   1.7527   1.9398   1.9398   6.8830
     6.8830   6.9029   7.0653   7.1511   7.1511   7.2385   7.6670   8.8198

          k =-0.0000 0.3062 0.0000 ( 19666 PWs)   bands (ev):

   -42.2671 -42.2483 -42.2329 -42.2308 -42.2308 -42.2308 -42.2304 -42.2304
   -42.1710 -42.1710 -42.1708 -42.1702 -42.1702 -42.1686 -41.5992  -8.9142
    -8.6091  -8.5435  -8.5435  -8.4832  -8.3607  -8.3541  -8.3541  -0.6919
    -0.6918  -0.6376  -0.4660  -0.0939  -0.0939   0.1313   0.4864   0.4864
     0.6191   0.7098   0.8431   0.8431   1.2609   1.2609   1.3400   1.3539
     1.4565   1.4565   1.6237   1.6849   1.6849   2.0440   2.0440   5.9683
     5.9701   5.9701   6.6884   7.8378   7.9593   7.9593   8.1043   8.5287

          k =-0.1443 0.2041 0.2500 ( 19699 PWs)   bands (ev):

   -42.2671 -42.2483 -42.2328 -42.2311 -42.2308 -42.2308 -42.2304 -42.2302
   -42.1711 -42.1707 -42.1707 -42.1705 -42.1700 -42.1687 -41.5992  -8.8962
    -8.5841  -8.5567  -8.5567  -8.4967  -8.3997  -8.3394  -8.3394  -0.5989
    -0.5986  -0.5986  -0.4858  -0.0588   0.0168   0.2306   0.4711   0.4814
     0.4814   0.6294   0.8466   0.8466   1.1544   1.2058   1.2058   1.3259
     1.4750   1.5593   1.6134   1.6134   1.6460   1.9135   1.9135   5.9174
     6.2517   6.2517   6.8084   8.1859   8.1883   8.1884   8.3248   8.4521

          k = 0.2887 0.5103-0.5000 ( 19654 PWs)   bands (ev):

   -42.2671 -42.2483 -42.2323 -42.2314 -42.2311 -42.2310 -42.2302 -42.2301
   -42.1710 -42.1708 -42.1704 -42.1703 -42.1700 -42.1692 -41.5992  -8.7933
    -8.6748  -8.5863  -8.5477  -8.4753  -8.4168  -8.3500  -8.3436  -0.4088
    -0.3264  -0.2946  -0.1440  -0.0339   0.0569   0.1905   0.3459   0.4869
     0.5582   0.7227   0.7340   0.8050   0.8334   0.9441   1.0891   1.0920
     1.2412   1.2961   1.3347   1.4797   1.6106   1.8008   1.8768   6.7034
     7.1196   7.1267   7.2493   7.5406   7.7773   7.8061   7.9921   8.6567

          k = 0.1443 0.4082-0.2500 ( 19681 PWs)   bands (ev):

   -42.2671 -42.2483 -42.2325 -42.2311 -42.2310 -42.2310 -42.2303 -42.2302
   -42.1710 -42.1707 -42.1704 -42.1704 -42.1702 -42.1690 -41.5992  -8.8344
    -8.6411  -8.6019  -8.5329  -8.4648  -8.4003  -8.3663  -8.3398  -0.5292
    -0.5023  -0.2397  -0.1591  -0.0872  -0.0045   0.0391   0.2300   0.6696
     0.6750   0.7734   0.8195   0.8204   0.9012   0.9828   1.1229   1.1488
     1.2391   1.3617   1.4853   1.5136   1.5721   1.7665   2.0232   6.6190
     6.6421   6.6666   7.1798   7.6323   7.8482   7.9019   7.9531   8.5809

          k = 0.0000-0.6124-0.0000 ( 19650 PWs)   bands (ev):

   -42.2671 -42.2483 -42.2324 -42.2314 -42.2307 -42.2307 -42.2305 -42.2305
   -42.1706 -42.1706 -42.1706 -42.1706 -42.1701 -42.1692 -41.5992  -8.8087
    -8.7233  -8.5328  -8.5328  -8.4693  -8.3817  -8.3665  -8.3665  -0.3973
    -0.3973  -0.3834  -0.2824  -0.2824  -0.0493   0.3405   0.3884   0.6769
     0.6769   0.7561   0.7561   0.7661   0.9712   1.0377   1.0377   1.0421
     1.1283   1.2471   1.2471   1.7527   1.7527   1.9398   1.9398   6.8830
     6.8830   6.9029   7.0653   7.1511   7.1511   7.2385   7.6670   8.8198

          k =-0.1443-0.7144 0.2500 ( 19654 PWs)   bands (ev):

   -42.2671 -42.2483 -42.2323 -42.2314 -42.2311 -42.2310 -42.2302 -42.2301
   -42.1710 -42.1708 -42.1704 -42.1703 -42.1700 -42.1692 -41.5992  -8.7933
    -8.6748  -8.5863  -8.5477  -8.4753  -8.4168  -8.3500  -8.3436  -0.4088
    -0.3264  -0.2946  -0.1440  -0.0339   0.0569   0.1905   0.3459   0.4869
     0.5582   0.7227   0.7340   0.8050   0.8334   0.9441   1.0891   1.0920
     1.2412   1.2961   1.3347   1.4797   1.6106   1.8008   1.8768   6.7034
     7.1196   7.1267   7.2493   7.5406   7.7773   7.8061   7.9921   8.6947

          k = 0.2887-0.4082-0.5000 ( 19734 PWs)   bands (ev):

   -42.2671 -42.2482 -42.2320 -42.2319 -42.2312 -42.2312 -42.2300 -42.2300
   -42.1711 -42.1709 -42.1704 -42.1704 -42.1696 -42.1694 -41.5992  -8.7276
    -8.7162  -8.5604  -8.5604  -8.5160  -8.4422  -8.3356  -8.3356  -0.2415
    -0.2415  -0.2188  -0.1267   0.1666   0.2129   0.3238   0.3238   0.3526
     0.4196   0.6139   0.6355   0.7054   0.7054   0.7631   0.9722   1.2047
     1.2047   1.3496   1.3496   1.4430   1.5578   1.7463   1.7463   6.8265
     6.8955   7.5292   7.5292   8.0841   8.0841   8.1607   8.2350   8.6870

          k = 0.2887-0.1021 0.0000 ( 19666 PWs)   bands (ev):

   -42.2671 -42.2483 -42.2329 -42.2308 -42.2308 -42.2308 -42.2304 -42.2304
   -42.1710 -42.1710 -42.1708 -42.1702 -42.1702 -42.1686 -41.5992  -8.9142
    -8.6091  -8.5435  -8.5435  -8.4832  -8.3607  -8.3541  -8.3541  -0.6919
    -0.6918  -0.6376  -0.4660  -0.0939  -0.0939   0.1313   0.4864   0.4864
     0.6191   0.7098   0.8431   0.8431   1.2609   1.2609   1.3400   1.3539
     1.4565   1.4565   1.6237   1.6849   1.6849   2.0440   2.0440   5.9683
     5.9701   5.9701   6.6884   7.8378   7.9593   7.9593   8.1043   8.5287

          k = 0.5774 0.1021-0.5000 ( 19654 PWs)   bands (ev):

   -42.2671 -42.2483 -42.2323 -42.2314 -42.2311 -42.2310 -42.2302 -42.2301
   -42.1710 -42.1708 -42.1704 -42.1703 -42.1700 -42.1692 -41.5992  -8.7933
    -8.6748  -8.5863  -8.5477  -8.4753  -8.4168  -8.3500  -8.3436  -0.4088
    -0.3264  -0.2946  -0.1440  -0.0339   0.0569   0.1905   0.3459   0.4869
     0.5582   0.7227   0.7340   0.8050   0.8334   0.9441   1.0891   1.0920
     1.2412   1.2961   1.3347   1.4797   1.6106   1.8008   1.8768   6.7034
     7.1196   7.1267   7.2493   7.5406   7.7773   7.8061   7.9921   8.6567

          k = 0.4330 0.0000-0.2500 ( 19681 PWs)   bands (ev):

   -42.2671 -42.2483 -42.2325 -42.2311 -42.2310 -42.2310 -42.2303 -42.2302
   -42.1710 -42.1707 -42.1704 -42.1704 -42.1702 -42.1690 -41.5992  -8.8344
    -8.6411  -8.6019  -8.5329  -8.4648  -8.4003  -8.3663  -8.3398  -0.5292
    -0.5023  -0.2397  -0.1591  -0.0872  -0.0045   0.0391   0.2300   0.6696
     0.6750   0.7734   0.8195   0.8204   0.9012   0.9828   1.1229   1.1488
     1.2391   1.3617   1.4853   1.5136   1.5721   1.7665   2.0232   6.6190
     6.6421   6.6666   7.1798   7.6323   7.8482   7.9019   7.9531   8.5809

          k = 0.2887 0.2041 0.0000 ( 19699 PWs)   bands (ev):

   -42.2671 -42.2483 -42.2328 -42.2311 -42.2308 -42.2308 -42.2304 -42.2302
   -42.1711 -42.1707 -42.1707 -42.1705 -42.1700 -42.1687 -41.5992  -8.8962
    -8.5841  -8.5567  -8.5567  -8.4967  -8.3997  -8.3394  -8.3394  -0.5989
    -0.5986  -0.5986  -0.4858  -0.0588   0.0168   0.2306   0.4711   0.4814
     0.4814   0.6294   0.8466   0.8466   1.1544   1.2058   1.2058   1.3259
     1.4750   1.5593   1.6134   1.6134   1.6460   1.9135   1.9135   5.9174
     6.2517   6.2517   6.8084   8.1859   8.1883   8.1884   8.3248   8.4514

          k = 0.5774 0.4082-0.5000 ( 19681 PWs)   bands (ev):

   -42.2671 -42.2483 -42.2325 -42.2311 -42.2310 -42.2310 -42.2303 -42.2302
   -42.1710 -42.1707 -42.1704 -42.1704 -42.1702 -42.1690 -41.5992  -8.8344
    -8.6411  -8.6019  -8.5329  -8.4648  -8.4003  -8.3663  -8.3398  -0.5292
    -0.5023  -0.2397  -0.1591  -0.0872  -0.0045   0.0391   0.2300   0.6696
     0.6750   0.7734   0.8195   0.8204   0.9012   0.9828   1.1229   1.1488
     1.2391   1.3617   1.4853   1.5136   1.5721   1.7665   2.0232   6.6190
     6.6421   6.6666   7.1798   7.6323   7.8482   7.9019   7.9531   8.5809

          k = 0.4330 0.3062-0.2500 ( 19654 PWs)   bands (ev):

   -42.2671 -42.2483 -42.2323 -42.2314 -42.2311 -42.2310 -42.2302 -42.2301
   -42.1710 -42.1708 -42.1704 -42.1703 -42.1700 -42.1692 -41.5992  -8.7933
    -8.6748  -8.5863  -8.5477  -8.4753  -8.4168  -8.3500  -8.3436  -0.4088
    -0.3264  -0.2946  -0.1440  -0.0339   0.0569   0.1905   0.3459   0.4869
     0.5582   0.7227   0.7340   0.8050   0.8334   0.9441   1.0891   1.0920
     1.2412   1.2961   1.3347   1.4797   1.6106   1.8008   1.8768   6.7034
     7.1196   7.1267   7.2493   7.5406   7.7773   7.8061   7.9921   8.6946

          k = 0.2887-0.7144-0.0000 ( 19654 PWs)   bands (ev):

   -42.2671 -42.2483 -42.2323 -42.2314 -42.2311 -42.2310 -42.2302 -42.2301
   -42.1710 -42.1708 -42.1704 -42.1703 -42.1700 -42.1692 -41.5992  -8.7933
    -8.6748  -8.5863  -8.5477  -8.4753  -8.4168  -8.3500  -8.3436  -0.4088
    -0.3264  -0.2946  -0.1440  -0.0339   0.0569   0.1905   0.3459   0.4869
     0.5582   0.7227   0.7340   0.8050   0.8334   0.9441   1.0891   1.0920
     1.2412   1.2961   1.3347   1.4797   1.6106   1.8008   1.8768   6.7034
     7.1196   7.1267   7.2493   7.5406   7.7773   7.8061   7.9921   8.6567

          k = 0.4330-0.6124-0.2500 ( 19688 PWs)   bands (ev):

   -42.2671 -42.2482 -42.2320 -42.2316 -42.2315 -42.2311 -42.2301 -42.2300
   -42.1710 -42.1709 -42.1703 -42.1700 -42.1700 -42.1695 -41.5992  -8.7106
    -8.7081  -8.6184  -8.5840  -8.4628  -8.4155  -8.3478  -8.3468  -0.2767
    -0.2162  -0.1963  -0.0900   0.1848   0.2009   0.2235   0.2310   0.3856
     0.4011   0.5260   0.5290   0.9232   0.9954   1.0180   1.0201   1.0367
     1.0724   1.0907   1.3391   1.5236   1.5548   1.7065   1.7676   7.3745
     7.3864   7.5064   7.5789   7.6702   7.7472   7.7562   7.7810   8.7869

          k = 0.2887-0.4082 0.0000 ( 19681 PWs)   bands (ev):

   -42.2671 -42.2483 -42.2325 -42.2311 -42.2310 -42.2310 -42.2303 -42.2302
   -42.1710 -42.1707 -42.1704 -42.1704 -42.1702 -42.1690 -41.5992  -8.8344
    -8.6411  -8.6019  -8.5329  -8.4648  -8.4003  -8.3663  -8.3398  -0.5292
    -0.5023  -0.2397  -0.1591  -0.0872  -0.0045   0.0391   0.2300   0.6696
     0.6750   0.7734   0.8195   0.8204   0.9012   0.9828   1.1229   1.1488
     1.2391   1.3617   1.4853   1.5136   1.5721   1.7665   2.0232   6.6190
     6.6421   6.6666   7.1798   7.6323   7.8482   7.9019   7.9531   8.5809

          k = 0.5774-0.2041-0.5000 ( 19688 PWs)   bands (ev):

   -42.2671 -42.2482 -42.2320 -42.2316 -42.2315 -42.2311 -42.2301 -42.2300
   -42.1710 -42.1709 -42.1703 -42.1700 -42.1700 -42.1695 -41.5992  -8.7106
    -8.7081  -8.6184  -8.5840  -8.4628  -8.4155  -8.3478  -8.3468  -0.2767
    -0.2162  -0.1963  -0.0900   0.1848   0.2009   0.2235   0.2310   0.3856
     0.4011   0.5260   0.5290   0.9232   0.9954   1.0180   1.0201   1.0367
     1.0724   1.0907   1.3391   1.5236   1.5548   1.7065   1.7676   7.3745
     7.3864   7.5064   7.5789   7.6702   7.7472   7.7562   7.7810   8.7877

          k = 0.4330-0.3062-0.2500 ( 19654 PWs)   bands (ev):

   -42.2671 -42.2483 -42.2323 -42.2314 -42.2311 -42.2310 -42.2302 -42.2301
   -42.1710 -42.1708 -42.1704 -42.1703 -42.1700 -42.1692 -41.5992  -8.7933
    -8.6748  -8.5863  -8.5477  -8.4753  -8.4168  -8.3500  -8.3436  -0.4088
    -0.3264  -0.2946  -0.1440  -0.0339   0.0569   0.1905   0.3459   0.4869
     0.5582   0.7227   0.7340   0.8050   0.8334   0.9441   1.0891   1.0920
     1.2412   1.2961   1.3347   1.4797   1.6106   1.8008   1.8768   6.7034
     7.1196   7.1267   7.2493   7.5406   7.7773   7.8061   7.9921   8.6568

          k =-0.5774 0.2041-0.0000 ( 19650 PWs)   bands (ev):

   -42.2671 -42.2483 -42.2324 -42.2314 -42.2307 -42.2307 -42.2305 -42.2305
   -42.1706 -42.1706 -42.1706 -42.1706 -42.1701 -42.1692 -41.5992  -8.8087
    -8.7233  -8.5328  -8.5328  -8.4693  -8.3817  -8.3665  -8.3665  -0.3973
    -0.3973  -0.3834  -0.2824  -0.2824  -0.0493   0.3405   0.3884   0.6769
     0.6769   0.7561   0.7561   0.7661   0.9712   1.0377   1.0377   1.0421
     1.1283   1.2471   1.2471   1.7527   1.7527   1.9398   1.9398   6.8830
     6.8830   6.9029   7.0653   7.1511   7.1511   7.2385   7.6670   8.8198

          k =-0.5774 0.5103-0.0000 ( 19654 PWs)   bands (ev):

   -42.2671 -42.2483 -42.2323 -42.2314 -42.2311 -42.2310 -42.2302 -42.2301
   -42.1710 -42.1708 -42.1704 -42.1703 -42.1700 -42.1692 -41.5992  -8.7933
    -8.6748  -8.5863  -8.5477  -8.4753  -8.4168  -8.3500  -8.3436  -0.4088
    -0.3264  -0.2946  -0.1440  -0.0339   0.0569   0.1905   0.3459   0.4869
     0.5582   0.7227   0.7340   0.8050   0.8334   0.9441   1.0891   1.0920
     1.2412   1.2961   1.3347   1.4797   1.6106   1.8008   1.8768   6.7034
     7.1196   7.1267   7.2493   7.5406   7.7773   7.8061   7.9921   8.6567

          k =-0.5774-0.4082-0.0000 ( 19734 PWs)   bands (ev):

   -42.2671 -42.2482 -42.2320 -42.2319 -42.2312 -42.2312 -42.2300 -42.2300
   -42.1711 -42.1709 -42.1704 -42.1704 -42.1696 -42.1694 -41.5992  -8.7276
    -8.7162  -8.5604  -8.5604  -8.5160  -8.4422  -8.3356  -8.3356  -0.2415
    -0.2415  -0.2188  -0.1267   0.1666   0.2129   0.3238   0.3238   0.3526
     0.4196   0.6139   0.6355   0.7054   0.7054   0.7631   0.9722   1.2047
     1.2047   1.3496   1.3496   1.4430   1.5578   1.7463   1.7463   6.8265
     6.8955   7.5292   7.5292   8.0841   8.0841   8.1607   8.2350   8.6869

     the Fermi energy is     2.9441 ev

!    total energy              =    -411.86360805 Ry
     estimated scf accuracy    <          9.6E-11 Ry
     smearing contrib. (-TS)   =      -0.00000000 Ry
     internal energy E=F+TS    =    -411.86360805 Ry

     The total energy is F=E-TS. E is the sum of the following terms:
     one-electron contribution =    -138.08400267 Ry
     hartree contribution      =      77.46083502 Ry
     xc contribution           =    -120.43039259 Ry
     ewald contribution        =    -230.81004781 Ry

     convergence has been achieved in  11 iterations

     Forces acting on atoms (cartesian axes, Ry/au):

     atom    1 type  1   force =    -0.00105962   -0.00074929   -0.00000000
     atom    2 type  1   force =    -0.00003081   -0.00002177   -0.00000000
     atom    3 type  2   force =     0.00007032    0.00004970   -0.00012174
     atom    4 type  1   force =     0.00000007    0.00000004    0.00000000
     atom    5 type  1   force =     0.00000006    0.00000009    0.00000000
     atom    6 type  2   force =     0.00007032    0.00004970    0.00012174
     atom    7 type  1   force =    -0.00052978    0.00074919    0.00091764
     atom    8 type  1   force =    -0.00001538    0.00002184    0.00002661
     atom    9 type  2   force =     0.00145121   -0.00051308    0.00000000
     atom   10 type  1   force =    -0.00052978    0.00074919   -0.00091764
     atom   11 type  1   force =    -0.00001538    0.00002184   -0.00002661
     atom   12 type  2   force =     0.00000006   -0.00014910   -0.00000000
     atom   13 type  1   force =     0.00052983   -0.00074927    0.00091765
     atom   14 type  1   force =     0.00001543   -0.00002176    0.00002665
     atom   15 type  2   force =    -0.00000015    0.00153907    0.00000000
     atom   16 type  1   force =     0.00052983   -0.00074927   -0.00091765
     atom   17 type  1   force =     0.00001543   -0.00002176   -0.00002665
     atom   18 type  2   force =    -0.00014062    0.00004978   -0.00000000
     atom   19 type  1   force =     0.00000005    0.00000007    0.00000000
     atom   20 type  2   force =    -0.00072565   -0.00051315   -0.00125674
     atom   21 type  1   force =     0.00105948    0.00074927    0.00000000
     atom   22 type  1   force =     0.00003075    0.00002184    0.00000000
     atom   23 type  2   force =    -0.00072565   -0.00051315    0.00125674

     Total force =     0.004436     Total SCF correction =     0.000026
     Energy error            =      3.1E-05 Ry
     Gradient error          =      1.5E-03 Ry/Bohr

     number of scf cycles    =  12
     number of bfgs steps    =  11

     energy             old  =    -411.8635770635 Ry
     energy             new  =    -411.8636080470 Ry

     CASE: energy            _new < energy            _old

     new trust radius        =       0.0055719876 bohr
     new conv_thr            =            1.0E-10 Ry


ATOMIC_POSITIONS (angstrom)
Li               1.2036655299        0.8511199116        2.0170831005
Li               3.6243748859        2.5628203716        6.0512493014
S               -0.0026736965       -0.0018904471        0.0046307239
Li               1.1645625697        0.8234697716        6.0512488014
Li               3.4936892869        2.4704118682       10.0854150022
S               -0.0026736992       -0.0018904482        4.0295349770
Li               2.3486769431        4.0897033152        4.0003032406
Li               4.7235953381        5.6718850287        7.9551562004
S                1.2243437696        3.2727461564        2.0170833500
Li               2.3486769294        4.0897033064        8.1021953612
Li               4.7235953018        5.6718850038       12.2156748030
S                1.1645629756        3.2995528283        6.0512490510
Li               4.6387011978        0.8511205937        4.0003032939
Li               6.9220362102        2.5628202802        7.9551557929
S                3.4936900443        0.0634084901        2.0170833500
Li               4.6387011841        0.8511205848        8.1021953079
Li               6.9220361738        2.5628202553       12.2156752105
S                3.4990366286       -0.0018902019        6.0512490510
Li               8.1519416675        5.7642935126       10.0854160012
S                4.6283619492        3.2727469777        3.9823947131
Li               5.7837145319        4.0897033264       10.0854155013
Li               8.0212571171        5.6718855748       14.1195817020
S                4.6283619304        3.2727469652        8.1201043878



     Writing config-only to output data dir ./tmp/li2s_ep_initial.save/ :
     XML data file
     NEW-OLD atomic charge density approx. for the potential

     total cpu time spent up to now is     3811.7 secs

     Self-consistent Calculation

     iteration #  1     ecut=    60.00 Ry     beta= 0.30
     Davidson diagonalization with overlap
     ethr =  1.00E-06,  avg # of iterations =  3.0

     Threshold (ethr) on eigenvalues was too large:
     Diagonalizing with lowered threshold

     Davidson diagonalization with overlap
     ethr =  1.38E-08,  avg # of iterations =  4.0

     total cpu time spent up to now is     3865.6 secs

     total energy              =    -411.86363671 Ry
     estimated scf accuracy    <       0.00002848 Ry

     iteration #  2     ecut=    60.00 Ry     beta= 0.30
     Davidson diagonalization with overlap
     ethr =  3.03E-08,  avg # of iterations =  2.0

     total cpu time spent up to now is     3887.0 secs

     total energy              =    -411.86364039 Ry
     estimated scf accuracy    <       0.00000095 Ry

     iteration #  3     ecut=    60.00 Ry     beta= 0.30
     Davidson diagonalization with overlap
     ethr =  1.01E-09,  avg # of iterations =  4.0

     total cpu time spent up to now is     3917.6 secs

     total energy              =    -411.86364106 Ry
     estimated scf accuracy    <       0.00000047 Ry

     iteration #  4     ecut=    60.00 Ry     beta= 0.30
     Davidson diagonalization with overlap
     ethr =  4.95E-10,  avg # of iterations =  2.0

     total cpu time spent up to now is     3939.4 secs

     total energy              =    -411.86364109 Ry
     estimated scf accuracy    <       0.00000008 Ry

     iteration #  5     ecut=    60.00 Ry     beta= 0.30
     Davidson diagonalization with overlap
     ethr =  8.42E-11,  avg # of iterations =  3.9

     total cpu time spent up to now is     3967.4 secs

     total energy              =    -411.86364112 Ry
     estimated scf accuracy    <          5.4E-09 Ry

     iteration #  6     ecut=    60.00 Ry     beta= 0.30
     Davidson diagonalization with overlap
     ethr =  5.76E-12,  avg # of iterations =  4.9

     total cpu time spent up to now is     4000.4 secs

     total energy              =    -411.86364112 Ry
     estimated scf accuracy    <          9.4E-09 Ry

     iteration #  7     ecut=    60.00 Ry     beta= 0.30
     Davidson diagonalization with overlap
     ethr =  5.76E-12,  avg # of iterations =  2.0

     total cpu time spent up to now is     4022.9 secs

     total energy              =    -411.86364112 Ry
     estimated scf accuracy    <          1.8E-09 Ry

     iteration #  8     ecut=    60.00 Ry     beta= 0.30
     Davidson diagonalization with overlap
     ethr =  1.94E-12,  avg # of iterations =  3.1

     total cpu time spent up to now is     4047.9 secs

     total energy              =    -411.86364112 Ry
     estimated scf accuracy    <          2.3E-10 Ry

     iteration #  9     ecut=    60.00 Ry     beta= 0.30
     Davidson diagonalization with overlap
     ethr =  2.40E-13,  avg # of iterations =  5.0

     total cpu time spent up to now is     4082.1 secs

     total energy              =    -411.86364112 Ry
     estimated scf accuracy    <          2.0E-10 Ry

     iteration # 10     ecut=    60.00 Ry     beta= 0.30
     Davidson diagonalization with overlap
     ethr =  2.08E-13,  avg # of iterations =  2.0

     total cpu time spent up to now is     4102.4 secs

     End of self-consistent calculation

          k = 0.0000 0.0000 0.0000 ( 19603 PWs)   bands (ev):

   -42.2694 -42.2504 -42.2327 -42.2302 -42.2302 -42.2297 -42.2297 -42.2297
   -42.1713 -42.1713 -42.1713 -42.1702 -42.1702 -42.1683 -41.5969  -8.9689
    -8.5545  -8.5545  -8.5545  -8.4859  -8.3412  -8.3412  -8.3412  -0.8245
    -0.8245  -0.8245  -0.7285  -0.1533  -0.1533   0.0698   0.5996   0.5996
     0.5996   0.7691   0.7691   0.7691   1.5170   1.5170   1.5170   1.5521
     1.5521   1.6940   1.6940   1.6940   2.1164   2.1164   2.1164   5.4903
     5.4903   5.4903   6.2524   7.9704   7.9704   7.9704   8.1967   8.4295

          k =-0.1443-0.1021 0.2500 ( 19666 PWs)   bands (ev):

   -42.2694 -42.2503 -42.2324 -42.2301 -42.2301 -42.2301 -42.2298 -42.2298
   -42.1712 -42.1712 -42.1709 -42.1704 -42.1704 -42.1687 -41.5969  -8.9149
    -8.6102  -8.5451  -8.5451  -8.4824  -8.3590  -8.3521  -8.3521  -0.6918
    -0.6918  -0.6381  -0.4666  -0.0939  -0.0939   0.1323   0.4866   0.4866
     0.6193   0.7102   0.8431   0.8431   1.2613   1.2613   1.3388   1.3539
     1.4567   1.4567   1.6254   1.6847   1.6847   2.0450   2.0450   5.9681
     5.9698   5.9698   6.6881   7.8375   7.9593   7.9593   8.1039   8.5283

          k = 0.2887 0.2041-0.5000 ( 19650 PWs)   bands (ev):

   -42.2694 -42.2503 -42.2318 -42.2308 -42.2301 -42.2301 -42.2298 -42.2298
   -42.1708 -42.1708 -42.1707 -42.1707 -42.1703 -42.1693 -41.5969  -8.8100
    -8.7235  -8.5346  -8.5346  -8.4688  -8.3799  -8.3643  -8.3643  -0.3972
    -0.3972  -0.3852  -0.2824  -0.2824  -0.0477   0.3407   0.3873   0.6754
     0.6754   0.7573   0.7573   0.7661   0.9736   1.0382   1.0382   1.0402
     1.1299   1.2474   1.2474   1.7522   1.7522   1.9412   1.9412   6.8820
     6.8820   6.9025   7.0649   7.1519   7.1519   7.2381   7.6675   8.8185

          k =-0.0000 0.3062 0.0000 ( 19666 PWs)   bands (ev):

   -42.2694 -42.2503 -42.2324 -42.2301 -42.2301 -42.2301 -42.2298 -42.2298
   -42.1712 -42.1712 -42.1709 -42.1704 -42.1704 -42.1687 -41.5969  -8.9149
    -8.6102  -8.5451  -8.5451  -8.4824  -8.3590  -8.3521  -8.3521  -0.6918
    -0.6918  -0.6381  -0.4666  -0.0939  -0.0939   0.1323   0.4866   0.4866
     0.6193   0.7102   0.8431   0.8431   1.2613   1.2613   1.3388   1.3539
     1.4567   1.4567   1.6254   1.6847   1.6847   2.0450   2.0450   5.9681
     5.9698   5.9698   6.6881   7.8375   7.9593   7.9593   8.1039   8.5283

          k =-0.1443 0.2041 0.2500 ( 19699 PWs)   bands (ev):

   -42.2694 -42.2503 -42.2323 -42.2305 -42.2301 -42.2301 -42.2298 -42.2295
   -42.1713 -42.1709 -42.1709 -42.1706 -42.1701 -42.1688 -41.5969  -8.8969
    -8.5859  -8.5581  -8.5581  -8.4956  -8.3976  -8.3376  -8.3376  -0.5990
    -0.5986  -0.5986  -0.4869  -0.0588   0.0168   0.2316   0.4714   0.4815
     0.4815   0.6296   0.8467   0.8467   1.1548   1.2058   1.2058   1.3252
     1.4750   1.5601   1.6128   1.6128   1.6472   1.9149   1.9149   5.9172
     6.2514   6.2514   6.8081   8.1852   8.1881   8.1882   8.3246   8.4518

          k = 0.2887 0.5103-0.5000 ( 19654 PWs)   bands (ev):

   -42.2694 -42.2503 -42.2317 -42.2308 -42.2305 -42.2304 -42.2295 -42.2295
   -42.1712 -42.1709 -42.1706 -42.1704 -42.1701 -42.1694 -41.5969  -8.7944
    -8.6758  -8.5871  -8.5492  -8.4748  -8.4152  -8.3481  -8.3417  -0.4089
    -0.3262  -0.2958  -0.1441  -0.0334   0.0563   0.1908   0.3458   0.4871
     0.5589   0.7223   0.7336   0.8055   0.8342   0.9443   1.0894   1.0919
     1.2413   1.2965   1.3352   1.4797   1.6106   1.8023   1.8781   6.7031
     7.1189   7.1261   7.2489   7.5411   7.7770   7.8063   7.9923   8.6553

          k = 0.1443 0.4082-0.2500 ( 19681 PWs)   bands (ev):

   -42.2694 -42.2503 -42.2319 -42.2305 -42.2304 -42.2304 -42.2297 -42.2295
   -42.1712 -42.1708 -42.1706 -42.1705 -42.1704 -42.1692 -41.5969  -8.8353
    -8.6424  -8.6023  -8.5347  -8.4645  -8.3986  -8.3641  -8.3379  -0.5291
    -0.5028  -0.2399  -0.1601  -0.0873  -0.0045   0.0394   0.2313   0.6697
     0.6752   0.7727   0.8196   0.8202   0.9012   0.9836   1.1236   1.1487
     1.2393   1.3619   1.4854   1.5135   1.5722   1.7684   2.0241   6.6187
     6.6417   6.6663   7.1795   7.6319   7.8487   7.9020   7.9528   8.5805

          k = 0.0000-0.6124-0.0000 ( 19650 PWs)   bands (ev):

   -42.2694 -42.2503 -42.2318 -42.2308 -42.2301 -42.2301 -42.2298 -42.2298
   -42.1708 -42.1708 -42.1707 -42.1707 -42.1703 -42.1693 -41.5969  -8.8100
    -8.7235  -8.5346  -8.5346  -8.4688  -8.3799  -8.3643  -8.3643  -0.3972
    -0.3972  -0.3852  -0.2824  -0.2824  -0.0477   0.3407   0.3873   0.6754
     0.6754   0.7573   0.7573   0.7661   0.9736   1.0382   1.0382   1.0402
     1.1299   1.2474   1.2474   1.7522   1.7522   1.9412   1.9412   6.8820
     6.8820   6.9025   7.0649   7.1519   7.1519   7.2381   7.6675   8.8185

          k =-0.1443-0.7144 0.2500 ( 19654 PWs)   bands (ev):

   -42.2694 -42.2503 -42.2317 -42.2308 -42.2305 -42.2304 -42.2295 -42.2295
   -42.1712 -42.1709 -42.1706 -42.1704 -42.1701 -42.1694 -41.5969  -8.7944
    -8.6758  -8.5871  -8.5492  -8.4748  -8.4152  -8.3481  -8.3417  -0.4089
    -0.3262  -0.2958  -0.1441  -0.0334   0.0563   0.1908   0.3458   0.4871
     0.5589   0.7223   0.7336   0.8055   0.8342   0.9443   1.0894   1.0919
     1.2413   1.2965   1.3352   1.4797   1.6106   1.8023   1.8781   6.7031
     7.1189   7.1261   7.2489   7.5411   7.7770   7.8063   7.9923   8.6942

          k = 0.2887-0.4082-0.5000 ( 19734 PWs)   bands (ev):

   -42.2694 -42.2503 -42.2314 -42.2312 -42.2305 -42.2305 -42.2294 -42.2294
   -42.1713 -42.1710 -42.1705 -42.1705 -42.1697 -42.1696 -41.5969  -8.7288
    -8.7175  -8.5617  -8.5617  -8.5145  -8.4403  -8.3339  -8.3339  -0.2412
    -0.2412  -0.2195  -0.1281   0.1667   0.2128   0.3231   0.3231   0.3537
     0.4212   0.6130   0.6338   0.7061   0.7061   0.7643   0.9741   1.2048
     1.2048   1.3487   1.3487   1.4430   1.5588   1.7479   1.7479   6.8263
     6.8954   7.5279   7.5279   8.0853   8.0853   8.1602   8.2344   8.6880

          k = 0.2887-0.1021 0.0000 ( 19666 PWs)   bands (ev):

   -42.2694 -42.2503 -42.2324 -42.2301 -42.2301 -42.2301 -42.2298 -42.2298
   -42.1712 -42.1712 -42.1709 -42.1704 -42.1704 -42.1687 -41.5969  -8.9149
    -8.6102  -8.5451  -8.5451  -8.4824  -8.3590  -8.3521  -8.3521  -0.6918
    -0.6918  -0.6381  -0.4666  -0.0939  -0.0939   0.1323   0.4866   0.4866
     0.6193   0.7102   0.8431   0.8431   1.2613   1.2613   1.3388   1.3539
     1.4567   1.4567   1.6254   1.6847   1.6847   2.0450   2.0450   5.9681
     5.9698   5.9698   6.6881   7.8375   7.9593   7.9593   8.1039   8.5283

          k = 0.5774 0.1021-0.5000 ( 19654 PWs)   bands (ev):

   -42.2694 -42.2503 -42.2317 -42.2308 -42.2305 -42.2304 -42.2295 -42.2295
   -42.1712 -42.1709 -42.1706 -42.1704 -42.1701 -42.1694 -41.5969  -8.7944
    -8.6758  -8.5871  -8.5492  -8.4748  -8.4152  -8.3481  -8.3417  -0.4089
    -0.3262  -0.2958  -0.1441  -0.0334   0.0563   0.1908   0.3458   0.4871
     0.5589   0.7223   0.7336   0.8055   0.8342   0.9443   1.0894   1.0919
     1.2413   1.2965   1.3352   1.4797   1.6106   1.8023   1.8781   6.7031
     7.1189   7.1261   7.2489   7.5411   7.7770   7.8063   7.9923   8.6553

          k = 0.4330 0.0000-0.2500 ( 19681 PWs)   bands (ev):

   -42.2694 -42.2503 -42.2319 -42.2305 -42.2304 -42.2304 -42.2297 -42.2295
   -42.1712 -42.1708 -42.1706 -42.1705 -42.1704 -42.1692 -41.5969  -8.8353
    -8.6424  -8.6023  -8.5347  -8.4645  -8.3986  -8.3641  -8.3379  -0.5291
    -0.5028  -0.2399  -0.1601  -0.0873  -0.0045   0.0394   0.2313   0.6697
     0.6752   0.7727   0.8196   0.8202   0.9012   0.9836   1.1236   1.1487
     1.2393   1.3619   1.4854   1.5135   1.5722   1.7684   2.0241   6.6187
     6.6417   6.6663   7.1795   7.6319   7.8487   7.9020   7.9528   8.5805

          k = 0.2887 0.2041 0.0000 ( 19699 PWs)   bands (ev):

   -42.2694 -42.2503 -42.2323 -42.2305 -42.2301 -42.2301 -42.2298 -42.2295
   -42.1713 -42.1709 -42.1709 -42.1706 -42.1701 -42.1688 -41.5969  -8.8969
    -8.5859  -8.5581  -8.5581  -8.4956  -8.3976  -8.3376  -8.3376  -0.5990
    -0.5986  -0.5986  -0.4869  -0.0588   0.0168   0.2316   0.4714   0.4815
     0.4815   0.6296   0.8467   0.8467   1.1548   1.2058   1.2058   1.3252
     1.4750   1.5601   1.6128   1.6128   1.6472   1.9149   1.9149   5.9172
     6.2514   6.2514   6.8081   8.1852   8.1881   8.1882   8.3246   8.4511

          k = 0.5774 0.4082-0.5000 ( 19681 PWs)   bands (ev):

   -42.2694 -42.2503 -42.2319 -42.2305 -42.2304 -42.2304 -42.2297 -42.2295
   -42.1712 -42.1708 -42.1706 -42.1705 -42.1704 -42.1692 -41.5969  -8.8353
    -8.6424  -8.6023  -8.5347  -8.4645  -8.3986  -8.3641  -8.3379  -0.5291
    -0.5028  -0.2399  -0.1601  -0.0873  -0.0045   0.0394   0.2313   0.6697
     0.6752   0.7727   0.8196   0.8202   0.9012   0.9836   1.1236   1.1487
     1.2393   1.3619   1.4854   1.5135   1.5722   1.7684   2.0241   6.6187
     6.6417   6.6663   7.1795   7.6319   7.8487   7.9020   7.9528   8.5805

          k = 0.4330 0.3062-0.2500 ( 19654 PWs)   bands (ev):

   -42.2694 -42.2503 -42.2317 -42.2308 -42.2305 -42.2304 -42.2295 -42.2295
   -42.1712 -42.1709 -42.1706 -42.1704 -42.1701 -42.1694 -41.5969  -8.7944
    -8.6758  -8.5871  -8.5492  -8.4748  -8.4152  -8.3481  -8.3417  -0.4089
    -0.3262  -0.2958  -0.1441  -0.0334   0.0563   0.1908   0.3458   0.4871
     0.5589   0.7223   0.7336   0.8055   0.8342   0.9443   1.0894   1.0919
     1.2413   1.2965   1.3352   1.4797   1.6106   1.8023   1.8781   6.7031
     7.1189   7.1261   7.2489   7.5411   7.7770   7.8063   7.9923   8.6942

          k = 0.2887-0.7144-0.0000 ( 19654 PWs)   bands (ev):

   -42.2694 -42.2503 -42.2317 -42.2308 -42.2305 -42.2304 -42.2295 -42.2295
   -42.1712 -42.1709 -42.1706 -42.1704 -42.1701 -42.1694 -41.5969  -8.7944
    -8.6758  -8.5871  -8.5492  -8.4748  -8.4152  -8.3481  -8.3417  -0.4089
    -0.3262  -0.2958  -0.1441  -0.0334   0.0563   0.1908   0.3458   0.4871
     0.5589   0.7223   0.7336   0.8055   0.8342   0.9443   1.0894   1.0919
     1.2413   1.2965   1.3352   1.4797   1.6106   1.8023   1.8781   6.7031
     7.1189   7.1261   7.2489   7.5411   7.7770   7.8063   7.9923   8.6553

          k = 0.4330-0.6124-0.2500 ( 19688 PWs)   bands (ev):

   -42.2694 -42.2503 -42.2314 -42.2309 -42.2308 -42.2305 -42.2295 -42.2294
   -42.1712 -42.1711 -42.1705 -42.1701 -42.1701 -42.1696 -41.5969  -8.7123
    -8.7096  -8.6180  -8.5846  -8.4629  -8.4145  -8.3458  -8.3448  -0.2768
    -0.2173  -0.1954  -0.0904   0.1835   0.2013   0.2231   0.2299   0.3860
     0.4015   0.5285   0.5296   0.9234   0.9945   1.0186   1.0187   1.0369
     1.0731   1.0914   1.3399   1.5231   1.5543   1.7089   1.7692   7.3749
     7.3855   7.5045   7.5779   7.6672   7.7509   7.7535   7.7847   8.7861

          k = 0.2887-0.4082 0.0000 ( 19681 PWs)   bands (ev):

   -42.2694 -42.2503 -42.2319 -42.2305 -42.2304 -42.2304 -42.2297 -42.2295
   -42.1712 -42.1708 -42.1706 -42.1705 -42.1704 -42.1692 -41.5969  -8.8353
    -8.6424  -8.6023  -8.5347  -8.4645  -8.3986  -8.3641  -8.3379  -0.5291
    -0.5028  -0.2399  -0.1601  -0.0873  -0.0045   0.0394   0.2313   0.6697
     0.6752   0.7727   0.8196   0.8202   0.9012   0.9836   1.1236   1.1487
     1.2393   1.3619   1.4854   1.5135   1.5722   1.7684   2.0241   6.6187
     6.6417   6.6663   7.1795   7.6319   7.8487   7.9020   7.9528   8.5805

          k = 0.5774-0.2041-0.5000 ( 19688 PWs)   bands (ev):

   -42.2694 -42.2503 -42.2314 -42.2309 -42.2308 -42.2305 -42.2295 -42.2294
   -42.1712 -42.1711 -42.1705 -42.1701 -42.1701 -42.1696 -41.5969  -8.7123
    -8.7096  -8.6180  -8.5846  -8.4629  -8.4145  -8.3458  -8.3448  -0.2768
    -0.2173  -0.1954  -0.0904   0.1835   0.2013   0.2231   0.2299   0.3860
     0.4015   0.5285   0.5296   0.9234   0.9945   1.0186   1.0187   1.0369
     1.0731   1.0914   1.3399   1.5231   1.5543   1.7089   1.7692   7.3749
     7.3855   7.5045   7.5779   7.6672   7.7509   7.7535   7.7847   8.7867

          k = 0.4330-0.3062-0.2500 ( 19654 PWs)   bands (ev):

   -42.2694 -42.2503 -42.2317 -42.2308 -42.2305 -42.2304 -42.2295 -42.2295
   -42.1712 -42.1709 -42.1706 -42.1704 -42.1701 -42.1694 -41.5969  -8.7944
    -8.6758  -8.5871  -8.5492  -8.4748  -8.4152  -8.3481  -8.3417  -0.4089
    -0.3262  -0.2958  -0.1441  -0.0334   0.0563   0.1908   0.3458   0.4871
     0.5589   0.7223   0.7336   0.8055   0.8342   0.9443   1.0894   1.0919
     1.2413   1.2965   1.3352   1.4797   1.6106   1.8023   1.8781   6.7031
     7.1189   7.1261   7.2489   7.5411   7.7770   7.8063   7.9923   8.6553

          k =-0.5774 0.2041-0.0000 ( 19650 PWs)   bands (ev):

   -42.2694 -42.2503 -42.2318 -42.2308 -42.2301 -42.2301 -42.2298 -42.2298
   -42.1708 -42.1708 -42.1707 -42.1707 -42.1703 -42.1693 -41.5969  -8.8100
    -8.7235  -8.5346  -8.5346  -8.4688  -8.3799  -8.3643  -8.3643  -0.3972
    -0.3972  -0.3852  -0.2824  -0.2824  -0.0477   0.3407   0.3873   0.6754
     0.6754   0.7573   0.7573   0.7661   0.9736   1.0382   1.0382   1.0402
     1.1299   1.2474   1.2474   1.7522   1.7522   1.9412   1.9412   6.8820
     6.8820   6.9025   7.0649   7.1519   7.1519   7.2381   7.6675   8.8185

          k =-0.5774 0.5103-0.0000 ( 19654 PWs)   bands (ev):

   -42.2694 -42.2503 -42.2317 -42.2308 -42.2305 -42.2304 -42.2295 -42.2295
   -42.1712 -42.1709 -42.1706 -42.1704 -42.1701 -42.1694 -41.5969  -8.7944
    -8.6758  -8.5871  -8.5492  -8.4748  -8.4152  -8.3481  -8.3417  -0.4089
    -0.3262  -0.2958  -0.1441  -0.0334   0.0563   0.1908   0.3458   0.4871
     0.5589   0.7223   0.7336   0.8055   0.8342   0.9443   1.0894   1.0919
     1.2413   1.2965   1.3352   1.4797   1.6106   1.8023   1.8781   6.7031
     7.1189   7.1261   7.2489   7.5411   7.7770   7.8063   7.9923   8.6553

          k =-0.5774-0.4082-0.0000 ( 19734 PWs)   bands (ev):

   -42.2694 -42.2503 -42.2314 -42.2312 -42.2305 -42.2305 -42.2294 -42.2294
   -42.1713 -42.1710 -42.1705 -42.1705 -42.1697 -42.1696 -41.5969  -8.7288
    -8.7175  -8.5617  -8.5617  -8.5145  -8.4403  -8.3339  -8.3339  -0.2412
    -0.2412  -0.2195  -0.1281   0.1667   0.2128   0.3231   0.3231   0.3537
     0.4212   0.6130   0.6338   0.7061   0.7061   0.7643   0.9741   1.2048
     1.2048   1.3487   1.3487   1.4430   1.5588   1.7479   1.7479   6.8263
     6.8954   7.5279   7.5279   8.0853   8.0853   8.1602   8.2344   8.6879

     the Fermi energy is     2.9427 ev

!    total energy              =    -411.86364112 Ry
     estimated scf accuracy    <          5.5E-11 Ry
     smearing contrib. (-TS)   =      -0.00000000 Ry
     internal energy E=F+TS    =    -411.86364112 Ry

     The total energy is F=E-TS. E is the sum of the following terms:
     one-electron contribution =    -138.05473615 Ry
     hartree contribution      =      77.44655988 Ry
     xc contribution           =    -120.43019084 Ry
     ewald contribution        =    -230.82527401 Ry

     convergence has been achieved in  10 iterations

     Forces acting on atoms (cartesian axes, Ry/au):

     atom    1 type  1   force =    -0.00076795   -0.00054300   -0.00000000
     atom    2 type  1   force =    -0.00011061   -0.00007818   -0.00000000
     atom    3 type  2   force =     0.00007412    0.00005238   -0.00012829
     atom    4 type  1   force =     0.00000005    0.00000006    0.00000000
     atom    5 type  1   force =     0.00000003    0.00000007    0.00000000
     atom    6 type  2   force =     0.00007412    0.00005238    0.00012829
     atom    7 type  1   force =    -0.00038396    0.00054293    0.00066497
     atom    8 type  1   force =    -0.00005525    0.00007820    0.00009563
     atom    9 type  2   force =     0.00156245   -0.00055243    0.00000000
     atom   10 type  1   force =    -0.00038396    0.00054293   -0.00066497
     atom   11 type  1   force =    -0.00005525    0.00007820   -0.00009563
     atom   12 type  2   force =     0.00000004   -0.00015716   -0.00000000
     atom   13 type  1   force =     0.00038396   -0.00054296    0.00066496
     atom   14 type  1   force =     0.00005529   -0.00007817    0.00009572
     atom   15 type  2   force =    -0.00000012    0.00165705    0.00000000
     atom   16 type  1   force =     0.00038396   -0.00054296   -0.00066496
     atom   17 type  1   force =     0.00005529   -0.00007817   -0.00009572
     atom   18 type  2   force =    -0.00014820    0.00005246   -0.00000000
     atom   19 type  1   force =     0.00000005    0.00000006    0.00000000
     atom   20 type  2   force =    -0.00078120   -0.00055247   -0.00135306
     atom   21 type  1   force =     0.00076780    0.00054300    0.00000000
     atom   22 type  1   force =     0.00011054    0.00007824    0.00000000
     atom   23 type  2   force =    -0.00078120   -0.00055247    0.00135306

     Total force =     0.004062     Total SCF correction =     0.000022
     Energy error            =      3.3E-05 Ry
     Gradient error          =      1.7E-03 Ry/Bohr

     number of scf cycles    =  13
     number of bfgs steps    =  12

     energy             old  =    -411.8636080470 Ry
     energy             new  =    -411.8636411199 Ry

     CASE: energy            _new < energy            _old

     new trust radius        =       0.0083579813 bohr
     new conv_thr            =            1.0E-10 Ry


ATOMIC_POSITIONS (angstrom)
Li               1.2000542173        0.8485664723        2.0170831004
Li               3.6259702577        2.5639486330        6.0512493014
S               -0.0027007967       -0.0019096626        0.0046776851
Li               1.1645627565        0.8234698281        6.0512488014
Li               3.4936893612        2.4704118854       10.0854150022
S               -0.0027007993       -0.0019096636        4.0294880159
Li               2.3468714814        4.0922565057        4.0034305067
Li               4.7243931715        5.6707569591        7.9537744014
S                1.2256862414        3.2722714892        2.0170833500
Li               2.3468714686        4.0922564974        8.0990680951
Li               4.7243931347        5.6707569339       12.2170566020
S                1.1645630121        3.2996106103        6.0512490510
Li               4.6405067079        0.8485670980        4.0034305221
Li               6.9212385322        2.5639484244        7.9537740088
S                3.4936897212        0.0648322670        2.0170833500
Li               4.6405066952        0.8485670897        8.0990680797
Li               6.9212384954        2.5639483992       12.2170569945
S                3.4990908938       -0.0019092807        6.0512490510
Li               8.1519418122        5.7642936905       10.0854160012
S                4.6276907026        3.2722722206        3.9812321752
Li               5.7873253545        4.0922568721       10.0854155014
Li               8.0196616642        5.6707575484       14.1195817020
S                4.6276906835        3.2722722079        8.1212669257



     Writing config-only to output data dir ./tmp/li2s_ep_initial.save/ :
     XML data file
     NEW-OLD atomic charge density approx. for the potential

     total cpu time spent up to now is     4108.5 secs

     Self-consistent Calculation

     iteration #  1     ecut=    60.00 Ry     beta= 0.30
     Davidson diagonalization with overlap
     ethr =  1.00E-06,  avg # of iterations =  3.7

     Threshold (ethr) on eigenvalues was too large:
     Diagonalizing with lowered threshold

     Davidson diagonalization with overlap
     ethr =  3.96E-08,  avg # of iterations =  4.2

     total cpu time spent up to now is     4163.1 secs

     total energy              =    -411.86368081 Ry
     estimated scf accuracy    <       0.00003363 Ry

     iteration #  2     ecut=    60.00 Ry     beta= 0.30
     Davidson diagonalization with overlap
     ethr =  3.58E-08,  avg # of iterations =  2.2

     total cpu time spent up to now is     4185.7 secs

     total energy              =    -411.86368573 Ry
     estimated scf accuracy    <       0.00000152 Ry

     iteration #  3     ecut=    60.00 Ry     beta= 0.30
     Davidson diagonalization with overlap
     ethr =  1.62E-09,  avg # of iterations =  4.8

     total cpu time spent up to now is     4219.3 secs

     total energy              =    -411.86368679 Ry
     estimated scf accuracy    <       0.00000106 Ry

     iteration #  4     ecut=    60.00 Ry     beta= 0.30
     Davidson diagonalization with overlap
     ethr =  1.13E-09,  avg # of iterations =  2.0

     total cpu time spent up to now is     4240.9 secs

     total energy              =    -411.86368703 Ry
     estimated scf accuracy    <       0.00000007 Ry

     iteration #  5     ecut=    60.00 Ry     beta= 0.30
     Davidson diagonalization with overlap
     ethr =  7.68E-11,  avg # of iterations =  4.6

     total cpu time spent up to now is     4272.8 secs

     total energy              =    -411.86368706 Ry
     estimated scf accuracy    <       0.00000002 Ry

     iteration #  6     ecut=    60.00 Ry     beta= 0.30
     Davidson diagonalization with overlap
     ethr =  2.10E-11,  avg # of iterations =  3.5

     total cpu time spent up to now is     4299.1 secs

     total energy              =    -411.86368706 Ry
     estimated scf accuracy    <          6.6E-09 Ry

     iteration #  7     ecut=    60.00 Ry     beta= 0.30
     Davidson diagonalization with overlap
     ethr =  6.98E-12,  avg # of iterations =  4.1

     total cpu time spent up to now is     4328.5 secs

     total energy              =    -411.86368706 Ry
     estimated scf accuracy    <          3.3E-09 Ry

     iteration #  8     ecut=    60.00 Ry     beta= 0.30
     Davidson diagonalization with overlap
     ethr =  3.56E-12,  avg # of iterations =  3.1

     total cpu time spent up to now is     4353.5 secs

     total energy              =    -411.86368706 Ry
     estimated scf accuracy    <          9.8E-10 Ry

     iteration #  9     ecut=    60.00 Ry     beta= 0.30
     Davidson diagonalization with overlap
     ethr =  1.04E-12,  avg # of iterations =  3.5

     total cpu time spent up to now is     4380.3 secs

     total energy              =    -411.86368706 Ry
     estimated scf accuracy    <          2.4E-10 Ry

     iteration # 10     ecut=    60.00 Ry     beta= 0.30
     Davidson diagonalization with overlap
     ethr =  2.53E-13,  avg # of iterations =  4.5

     total cpu time spent up to now is     4411.2 secs

     End of self-consistent calculation

          k = 0.0000 0.0000 0.0000 ( 19603 PWs)   bands (ev):

   -42.2737 -42.2557 -42.2332 -42.2306 -42.2306 -42.2301 -42.2301 -42.2301
   -42.1707 -42.1707 -42.1707 -42.1697 -42.1697 -42.1678 -41.5854  -8.9705
    -8.5578  -8.5578  -8.5578  -8.4842  -8.3376  -8.3376  -8.3376  -0.8249
    -0.8249  -0.8249  -0.7306  -0.1536  -0.1536   0.0720   0.6004   0.6004
     0.6004   0.7684   0.7684   0.7684   1.5171   1.5171   1.5171   1.5525
     1.5525   1.6927   1.6927   1.6927   2.1184   2.1184   2.1184   5.4901
     5.4901   5.4901   6.2518   7.9702   7.9702   7.9702   8.1964   8.4267

          k =-0.1443-0.1021 0.2500 ( 19666 PWs)   bands (ev):

   -42.2737 -42.2557 -42.2328 -42.2306 -42.2305 -42.2305 -42.2302 -42.2302
   -42.1706 -42.1706 -42.1703 -42.1698 -42.1698 -42.1682 -41.5854  -8.9167
    -8.6126  -8.5488  -8.5488  -8.4812  -8.3554  -8.3482  -8.3482  -0.6922
    -0.6922  -0.6397  -0.4680  -0.0942  -0.0942   0.1347   0.4867   0.4867
     0.6188   0.7111   0.8424   0.8424   1.2617   1.2617   1.3358   1.3539
     1.4568   1.4568   1.6295   1.6839   1.6839   2.0474   2.0474   5.9677
     5.9694   5.9694   6.6875   7.8368   7.9593   7.9593   8.1035   8.5272

          k = 0.2887 0.2041-0.5000 ( 19650 PWs)   bands (ev):

   -42.2737 -42.2557 -42.2322 -42.2313 -42.2305 -42.2305 -42.2303 -42.2303
   -42.1702 -42.1702 -42.1702 -42.1702 -42.1697 -42.1688 -41.5854  -8.8130
    -8.7241  -8.5387  -8.5387  -8.4684  -8.3761  -8.3598  -8.3598  -0.3977
    -0.3977  -0.3892  -0.2824  -0.2824  -0.0445   0.3407   0.3847   0.6721
     0.6721   0.7596   0.7596   0.7650   0.9788   1.0359   1.0386   1.0386
     1.1347   1.2475   1.2475   1.7507   1.7507   1.9448   1.9448   6.8798
     6.8798   6.9010   7.0643   7.1538   7.1538   7.2374   7.6694   8.8155

          k =-0.0000 0.3062 0.0000 ( 19666 PWs)   bands (ev):

   -42.2737 -42.2557 -42.2328 -42.2306 -42.2305 -42.2305 -42.2302 -42.2302
   -42.1706 -42.1706 -42.1703 -42.1698 -42.1698 -42.1682 -41.5854  -8.9167
    -8.6126  -8.5488  -8.5488  -8.4812  -8.3554  -8.3482  -8.3482  -0.6922
    -0.6922  -0.6397  -0.4680  -0.0942  -0.0942   0.1347   0.4867   0.4867
     0.6188   0.7111   0.8424   0.8424   1.2617   1.2617   1.3358   1.3539
     1.4568   1.4568   1.6295   1.6839   1.6839   2.0474   2.0474   5.9677
     5.9694   5.9694   6.6875   7.8368   7.9593   7.9593   8.1035   8.5272

          k =-0.1443 0.2041 0.2500 ( 19699 PWs)   bands (ev):

   -42.2737 -42.2557 -42.2327 -42.2309 -42.2305 -42.2305 -42.2302 -42.2300
   -42.1707 -42.1703 -42.1703 -42.1700 -42.1696 -42.1683 -41.5854  -8.8988
    -8.5898  -8.5612  -8.5612  -8.4937  -8.3932  -8.3341  -8.3341  -0.5999
    -0.5989  -0.5989  -0.4891  -0.0591   0.0167   0.2339   0.4717   0.4813
     0.4813   0.6291   0.8466   0.8466   1.1547   1.2059   1.2059   1.3239
     1.4745   1.5616   1.6107   1.6107   1.6503   1.9184   1.9184   5.9169
     6.2509   6.2509   6.8075   8.1834   8.1878   8.1878   8.3238   8.4511

          k = 0.2887 0.5103-0.5000 ( 19654 PWs)   bands (ev):

   -42.2737 -42.2557 -42.2321 -42.2312 -42.2309 -42.2308 -42.2300 -42.2299
   -42.1706 -42.1704 -42.1700 -42.1699 -42.1696 -42.1688 -41.5854  -8.7971
    -8.6782  -8.5892  -8.5527  -8.4742  -8.4117  -8.3442  -8.3377  -0.4097
    -0.3264  -0.2987  -0.1444  -0.0328   0.0549   0.1911   0.3454   0.4874
     0.5595   0.7212   0.7322   0.8059   0.8359   0.9445   1.0899   1.0913
     1.2408   1.2979   1.3360   1.4796   1.6104   1.8056   1.8812   6.7025
     7.1175   7.1249   7.2479   7.5421   7.7760   7.8068   7.9931   8.6522

          k = 0.1443 0.4082-0.2500 ( 19681 PWs)   bands (ev):

   -42.2737 -42.2557 -42.2323 -42.2309 -42.2308 -42.2308 -42.2301 -42.2300
   -42.1706 -42.1703 -42.1700 -42.1699 -42.1698 -42.1686 -41.5854  -8.8377
    -8.6454  -8.6036  -8.5389  -8.4646  -8.3950  -8.3596  -8.3341  -0.5295
    -0.5043  -0.2412  -0.1622  -0.0875  -0.0049   0.0398   0.2341   0.6696
     0.6750   0.7708   0.8174   0.8215   0.9004   0.9850   1.1257   1.1482
     1.2394   1.3618   1.4850   1.5141   1.5726   1.7726   2.0262   6.6179
     6.6410   6.6658   7.1788   7.6310   7.8500   7.9022   7.9523   8.5796

          k = 0.0000-0.6124-0.0000 ( 19650 PWs)   bands (ev):

   -42.2737 -42.2557 -42.2322 -42.2313 -42.2305 -42.2305 -42.2303 -42.2303
   -42.1702 -42.1702 -42.1702 -42.1702 -42.1697 -42.1688 -41.5854  -8.8130
    -8.7241  -8.5387  -8.5387  -8.4684  -8.3761  -8.3598  -8.3598  -0.3977
    -0.3977  -0.3892  -0.2824  -0.2824  -0.0445   0.3407   0.3847   0.6721
     0.6721   0.7596   0.7596   0.7650   0.9788   1.0359   1.0386   1.0386
     1.1347   1.2475   1.2475   1.7507   1.7507   1.9448   1.9448   6.8798
     6.8798   6.9010   7.0643   7.1538   7.1538   7.2374   7.6694   8.8155

          k =-0.1443-0.7144 0.2500 ( 19654 PWs)   bands (ev):

   -42.2737 -42.2557 -42.2321 -42.2312 -42.2309 -42.2308 -42.2300 -42.2299
   -42.1706 -42.1704 -42.1700 -42.1699 -42.1696 -42.1688 -41.5854  -8.7971
    -8.6782  -8.5892  -8.5527  -8.4742  -8.4117  -8.3442  -8.3377  -0.4097
    -0.3264  -0.2987  -0.1444  -0.0328   0.0549   0.1911   0.3454   0.4874
     0.5595   0.7212   0.7322   0.8059   0.8359   0.9445   1.0899   1.0913
     1.2408   1.2979   1.3360   1.4796   1.6104   1.8056   1.8812   6.7025
     7.1175   7.1249   7.2479   7.5421   7.7760   7.8068   7.9931   8.6933

          k = 0.2887-0.4082-0.5000 ( 19734 PWs)   bands (ev):

   -42.2737 -42.2557 -42.2318 -42.2317 -42.2309 -42.2309 -42.2298 -42.2298
   -42.1707 -42.1704 -42.1699 -42.1699 -42.1692 -42.1690 -41.5854  -8.7317
    -8.7207  -8.5648  -8.5648  -8.5122  -8.4361  -8.3305  -8.3305  -0.2412
    -0.2412  -0.2219  -0.1309   0.1666   0.2126   0.3213   0.3213   0.3557
     0.4239   0.6103   0.6297   0.7075   0.7075   0.7663   0.9799   1.2044
     1.2044   1.3464   1.3464   1.4423   1.5610   1.7519   1.7519   6.8260
     6.8945   7.5258   7.5258   8.0873   8.0873   8.1596   8.2326   8.6867

          k = 0.2887-0.1021 0.0000 ( 19666 PWs)   bands (ev):

   -42.2737 -42.2557 -42.2328 -42.2306 -42.2305 -42.2305 -42.2302 -42.2302
   -42.1706 -42.1706 -42.1703 -42.1698 -42.1698 -42.1682 -41.5854  -8.9167
    -8.6126  -8.5488  -8.5488  -8.4812  -8.3554  -8.3482  -8.3482  -0.6922
    -0.6922  -0.6397  -0.4680  -0.0942  -0.0942   0.1347   0.4867   0.4867
     0.6188   0.7111   0.8424   0.8424   1.2617   1.2617   1.3358   1.3539
     1.4568   1.4568   1.6295   1.6839   1.6839   2.0474   2.0474   5.9677
     5.9694   5.9694   6.6875   7.8368   7.9593   7.9593   8.1035   8.5272

          k = 0.5774 0.1021-0.5000 ( 19654 PWs)   bands (ev):

   -42.2737 -42.2557 -42.2321 -42.2312 -42.2309 -42.2308 -42.2300 -42.2299
   -42.1706 -42.1704 -42.1700 -42.1699 -42.1696 -42.1688 -41.5854  -8.7971
    -8.6782  -8.5892  -8.5527  -8.4742  -8.4117  -8.3442  -8.3377  -0.4097
    -0.3264  -0.2987  -0.1444  -0.0328   0.0549   0.1911   0.3454   0.4874
     0.5595   0.7212   0.7322   0.8059   0.8359   0.9445   1.0899   1.0913
     1.2408   1.2979   1.3360   1.4796   1.6104   1.8056   1.8812   6.7025
     7.1175   7.1249   7.2479   7.5421   7.7760   7.8068   7.9931   8.6522

          k = 0.4330 0.0000-0.2500 ( 19681 PWs)   bands (ev):

   -42.2737 -42.2557 -42.2323 -42.2309 -42.2308 -42.2308 -42.2301 -42.2300
   -42.1706 -42.1703 -42.1700 -42.1699 -42.1698 -42.1686 -41.5854  -8.8377
    -8.6454  -8.6036  -8.5389  -8.4646  -8.3950  -8.3596  -8.3341  -0.5295
    -0.5043  -0.2412  -0.1622  -0.0875  -0.0049   0.0398   0.2341   0.6696
     0.6750   0.7708   0.8174   0.8215   0.9004   0.9850   1.1257   1.1482
     1.2394   1.3618   1.4850   1.5141   1.5726   1.7726   2.0262   6.6179
     6.6410   6.6658   7.1788   7.6310   7.8500   7.9022   7.9523   8.5796

          k = 0.2887 0.2041 0.0000 ( 19699 PWs)   bands (ev):

   -42.2737 -42.2557 -42.2327 -42.2309 -42.2305 -42.2305 -42.2302 -42.2300
   -42.1707 -42.1703 -42.1703 -42.1700 -42.1696 -42.1683 -41.5854  -8.8988
    -8.5898  -8.5612  -8.5612  -8.4937  -8.3932  -8.3341  -8.3341  -0.5999
    -0.5989  -0.5989  -0.4891  -0.0591   0.0167   0.2339   0.4717   0.4813
     0.4813   0.6291   0.8466   0.8466   1.1547   1.2059   1.2059   1.3239
     1.4745   1.5616   1.6107   1.6107   1.6503   1.9184   1.9184   5.9169
     6.2509   6.2509   6.8075   8.1834   8.1878   8.1878   8.3238   8.4504

          k = 0.5774 0.4082-0.5000 ( 19681 PWs)   bands (ev):

   -42.2737 -42.2557 -42.2323 -42.2309 -42.2308 -42.2308 -42.2301 -42.2300
   -42.1706 -42.1703 -42.1700 -42.1699 -42.1698 -42.1686 -41.5854  -8.8377
    -8.6454  -8.6036  -8.5389  -8.4646  -8.3950  -8.3596  -8.3341  -0.5295
    -0.5043  -0.2412  -0.1622  -0.0875  -0.0049   0.0398   0.2341   0.6696
     0.6750   0.7708   0.8174   0.8215   0.9004   0.9850   1.1257   1.1482
     1.2394   1.3618   1.4850   1.5141   1.5726   1.7726   2.0262   6.6179
     6.6410   6.6658   7.1788   7.6310   7.8500   7.9022   7.9523   8.5796

          k = 0.4330 0.3062-0.2500 ( 19654 PWs)   bands (ev):

   -42.2737 -42.2557 -42.2321 -42.2312 -42.2309 -42.2308 -42.2300 -42.2299
   -42.1706 -42.1704 -42.1700 -42.1699 -42.1696 -42.1688 -41.5854  -8.7971
    -8.6782  -8.5892  -8.5527  -8.4742  -8.4117  -8.3442  -8.3378  -0.4097
    -0.3264  -0.2987  -0.1444  -0.0328   0.0549   0.1911   0.3454   0.4874
     0.5595   0.7212   0.7322   0.8059   0.8359   0.9445   1.0899   1.0913
     1.2408   1.2979   1.3360   1.4796   1.6104   1.8056   1.8812   6.7025
     7.1175   7.1249   7.2479   7.5421   7.7760   7.8068   7.9931   8.6934

          k = 0.2887-0.7144-0.0000 ( 19654 PWs)   bands (ev):

   -42.2737 -42.2557 -42.2321 -42.2312 -42.2309 -42.2308 -42.2300 -42.2299
   -42.1706 -42.1704 -42.1700 -42.1699 -42.1696 -42.1688 -41.5854  -8.7971
    -8.6782  -8.5892  -8.5527  -8.4742  -8.4117  -8.3442  -8.3378  -0.4097
    -0.3264  -0.2987  -0.1444  -0.0328   0.0549   0.1911   0.3454   0.4874
     0.5595   0.7212   0.7322   0.8059   0.8359   0.9445   1.0899   1.0913
     1.2408   1.2979   1.3360   1.4796   1.6104   1.8056   1.8812   6.7025
     7.1175   7.1249   7.2479   7.5421   7.7760   7.8068   7.9931   8.6522

          k = 0.4330-0.6124-0.2500 ( 19688 PWs)   bands (ev):

   -42.2737 -42.2557 -42.2318 -42.2313 -42.2313 -42.2309 -42.2299 -42.2298
   -42.1706 -42.1705 -42.1699 -42.1695 -42.1695 -42.1691 -41.5854  -8.7159
    -8.7132  -8.6181  -8.5860  -8.4635  -8.4122  -8.3417  -8.3407  -0.2782
    -0.2195  -0.1948  -0.0908   0.1804   0.2014   0.2216   0.2276   0.3862
     0.4025   0.5314   0.5324   0.9232   0.9920   1.0157   1.0198   1.0367
     1.0765   1.0911   1.3422   1.5214   1.5535   1.7134   1.7732   7.3761
     7.3830   7.4998   7.5757   7.6629   7.7496   7.7578   7.7911   8.7843

          k = 0.2887-0.4082 0.0000 ( 19681 PWs)   bands (ev):

   -42.2737 -42.2557 -42.2323 -42.2309 -42.2308 -42.2308 -42.2301 -42.2300
   -42.1706 -42.1703 -42.1700 -42.1699 -42.1698 -42.1686 -41.5854  -8.8377
    -8.6454  -8.6036  -8.5389  -8.4646  -8.3950  -8.3596  -8.3341  -0.5295
    -0.5043  -0.2412  -0.1622  -0.0875  -0.0049   0.0398   0.2341   0.6696
     0.6750   0.7708   0.8174   0.8215   0.9004   0.9850   1.1257   1.1482
     1.2394   1.3618   1.4850   1.5141   1.5726   1.7726   2.0262   6.6179
     6.6410   6.6658   7.1788   7.6310   7.8500   7.9022   7.9523   8.5796

          k = 0.5774-0.2041-0.5000 ( 19688 PWs)   bands (ev):

   -42.2737 -42.2557 -42.2318 -42.2313 -42.2313 -42.2309 -42.2299 -42.2298
   -42.1706 -42.1705 -42.1699 -42.1695 -42.1695 -42.1691 -41.5854  -8.7159
    -8.7132  -8.6181  -8.5860  -8.4635  -8.4122  -8.3417  -8.3407  -0.2782
    -0.2195  -0.1948  -0.0908   0.1804   0.2014   0.2216   0.2276   0.3862
     0.4025   0.5314   0.5324   0.9232   0.9920   1.0157   1.0198   1.0367
     1.0765   1.0911   1.3422   1.5214   1.5535   1.7134   1.7732   7.3761
     7.3830   7.4998   7.5757   7.6629   7.7496   7.7578   7.7911   8.7848

          k = 0.4330-0.3062-0.2500 ( 19654 PWs)   bands (ev):

   -42.2737 -42.2557 -42.2321 -42.2312 -42.2309 -42.2308 -42.2300 -42.2299
   -42.1706 -42.1704 -42.1700 -42.1699 -42.1696 -42.1688 -41.5854  -8.7971
    -8.6782  -8.5892  -8.5527  -8.4742  -8.4117  -8.3442  -8.3378  -0.4097
    -0.3264  -0.2987  -0.1444  -0.0328   0.0549   0.1911   0.3454   0.4874
     0.5595   0.7212   0.7322   0.8059   0.8359   0.9445   1.0899   1.0913
     1.2408   1.2979   1.3360   1.4796   1.6104   1.8056   1.8812   6.7025
     7.1175   7.1249   7.2479   7.5421   7.7760   7.8068   7.9931   8.6522

          k =-0.5774 0.2041-0.0000 ( 19650 PWs)   bands (ev):

   -42.2737 -42.2557 -42.2322 -42.2313 -42.2305 -42.2305 -42.2303 -42.2303
   -42.1702 -42.1702 -42.1702 -42.1702 -42.1697 -42.1688 -41.5854  -8.8130
    -8.7241  -8.5387  -8.5387  -8.4684  -8.3761  -8.3598  -8.3598  -0.3977
    -0.3977  -0.3892  -0.2824  -0.2824  -0.0445   0.3407   0.3847   0.6721
     0.6721   0.7596   0.7596   0.7650   0.9788   1.0359   1.0386   1.0386
     1.1347   1.2475   1.2475   1.7507   1.7507   1.9448   1.9448   6.8798
     6.8798   6.9010   7.0643   7.1538   7.1538   7.2374   7.6694   8.8155

          k =-0.5774 0.5103-0.0000 ( 19654 PWs)   bands (ev):

   -42.2737 -42.2557 -42.2321 -42.2312 -42.2309 -42.2308 -42.2300 -42.2299
   -42.1706 -42.1704 -42.1700 -42.1699 -42.1696 -42.1688 -41.5854  -8.7971
    -8.6782  -8.5892  -8.5527  -8.4742  -8.4117  -8.3442  -8.3378  -0.4097
    -0.3264  -0.2987  -0.1444  -0.0328   0.0549   0.1911   0.3454   0.4874
     0.5595   0.7212   0.7322   0.8059   0.8359   0.9445   1.0899   1.0913
     1.2408   1.2979   1.3360   1.4796   1.6104   1.8056   1.8812   6.7025
     7.1175   7.1249   7.2479   7.5421   7.7760   7.8068   7.9931   8.6522

          k =-0.5774-0.4082-0.0000 ( 19734 PWs)   bands (ev):

   -42.2737 -42.2557 -42.2318 -42.2317 -42.2309 -42.2309 -42.2298 -42.2298
   -42.1707 -42.1704 -42.1699 -42.1699 -42.1692 -42.1690 -41.5854  -8.7317
    -8.7207  -8.5648  -8.5648  -8.5122  -8.4361  -8.3305  -8.3305  -0.2412
    -0.2412  -0.2219  -0.1309   0.1666   0.2126   0.3213   0.3213   0.3557
     0.4239   0.6103   0.6297   0.7075   0.7075   0.7663   0.9799   1.2044
     1.2044   1.3464   1.3464   1.4423   1.5610   1.7519   1.7519   6.8260
     6.8945   7.5258   7.5258   8.0873   8.0873   8.1596   8.2326   8.6867

     the Fermi energy is     2.9396 ev

!    total energy              =    -411.86368706 Ry
     estimated scf accuracy    <          9.9E-11 Ry
     smearing contrib. (-TS)   =      -0.00000000 Ry
     internal energy E=F+TS    =    -411.86368706 Ry

     The total energy is F=E-TS. E is the sum of the following terms:
     one-electron contribution =    -138.05007790 Ry
     hartree contribution      =      77.44485413 Ry
     xc contribution           =    -120.43035766 Ry
     ewald contribution        =    -230.82810564 Ry

     convergence has been achieved in  10 iterations

     Forces acting on atoms (cartesian axes, Ry/au):

     atom    1 type  1   force =    -0.00031512   -0.00022281   -0.00000000
     atom    2 type  1   force =    -0.00014267   -0.00010088   -0.00000000
     atom    3 type  2   force =     0.00004799    0.00003392   -0.00008307
     atom    4 type  1   force =     0.00000003    0.00000006    0.00000000
     atom    5 type  1   force =     0.00000002    0.00000003    0.00000000
     atom    6 type  2   force =     0.00004799    0.00003392    0.00008307
     atom    7 type  1   force =    -0.00015758    0.00022285    0.00027288
     atom    8 type  1   force =    -0.00007133    0.00010087    0.00012350
     atom    9 type  2   force =     0.00127057   -0.00044923    0.00000000
     atom   10 type  1   force =    -0.00015758    0.00022285   -0.00027288
     atom   11 type  1   force =    -0.00007133    0.00010087   -0.00012350
     atom   12 type  2   force =     0.00000001   -0.00010180   -0.00000000
     atom   13 type  1   force =     0.00015761   -0.00022283    0.00027295
     atom   14 type  1   force =     0.00007128   -0.00010080    0.00012354
     atom   15 type  2   force =    -0.00000003    0.00134755    0.00000000
     atom   16 type  1   force =     0.00015761   -0.00022283   -0.00027295
     atom   17 type  1   force =     0.00007128   -0.00010080   -0.00012354
     atom   18 type  2   force =    -0.00009594    0.00003395   -0.00000000
     atom   19 type  1   force =     0.00000003    0.00000004    0.00000000
     atom   20 type  2   force =    -0.00063526   -0.00044929   -0.00110036
     atom   21 type  1   force =     0.00031503    0.00022276    0.00000000
     atom   22 type  1   force =     0.00014267    0.00010089    0.00000000
     atom   23 type  2   force =    -0.00063526   -0.00044929    0.00110036

     Total force =     0.002895     Total SCF correction =     0.000025
     Energy error            =      4.6E-05 Ry
     Gradient error          =      1.3E-03 Ry/Bohr

     number of scf cycles    =  14
     number of bfgs steps    =  13

     energy             old  =    -411.8636411199 Ry
     energy             new  =    -411.8636870607 Ry

     CASE: energy            _new < energy            _old

     new trust radius        =       0.0066688244 bohr
     new conv_thr            =            1.0E-10 Ry


ATOMIC_POSITIONS (angstrom)
Li               1.1971727761        0.8465290557        2.0170831004
Li               3.6267105760        2.5644722142        6.0512493014
S               -0.0026202477       -0.0018527677        0.0045382768
Li               1.1645629272        0.8234699199        6.0512488014
Li               3.4936894379        2.4704119858       10.0854150022
S               -0.0026202504       -0.0018527688        4.0296274242
Li               2.3454308700        4.0942937603        4.0059257358
Li               4.7247634475        5.6702335091        7.9531330965
S                1.2286202054        3.2712341375        2.0170833501
Li               2.3454308579        4.0942937526        8.0965728661
Li               4.7247634106        5.6702334838       12.2176979069
S                1.1645630626        3.2994399717        6.0512490510
Li               4.6419473905        0.8465296488        4.0059257887
Li               6.9208683026        2.5644720383        7.9531327474
S                3.4936894310        0.0679439533        2.0170833500
Li               4.6419473784        0.8465296411        8.0965728131
Li               6.9208682657        2.5644720130       12.2176982560
S                3.4989298792       -0.0018522422        6.0512490510
Li               8.1519419588        5.7642938697       10.0854160012
S                4.6262237190        3.2712347158        3.9786913267
Li               5.7902063833        4.0942942880       10.0854155014
Li               8.0189212884        5.6702341427       14.1195817020
S                4.6262236992        3.2712347026        8.1238077743



     Writing config-only to output data dir ./tmp/li2s_ep_initial.save/ :
     XML data file
     NEW-OLD atomic charge density approx. for the potential

     total cpu time spent up to now is     4416.9 secs

     Self-consistent Calculation

     iteration #  1     ecut=    60.00 Ry     beta= 0.30
     Davidson diagonalization with overlap
     ethr =  1.00E-06,  avg # of iterations =  3.0

     Threshold (ethr) on eigenvalues was too large:
     Diagonalizing with lowered threshold

     Davidson diagonalization with overlap
     ethr =  2.19E-08,  avg # of iterations =  5.0

     total cpu time spent up to now is     4477.4 secs

     total energy              =    -411.86371272 Ry
     estimated scf accuracy    <       0.00001000 Ry

     iteration #  2     ecut=    60.00 Ry     beta= 0.30
     Davidson diagonalization with overlap
     ethr =  1.06E-08,  avg # of iterations =  2.0

     total cpu time spent up to now is     4499.8 secs

     total energy              =    -411.86371401 Ry
     estimated scf accuracy    <       0.00000067 Ry

     iteration #  3     ecut=    60.00 Ry     beta= 0.30
     Davidson diagonalization with overlap
     ethr =  7.12E-10,  avg # of iterations =  4.7

     total cpu time spent up to now is     4531.6 secs

     total energy              =    -411.86371431 Ry
     estimated scf accuracy    <       0.00000014 Ry

     iteration #  4     ecut=    60.00 Ry     beta= 0.30
     Davidson diagonalization with overlap
     ethr =  1.52E-10,  avg # of iterations =  2.2

     total cpu time spent up to now is     4554.3 secs

     total energy              =    -411.86371434 Ry
     estimated scf accuracy    <       0.00000004 Ry

     iteration #  5     ecut=    60.00 Ry     beta= 0.30
     Davidson diagonalization with overlap
     ethr =  4.44E-11,  avg # of iterations =  3.8

     total cpu time spent up to now is     4582.0 secs

     total energy              =    -411.86371434 Ry
     estimated scf accuracy    <          6.9E-09 Ry

     iteration #  6     ecut=    60.00 Ry     beta= 0.30
     Davidson diagonalization with overlap
     ethr =  7.38E-12,  avg # of iterations =  4.0

     total cpu time spent up to now is     4611.7 secs

     total energy              =    -411.86371435 Ry
     estimated scf accuracy    <          5.2E-10 Ry

     iteration #  7     ecut=    60.00 Ry     beta= 0.30
     Davidson diagonalization with overlap
     ethr =  5.55E-13,  avg # of iterations =  6.0

     total cpu time spent up to now is     4649.3 secs

     total energy              =    -411.86371435 Ry
     estimated scf accuracy    <          2.5E-09 Ry

     iteration #  8     ecut=    60.00 Ry     beta= 0.30
     Davidson diagonalization with overlap
     ethr =  5.55E-13,  avg # of iterations =  3.7

     total cpu time spent up to now is     4677.1 secs

     End of self-consistent calculation

          k = 0.0000 0.0000 0.0000 ( 19603 PWs)   bands (ev):

   -42.2776 -42.2623 -42.2350 -42.2325 -42.2325 -42.2321 -42.2321 -42.2321
   -42.1693 -42.1693 -42.1693 -42.1683 -42.1683 -42.1665 -41.5675  -8.9725
    -8.5615  -8.5615  -8.5615  -8.4827  -8.3338  -8.3338  -8.3338  -0.8255
    -0.8255  -0.8255  -0.7328  -0.1542  -0.1542   0.0747   0.6012   0.6012
     0.6012   0.7671   0.7671   0.7671   1.5174   1.5174   1.5174   1.5524
     1.5524   1.6910   1.6910   1.6910   2.1206   2.1206   2.1206   5.4901
     5.4901   5.4901   6.2513   7.9700   7.9700   7.9700   8.1963   8.4236

          k =-0.1443-0.1021 0.2500 ( 19666 PWs)   bands (ev):

   -42.2776 -42.2622 -42.2347 -42.2325 -42.2325 -42.2325 -42.2321 -42.2321
   -42.1691 -42.1691 -42.1689 -42.1684 -42.1684 -42.1669 -41.5675  -8.9189
    -8.6156  -8.5528  -8.5528  -8.4803  -8.3517  -8.3441  -8.3441  -0.6928
    -0.6928  -0.6417  -0.4696  -0.0947  -0.0947   0.1375   0.4866   0.4866
     0.6178   0.7121   0.8413   0.8413   1.2619   1.2619   1.3320   1.3540
     1.4565   1.4565   1.6345   1.6829   1.6829   2.0501   2.0501   5.9673
     5.9692   5.9692   6.6869   7.8359   7.9592   7.9592   8.1033   8.5257

          k = 0.2887 0.2041-0.5000 ( 19650 PWs)   bands (ev):

   -42.2776 -42.2622 -42.2341 -42.2332 -42.2324 -42.2324 -42.2322 -42.2322
   -42.1688 -42.1688 -42.1687 -42.1687 -42.1683 -42.1675 -41.5675  -8.8165
    -8.7253  -8.5433  -8.5433  -8.4684  -8.3721  -8.3552  -8.3552  -0.3988
    -0.3988  -0.3937  -0.2823  -0.2823  -0.0413   0.3402   0.3818   0.6684
     0.6684   0.7616   0.7616   0.7632   0.9845   1.0312   1.0388   1.0388
     1.1409   1.2472   1.2472   1.7488   1.7488   1.9489   1.9489   6.8773
     6.8773   6.8984   7.0641   7.1561   7.1561   7.2367   7.6721   8.8122

          k =-0.0000 0.3062 0.0000 ( 19666 PWs)   bands (ev):

   -42.2776 -42.2622 -42.2347 -42.2325 -42.2325 -42.2325 -42.2321 -42.2321
   -42.1691 -42.1691 -42.1689 -42.1684 -42.1684 -42.1669 -41.5675  -8.9189
    -8.6156  -8.5528  -8.5528  -8.4803  -8.3517  -8.3441  -8.3441  -0.6928
    -0.6928  -0.6417  -0.4696  -0.0947  -0.0947   0.1375   0.4866   0.4866
     0.6178   0.7121   0.8413   0.8413   1.2619   1.2619   1.3320   1.3540
     1.4565   1.4565   1.6345   1.6829   1.6829   2.0501   2.0501   5.9673
     5.9692   5.9692   6.6869   7.8359   7.9592   7.9592   8.1033   8.5257

          k =-0.1443 0.2041 0.2500 ( 19699 PWs)   bands (ev):

   -42.2776 -42.2622 -42.2346 -42.2328 -42.2325 -42.2325 -42.2321 -42.2319
   -42.1693 -42.1689 -42.1689 -42.1686 -42.1682 -42.1670 -41.5675  -8.9011
    -8.5942  -8.5649  -8.5649  -8.4923  -8.3884  -8.3305  -8.3305  -0.6014
    -0.5996  -0.5996  -0.4913  -0.0596   0.0163   0.2366   0.4720   0.4809
     0.4809   0.6281   0.8461   0.8461   1.1537   1.2059   1.2059   1.3227
     1.4736   1.5633   1.6080   1.6080   1.6539   1.9225   1.9225   5.9166
     6.2505   6.2505   6.8069   8.1810   8.1874   8.1874   8.3225   8.4505

          k = 0.2887 0.5103-0.5000 ( 19654 PWs)   bands (ev):

   -42.2776 -42.2622 -42.2340 -42.2331 -42.2329 -42.2327 -42.2319 -42.2319
   -42.1691 -42.1689 -42.1686 -42.1685 -42.1682 -42.1675 -41.5675  -8.8002
    -8.6811  -8.5918  -8.5566  -8.4741  -8.4077  -8.3403  -8.3337  -0.4109
    -0.3271  -0.3022  -0.1447  -0.0323   0.0532   0.1912   0.3448   0.4876
     0.5594   0.7198   0.7305   0.8058   0.8377   0.9444   1.0902   1.0906
     1.2398   1.3000   1.3369   1.4795   1.6101   1.8094   1.8848   6.7016
     7.1161   7.1237   7.2466   7.5432   7.7747   7.8077   7.9941   8.6488

          k = 0.1443 0.4082-0.2500 ( 19681 PWs)   bands (ev):

   -42.2776 -42.2622 -42.2342 -42.2328 -42.2328 -42.2327 -42.2321 -42.2319
   -42.1691 -42.1688 -42.1686 -42.1685 -42.1684 -42.1673 -41.5675  -8.8404
    -8.6489  -8.6054  -8.5434  -8.4650  -8.3909  -8.3551  -8.3302  -0.5302
    -0.5061  -0.2433  -0.1642  -0.0879  -0.0056   0.0400   0.2373   0.6692
     0.6744   0.7684   0.8146   0.8227   0.8987   0.9865   1.1281   1.1476
     1.2391   1.3612   1.4844   1.5156   1.5733   1.7772   2.0285   6.6166
     6.6405   6.6653   7.1780   7.6299   7.8517   7.9026   7.9518   8.5785

          k = 0.0000-0.6124-0.0000 ( 19650 PWs)   bands (ev):

   -42.2776 -42.2622 -42.2341 -42.2332 -42.2324 -42.2324 -42.2322 -42.2322
   -42.1688 -42.1688 -42.1687 -42.1687 -42.1683 -42.1675 -41.5675  -8.8165
    -8.7253  -8.5433  -8.5433  -8.4684  -8.3721  -8.3552  -8.3552  -0.3988
    -0.3988  -0.3937  -0.2823  -0.2823  -0.0413   0.3402   0.3818   0.6684
     0.6684   0.7616   0.7616   0.7632   0.9845   1.0312   1.0388   1.0388
     1.1409   1.2472   1.2472   1.7488   1.7488   1.9489   1.9489   6.8773
     6.8773   6.8984   7.0641   7.1561   7.1561   7.2367   7.6721   8.8122

          k =-0.1443-0.7144 0.2500 ( 19654 PWs)   bands (ev):

   -42.2776 -42.2622 -42.2340 -42.2331 -42.2329 -42.2327 -42.2319 -42.2319
   -42.1691 -42.1689 -42.1686 -42.1685 -42.1682 -42.1675 -41.5675  -8.8002
    -8.6811  -8.5918  -8.5566  -8.4741  -8.4077  -8.3403  -8.3337  -0.4109
    -0.3271  -0.3022  -0.1447  -0.0323   0.0532   0.1912   0.3448   0.4876
     0.5594   0.7198   0.7305   0.8058   0.8377   0.9444   1.0902   1.0906
     1.2398   1.3000   1.3369   1.4795   1.6101   1.8094   1.8848   6.7016
     7.1161   7.1237   7.2466   7.5432   7.7747   7.8077   7.9941   8.6923

          k = 0.2887-0.4082-0.5000 ( 19734 PWs)   bands (ev):

   -42.2776 -42.2622 -42.2337 -42.2335 -42.2328 -42.2328 -42.2318 -42.2318
   -42.1693 -42.1690 -42.1685 -42.1685 -42.1678 -42.1677 -41.5675  -8.7350
    -8.7244  -8.5683  -8.5683  -8.5106  -8.4313  -8.3270  -8.3270  -0.2416
    -0.2416  -0.2252  -0.1339   0.1662   0.2125   0.3193   0.3193   0.3573
     0.4265   0.6067   0.6250   0.7087   0.7087   0.7679   0.9879   1.2034
     1.2034   1.3439   1.3439   1.4410   1.5637   1.7568   1.7568   6.8258
     6.8932   7.5239   7.5239   8.0892   8.0892   8.1594   8.2303   8.6828

          k = 0.2887-0.1021 0.0000 ( 19666 PWs)   bands (ev):

   -42.2776 -42.2622 -42.2347 -42.2325 -42.2325 -42.2325 -42.2321 -42.2321
   -42.1691 -42.1691 -42.1689 -42.1684 -42.1684 -42.1669 -41.5675  -8.9189
    -8.6156  -8.5528  -8.5528  -8.4803  -8.3517  -8.3441  -8.3441  -0.6928
    -0.6928  -0.6417  -0.4696  -0.0947  -0.0947   0.1375   0.4866   0.4866
     0.6178   0.7121   0.8413   0.8413   1.2619   1.2619   1.3320   1.3540
     1.4565   1.4565   1.6345   1.6829   1.6829   2.0501   2.0501   5.9673
     5.9692   5.9692   6.6869   7.8359   7.9592   7.9592   8.1033   8.5257

          k = 0.5774 0.1021-0.5000 ( 19654 PWs)   bands (ev):

   -42.2776 -42.2622 -42.2340 -42.2331 -42.2329 -42.2327 -42.2319 -42.2319
   -42.1691 -42.1689 -42.1686 -42.1685 -42.1682 -42.1675 -41.5675  -8.8002
    -8.6811  -8.5918  -8.5566  -8.4741  -8.4077  -8.3403  -8.3337  -0.4109
    -0.3271  -0.3022  -0.1447  -0.0323   0.0532   0.1912   0.3448   0.4876
     0.5594   0.7198   0.7305   0.8058   0.8377   0.9444   1.0902   1.0906
     1.2398   1.3000   1.3369   1.4795   1.6101   1.8094   1.8848   6.7016
     7.1161   7.1237   7.2466   7.5432   7.7747   7.8077   7.9941   8.6488

          k = 0.4330 0.0000-0.2500 ( 19681 PWs)   bands (ev):

   -42.2776 -42.2622 -42.2342 -42.2328 -42.2328 -42.2327 -42.2321 -42.2319
   -42.1691 -42.1688 -42.1686 -42.1685 -42.1684 -42.1673 -41.5675  -8.8404
    -8.6489  -8.6054  -8.5434  -8.4650  -8.3909  -8.3551  -8.3302  -0.5302
    -0.5061  -0.2433  -0.1642  -0.0879  -0.0056   0.0400   0.2373   0.6692
     0.6744   0.7684   0.8146   0.8227   0.8987   0.9865   1.1281   1.1476
     1.2391   1.3612   1.4844   1.5156   1.5733   1.7772   2.0285   6.6166
     6.6405   6.6653   7.1780   7.6299   7.8517   7.9026   7.9518   8.5785

          k = 0.2887 0.2041 0.0000 ( 19699 PWs)   bands (ev):

   -42.2776 -42.2622 -42.2346 -42.2328 -42.2325 -42.2325 -42.2321 -42.2319
   -42.1693 -42.1689 -42.1689 -42.1686 -42.1682 -42.1670 -41.5675  -8.9011
    -8.5942  -8.5649  -8.5649  -8.4923  -8.3884  -8.3305  -8.3305  -0.6014
    -0.5996  -0.5996  -0.4913  -0.0596   0.0163   0.2366   0.4720   0.4809
     0.4809   0.6281   0.8461   0.8461   1.1537   1.2059   1.2059   1.3227
     1.4736   1.5633   1.6080   1.6080   1.6539   1.9225   1.9225   5.9166
     6.2505   6.2505   6.8069   8.1810   8.1874   8.1874   8.3225   8.4496

          k = 0.5774 0.4082-0.5000 ( 19681 PWs)   bands (ev):

   -42.2776 -42.2622 -42.2342 -42.2328 -42.2328 -42.2327 -42.2321 -42.2319
   -42.1691 -42.1688 -42.1686 -42.1685 -42.1684 -42.1673 -41.5675  -8.8404
    -8.6489  -8.6054  -8.5434  -8.4650  -8.3909  -8.3551  -8.3302  -0.5302
    -0.5061  -0.2433  -0.1642  -0.0879  -0.0056   0.0400   0.2373   0.6692
     0.6744   0.7684   0.8146   0.8227   0.8987   0.9865   1.1281   1.1476
     1.2391   1.3612   1.4844   1.5156   1.5733   1.7772   2.0285   6.6166
     6.6405   6.6653   7.1780   7.6299   7.8517   7.9026   7.9518   8.5785

          k = 0.4330 0.3062-0.2500 ( 19654 PWs)   bands (ev):

   -42.2776 -42.2622 -42.2340 -42.2331 -42.2329 -42.2327 -42.2319 -42.2319
   -42.1691 -42.1689 -42.1686 -42.1685 -42.1682 -42.1675 -41.5675  -8.8002
    -8.6811  -8.5918  -8.5566  -8.4741  -8.4077  -8.3403  -8.3337  -0.4109
    -0.3271  -0.3022  -0.1447  -0.0323   0.0532   0.1912   0.3448   0.4876
     0.5594   0.7198   0.7305   0.8058   0.8377   0.9444   1.0902   1.0906
     1.2398   1.3000   1.3369   1.4795   1.6101   1.8094   1.8848   6.7016
     7.1161   7.1237   7.2466   7.5432   7.7747   7.8077   7.9941   8.6925

          k = 0.2887-0.7144-0.0000 ( 19654 PWs)   bands (ev):

   -42.2776 -42.2622 -42.2340 -42.2331 -42.2329 -42.2327 -42.2319 -42.2319
   -42.1691 -42.1689 -42.1686 -42.1685 -42.1682 -42.1675 -41.5675  -8.8002
    -8.6811  -8.5918  -8.5566  -8.4741  -8.4077  -8.3403  -8.3337  -0.4109
    -0.3271  -0.3022  -0.1447  -0.0323   0.0532   0.1912   0.3448   0.4876
     0.5594   0.7198   0.7305   0.8058   0.8377   0.9444   1.0902   1.0906
     1.2398   1.3000   1.3369   1.4795   1.6101   1.8094   1.8848   6.7016
     7.1161   7.1237   7.2466   7.5432   7.7747   7.8077   7.9941   8.6488

          k = 0.4330-0.6124-0.2500 ( 19688 PWs)   bands (ev):

   -42.2776 -42.2622 -42.2337 -42.2332 -42.2332 -42.2328 -42.2318 -42.2318
   -42.1692 -42.1691 -42.1685 -42.1682 -42.1682 -42.1678 -41.5675  -8.7198
    -8.7173  -8.6189  -8.5879  -8.4646  -8.4093  -8.3375  -8.3366  -0.2805
    -0.2216  -0.1953  -0.0907   0.1771   0.2008   0.2197   0.2250   0.3857
     0.4037   0.5337   0.5355   0.9224   0.9887   1.0126   1.0211   1.0359
     1.0819   1.0892   1.3456   1.5192   1.5532   1.7181   1.7781   7.3773
     7.3797   7.4938   7.5730   7.6598   7.7466   7.7651   7.7973   8.7818

          k = 0.2887-0.4082 0.0000 ( 19681 PWs)   bands (ev):

   -42.2776 -42.2622 -42.2342 -42.2328 -42.2328 -42.2327 -42.2321 -42.2319
   -42.1691 -42.1688 -42.1686 -42.1685 -42.1684 -42.1673 -41.5675  -8.8404
    -8.6489  -8.6054  -8.5434  -8.4650  -8.3909  -8.3551  -8.3302  -0.5302
    -0.5061  -0.2433  -0.1642  -0.0879  -0.0056   0.0400   0.2373   0.6692
     0.6744   0.7684   0.8146   0.8227   0.8987   0.9865   1.1281   1.1476
     1.2391   1.3612   1.4844   1.5156   1.5733   1.7772   2.0285   6.6166
     6.6405   6.6653   7.1780   7.6299   7.8517   7.9026   7.9518   8.5785

          k = 0.5774-0.2041-0.5000 ( 19688 PWs)   bands (ev):

   -42.2776 -42.2622 -42.2337 -42.2332 -42.2332 -42.2328 -42.2318 -42.2318
   -42.1692 -42.1691 -42.1685 -42.1682 -42.1682 -42.1678 -41.5675  -8.7198
    -8.7173  -8.6189  -8.5879  -8.4646  -8.4093  -8.3375  -8.3366  -0.2805
    -0.2216  -0.1953  -0.0907   0.1771   0.2008   0.2197   0.2250   0.3857
     0.4037   0.5337   0.5355   0.9224   0.9887   1.0126   1.0211   1.0359
     1.0819   1.0892   1.3456   1.5192   1.5532   1.7181   1.7781   7.3773
     7.3797   7.4938   7.5730   7.6598   7.7466   7.7651   7.7973   8.7823

          k = 0.4330-0.3062-0.2500 ( 19654 PWs)   bands (ev):

   -42.2776 -42.2622 -42.2340 -42.2331 -42.2329 -42.2327 -42.2319 -42.2319
   -42.1691 -42.1689 -42.1686 -42.1685 -42.1682 -42.1675 -41.5675  -8.8002
    -8.6811  -8.5918  -8.5566  -8.4741  -8.4077  -8.3403  -8.3337  -0.4109
    -0.3271  -0.3022  -0.1447  -0.0323   0.0532   0.1912   0.3448   0.4876
     0.5594   0.7198   0.7305   0.8058   0.8377   0.9444   1.0902   1.0906
     1.2398   1.3000   1.3369   1.4795   1.6101   1.8094   1.8848   6.7016
     7.1161   7.1237   7.2466   7.5432   7.7747   7.8077   7.9941   8.6488

          k =-0.5774 0.2041-0.0000 ( 19650 PWs)   bands (ev):

   -42.2776 -42.2622 -42.2341 -42.2332 -42.2324 -42.2324 -42.2322 -42.2322
   -42.1688 -42.1688 -42.1687 -42.1687 -42.1683 -42.1675 -41.5675  -8.8165
    -8.7253  -8.5433  -8.5433  -8.4684  -8.3721  -8.3552  -8.3552  -0.3988
    -0.3988  -0.3937  -0.2823  -0.2823  -0.0413   0.3402   0.3818   0.6684
     0.6684   0.7616   0.7616   0.7632   0.9845   1.0312   1.0388   1.0388
     1.1409   1.2472   1.2472   1.7488   1.7488   1.9489   1.9489   6.8773
     6.8773   6.8984   7.0641   7.1561   7.1561   7.2367   7.6721   8.8122

          k =-0.5774 0.5103-0.0000 ( 19654 PWs)   bands (ev):

   -42.2776 -42.2622 -42.2340 -42.2331 -42.2329 -42.2327 -42.2319 -42.2319
   -42.1691 -42.1689 -42.1686 -42.1685 -42.1682 -42.1675 -41.5675  -8.8002
    -8.6811  -8.5918  -8.5566  -8.4741  -8.4077  -8.3403  -8.3337  -0.4109
    -0.3271  -0.3022  -0.1447  -0.0323   0.0532   0.1912   0.3448   0.4876
     0.5594   0.7198   0.7305   0.8058   0.8377   0.9444   1.0902   1.0906
     1.2398   1.3000   1.3369   1.4795   1.6101   1.8094   1.8848   6.7016
     7.1161   7.1237   7.2466   7.5432   7.7747   7.8077   7.9941   8.6488

          k =-0.5774-0.4082-0.0000 ( 19734 PWs)   bands (ev):

   -42.2776 -42.2622 -42.2337 -42.2335 -42.2328 -42.2328 -42.2318 -42.2318
   -42.1693 -42.1690 -42.1685 -42.1685 -42.1678 -42.1677 -41.5675  -8.7350
    -8.7244  -8.5683  -8.5683  -8.5106  -8.4313  -8.3270  -8.3270  -0.2416
    -0.2416  -0.2252  -0.1339   0.1662   0.2125   0.3193   0.3193   0.3573
     0.4265   0.6067   0.6250   0.7087   0.7087   0.7679   0.9879   1.2034
     1.2034   1.3439   1.3439   1.4410   1.5637   1.7568   1.7568   6.8258
     6.8932   7.5239   7.5239   8.0892   8.0892   8.1594   8.2303   8.6828

     the Fermi energy is     2.9362 ev

!    total energy              =    -411.86371435 Ry
     estimated scf accuracy    <          5.4E-11 Ry
     smearing contrib. (-TS)   =      -0.00000000 Ry
     internal energy E=F+TS    =    -411.86371435 Ry

     The total energy is F=E-TS. E is the sum of the following terms:
     one-electron contribution =    -138.08949603 Ry
     hartree contribution      =      77.46525814 Ry
     xc contribution           =    -120.43102636 Ry
     ewald contribution        =    -230.80845010 Ry

     convergence has been achieved in   8 iterations

     Forces acting on atoms (cartesian axes, Ry/au):

     atom    1 type  1   force =     0.00005841    0.00004127    0.00000000
     atom    2 type  1   force =    -0.00008493   -0.00006011   -0.00000000
     atom    3 type  2   force =    -0.00000190   -0.00000132    0.00000327
     atom    4 type  1   force =     0.00000001    0.00000005    0.00000000
     atom    5 type  1   force =    -0.00000003    0.00000000   -0.00000000
     atom    6 type  2   force =    -0.00000190   -0.00000132   -0.00000327
     atom    7 type  1   force =     0.00002920   -0.00004128   -0.00005060
     atom    8 type  1   force =    -0.00004258    0.00006002    0.00007356
     atom    9 type  2   force =     0.00051835   -0.00018324    0.00000000
     atom   10 type  1   force =     0.00002920   -0.00004128    0.00005060
     atom   11 type  1   force =    -0.00004258    0.00006002   -0.00007356
     atom   12 type  2   force =    -0.00000002    0.00000403    0.00000000
     atom   13 type  1   force =    -0.00002910    0.00004128   -0.00005057
     atom   14 type  1   force =     0.00004243   -0.00006003    0.00007363
     atom   15 type  2   force =     0.00000004    0.00054973    0.00000000
     atom   16 type  1   force =    -0.00002910    0.00004128    0.00005057
     atom   17 type  1   force =     0.00004243   -0.00006003   -0.00007363
     atom   18 type  2   force =     0.00000383   -0.00000135    0.00000000
     atom   19 type  1   force =     0.00000003    0.00000000    0.00000000
     atom   20 type  2   force =    -0.00025912   -0.00018327   -0.00044892
     atom   21 type  1   force =    -0.00005848   -0.00004128   -0.00000000
     atom   22 type  1   force =     0.00008493    0.00006007    0.00000000
     atom   23 type  2   force =    -0.00025912   -0.00018327    0.00044892

     Total force =     0.001142     Total SCF correction =     0.000014
     Energy error            =      2.7E-05 Ry
     Gradient error          =      5.5E-04 Ry/Bohr

     bfgs converged in  15 scf cycles and  14 bfgs steps
     (criteria: energy <  1.0E-04 Ry, force <  1.0E-03 Ry/Bohr)

     End of BFGS Geometry Optimization

     Final energy             =    -411.8637143478 Ry

     File ./tmp/li2s_ep_initial.bfgs deleted, as requested
Begin final coordinates

ATOMIC_POSITIONS (angstrom)
Li               1.1971727761        0.8465290557        2.0170831004
Li               3.6267105760        2.5644722142        6.0512493014
S               -0.0026202477       -0.0018527677        0.0045382768
Li               1.1645629272        0.8234699199        6.0512488014
Li               3.4936894379        2.4704119858       10.0854150022
S               -0.0026202504       -0.0018527688        4.0296274242
Li               2.3454308700        4.0942937603        4.0059257358
Li               4.7247634475        5.6702335091        7.9531330965
S                1.2286202054        3.2712341375        2.0170833501
Li               2.3454308579        4.0942937526        8.0965728661
Li               4.7247634106        5.6702334838       12.2176979069
S                1.1645630626        3.2994399717        6.0512490510
Li               4.6419473905        0.8465296488        4.0059257887
Li               6.9208683026        2.5644720383        7.9531327474
S                3.4936894310        0.0679439533        2.0170833500
Li               4.6419473784        0.8465296411        8.0965728131
Li               6.9208682657        2.5644720130       12.2176982560
S                3.4989298792       -0.0018522422        6.0512490510
Li               8.1519419588        5.7642938697       10.0854160012
S                4.6262237190        3.2712347158        3.9786913267
Li               5.7902063833        4.0942942880       10.0854155014
Li               8.0189212884        5.6702341427       14.1195817020
S                4.6262236992        3.2712347026        8.1238077743
End final coordinates



     Writing all to output data dir ./tmp/li2s_ep_initial.save/ :
     XML data file, charge density, pseudopotentials, collected wavefunctions
 
     init_run     :     11.67s CPU     12.03s WALL (       1 calls)
     electrons    :   4576.18s CPU   4582.45s WALL (      15 calls)
     update_pot   :      3.22s CPU      3.25s WALL (      14 calls)
     forces       :     74.87s CPU     74.91s WALL (      15 calls)

     Called by init_run:
     wfcinit      :      9.32s CPU      9.52s WALL (       1 calls)
     potinit      :      0.83s CPU      0.87s WALL (       1 calls)
     hinit0       :      0.57s CPU      0.60s WALL (       1 calls)

     Called by electrons:
     c_bands      :   3622.82s CPU   3628.26s WALL (     159 calls)
     sum_band     :    821.05s CPU    821.24s WALL (     159 calls)
     v_of_rho     :     16.63s CPU     16.81s WALL (     165 calls)
     newd         :    101.30s CPU    101.50s WALL (     165 calls)
                                      101.50s GPU  (     165 calls)
     mix_rho      :     19.29s CPU     19.30s WALL (     159 calls)

     Called by c_bands:
     init_us_2    :    300.78s CPU    300.79s WALL (    8016 calls)
     cegterg      :   3197.85s CPU   3199.43s WALL (    3816 calls)

     Called by *egterg:
     cdiaghg      :    278.18s CPU    278.58s WALL (   18254 calls)
                                      253.64s GPU  (   18254 calls)
     h_psi        :   1588.68s CPU   1608.62s WALL (   18830 calls)
                                     1591.53s GPU  (   18830 calls)
     s_psi        :    467.35s CPU    467.40s WALL (   18830 calls)
     g_psi        :      0.08s CPU     17.52s WALL (   14990 calls)
                                        2.06s GPU  (   14990 calls)

     Called by h_psi:
     h_psi:calbec :      1.24s CPU     92.96s WALL (   18830 calls)
                                       83.37s GPU  (   18830 calls)
     vloc_psi     :   1041.13s CPU   1051.97s WALL (   18830 calls)
                                     1036.33s GPU  (   18830 calls)
     add_vuspsi   :    275.44s CPU    390.72s WALL (   18830 calls)
                                      378.26s GPU  (   18830 calls)

     General routines
     calbec       :      1.53s CPU      1.56s WALL (   24086 calls)
     fft          :      2.76s CPU      5.89s WALL (    2303 calls)
                                        1.16s GPU  (    2138 calls)
     ffts         :      0.86s CPU      1.07s WALL (     324 calls)
                                        0.04s GPU  (     159 calls)
     fftw         :      2.64s CPU    490.03s WALL (  116852 calls)
                                      401.78s GPU  (  116852 calls)
     interpolate  :      4.14s CPU      4.28s WALL (     165 calls)
 
     Parallel routines
 
     PWSCF        :      1h17m CPU      1h18m WALL

 
   This run was terminated on:  23:50:33   9Oct2026            

=------------------------------------------------------------------------------=
   JOB DONE.
=------------------------------------------------------------------------------=
Warning: ieee_invalid is signaling
Warning: ieee_divide_by_zero is signaling
Warning: ieee_inexact is signaling
FORTRAN STOP
