site_screen DFT handoff (freeze<= 17.396 A)
1.0
  18.2724449377 0.0000000000 0.0000000000
  -3.6263933057 10.9259057104 0.0000000000
  0.0000000000000000 -0.0000000000000000 36.6550999999999974
  Li  Ni  O  S  C  H
  48  48  102  2  11  16
Selective dynamics
Direct
  0.9581555227000000 0.2290777613000000 0.3293233051080093 F F F
  0.2914888559000000 0.1457444282000000 0.3293233051080093 F F F
  0.6248221890000000 0.0624110942000000 0.3293233051080093 F F F
  0.0407776122000000 0.1453888064000000 0.3849606092629794 F F F
  0.3741109454000000 0.0620554724000000 0.3849606092629794 F F F
  0.7074442791000000 0.2287221395000000 0.3849606092629794 F F F
  0.1228053137000000 0.0614023778000000 0.4418143284132103 F F F
  0.4559912116000000 0.2279949128000000 0.4417376160292544 F F F
  0.7891160757000000 0.1445604073000000 0.4418040922305286 F F F
  0.2029456719000000 0.2267630497000000 0.4989494558622634 T T T
  0.5364301146000000 0.1419052371000000 0.4983607566014753 T T T
  0.8699579169000000 0.0595591228000000 0.4981589481600986 T T T
  0.9581555225000000 0.4790777615000000 0.3293233051080093 F F F
  0.2914888555000000 0.3957444275000000 0.3293233051080093 F F F
  0.6248221888000000 0.3124110944000000 0.3293233051080093 F F F
  0.0407776119000000 0.3953888057000000 0.3849606092629794 F F F
  0.3741109458000000 0.3120554726000000 0.3849606092629794 F F F
  0.7074442788999999 0.4787221397000000 0.3849606092629794 F F F
  0.1228053135000000 0.3114023780000000 0.4418143284132103 F F F
  0.4559912114000000 0.4779949130000000 0.4417376160292544 F F F
  0.7891160760000000 0.3945604066000000 0.4418040922305286 F F F
  0.2030111295000000 0.4760495842000000 0.4987585247323173 T T T
  0.5373141626000000 0.3903111717000000 0.4986439008847598 T T T
  0.8699577539000000 0.3103314425000000 0.4980396351401309 T T T
  0.9581555222000000 0.7290777608000000 0.3293233051080093 F F F
  0.2914888559000000 0.6457444277000000 0.3293233051080093 F F F
  0.6248221892000000 0.5624110946000000 0.3293233051080093 F F F
  0.0407776123000000 0.6453888059000000 0.3849606092629794 F F F
  0.3741109456000000 0.5620554728000000 0.3849606092629794 F F F
  0.7074442786000000 0.7287221390000000 0.3849606092629794 F F F
  0.1228053133000000 0.5614023782000001 0.4418143284132103 F F F
  0.4559912118000000 0.7279949133000000 0.4417376160292544 F F F
  0.7891160758000000 0.6445604069000000 0.4418040922305286 F F F
  0.2031987968000000 0.7264474516000000 0.4983040444459635 T T T
  0.5381487834999999 0.6470006329000000 0.4990017735697577 T T T
  0.8700265297999999 0.5602973586000000 0.4983591740057869 T T T
  0.9581555226000000 0.9790777610000000 0.3293233051080093 F F F
  0.2914888558000000 0.8957444279000000 0.3293233051080093 F F F
  0.6248221891000000 0.8124110948000000 0.3293233051080093 F F F
  0.0407776121000000 0.8953888061000000 0.3849606092629794 F F F
  0.3741109454000000 0.8120554730000000 0.3849606092629794 F F F
  0.7074442790000000 0.9787221392000000 0.3849606092629794 F F F
  0.1228053136000000 0.8114023775000000 0.4418143284132103 F F F
  0.4559912117000000 0.9779949135000000 0.4417376160292544 F F F
  0.7891160756000000 0.8945604071000000 0.4418040922305286 F F F
  0.2032700029000000 0.9770280600000000 0.4984533448060506 T T T
  0.5365821682000000 0.8943820155000000 0.4983032734568589 T T T
  0.8699658707000000 0.8100649991000000 0.4981763124627348 T T T
  0.4581555226000000 0.2290777613000000 0.3293233051080093 F F F
  0.7914888559000000 0.1457444282000000 0.3293233051080093 F F F
  0.1248221889000000 0.0624110942000000 0.3293233051080093 F F F
  0.5407776123000000 0.1453888064000000 0.3849606092629794 F F F
  0.8741109454000000 0.0620554724000000 0.3849606092629794 F F F
  0.2074442790000000 0.2287221395000000 0.3849606092629794 F F F
  0.6243433249000000 0.0621716531000000 0.4427766763695902 F F F
  0.9577526387000000 0.2288761267000000 0.4428342820270914 F F F
  0.2911494255000000 0.1455744185000000 0.4426638429933572 F F F
  0.7085616795000000 0.2293394522000000 0.4990749235035754 T T T
  0.0422310324000000 0.1460739029000000 0.4987358940267516 T T T
  0.3754584347000000 0.0623560864000000 0.4988052890727395 T T T
  0.4581555225000000 0.4790777615000000 0.3293233051080093 F F F
  0.7914888556000000 0.3957444275000000 0.3293233051080093 F F F
  0.1248221893000000 0.3124110944000000 0.3293233051080093 F F F
  0.5407776120000000 0.3953888057000000 0.3849606092629794 F F F
  0.8741109453000000 0.3120554726000000 0.3849606092629794 F F F
  0.2074442788000000 0.4787221397000000 0.3849606092629794 F F F
  0.6243433248000000 0.3121716534000000 0.4427766763695902 F F F
  0.9577526385000000 0.4788761269000000 0.4428342820270914 F F F
  0.2911494254000000 0.3955744187000000 0.4426638429933572 F F F
  0.7088059766000000 0.4792992022000000 0.4991698238499058 T T T
  0.0422706550000000 0.3961552804000000 0.4987394667963713 T T T
  0.3739106486000000 0.3108160294000000 0.5004690504554897 T T T
  0.4581555221000000 0.7290777608000000 0.3293233051080093 F F F
  0.7914888560000000 0.6457444277000000 0.3293233051080093 F F F
  0.1248221892000000 0.5624110946000000 0.3293233051080093 F F F
  0.5407776124000000 0.6453888059000000 0.3849606092629794 F F F
  0.8741109457000000 0.5620554728000000 0.3849606092629794 F F F
  0.2074442791000000 0.7287221390000000 0.3849606092629794 F F F
  0.6243433246000000 0.5621716536000000 0.4427766763695902 F F F
  0.9577526387000000 0.7288761263000000 0.4428342820270914 F F F
  0.2911494258000000 0.6455744189000000 0.4426638429933572 F F F
  0.7088167378000000 0.7291998907000000 0.4989873728571071 T T T
  0.0423652484000000 0.6461804391000000 0.4987537180003734 T T T
  0.3743787023000000 0.5630106010000000 0.4996847379921486 T T T
  0.4581555225000000 0.9790777610000000 0.3293233051080093 F F F
  0.7914888557999999 0.8957444279000000 0.3293233051080093 F F F
  0.1248221890000000 0.8124110948000000 0.3293233051080093 F F F
  0.5407776122000000 0.8953888061000000 0.3849606092629794 F F F
  0.8741109455000000 0.8120554730000000 0.3849606092629794 F F F
  0.2074442789000000 0.9787221392000000 0.3849606092629794 F F F
  0.6243433250000000 0.8121716538000000 0.4427766763695902 F F F
  0.9577526386000000 0.9788761265000000 0.4428342820270914 F F F
  0.2911494254000000 0.8955744182000001 0.4426638429933572 F F F
  0.7086395938000000 0.9793167975000000 0.4989587113639757 T T T
  0.0423338733000000 0.8961388977000000 0.4987533846398418 T T T
  0.3755296585000000 0.8129554350000000 0.4987104342972397 T T T
  0.7140137492999999 0.2320068750000000 0.3273759995414262 F F F
  0.2022972954000000 0.2261486476000000 0.3312706109222600 F F F
  0.0473470828000000 0.1486735409000000 0.3273759995414262 F F F
  0.5356306287000000 0.1428153145000000 0.3312706109222600 F F F
  0.3806804161000000 0.0653402078000000 0.3273759995414262 F F F
  0.8689639626000000 0.0594819814000000 0.3312706109222600 F F F
  0.7966358388000000 0.1483179192000000 0.3830133037789522 F F F
  0.2849193856000000 0.1424596927000000 0.3869079151597860 F F F
  0.1299691725000000 0.0649845861000000 0.3830133037789522 F F F
  0.6182527190000000 0.0591263596000000 0.3869079151597860 F F F
  0.4633025056000000 0.2316512532000000 0.3830133037789522 F F F
  0.9515860519000000 0.2257930258000000 0.3869079151597860 F F F
  0.8810689915000000 0.0655199431000000 0.4424475194169186 F F F
  0.3670671296000000 0.0585276019000000 0.4422352987837832 F F F
  0.2143744382000000 0.2321922655000000 0.4425879173666737 F F F
  0.7000772866000000 0.2250341212000000 0.4424287504264557 F F F
  0.5477439775000000 0.1488765127000000 0.4424278261311334 F F F
  0.0339334728000000 0.1419812912000000 0.4421788708680707 F F F
  0.9674006062000000 0.2339815643000000 0.4997922630270791 T T T
  0.4478243128000000 0.2234339408000000 0.5005705615442483 T T T
  0.2999581971000000 0.1485855546000000 0.4989230074438644 T T T
  0.7813732045000000 0.1407506225000000 0.5013358880603468 T T T
  0.6338535758000000 0.0671991018000000 0.5002746681606943 T T T
  0.1148536802000000 0.0574021236000000 0.5005429377781802 T T T
  0.7140137495000000 0.4820068743000000 0.3273759995414262 F F F
  0.2022972958000000 0.4761486478000000 0.3312706109222600 F F F
  0.0473470827000000 0.3986735412000000 0.3273759995414262 F F F
  0.5356306291000000 0.3928153147000000 0.3312706109222600 F F F
  0.3806804160000000 0.3153402081000000 0.3273759995414262 F F F
  0.8689639622000001 0.3094819807000000 0.3312706109222600 F F F
  0.7966358392000000 0.3983179194000000 0.3830133037789522 F F F
  0.2849193855000000 0.3924596929000000 0.3869079151597860 F F F
  0.1299691723000000 0.3149845863000000 0.3830133037789522 F F F
  0.6182527186000000 0.3091263589000000 0.3869079151597860 F F F
  0.4633025059000000 0.4816512525000000 0.3830133037789522 F F F
  0.9515860518000000 0.4757930260000000 0.3869079151597860 F F F
  0.8810689911000000 0.3155199424000000 0.4424475194169186 F F F
  0.3670671300000000 0.3085276021000000 0.4422352987837832 F F F
  0.2143744380000000 0.4821922658000000 0.4425879173666737 F F F
  0.7000772864000000 0.4750341214000000 0.4424287504264557 F F F
  0.5477439774000000 0.3988765129000000 0.4424278261311334 F F F
  0.0339334730000000 0.3919812905000000 0.4421788708680707 F F F
  0.9674661756000000 0.4840108656000000 0.4997840052128419 T T T
  0.4462594009000000 0.4734629052000000 0.5078189913806549 T T T
  0.2997195376000000 0.4004226996000000 0.4995479832321552 T T T
  0.7814871148000000 0.3902663791000000 0.5009187733782993 T T T
  0.6337949838000000 0.3172156370000000 0.5003322077735137 T T T
  0.1147484185000000 0.3072940037000000 0.5004521728196029 T T T
  0.7140137492999999 0.7320068745000000 0.3273759995414262 F F F
  0.2022972957000000 0.7261486480000000 0.3312706109222600 F F F
  0.0473470825000000 0.6486735414000000 0.3273759995414262 F F F
  0.5356306290000000 0.6428153149000000 0.3312706109222600 F F F
  0.3806804158000000 0.5653402083000000 0.3273759995414262 F F F
  0.8689639621000000 0.5594819809000000 0.3312706109222600 F F F
  0.7966358390000000 0.6483179196000000 0.3830133037789522 F F F
  0.2849193853000000 0.6424596931000000 0.3869079151597860 F F F
  0.1299691727000000 0.5649845865000001 0.3830133037789522 F F F
  0.6182527185000000 0.5591263591000000 0.3869079151597860 F F F
  0.4633025057000000 0.7316512527000000 0.3830133037789522 F F F
  0.9515860522000000 0.7257930262000000 0.3869079151597860 F F F
  0.8810689910000000 0.5655199426000000 0.4424475194169186 F F F
  0.3670671298000000 0.5585276024000000 0.4422352987837832 F F F
  0.2143744382000000 0.7321922651000000 0.4425879173666737 F F F
  0.7000772868000000 0.7250341217000000 0.4424287504264557 F F F
  0.5477439777000001 0.6488765131000001 0.4424278261311334 F F F
  0.0339334729000000 0.6419812907000000 0.4421788708680707 F F F
  0.9675060259000000 0.7339584875000000 0.4997862314139548 T T T
  0.4477369527000000 0.7235309172000000 0.5007285949100584 T T T
  0.3001723074000000 0.6511815265999999 0.4994241265031890 T T T
  0.7815827476000000 0.6407594002000000 0.5009568300576450 T T T
  0.6339308912000000 0.5671318721000000 0.5003315584717354 T T T
  0.1149070825000000 0.5573386053000000 0.5005796762056766 T T T
  0.7140137492000000 0.9820068747000000 0.3273759995414262 F F F
  0.2022972955000000 0.9761486482000000 0.3312706109222600 F F F
  0.0473470829000000 0.8986735416000000 0.3273759995414262 F F F
  0.5356306286000000 0.8928153142000000 0.3312706109222600 F F F
  0.3806804160000000 0.8153402076000000 0.3273759995414262 F F F
  0.8689639625000000 0.8094819811000000 0.3312706109222600 F F F
  0.7966358394000000 0.8983179198000000 0.3830133037789522 F F F
  0.2849193856000000 0.8924596924000000 0.3869079151597860 F F F
  0.1299691724000000 0.8149845858000000 0.3830133037789522 F F F
  0.6182527189000000 0.8091263593000000 0.3869079151597860 F F F
  0.4633025055000000 0.9816512529000000 0.3830133037789522 F F F
  0.9515860520000000 0.9757930265000000 0.3869079151597860 F F F
  0.8810689913999999 0.8155199428000000 0.4424475194169186 F F F
  0.3670671300000000 0.8085276017000000 0.4422352987837832 F F F
  0.2143744381000000 0.9821922653000000 0.4425879173666737 F F F
  0.7000772865000000 0.9750341210000000 0.4424287504264557 F F F
  0.5477439774000000 0.8988765124000000 0.4424278261311334 F F F
  0.0339334727000000 0.8919812909000000 0.4421788708680707 F F F
  0.9674183814000000 0.9838767105000000 0.4997831450634168 T T T
  0.4483734246000000 0.9741070491000000 0.5006055110689813 T T T
  0.3009018547000000 0.9005954280000000 0.4997395170198232 T T T
  0.7814841833000000 0.8907635456000000 0.5007550106363400 T T T
  0.6337451541000000 0.8169105369000000 0.5000000755904814 T T T
  0.1149758479000000 0.8074403911000000 0.5005906048668471 T T T
  0.3149493989000000 0.4377631399000000 0.6220506529863755 T T T
  0.3562440050000000 0.2842445095000000 0.5856823037275092 T T T
  0.4327014460000000 0.5032160615000000 0.5839267796161509 T T T
  0.5701044096000000 0.6188611562000000 0.6486772124674127 T T T
  0.7334176139000000 0.4499083243000000 0.6152269411434568 T T T
  0.6169903729000000 0.4044952745000000 0.6729558230783573 T T T
  0.3753225283000000 0.3951991171000000 0.6073660535451983 T T T
  0.6480964192000001 0.1054676180000000 0.6385562140224517 T T T
  0.3989566736000000 0.2506011550000000 0.6627656945091382 T T T
  0.4362573723000000 0.3778904239000000 0.6456405087074493 T T T
  0.4482751532000000 0.4784875294000000 0.6749127657198020 T T T
  0.4950548387000000 0.6081991595000000 0.6632238973214277 T T T
  0.6276131532000000 0.6185328136000000 0.6749855255772176 T T T
  0.6692191945000000 0.5274753181000000 0.6644635504682153 T T T
  0.6920061588000000 0.5354772991000000 0.6242428415009393 T T T
  0.6954758913000000 0.3358907012000000 0.6280819249899624 T T T
  0.7073667071999999 0.2298381193000000 0.6160366906334505 T T T
  0.6070911495000000 0.1914673406000000 0.6648784875745468 T T T
  0.6383774016000000 0.3138795090000000 0.6566037250335525 T T T
  0.4378630386000000 0.2385391737000000 0.6844144179425958 T T T
  0.3910913207000000 0.1781221778000000 0.6423017331665021 T T T
  0.3428067444000000 0.2438624212000000 0.6750912233209134 T T T
  0.4916397433000000 0.3833936839000000 0.6328904285824521 T T T
  0.4359388847000000 0.4794441723000000 0.5573063110233399 T T T
  0.4774404713000000 0.4494517736000000 0.6979364434991491 T T T
  0.3917059765000000 0.4806650825000000 0.6847305902631512 T T T
  0.4653232623000000 0.6388301606000000 0.6409651571375590 T T T
  0.4996282715000000 0.6701779993000000 0.6867846793479996 T T T
  0.6041688139000000 0.5953139559000000 0.7028108516761916 T T T
  0.6711544793999999 0.7105872342000000 0.6761438394973075 T T T
  0.7213897857000000 0.5441177590000000 0.6816589535721810 T T T
  0.6403447674000000 0.5185668887000000 0.6068660595570287 T T T
  0.7319041458000000 0.6265262543000000 0.6177784864495752 T T T
  0.7471674403000000 0.2197875228000000 0.5950313519526749 T T T
  0.5608356037000000 0.1492095569000000 0.6841009502343175 T T T
