
     Program PWSCF v.7.4.1 starts on 26Sep2026 at 21:18:43 

     This program is part of the open-source Quantum ESPRESSO suite
     for quantum simulation of materials; please cite
         "P. Giannozzi et al., J. Phys.:Condens. Matter 21 395502 (2009);
         "P. Giannozzi et al., J. Phys.:Condens. Matter 29 465901 (2017);
         "P. Giannozzi et al., J. Chem. Phys. 152 154105 (2020);
          URL http://www.quantum-espresso.org", 
     in publications or presentations arising from this work. More details at
     http://www.quantum-espresso.org/quote

     Parallel version (MPI & OpenMP), running on      16 processor cores
     Number of MPI processes:                 1
     Threads/MPI process:                    16

     MPI processes distributed on     1 nodes
     83415 MiB available memory on the printing compute node when the environment starts
 
     Reading input from pw.in

     Current dimensions of program PWSCF are:
     Max number of different atomic species (ntypx) = 10
     Max number of k-points (npk) =  40000
     Max angular momentum in pseudopotentials (lmaxx) =  4
     Presently no symmetry can be used with electric field

     file C.pbe-n-kjpaw_psl.1.0.0.UPF: wavefunction(s)  2S 2P renormalized
 
     Subspace diagonalization in iterative solution of the eigenvalue problem:
     a serial algorithm will be used

 
     G-vector sticks info
     --------------------
     sticks:   dense  smooth     PW     G-vecs:    dense   smooth      PW
     Sum        3193    1273    367               699497   177041   27695
 
     Using Slab Decomposition
 


     bravais-lattice index     =            0
     lattice parameter (alat)  =       9.4208  a.u.
     unit-cell volume          =    3493.1685 (a.u.)^3
     number of atoms/cell      =           20
     number of atomic types    =            2
     number of electrons       =       260.00
     number of Kohn-Sham states=          156
     kinetic-energy cutoff     =      52.0000  Ry
     charge density cutoff     =     520.0000  Ry
     scf convergence threshold =      1.0E-08
     mixing beta               =       0.3000
     number of iterations used =            8  local-TF  mixing
     Exchange-correlation= SLA  PW   PBX  PBC
                           (   1   4   3   4   0   0   0)

     GPU acceleration is ACTIVE.  1 visible GPUs per MPI rank


     celldm(1)=   9.420781  celldm(2)=   0.000000  celldm(3)=   0.000000
     celldm(4)=   0.000000  celldm(5)=   0.000000  celldm(6)=   0.000000

     crystal axes: (cart. coord. in units of alat)
               a(1) = (   1.000000  -0.000000   0.000000 )  
               a(2) = (   0.500000   0.866025   0.000000 )  
               a(3) = (   0.000000   0.000000   4.824231 )  

     reciprocal axes: (cart. coord. in units 2 pi/alat)
               b(1) = (  1.000000 -0.577350  0.000000 )  
               b(2) = (  0.000000  1.154701 -0.000000 )  
               b(3) = ( -0.000000  0.000000  0.207287 )  


     PseudoPot. # 1 for Ag read from file:
     /home/ubuntu/wad4l/pseudo_kgy/Ag_ONCV_PBE-1.0.oncvpsp.upf
     MD5 check sum: 94f47bd0669c641108e45594df92fabc
     Pseudo is Norm-conserving, Zval = 19.0
     Generated using ONCVPSP code by D. R. Hamann
     Using radial grid of 1398 points,  6 beta functions with: 
                l(1) =   0
                l(2) =   0
                l(3) =   1
                l(4) =   1
                l(5) =   2
                l(6) =   2

     PseudoPot. # 2 for C  read from file:
     /home/ubuntu/wad4l/pseudo_kgy/C.pbe-n-kjpaw_psl.1.0.0.UPF
     MD5 check sum: 5d2aebdfa2cae82b50a7e79e9516da0f
     Pseudo is Projector augmented-wave + core cor, Zval =  4.0
     Generated using "atomic" code by A. Dal Corso  v.5.1
     Shape of augmentation charge: PSQ
     Using radial grid of 1073 points,  4 beta functions with: 
                l(1) =   0
                l(2) =   0
                l(3) =   1
                l(4) =   1
     Q(r) pseudized with 0 coefficients 


     atomic species   valence    mass     pseudopotential
     Ag               19.00   107.86820     Ag( 1.00)
     C                 4.00    12.01100     C ( 1.00)

     No symmetry found



   Cartesian axes

     site n.     atom                  positions (alat units)
         1        Ag     tau(   1) = (   0.3337695   0.5765948   0.5717001  )
         2        Ag     tau(   2) = (   0.8337695   0.8652699   0.5717001  )
         3        Ag     tau(   3) = (   0.1685356   0.2893158   1.0413784  )
         4        Ag     tau(   4) = (   0.5004501   0.2909658   0.1002956  )
         5        Ag     tau(   5) = (   0.8337695   0.2879196   0.5717001  )
         6        Ag     tau(   6) = (   0.6683049   0.5779837   1.0409227  )
         7        Ag     tau(   7) = (   0.5010920   0.2905461   1.5136328  )
         8        Ag     tau(   8) = (   1.0004501   0.5796409   0.1002956  )
         9        Ag     tau(   9) = (   1.0004220   0.5796223   1.5118887  )
        10        Ag     tau(  10) = (   0.6685713   0.0008154   1.0411862  )
        11        Ag     tau(  11) = (   1.0004501   0.0022906   0.1002956  )
        12        Ag     tau(  12) = (   1.0013794   0.0016713   1.5133380  )
        13        C      tau(  13) = (   0.8337834   0.6758659   2.2372616  )
        14        C      tau(  14) = (   1.0837834   0.8202035   2.2374519  )
        15        C      tau(  15) = (   1.0837834   1.1088786   2.2366541  )
        16        C      tau(  16) = (   1.3337834   1.2532162   2.2374869  )
        17        C      tau(  17) = (   1.3337834   0.6758659   2.2374135  )
        18        C      tau(  18) = (   1.5837834   0.8202035   2.2367109  )
        19        C      tau(  19) = (   1.5837834   1.1088786   2.2374974  )
        20        C      tau(  20) = (   1.8337834   1.2532162   2.2371764  )

     --------------------------------------------
     DFT-D3 Dispersion Correction (no 3-body):
     --------------------------------------------
       Reference C6 values for interpolation: 

         atom   Coordination number   C6
         C          0.000            98.23
         C          0.987            86.49
         C          1.998            58.72
         C          2.999            51.56
         C          3.984            36.41
         Ag         0.000           853.49
         Ag         0.968           537.23

       Values used:

         atom   Coordination number  R0_AB[au]  C6      C8
         Ag         9.086            3.147    537.23  47741.54
         Ag         9.086            3.147    537.23  47741.54
         Ag         9.080            3.147    537.23  47741.54
         Ag         6.766            3.147    537.23  47741.54
         Ag         9.086            3.147    537.23  47741.54
         Ag         9.085            3.147    537.23  47741.54
         Ag         6.785            3.147    537.23  47741.54
         Ag         6.766            3.147    537.23  47741.54
         Ag         6.807            3.147    537.23  47741.54
         Ag         9.081            3.147    537.23  47741.54
         Ag         6.766            3.147    537.23  47741.54
         Ag         6.789            3.147    537.23  47741.54
         C          3.281            2.750     48.92   1414.73
         C          3.280            2.750     48.92   1414.96
         C          3.282            2.750     48.90   1414.16
         C          3.280            2.750     48.92   1414.97
         C          3.280            2.750     48.92   1414.95
         C          3.282            2.750     48.90   1414.17
         C          3.280            2.750     48.92   1414.95
         C          3.281            2.750     48.91   1414.70

         Molecular C6 ( Ry / a.u.^6 ) =    111521.26


     number of k points=    20  Marzari-Vanderbilt smearing, width (Ry)=  0.0100
                       cart. coord. in units 2pi/alat
        k(    1) = (   0.0000000   0.0000000   0.0000000), wk =   0.0555556
        k(    2) = (   0.0000000   0.1924501   0.0000000), wk =   0.1111111
        k(    3) = (   0.0000000   0.3849002   0.0000000), wk =   0.1111111
        k(    4) = (   0.0000000  -0.5773503   0.0000000), wk =   0.0555556
        k(    5) = (   0.1666667  -0.0962250   0.0000000), wk =   0.1111111
        k(    6) = (   0.1666667   0.0962250   0.0000000), wk =   0.1111111
        k(    7) = (   0.1666667   0.2886751   0.0000000), wk =   0.1111111
        k(    8) = (   0.1666667  -0.6735753   0.0000000), wk =   0.1111111
        k(    9) = (   0.1666667  -0.4811252   0.0000000), wk =   0.1111111
        k(   10) = (   0.1666667  -0.2886751   0.0000000), wk =   0.1111111
        k(   11) = (   0.3333333  -0.1924501   0.0000000), wk =   0.1111111
        k(   12) = (   0.3333333  -0.0000000   0.0000000), wk =   0.1111111
        k(   13) = (   0.3333333   0.1924501   0.0000000), wk =   0.1111111
        k(   14) = (   0.3333333  -0.7698004   0.0000000), wk =   0.1111111
        k(   15) = (   0.3333333  -0.5773503   0.0000000), wk =   0.1111111
        k(   16) = (   0.3333333  -0.3849002   0.0000000), wk =   0.1111111
        k(   17) = (  -0.5000000   0.2886751   0.0000000), wk =   0.0555556
        k(   18) = (  -0.5000000   0.4811252   0.0000000), wk =   0.1111111
        k(   19) = (  -0.5000000   0.6735753   0.0000000), wk =   0.1111111
        k(   20) = (  -0.5000000  -0.2886751   0.0000000), wk =   0.0555556

     Dense  grid:   699497 G-vectors     FFT dimensions: (  72,  72, 360)

     Smooth grid:   177041 G-vectors     FFT dimensions: (  45,  45, 216)

     Estimated max dynamical RAM per process >       1.34 GB

     Check: negative core charge=   -0.000001

     Initial potential from superposition of free atoms

     starting charge     259.9962, renormalised to     260.0000

     negative rho (up, down):  9.774E-05 0.000E+00
 
     Adding external electric field

     Computed dipole along edir(3) : 
        Dipole               -0.0111 Ry au,         -0.0282 Debye
        Dipole field         -0.0000 Ry au, 
 
        Potential amp.        0.0035 Ry
        Total length         43.5583 bohr
 
     Starting wfcs are  152 randomized atomic wfcs +    4 random wfcs
     Checking if some PAW data can be deallocated... 

     total cpu time spent up to now is        4.0 secs

     Self-consistent Calculation

     iteration #  1     ecut=    52.00 Ry     beta= 0.30
     Davidson diagonalization with overlap
     ethr =  1.00E-02,  avg # of iterations =  5.0

     Threshold (ethr) on eigenvalues was too large:
     Diagonalizing with lowered threshold

     Davidson diagonalization with overlap
     ethr =  5.63E-04,  avg # of iterations =  1.7

     negative rho (up, down):  3.021E-08 0.000E+00
 
     Adding external electric field

     Computed dipole along edir(3) : 
        Dipole               -0.1049 Ry au,         -0.2667 Debye
        Dipole field         -0.0004 Ry au, 
 
        Potential amp.        0.0329 Ry
        Total length         43.5583 bohr
 

     total cpu time spent up to now is       13.8 secs

     total energy              =   -3596.11927529 Ry
     estimated scf accuracy    <       1.47809589 Ry

     iteration #  2     ecut=    52.00 Ry     beta= 0.30
     Davidson diagonalization with overlap
     ethr =  5.68E-04,  avg # of iterations =  1.9
 
     Adding external electric field

     Computed dipole along edir(3) : 
        Dipole               -0.3750 Ry au,         -0.9533 Debye
        Dipole field         -0.0013 Ry au, 
 
        Potential amp.        0.1175 Ry
        Total length         43.5583 bohr
 

     total cpu time spent up to now is       18.8 secs

     total energy              =   -3595.84088338 Ry
     estimated scf accuracy    <       0.85527364 Ry

     iteration #  3     ecut=    52.00 Ry     beta= 0.30
     Davidson diagonalization with overlap
     ethr =  3.29E-04,  avg # of iterations =  9.1
 
     Adding external electric field

     Computed dipole along edir(3) : 
        Dipole               -0.6275 Ry au,         -1.5948 Debye
        Dipole field         -0.0023 Ry au, 
 
        Potential amp.        0.1966 Ry
        Total length         43.5583 bohr
 

     total cpu time spent up to now is       24.9 secs

     total energy              =   -3595.84950737 Ry
     estimated scf accuracy    <       0.26189896 Ry

     iteration #  4     ecut=    52.00 Ry     beta= 0.30
     Davidson diagonalization with overlap
     ethr =  1.01E-04,  avg # of iterations =  5.2
 
     Adding external electric field

     Computed dipole along edir(3) : 
        Dipole               -0.5650 Ry au,         -1.4361 Debye
        Dipole field         -0.0020 Ry au, 
 
        Potential amp.        0.1771 Ry
        Total length         43.5583 bohr
 

     total cpu time spent up to now is       30.5 secs

     total energy              =   -3595.86347820 Ry
     estimated scf accuracy    <       0.47169246 Ry

     iteration #  5     ecut=    52.00 Ry     beta= 0.30
     Davidson diagonalization with overlap
     ethr =  1.01E-04,  avg # of iterations =  1.0

     negative rho (up, down):  2.039E-08 0.000E+00
 
     Adding external electric field

     Computed dipole along edir(3) : 
        Dipole               -1.2026 Ry au,         -3.0567 Debye
        Dipole field         -0.0043 Ry au, 
 
        Potential amp.        0.3769 Ry
        Total length         43.5583 bohr
 

     total cpu time spent up to now is       35.4 secs

     total energy              =   -3595.85162956 Ry
     estimated scf accuracy    <       0.46591485 Ry

     iteration #  6     ecut=    52.00 Ry     beta= 0.30
     Davidson diagonalization with overlap
     ethr =  1.01E-04,  avg # of iterations = 10.4

     negative rho (up, down):  1.852E-08 0.000E+00
 
     Adding external electric field

     Computed dipole along edir(3) : 
        Dipole               -0.9574 Ry au,         -2.4334 Debye
        Dipole field         -0.0034 Ry au, 
 
        Potential amp.        0.3000 Ry
        Total length         43.5583 bohr
 

     total cpu time spent up to now is       41.8 secs

     total energy              =   -3595.84011669 Ry
     estimated scf accuracy    <       0.35094948 Ry

     iteration #  7     ecut=    52.00 Ry     beta= 0.30
     Davidson diagonalization with overlap
     ethr =  1.01E-04,  avg # of iterations =  2.8
 
     Adding external electric field

     Computed dipole along edir(3) : 
        Dipole               -0.8701 Ry au,         -2.2117 Debye
        Dipole field         -0.0031 Ry au, 
 
        Potential amp.        0.2727 Ry
        Total length         43.5583 bohr
 

     total cpu time spent up to now is       47.0 secs

     total energy              =   -3595.84634595 Ry
     estimated scf accuracy    <       0.07765907 Ry

     iteration #  8     ecut=    52.00 Ry     beta= 0.30
     Davidson diagonalization with overlap
     ethr =  2.99E-05,  avg # of iterations =  3.8
 
     Adding external electric field

     Computed dipole along edir(3) : 
        Dipole               -0.5365 Ry au,         -1.3636 Debye
        Dipole field         -0.0019 Ry au, 
 
        Potential amp.        0.1681 Ry
        Total length         43.5583 bohr
 

     total cpu time spent up to now is       52.3 secs

     total energy              =   -3595.83687977 Ry
     estimated scf accuracy    <       0.08874090 Ry

     iteration #  9     ecut=    52.00 Ry     beta= 0.30
     Davidson diagonalization with overlap
     ethr =  2.99E-05,  avg # of iterations =  8.2
 
     Adding external electric field

     Computed dipole along edir(3) : 
        Dipole               -0.3756 Ry au,         -0.9547 Debye
        Dipole field         -0.0014 Ry au, 
 
        Potential amp.        0.1177 Ry
        Total length         43.5583 bohr
 

     total cpu time spent up to now is       58.2 secs

     total energy              =   -3595.82994109 Ry
     estimated scf accuracy    <       0.04307974 Ry

     iteration # 10     ecut=    52.00 Ry     beta= 0.30
     Davidson diagonalization with overlap
     ethr =  1.66E-05,  avg # of iterations =  8.3
 
     Adding external electric field

     Computed dipole along edir(3) : 
        Dipole               -0.2536 Ry au,         -0.6445 Debye
        Dipole field         -0.0009 Ry au, 
 
        Potential amp.        0.0795 Ry
        Total length         43.5583 bohr
 

     total cpu time spent up to now is       64.1 secs

     total energy              =   -3595.83290975 Ry
     estimated scf accuracy    <       0.02825657 Ry

     iteration # 11     ecut=    52.00 Ry     beta= 0.30
     Davidson diagonalization with overlap
     ethr =  1.09E-05,  avg # of iterations =  8.4

     negative rho (up, down):  4.011E-03 0.000E+00
 
     Adding external electric field

     Computed dipole along edir(3) : 
        Dipole                0.0645 Ry au,          0.1640 Debye
        Dipole field          0.0002 Ry au, 
 
        Potential amp.       -0.0202 Ry
        Total length         43.5583 bohr
 

     total cpu time spent up to now is       69.9 secs

     total energy              =   -3595.83451488 Ry
     estimated scf accuracy    <       0.02129217 Ry

     iteration # 12     ecut=    52.00 Ry     beta= 0.30
     Davidson diagonalization with overlap
     ethr =  8.19E-06,  avg # of iterations =  8.3

     negative rho (up, down):  2.532E-03 0.000E+00
 
     Adding external electric field

     Computed dipole along edir(3) : 
        Dipole                0.0506 Ry au,          0.1286 Debye
        Dipole field          0.0002 Ry au, 
 
        Potential amp.       -0.0159 Ry
        Total length         43.5583 bohr
 

     total cpu time spent up to now is       75.8 secs

     total energy              =   -3595.83423680 Ry
     estimated scf accuracy    <       0.04366322 Ry

     iteration # 13     ecut=    52.00 Ry     beta= 0.30
     Davidson diagonalization with overlap
     ethr =  8.19E-06,  avg # of iterations =  1.9

     negative rho (up, down):  1.356E-03 0.000E+00
 
     Adding external electric field

     Computed dipole along edir(3) : 
        Dipole                0.1171 Ry au,          0.2977 Debye
        Dipole field          0.0004 Ry au, 
 
        Potential amp.       -0.0367 Ry
        Total length         43.5583 bohr
 

     total cpu time spent up to now is       80.9 secs

     total energy              =   -3595.83342007 Ry
     estimated scf accuracy    <       0.03146358 Ry

     iteration # 14     ecut=    52.00 Ry     beta= 0.30
     Davidson diagonalization with overlap
     ethr =  8.19E-06,  avg # of iterations =  2.6

     negative rho (up, down):  2.933E-04 0.000E+00
 
     Adding external electric field

     Computed dipole along edir(3) : 
        Dipole                0.0411 Ry au,          0.1043 Debye
        Dipole field          0.0001 Ry au, 
 
        Potential amp.       -0.0129 Ry
        Total length         43.5583 bohr
 

     total cpu time spent up to now is       86.1 secs

     total energy              =   -3595.83168030 Ry
     estimated scf accuracy    <       0.03217190 Ry

     iteration # 15     ecut=    52.00 Ry     beta= 0.30
     Davidson diagonalization with overlap
     ethr =  8.19E-06,  avg # of iterations =  5.4

     negative rho (up, down):  4.259E-03 0.000E+00
 
     Adding external electric field

     Computed dipole along edir(3) : 
        Dipole                0.1572 Ry au,          0.3995 Debye
        Dipole field          0.0006 Ry au, 
 
        Potential amp.       -0.0493 Ry
        Total length         43.5583 bohr
 

     total cpu time spent up to now is       91.6 secs

     total energy              =   -3595.83479461 Ry
     estimated scf accuracy    <       0.01756569 Ry

     iteration # 16     ecut=    52.00 Ry     beta= 0.30
     Davidson diagonalization with overlap
     ethr =  6.76E-06,  avg # of iterations =  6.0

     negative rho (up, down):  7.245E-04 0.000E+00
 
     Adding external electric field

     Computed dipole along edir(3) : 
        Dipole                0.0059 Ry au,          0.0150 Debye
        Dipole field          0.0000 Ry au, 
 
        Potential amp.       -0.0019 Ry
        Total length         43.5583 bohr
 

     total cpu time spent up to now is       97.3 secs

     total energy              =   -3595.83010239 Ry
     estimated scf accuracy    <       0.03014227 Ry

     iteration # 17     ecut=    52.00 Ry     beta= 0.30
     Davidson diagonalization with overlap
     ethr =  6.76E-06,  avg # of iterations =  8.4

     negative rho (up, down):  8.368E-04 0.000E+00
 
     Adding external electric field

     Computed dipole along edir(3) : 
        Dipole                0.0584 Ry au,          0.1484 Debye
        Dipole field          0.0002 Ry au, 
 
        Potential amp.       -0.0183 Ry
        Total length         43.5583 bohr
 

     total cpu time spent up to now is      103.1 secs

     total energy              =   -3595.83208521 Ry
     estimated scf accuracy    <       0.01887068 Ry

     iteration # 18     ecut=    52.00 Ry     beta= 0.30
     Davidson diagonalization with overlap
     ethr =  6.76E-06,  avg # of iterations =  4.3

     negative rho (up, down):  5.509E-04 0.000E+00
 
     Adding external electric field

     Computed dipole along edir(3) : 
        Dipole               -0.1831 Ry au,         -0.4653 Debye
        Dipole field         -0.0007 Ry au, 
 
        Potential amp.        0.0574 Ry
        Total length         43.5583 bohr
 

     total cpu time spent up to now is      108.5 secs

     total energy              =   -3595.82629083 Ry
     estimated scf accuracy    <       0.01967654 Ry

     iteration # 19     ecut=    52.00 Ry     beta= 0.30
     Davidson diagonalization with overlap
     ethr =  6.76E-06,  avg # of iterations = 10.8

     negative rho (up, down):  3.228E-03 0.000E+00
 
     Adding external electric field

     Computed dipole along edir(3) : 
        Dipole                0.0740 Ry au,          0.1880 Debye
        Dipole field          0.0003 Ry au, 
 
        Potential amp.       -0.0232 Ry
        Total length         43.5583 bohr
 

     total cpu time spent up to now is      115.0 secs

     total energy              =   -3595.82407447 Ry
     estimated scf accuracy    <       0.07744183 Ry

     iteration # 20     ecut=    52.00 Ry     beta= 0.30
     Davidson diagonalization with overlap
     ethr =  6.76E-06,  avg # of iterations =  9.8

     negative rho (up, down):  3.233E-03 0.000E+00
 
     Adding external electric field

     Computed dipole along edir(3) : 
        Dipole               -0.0245 Ry au,         -0.0622 Debye
        Dipole field         -0.0001 Ry au, 
 
        Potential amp.        0.0077 Ry
        Total length         43.5583 bohr
 

     total cpu time spent up to now is      121.5 secs

     total energy              =   -3595.82834303 Ry
     estimated scf accuracy    <       0.01597153 Ry

     iteration # 21     ecut=    52.00 Ry     beta= 0.30
     Davidson diagonalization with overlap
     c_bands:  1 eigenvalues not converged
     ethr =  6.14E-06,  avg # of iterations =  8.7

     negative rho (up, down):  5.988E-04 0.000E+00
 
     Adding external electric field

     Computed dipole along edir(3) : 
        Dipole               -0.0059 Ry au,         -0.0150 Debye
        Dipole field         -0.0000 Ry au, 
 
        Potential amp.        0.0019 Ry
        Total length         43.5583 bohr
 

     total cpu time spent up to now is      127.5 secs

     total energy              =   -3595.83041369 Ry
     estimated scf accuracy    <       0.04497752 Ry

     iteration # 22     ecut=    52.00 Ry     beta= 0.30
     Davidson diagonalization with overlap
     ethr =  6.14E-06,  avg # of iterations =  8.3

     negative rho (up, down):  4.759E-04 0.000E+00
 
     Adding external electric field

     Computed dipole along edir(3) : 
        Dipole                0.0252 Ry au,          0.0640 Debye
        Dipole field          0.0001 Ry au, 
 
        Potential amp.       -0.0079 Ry
        Total length         43.5583 bohr
 

     total cpu time spent up to now is      133.3 secs

     total energy              =   -3595.82936000 Ry
     estimated scf accuracy    <       0.02415580 Ry

     iteration # 23     ecut=    52.00 Ry     beta= 0.30
     Davidson diagonalization with overlap
     ethr =  6.14E-06,  avg # of iterations =  3.8

     negative rho (up, down):  3.852E-04 0.000E+00
 
     Adding external electric field

     Computed dipole along edir(3) : 
        Dipole                0.0196 Ry au,          0.0499 Debye
        Dipole field          0.0001 Ry au, 
 
        Potential amp.       -0.0062 Ry
        Total length         43.5583 bohr
 

     total cpu time spent up to now is      138.6 secs

     total energy              =   -3595.82990100 Ry
     estimated scf accuracy    <       0.00001890 Ry

     iteration # 24     ecut=    52.00 Ry     beta= 0.30
     Davidson diagonalization with overlap
     ethr =  7.27E-09,  avg # of iterations =  3.0

     negative rho (up, down):  6.089E-05 0.000E+00
 
     Adding external electric field

     Computed dipole along edir(3) : 
        Dipole                0.0286 Ry au,          0.0728 Debye
        Dipole field          0.0001 Ry au, 
 
        Potential amp.       -0.0090 Ry
        Total length         43.5583 bohr
 

     total cpu time spent up to now is      143.9 secs

     total energy              =   -3595.82984279 Ry
     estimated scf accuracy    <       0.00053125 Ry

     iteration # 25     ecut=    52.00 Ry     beta= 0.30
     Davidson diagonalization with overlap
     c_bands:  1 eigenvalues not converged
     c_bands:  1 eigenvalues not converged
     ethr =  7.27E-09,  avg # of iterations =  7.7

     negative rho (up, down):  1.256E-04 0.000E+00
 
     Adding external electric field

     Computed dipole along edir(3) : 
        Dipole                0.0169 Ry au,          0.0430 Debye
        Dipole field          0.0001 Ry au, 
 
        Potential amp.       -0.0053 Ry
        Total length         43.5583 bohr
 

     total cpu time spent up to now is      149.7 secs

     total energy              =   -3595.82981152 Ry
     estimated scf accuracy    <       0.00241468 Ry

     iteration # 26     ecut=    52.00 Ry     beta= 0.30
     Davidson diagonalization with overlap
     ethr =  7.27E-09,  avg # of iterations =  4.3

     negative rho (up, down):  7.355E-05 0.000E+00
 
     Adding external electric field

     Computed dipole along edir(3) : 
        Dipole                0.0200 Ry au,          0.0508 Debye
        Dipole field          0.0001 Ry au, 
 
        Potential amp.       -0.0063 Ry
        Total length         43.5583 bohr
 

     total cpu time spent up to now is      155.2 secs

     total energy              =   -3595.82988984 Ry
     estimated scf accuracy    <       0.00023320 Ry

     iteration # 27     ecut=    52.00 Ry     beta= 0.30
     Davidson diagonalization with overlap
     ethr =  7.27E-09,  avg # of iterations =  2.0

     negative rho (up, down):  9.526E-05 0.000E+00
 
     Adding external electric field

     Computed dipole along edir(3) : 
        Dipole                0.0137 Ry au,          0.0349 Debye
        Dipole field          0.0000 Ry au, 
 
        Potential amp.       -0.0043 Ry
        Total length         43.5583 bohr
 

     total cpu time spent up to now is      160.2 secs

     total energy              =   -3595.82989052 Ry
     estimated scf accuracy    <       0.00006253 Ry

     iteration # 28     ecut=    52.00 Ry     beta= 0.30
     Davidson diagonalization with overlap
     ethr =  7.27E-09,  avg # of iterations =  2.0

     negative rho (up, down):  1.105E-04 0.000E+00
 
     Adding external electric field

     Computed dipole along edir(3) : 
        Dipole                0.0187 Ry au,          0.0474 Debye
        Dipole field          0.0001 Ry au, 
 
        Potential amp.       -0.0058 Ry
        Total length         43.5583 bohr
 

     total cpu time spent up to now is      165.3 secs

     total energy              =   -3595.82988492 Ry
     estimated scf accuracy    <       0.00057005 Ry

     iteration # 29     ecut=    52.00 Ry     beta= 0.30
     Davidson diagonalization with overlap
     ethr =  7.27E-09,  avg # of iterations =  2.0

     negative rho (up, down):  1.184E-04 0.000E+00
 
     Adding external electric field

     Computed dipole along edir(3) : 
        Dipole                0.0179 Ry au,          0.0454 Debye
        Dipole field          0.0001 Ry au, 
 
        Potential amp.       -0.0056 Ry
        Total length         43.5583 bohr
 

     total cpu time spent up to now is      170.4 secs

     total energy              =   -3595.82989946 Ry
     estimated scf accuracy    <       0.00000432 Ry

     iteration # 30     ecut=    52.00 Ry     beta= 0.30
     Davidson diagonalization with overlap
     ethr =  1.66E-09,  avg # of iterations =  1.0

     negative rho (up, down):  1.153E-04 0.000E+00
 
     Adding external electric field

     Computed dipole along edir(3) : 
        Dipole                0.0181 Ry au,          0.0460 Debye
        Dipole field          0.0001 Ry au, 
 
        Potential amp.       -0.0057 Ry
        Total length         43.5583 bohr
 

     total cpu time spent up to now is      175.2 secs

     total energy              =   -3595.82989982 Ry
     estimated scf accuracy    <       0.00000830 Ry

     iteration # 31     ecut=    52.00 Ry     beta= 0.30
     Davidson diagonalization with overlap
     ethr =  1.66E-09,  avg # of iterations =  1.0

     negative rho (up, down):  1.166E-04 0.000E+00
 
     Adding external electric field

     Computed dipole along edir(3) : 
        Dipole                0.0182 Ry au,          0.0462 Debye
        Dipole field          0.0001 Ry au, 
 
        Potential amp.       -0.0057 Ry
        Total length         43.5583 bohr
 

     total cpu time spent up to now is      180.1 secs

     total energy              =   -3595.82989981 Ry
     estimated scf accuracy    <       0.00000216 Ry

     iteration # 32     ecut=    52.00 Ry     beta= 0.30
     Davidson diagonalization with overlap
     ethr =  8.31E-10,  avg # of iterations =  1.0

     negative rho (up, down):  1.173E-04 0.000E+00
 
     Adding external electric field

     Computed dipole along edir(3) : 
        Dipole                0.0183 Ry au,          0.0464 Debye
        Dipole field          0.0001 Ry au, 
 
        Potential amp.       -0.0057 Ry
        Total length         43.5583 bohr
 

     total cpu time spent up to now is      185.0 secs

     total energy              =   -3595.82989982 Ry
     estimated scf accuracy    <       0.00000036 Ry

     iteration # 33     ecut=    52.00 Ry     beta= 0.30
     Davidson diagonalization with overlap
     ethr =  1.38E-10,  avg # of iterations =  1.0

     negative rho (up, down):  1.169E-04 0.000E+00
 
     Adding external electric field

     Computed dipole along edir(3) : 
        Dipole                0.0183 Ry au,          0.0465 Debye
        Dipole field          0.0001 Ry au, 
 
        Potential amp.       -0.0057 Ry
        Total length         43.5583 bohr
 

     total cpu time spent up to now is      189.5 secs

     total energy              =   -3595.82989982 Ry
     estimated scf accuracy    <       0.00000006 Ry

     iteration # 34     ecut=    52.00 Ry     beta= 0.30
     Davidson diagonalization with overlap
     ethr =  2.48E-11,  avg # of iterations =  1.0

     negative rho (up, down):  1.166E-04 0.000E+00
 
     Adding external electric field

     Computed dipole along edir(3) : 
        Dipole                0.0173 Ry au,          0.0440 Debye
        Dipole field          0.0001 Ry au, 
 
        Potential amp.       -0.0054 Ry
        Total length         43.5583 bohr
 

     total cpu time spent up to now is      194.2 secs

     End of self-consistent calculation

          k = 0.0000 0.0000 0.0000 ( 22161 PWs)   bands (ev):

   -86.0416 -86.0321 -86.0239 -86.0234 -86.0227 -86.0226 -85.8471 -85.8344
   -85.8318 -85.8274 -85.8139 -85.8139 -49.5515 -49.5253 -49.5251 -49.5248
   -49.5244 -49.5227 -49.5226 -49.4978 -49.4977 -49.4725 -49.4720 -49.4712
   -49.4710 -49.4668 -49.4242 -49.4237 -49.4107 -49.4105 -49.3307 -49.3299
   -49.3269 -49.3260 -49.3101 -49.3100 -49.3077 -49.3077 -49.2684 -49.2576
   -49.2547 -49.2475 -49.2395 -49.2393 -49.2358 -49.2357 -49.2200 -49.2197
   -13.2484  -8.1545  -8.1515  -8.1505  -7.0224  -7.0213  -7.0209  -1.5141
    -1.3441  -0.4844  -0.3185  -0.3177  -0.3161  -0.2183  -0.0548   0.4170
     0.4179   0.4343   0.4358   0.4366   0.4379   0.7801   0.7824   0.7842
     0.7860   0.9760   0.9785   0.9887   0.9901   1.2184   1.2761   1.2772
     1.3229   1.3251   1.3877   1.3900   1.3968   1.3974   1.4083   1.5379
     1.5387   1.5933   1.5949   1.6901   1.6913   1.7170   1.7175   1.7254
     1.7255   1.7453   1.7455   2.1667   2.1682   2.2847   2.2915   2.3087
     2.3097   2.3247   2.3248   2.4312   2.4428   2.6983   2.7127   2.7211
     2.7734   2.7772   2.8909   2.8973   2.9540   2.9544   2.9594   2.9599
     2.9632   2.9635   3.0231   3.0250   3.7173   3.7177   3.7180   5.1359
     6.3655   7.6184   7.6367   7.6433   9.4936   9.4965   9.6864   9.6873
     9.6915   9.6926   9.7456  10.1332  10.4694  10.4718  10.4762  10.4788
    10.8746  10.8795  11.3735  11.8965  12.1352  12.1364  12.1435  12.1444
    12.3846  12.3957  13.2554  13.2649

          k = 0.0000 0.1925 0.0000 ( 22089 PWs)   bands (ev):

   -86.0403 -86.0312 -86.0250 -86.0245 -86.0227 -86.0225 -85.8461 -85.8349
   -85.8323 -85.8263 -85.8145 -85.8143 -49.5483 -49.5421 -49.5370 -49.5358
   -49.5313 -49.5059 -49.5001 -49.4902 -49.4846 -49.4751 -49.4692 -49.4687
   -49.4661 -49.4643 -49.4334 -49.4279 -49.4214 -49.4134 -49.3471 -49.3417
   -49.3277 -49.3223 -49.3066 -49.3037 -49.2869 -49.2843 -49.2675 -49.2580
   -49.2551 -49.2506 -49.2465 -49.2424 -49.2363 -49.2361 -49.2310 -49.2228
   -13.0875  -9.3523  -8.5148  -8.5127  -6.3993  -6.3978  -5.5827  -1.3097
    -1.1058  -0.7952  -0.7941  -0.2647  -0.1594  -0.0398   0.1324   0.1372
     0.2639   0.3213   0.3311   0.4049   0.5410   0.6349   0.7098   0.7341
     0.7689   0.8246   0.9231   0.9444   0.9461   1.1078   1.1883   1.2129
     1.2888   1.3372   1.4069   1.4234   1.4319   1.4596   1.4890   1.5097
     1.5181   1.5487   1.5863   1.6524   1.6580   1.7201   1.7381   1.8209
     1.9164   2.0015   2.0543   2.0966   2.0987   2.2059   2.2152   2.2907
     2.3187   2.3241   2.3890   2.3967   2.4129   2.5580   2.5794   2.5845
     2.6360   2.7090   2.7613   2.7621   2.8345   2.9098   2.9742   2.9936
     3.0194   3.0562   3.0996   3.1679   3.4157   3.6164   3.6233   5.4922
     6.8887   6.9472   7.8128   7.8892   7.9017   8.0947   8.4491   8.6919
     9.0119   9.2673   9.4852   9.9654  10.3366  10.7761  10.9613  11.3162
    11.3976  11.5580  11.5778  12.0704  12.3506  12.3973  12.4299  12.5792
    13.1770  13.3421  13.5434  13.8981

          k = 0.0000 0.3849 0.0000 ( 22133 PWs)   bands (ev):

   -86.0369 -86.0289 -86.0280 -86.0258 -86.0237 -86.0228 -85.8435 -85.8363
   -85.8335 -85.8235 -85.8166 -85.8151 -49.5553 -49.5483 -49.5402 -49.5342
   -49.5273 -49.5004 -49.4922 -49.4805 -49.4783 -49.4677 -49.4654 -49.4627
   -49.4540 -49.4531 -49.4500 -49.4494 -49.4344 -49.4223 -49.3596 -49.3403
   -49.3362 -49.3168 -49.2848 -49.2817 -49.2785 -49.2652 -49.2651 -49.2615
   -49.2598 -49.2589 -49.2563 -49.2512 -49.2439 -49.2381 -49.2369 -49.2316
   -12.6067 -10.7156  -8.9119  -8.9097  -5.2732  -5.2715  -3.5264  -1.9157
    -1.9143  -0.7276  -0.4632  -0.1111  -0.0120  -0.0060   0.2230   0.2704
     0.2901   0.3007   0.3137   0.3728   0.4592   0.4744   0.5169   0.6196
     0.6978   0.7034   0.8244   0.8403   0.8596   0.9644   1.0016   1.0170
     1.1173   1.2191   1.2462   1.2900   1.3257   1.3968   1.4314   1.4403
     1.4638   1.5400   1.6604   1.6655   1.6971   1.7873   1.7982   1.7996
     1.8430   1.8683   1.8784   1.9927   2.0019   2.0533   2.0745   2.2445
     2.2555   2.3217   2.3913   2.4451   2.4810   2.4900   2.5408   2.6793
     2.7098   2.7919   2.8382   2.8643   2.9610   2.9626   2.9951   3.0555
     3.0803   3.1091   3.1770   3.2036   3.4386   3.4621   4.1538   4.7198
     5.4382   6.3332   6.7933   6.9465   7.4358   7.9340   8.1308   8.2664
     8.4510   8.4717   9.0923  10.2797  10.6211  10.7772  10.8979  10.9484
    11.5308  11.6911  12.1849  12.6324  12.9229  13.1437  13.3716  13.4542
    13.5159  13.6247  14.1047  14.5287

          k = 0.0000-0.5774 0.0000 ( 22116 PWs)   bands (ev):

   -86.0326 -86.0322 -86.0265 -86.0260 -86.0259 -86.0229 -85.8413 -85.8378
   -85.8341 -85.8199 -85.8198 -85.8154 -49.5601 -49.5530 -49.5319 -49.5317
   -49.5064 -49.5064 -49.4939 -49.4866 -49.4866 -49.4705 -49.4607 -49.4586
   -49.4586 -49.4488 -49.4484 -49.4400 -49.4369 -49.4365 -49.3640 -49.3448
   -49.3137 -49.3113 -49.2930 -49.2929 -49.2717 -49.2670 -49.2644 -49.2637
   -49.2597 -49.2569 -49.2523 -49.2461 -49.2460 -49.2409 -49.2408 -49.2373
   -11.8122 -11.8115  -9.0543  -9.0521  -4.4457  -4.4441  -2.7797  -2.7782
    -1.3626  -1.3617  -0.2649  -0.1744  -0.1081   0.1404   0.1765   0.1770
     0.2057   0.2069   0.2840   0.4055   0.4070   0.5691   0.5820   0.5838
     0.6212   0.6217   0.7129   0.7132   0.8510   0.8537   1.0138   1.0140
     1.1161   1.1314   1.1344   1.1708   1.2002   1.2022   1.3732   1.3766
     1.3980   1.4296   1.4317   1.4783   1.4812   1.7205   1.7237   1.7849
     1.7874   1.9627   2.0225   2.0245   2.0251   2.2224   2.2255   2.3129
     2.3463   2.3471   2.5815   2.6207   2.6208   2.7124   2.7138   2.7822
     2.8128   2.8135   2.9736   2.9785   2.9795   3.0464   3.1088   3.1630
     3.1638   3.1910   3.3261   3.3506   3.3542   3.3856   3.6353   3.6363
     5.2344   5.2346   6.1772   7.0053   7.4957   7.4981   7.5183   7.7280
     8.7401   8.7467   9.7338   9.7373  10.1605  10.7307  11.4500  11.6938
    11.6947  11.9852  11.9874  12.6903  12.9975  12.9982  13.2539  13.2572
    13.6114  13.6125  13.8395  13.8411

          k = 0.1667-0.0962 0.0000 ( 22089 PWs)   bands (ev):

   -86.0403 -86.0312 -86.0251 -86.0244 -86.0227 -86.0225 -85.8461 -85.8349
   -85.8323 -85.8263 -85.8145 -85.8143 -49.5483 -49.5427 -49.5367 -49.5357
   -49.5307 -49.5070 -49.4999 -49.4893 -49.4848 -49.4752 -49.4691 -49.4686
   -49.4669 -49.4638 -49.4331 -49.4283 -49.4216 -49.4133 -49.3471 -49.3418
   -49.3276 -49.3224 -49.3065 -49.3037 -49.2868 -49.2844 -49.2675 -49.2580
   -49.2551 -49.2506 -49.2465 -49.2424 -49.2363 -49.2361 -49.2312 -49.2227
   -13.0875  -9.3523  -8.5152  -8.5123  -6.3994  -6.3977  -5.5827  -1.3097
    -1.1058  -0.7957  -0.7937  -0.2652  -0.1593  -0.0395   0.1326   0.1364
     0.2662   0.3222   0.3295   0.4056   0.5383   0.6350   0.7141   0.7363
     0.7642   0.8252   0.9218   0.9418   0.9485   1.1073   1.1890   1.2141
     1.2899   1.3357   1.4083   1.4234   1.4285   1.4596   1.4869   1.5120
     1.5155   1.5491   1.5868   1.6566   1.6577   1.7201   1.7365   1.8228
     1.9181   1.9954   2.0504   2.0977   2.1002   2.2027   2.2208   2.2867
     2.3190   2.3210   2.3887   2.4014   2.4144   2.5608   2.5815   2.5848
     2.6359   2.7147   2.7571   2.7598   2.8339   2.9108   2.9744   2.9931
     3.0202   3.0545   3.0992   3.1697   3.4127   3.6168   3.6230   5.4924
     6.8887   6.9471   7.8137   7.8948   7.8961   8.0992   8.4409   8.6918
     9.0149   9.2661   9.4815   9.9654  10.3366  10.7851  10.9641  11.3111
    11.3947  11.5600  11.5778  12.0704  12.3473  12.4058  12.4330  12.5789
    13.1769  13.3365  13.5343  13.8982

          k = 0.1667 0.0962 0.0000 ( 22089 PWs)   bands (ev):

   -86.0403 -86.0312 -86.0250 -86.0245 -86.0227 -86.0225 -85.8461 -85.8349
   -85.8323 -85.8263 -85.8145 -85.8143 -49.5483 -49.5423 -49.5369 -49.5358
   -49.5311 -49.5063 -49.5000 -49.4900 -49.4847 -49.4751 -49.4692 -49.4686
   -49.4663 -49.4643 -49.4333 -49.4280 -49.4214 -49.4134 -49.3471 -49.3418
   -49.3278 -49.3222 -49.3065 -49.3038 -49.2871 -49.2841 -49.2675 -49.2580
   -49.2551 -49.2507 -49.2465 -49.2423 -49.2363 -49.2362 -49.2309 -49.2230
   -13.0875  -9.3523  -8.5148  -8.5127  -6.3993  -6.3978  -5.5827  -1.3097
    -1.1058  -0.7952  -0.7941  -0.2648  -0.1594  -0.0398   0.1323   0.1367
     0.2645   0.3219   0.3309   0.4051   0.5403   0.6351   0.7106   0.7345
     0.7674   0.8247   0.9225   0.9440   0.9471   1.1079   1.1885   1.2135
     1.2885   1.3371   1.4071   1.4229   1.4313   1.4599   1.4888   1.5119
     1.5172   1.5482   1.5861   1.6521   1.6579   1.7202   1.7379   1.8219
     1.9160   2.0008   2.0531   2.0966   2.0987   2.2061   2.2171   2.2894
     2.3190   2.3233   2.3888   2.3967   2.4128   2.5588   2.5798   2.5849
     2.6360   2.7090   2.7604   2.7618   2.8344   2.9111   2.9740   2.9927
     3.0209   3.0561   3.0993   3.1688   3.4147   3.6164   3.6233   5.4920
     6.8886   6.9473   7.8129   7.8886   7.9025   8.0960   8.4475   8.6919
     9.0113   9.2673   9.4824   9.9654  10.3366  10.7803  10.9628  11.3150
    11.3974  11.5573  11.5778  12.0704  12.3507  12.4004  12.4294  12.5790
    13.1770  13.3400  13.5442  13.8981

          k = 0.1667 0.2887 0.0000 ( 22089 PWs)   bands (ev):

   -86.0380 -86.0296 -86.0265 -86.0261 -86.0231 -86.0229 -85.8443 -85.8357
   -85.8333 -85.8244 -85.8154 -85.8154 -49.5442 -49.5440 -49.5426 -49.5389
   -49.5387 -49.4962 -49.4958 -49.4795 -49.4794 -49.4760 -49.4636 -49.4634
   -49.4559 -49.4558 -49.4481 -49.4423 -49.4331 -49.4179 -49.3495 -49.3482
   -49.3296 -49.3294 -49.2883 -49.2874 -49.2714 -49.2683 -49.2681 -49.2657
   -49.2586 -49.2560 -49.2517 -49.2475 -49.2446 -49.2372 -49.2370 -49.2281
   -12.7667  -9.9500  -9.9485  -7.7347  -6.6439  -4.5094  -4.5088  -2.0977
    -0.9190  -0.6699  -0.4748  -0.4731   0.0540   0.0763   0.0777   0.1854
     0.1863   0.2204   0.2208   0.2438   0.4140   0.5229   0.5249   0.7135
     0.7160   0.7305   0.7315   0.8996   0.9461   0.9470   1.0771   1.1160
     1.2958   1.3246   1.3271   1.3991   1.4642   1.4843   1.4859   1.5537
     1.5779   1.5790   1.6265   1.6511   1.7085   1.7239   1.7266   1.8580
     1.9403   1.9801   2.0901   2.1004   2.1032   2.1773   2.1866   2.2044
     2.2830   2.2883   2.3274   2.3851   2.3877   2.4499   2.4944   2.5037
     2.5948   2.5969   2.6784   2.6801   2.7035   2.7730   2.9679   2.9715
     3.0455   3.0937   3.0964   3.2218   3.2237   3.9222   4.2921   5.8044
     5.8071   6.0718   6.5865   6.5915   7.4177   7.7522   7.9940   7.9955
     9.5733   9.6176   9.7933   9.8287  10.4033  10.7435  10.8545  10.8599
    11.6373  11.6456  11.9829  12.4389  12.4733  12.4834  13.5746  13.5808
    13.9760  13.9785  14.2669  14.2679

          k = 0.1667-0.6736 0.0000 ( 22149 PWs)   bands (ev):

   -86.0341 -86.0298 -86.0274 -86.0270 -86.0246 -86.0234 -85.8417 -85.8370
   -85.8345 -85.8212 -85.8179 -85.8161 -49.5508 -49.5454 -49.5345 -49.5338
   -49.5269 -49.4999 -49.4963 -49.4961 -49.4753 -49.4692 -49.4648 -49.4590
   -49.4570 -49.4553 -49.4430 -49.4405 -49.4404 -49.4270 -49.3552 -49.3358
   -49.3333 -49.3140 -49.3037 -49.2840 -49.2720 -49.2711 -49.2640 -49.2593
   -49.2572 -49.2570 -49.2524 -49.2513 -49.2420 -49.2392 -49.2378 -49.2377
   -12.1288 -11.1830 -10.2546  -7.6712  -5.8255  -3.4754  -3.4073  -2.4275
    -1.3459  -0.3905  -0.1789  -0.1518  -0.0884  -0.0818  -0.0139   0.1226
     0.1458   0.1631   0.2179   0.2203   0.2402   0.3841   0.3949   0.4938
     0.5748   0.6352   0.6894   0.7518   0.7593   0.9222   0.9243   1.0103
     1.0680   1.1001   1.1380   1.2553   1.3344   1.3743   1.4391   1.4419
     1.4891   1.5149   1.5782   1.6993   1.7991   1.8379   1.8774   1.9329
     1.9827   2.0155   2.0227   2.0387   2.1462   2.1942   2.2017   2.2133
     2.2787   2.3313   2.4089   2.5018   2.5416   2.5450   2.6509   2.6582
     2.6853   2.7592   2.8589   2.9123   2.9257   2.9426   2.9787   3.0056
     3.0499   3.0847   3.1154   3.1271   3.2225   3.8161   4.4571   4.6800
     4.7444   4.9288   5.6826   6.0706   7.0188   7.1258   7.2689   8.3246
     8.9822   9.1237  10.3100  10.5855  10.7463  11.2691  11.2768  11.5640
    11.7683  12.0029  12.5338  12.7626  12.7837  13.1246  13.2150  13.2310
    13.8463  13.8576  13.9246  14.1778

          k = 0.1667-0.4811 0.0000 ( 22149 PWs)   bands (ev):

   -86.0341 -86.0298 -86.0274 -86.0270 -86.0246 -86.0233 -85.8417 -85.8370
   -85.8345 -85.8212 -85.8179 -85.8161 -49.5508 -49.5454 -49.5346 -49.5338
   -49.5270 -49.4996 -49.4963 -49.4961 -49.4754 -49.4691 -49.4647 -49.4591
   -49.4570 -49.4553 -49.4432 -49.4406 -49.4404 -49.4270 -49.3551 -49.3358
   -49.3334 -49.3138 -49.3036 -49.2842 -49.2720 -49.2709 -49.2640 -49.2593
   -49.2572 -49.2571 -49.2523 -49.2516 -49.2420 -49.2391 -49.2378 -49.2375
   -12.1288 -11.1830 -10.2546  -7.6712  -5.8254  -3.4754  -3.4073  -2.4275
    -1.3458  -0.3905  -0.1793  -0.1519  -0.0886  -0.0821  -0.0136   0.1236
     0.1458   0.1628   0.2167   0.2198   0.2406   0.3876   0.3948   0.4940
     0.5766   0.6348   0.6874   0.7502   0.7593   0.9219   0.9242   1.0103
     1.0687   1.1009   1.1405   1.2537   1.3333   1.3742   1.4369   1.4389
     1.4847   1.5172   1.5783   1.7023   1.8017   1.8419   1.8787   1.9297
     1.9800   2.0173   2.0241   2.0399   2.1445   2.1923   2.2005   2.2129
     2.2765   2.3333   2.4098   2.5036   2.5426   2.5457   2.6530   2.6587
     2.6821   2.7574   2.8569   2.9122   2.9258   2.9432   2.9792   3.0077
     3.0503   3.0847   3.1163   3.1269   3.2219   3.8164   4.4559   4.6800
     4.7422   4.9288   5.6827   6.0724   7.0201   7.1257   7.2685   8.3239
     8.9821   9.1238  10.3102  10.5855  10.7460  11.2692  11.2768  11.5639
    11.7684  12.0026  12.5334  12.7641  12.7837  13.1228  13.2152  13.2315
    13.8438  13.8602  13.9266  14.1762

          k = 0.1667-0.2887 0.0000 ( 22089 PWs)   bands (ev):

   -86.0380 -86.0296 -86.0265 -86.0261 -86.0231 -86.0229 -85.8443 -85.8357
   -85.8333 -85.8244 -85.8154 -85.8154 -49.5446 -49.5440 -49.5427 -49.5387
   -49.5386 -49.4967 -49.4957 -49.4792 -49.4789 -49.4757 -49.4641 -49.4637
   -49.4559 -49.4556 -49.4479 -49.4425 -49.4333 -49.4177 -49.3491 -49.3486
   -49.3295 -49.3294 -49.2883 -49.2874 -49.2713 -49.2683 -49.2682 -49.2656
   -49.2586 -49.2560 -49.2520 -49.2476 -49.2446 -49.2371 -49.2370 -49.2278
   -12.7667  -9.9496  -9.9489  -7.7347  -6.6439  -4.5093  -4.5089  -2.0977
    -0.9190  -0.6700  -0.4744  -0.4736   0.0523   0.0765   0.0774   0.1852
     0.1860   0.2206   0.2210   0.2454   0.4164   0.5244   0.5264   0.7126
     0.7146   0.7291   0.7303   0.8994   0.9461   0.9492   1.0762   1.1156
     1.2958   1.3232   1.3251   1.3977   1.4642   1.4823   1.4864   1.5535
     1.5752   1.5787   1.6280   1.6509   1.7058   1.7297   1.7314   1.8579
     1.9400   1.9801   2.0897   2.0966   2.1041   2.1777   2.1868   2.2047
     2.2796   2.2905   2.3262   2.3853   2.3868   2.4533   2.5004   2.5035
     2.5954   2.5977   2.6734   2.6798   2.7084   2.7706   2.9694   2.9704
     3.0453   3.0933   3.0957   3.2221   3.2238   3.9196   4.2921   5.8050
     5.8067   6.0727   6.5864   6.5906   7.4179   7.7520   7.9943   7.9969
     9.5832   9.6057   9.8025   9.8206  10.4034  10.7435  10.8556  10.8600
    11.6389  11.6421  11.9828  12.4391  12.4760  12.4875  13.5674  13.5796
    13.9754  13.9789  14.2644  14.3165

          k = 0.3333-0.1925 0.0000 ( 22133 PWs)   bands (ev):

   -86.0369 -86.0289 -86.0281 -86.0257 -86.0237 -86.0229 -85.8435 -85.8363
   -85.8335 -85.8235 -85.8166 -85.8151 -49.5558 -49.5483 -49.5403 -49.5339
   -49.5267 -49.5014 -49.4910 -49.4800 -49.4786 -49.4678 -49.4654 -49.4630
   -49.4542 -49.4528 -49.4500 -49.4494 -49.4347 -49.4222 -49.3596 -49.3403
   -49.3362 -49.3169 -49.2848 -49.2815 -49.2787 -49.2652 -49.2650 -49.2616
   -49.2599 -49.2589 -49.2562 -49.2512 -49.2439 -49.2381 -49.2368 -49.2315
   -12.6067 -10.7156  -8.9122  -8.9094  -5.2732  -5.2715  -3.5265  -1.9161
    -1.9139  -0.7276  -0.4635  -0.1111  -0.0115  -0.0059   0.2209   0.2719
     0.2925   0.3008   0.3125   0.3756   0.4566   0.4731   0.5180   0.6186
     0.6993   0.7032   0.8232   0.8388   0.8580   0.9645   1.0073   1.0135
     1.1195   1.2218   1.2444   1.2907   1.3237   1.3972   1.4320   1.4431
     1.4573   1.5421   1.6564   1.6657   1.6971   1.7864   1.7972   1.8001
     1.8425   1.8682   1.8704   1.9969   2.0086   2.0548   2.0740   2.2436
     2.2586   2.3219   2.3940   2.4459   2.4821   2.4884   2.5399   2.6749
     2.7058   2.7932   2.8419   2.8657   2.9596   2.9632   2.9964   3.0561
     3.0776   3.1113   3.1790   3.2019   3.4393   3.4615   4.1513   4.7198
     5.4389   6.3336   6.7986   6.9453   7.4212   7.9413   8.1309   8.2656
     8.4427   8.4794   9.0923  10.2876  10.6209  10.7775  10.8946  10.9485
    11.5300  11.7022  12.1850  12.6326  12.9095  13.1439  13.3709  13.4544
    13.5186  13.6222  14.1048  14.5288

          k = 0.3333-0.0000 0.0000 ( 22089 PWs)   bands (ev):

   -86.0380 -86.0296 -86.0265 -86.0261 -86.0231 -86.0229 -85.8443 -85.8357
   -85.8333 -85.8244 -85.8154 -85.8154 -49.5445 -49.5441 -49.5428 -49.5387
   -49.5384 -49.4967 -49.4959 -49.4790 -49.4788 -49.4756 -49.4642 -49.4638
   -49.4558 -49.4556 -49.4479 -49.4425 -49.4335 -49.4178 -49.3491 -49.3486
   -49.3296 -49.3294 -49.2884 -49.2874 -49.2714 -49.2684 -49.2681 -49.2656
   -49.2586 -49.2560 -49.2518 -49.2475 -49.2446 -49.2372 -49.2370 -49.2280
   -12.7667  -9.9497  -9.9488  -7.7347  -6.6439  -4.5093  -4.5089  -2.0977
    -0.9190  -0.6702  -0.4744  -0.4735   0.0517   0.0763   0.0774   0.1849
     0.1866   0.2207   0.2213   0.2457   0.4164   0.5247   0.5268   0.7124
     0.7137   0.7294   0.7308   0.9004   0.9469   0.9495   1.0762   1.1154
     1.2957   1.3210   1.3246   1.3980   1.4644   1.4836   1.4878   1.5529
     1.5750   1.5785   1.6269   1.6509   1.7057   1.7291   1.7304   1.8579
     1.9401   1.9801   2.0911   2.0984   2.1021   2.1800   2.1821   2.2050
     2.2828   2.2875   2.3262   2.3838   2.3888   2.4530   2.4997   2.5042
     2.5963   2.5988   2.6740   2.6785   2.7090   2.7699   2.9682   2.9709
     3.0465   3.0933   3.0952   3.2233   3.2241   3.9187   4.2921   5.8050
     5.8069   6.0724   6.5863   6.5903   7.4179   7.7516   7.9937   7.9969
     9.5831   9.6052   9.8018   9.8196  10.4034  10.7435  10.8577  10.8609
    11.6386  11.6427  11.9829  12.4391  12.4790  12.4873  13.5671  13.5798
    13.9768  13.9776  14.2647  14.2669

          k = 0.3333 0.1925 0.0000 ( 22133 PWs)   bands (ev):

   -86.0369 -86.0289 -86.0281 -86.0258 -86.0237 -86.0228 -85.8435 -85.8363
   -85.8335 -85.8235 -85.8166 -85.8151 -49.5555 -49.5483 -49.5402 -49.5341
   -49.5271 -49.5007 -49.4920 -49.4803 -49.4783 -49.4678 -49.4653 -49.4627
   -49.4540 -49.4531 -49.4500 -49.4493 -49.4345 -49.4223 -49.3595 -49.3404
   -49.3363 -49.3167 -49.2847 -49.2818 -49.2786 -49.2653 -49.2652 -49.2613
   -49.2596 -49.2589 -49.2562 -49.2511 -49.2439 -49.2380 -49.2370 -49.2318
   -12.6067 -10.7156  -8.9119  -8.9097  -5.2732  -5.2715  -3.5264  -1.9157
    -1.9143  -0.7276  -0.4634  -0.1111  -0.0119  -0.0060   0.2224   0.2709
     0.2911   0.3007   0.3135   0.3733   0.4584   0.4744   0.5169   0.6196
     0.6980   0.7033   0.8243   0.8400   0.8596   0.9644   1.0024   1.0164
     1.1179   1.2187   1.2451   1.2901   1.3253   1.3968   1.4314   1.4410
     1.4624   1.5419   1.6584   1.6652   1.6976   1.7872   1.7986   1.7997
     1.8431   1.8682   1.8776   1.9924   2.0022   2.0533   2.0754   2.2448
     2.2552   2.3221   2.3916   2.4453   2.4812   2.4889   2.5407   2.6794
     2.7090   2.7922   2.8390   2.8647   2.9601   2.9631   2.9963   3.0550
     3.0796   3.1096   3.1785   3.2033   3.4387   3.4619   4.1529   4.7198
     5.4384   6.3329   6.7954   6.9462   7.4335   7.9338   8.1306   8.2618
     8.4493   8.4737   9.0920  10.2845  10.6211  10.7774  10.8980  10.9485
    11.5299  11.6945  12.1851  12.6323  12.9241  13.1435  13.3738  13.4540
    13.5130  13.6261  14.1048  14.5288

          k = 0.3333-0.7698 0.0000 ( 22149 PWs)   bands (ev):

   -86.0341 -86.0298 -86.0274 -86.0270 -86.0245 -86.0234 -85.8417 -85.8370
   -85.8345 -85.8212 -85.8179 -85.8161 -49.5510 -49.5454 -49.5346 -49.5337
   -49.5268 -49.4999 -49.4964 -49.4959 -49.4753 -49.4693 -49.4648 -49.4590
   -49.4570 -49.4553 -49.4431 -49.4406 -49.4404 -49.4270 -49.3551 -49.3359
   -49.3334 -49.3138 -49.3037 -49.2839 -49.2721 -49.2710 -49.2640 -49.2593
   -49.2571 -49.2570 -49.2522 -49.2515 -49.2420 -49.2392 -49.2378 -49.2378
   -12.1288 -11.1830 -10.2546  -7.6712  -5.8255  -3.4754  -3.4073  -2.4275
    -1.3459  -0.3905  -0.1789  -0.1516  -0.0881  -0.0818  -0.0143   0.1222
     0.1458   0.1628   0.2181   0.2209   0.2400   0.3844   0.3949   0.4941
     0.5748   0.6352   0.6893   0.7515   0.7590   0.9223   0.9238   1.0104
     1.0683   1.1004   1.1381   1.2545   1.3351   1.3739   1.4401   1.4409
     1.4883   1.5155   1.5773   1.6993   1.7996   1.8370   1.8775   1.9327
     1.9827   2.0158   2.0227   2.0387   2.1470   2.1938   2.2023   2.2137
     2.2789   2.3315   2.4085   2.5019   2.5417   2.5451   2.6512   2.6580
     2.6852   2.7589   2.8592   2.9122   2.9252   2.9422   2.9790   3.0066
     3.0497   3.0859   3.1152   3.1273   3.2219   3.8160   4.4577   4.6801
     4.7440   4.9294   5.6812   6.0702   7.0187   7.1256   7.2689   8.3243
     8.9804   9.1236  10.3100  10.5886  10.7450  11.2691  11.2771  11.5640
    11.7683  12.0064  12.5335  12.7634  12.7838  13.1234  13.2165  13.2310
    13.8464  13.8580  13.9236  14.1920

          k = 0.3333-0.5774 0.0000 ( 22161 PWs)   bands (ev):

   -86.0308 -86.0304 -86.0302 -86.0251 -86.0249 -86.0248 -85.8406 -85.8367
   -85.8359 -85.8185 -85.8184 -85.8183 -49.5351 -49.5348 -49.5346 -49.5287
   -49.5285 -49.5283 -49.4952 -49.4951 -49.4948 -49.4628 -49.4625 -49.4624
   -49.4517 -49.4516 -49.4513 -49.4326 -49.4326 -49.4324 -49.3347 -49.3343
   -49.3323 -49.3144 -49.3143 -49.3142 -49.2646 -49.2642 -49.2634 -49.2624
   -49.2590 -49.2581 -49.2443 -49.2442 -49.2440 -49.2398 -49.2396 -49.2396
   -11.3405 -11.3401 -11.3390  -6.4889  -6.4889  -4.3113  -1.7124  -1.7112
    -1.7107  -0.3116  -0.3113  -0.3107  -0.0496  -0.0487  -0.0478  -0.0137
    -0.0130  -0.0122   0.1655   0.1669   0.1679   0.3364   0.3380   0.3399
     0.5008   0.5023   0.5038   0.7143   0.7174   0.7197   0.8187   0.8221
     0.8251   1.2057   1.2075   1.2089   1.4060   1.4065   1.4110   1.5099
     1.5107   1.5131   1.6281   1.6323   1.6331   2.0078   2.0109   2.0126
     2.0560   2.0594   2.0605   2.3767   2.3783   2.3802   2.4483   2.4485
     2.4496   2.6352   2.6372   2.6380   2.6938   2.6944   2.6956   2.7571
     2.7585   2.7593   2.8518   2.8533   2.8572   2.8914   2.8928   2.8940
     3.0956   3.0966   3.0974   3.1352   3.1369   3.1380   3.9089   3.9114
     3.9140   5.7042   5.7055   5.7081   6.0049   6.0050   8.0284   8.0335
     8.0341  10.4494  10.4526  10.4540  12.1950  12.1957  12.1982  12.3060
    12.3064  12.3071  12.5274  12.5286  12.5293  12.9635  12.9727  12.9747
    13.6919  13.7077  13.7085  13.9879

          k = 0.3333-0.3849 0.0000 ( 22149 PWs)   bands (ev):

   -86.0341 -86.0298 -86.0273 -86.0270 -86.0245 -86.0235 -85.8417 -85.8371
   -85.8345 -85.8212 -85.8179 -85.8161 -49.5513 -49.5453 -49.5347 -49.5336
   -49.5266 -49.4994 -49.4967 -49.4953 -49.4755 -49.4696 -49.4647 -49.4590
   -49.4570 -49.4554 -49.4433 -49.4405 -49.4403 -49.4269 -49.3552 -49.3358
   -49.3334 -49.3139 -49.3035 -49.2842 -49.2720 -49.2710 -49.2640 -49.2594
   -49.2572 -49.2570 -49.2525 -49.2514 -49.2420 -49.2392 -49.2377 -49.2374
   -12.1288 -11.1830 -10.2546  -7.6713  -5.8254  -3.4754  -3.4073  -2.4275
    -1.3459  -0.3905  -0.1793  -0.1517  -0.0875  -0.0821  -0.0138   0.1221
     0.1458   0.1625   0.2167   0.2216   0.2392   0.3888   0.3933   0.4963
     0.5763   0.6339   0.6881   0.7496   0.7576   0.9214   0.9236   1.0104
     1.0695   1.1048   1.1375   1.2556   1.3352   1.3753   1.4371   1.4417
     1.4811   1.5137   1.5754   1.7026   1.8044   1.8342   1.8781   1.9294
     1.9860   2.0156   2.0260   2.0374   2.1471   2.1928   2.1997   2.2159
     2.2809   2.3332   2.4069   2.5043   2.5421   2.5463   2.6507   2.6583
     2.6822   2.7569   2.8586   2.9123   2.9239   2.9415   2.9796   3.0073
     3.0510   3.0858   3.1175   3.1273   3.2214   3.8161   4.4576   4.6802
     4.7416   4.9302   5.6780   6.0700   7.0202   7.1295   7.2686   8.3245
     8.9791   9.1238  10.3102  10.5899  10.7448  11.2691  11.2748  11.5638
    11.7687  12.0138  12.5335  12.7634  12.7837  13.1233  13.2038  13.2316
    13.8449  13.8576  13.9236  14.1773

          k =-0.5000 0.2887 0.0000 ( 22116 PWs)   bands (ev):

   -86.0326 -86.0323 -86.0263 -86.0260 -86.0259 -86.0231 -85.8413 -85.8379
   -85.8341 -85.8199 -85.8199 -85.8154 -49.5606 -49.5530 -49.5321 -49.5317
   -49.5059 -49.5057 -49.4928 -49.4871 -49.4869 -49.4714 -49.4604 -49.4587
   -49.4585 -49.4490 -49.4487 -49.4400 -49.4367 -49.4365 -49.3640 -49.3448
   -49.3142 -49.3107 -49.2931 -49.2930 -49.2717 -49.2673 -49.2642 -49.2637
   -49.2597 -49.2569 -49.2524 -49.2460 -49.2460 -49.2409 -49.2407 -49.2372
   -11.8125 -11.8112  -9.0546  -9.0519  -4.4456  -4.4442  -2.7802  -2.7777
    -1.3630  -1.3613  -0.2649  -0.1732  -0.1078   0.1393   0.1749   0.1774
     0.2045   0.2079   0.2824   0.4092   0.4104   0.5673   0.5802   0.5813
     0.6185   0.6198   0.7165   0.7169   0.8513   0.8532   1.0137   1.0141
     1.1224   1.1262   1.1300   1.1709   1.1991   1.2035   1.3760   1.3800
     1.3999   1.4283   1.4308   1.4742   1.4814   1.7197   1.7205   1.7842
     1.7857   1.9602   2.0145   2.0293   2.0320   2.2242   2.2264   2.3208
     2.3485   2.3492   2.5829   2.6169   2.6173   2.7083   2.7111   2.7791
     2.8148   2.8162   2.9738   2.9793   2.9809   3.0476   3.1065   3.1624
     3.1647   3.1931   3.3260   3.3502   3.3553   3.3850   3.6351   3.6376
     5.2324   5.2333   6.1820   6.9885   7.4964   7.4982   7.5279   7.7274
     8.7394   8.7475   9.7320   9.7380  10.1683  10.7271  11.4622  11.6935
    11.6950  11.9852  11.9873  12.6755  12.9963  12.9992  13.2531  13.2582
    13.6115  13.6129  13.8398  13.8411

          k =-0.5000 0.4811 0.0000 ( 22149 PWs)   bands (ev):

   -86.0341 -86.0298 -86.0273 -86.0270 -86.0245 -86.0235 -85.8417 -85.8371
   -85.8345 -85.8212 -85.8179 -85.8161 -49.5513 -49.5453 -49.5347 -49.5337
   -49.5267 -49.4993 -49.4967 -49.4954 -49.4755 -49.4695 -49.4647 -49.4590
   -49.4570 -49.4554 -49.4434 -49.4404 -49.4404 -49.4270 -49.3552 -49.3357
   -49.3333 -49.3140 -49.3036 -49.2841 -49.2720 -49.2710 -49.2640 -49.2594
   -49.2571 -49.2570 -49.2525 -49.2513 -49.2420 -49.2392 -49.2377 -49.2375
   -12.1288 -11.1830 -10.2546  -7.6713  -5.8254  -3.4754  -3.4073  -2.4275
    -1.3459  -0.3905  -0.1792  -0.1518  -0.0875  -0.0829  -0.0136   0.1227
     0.1458   0.1625   0.2159   0.2213   0.2393   0.3898   0.3933   0.4963
     0.5769   0.6339   0.6883   0.7489   0.7573   0.9215   0.9238   1.0103
     1.0699   1.1056   1.1387   1.2546   1.3347   1.3749   1.4348   1.4415
     1.4809   1.5151   1.5750   1.7041   1.8034   1.8347   1.8777   1.9289
     1.9866   2.0152   2.0259   2.0376   2.1468   2.1933   2.1984   2.2156
     2.2811   2.3339   2.4071   2.5045   2.5422   2.5464   2.6508   2.6585
     2.6820   2.7562   2.8589   2.9126   2.9240   2.9412   2.9783   3.0075
     3.0517   3.0860   3.1185   3.1268   3.2224   3.8162   4.4571   4.6802
     4.7410   4.9302   5.6780   6.0702   7.0200   7.1294   7.2685   8.3246
     8.9790   9.1231  10.3102  10.5899  10.7458  11.2691  11.2748  11.5639
    11.7688  12.0137  12.5337  12.7626  12.7838  13.1247  13.2037  13.2313
    13.8451  13.8575  13.9246  14.1776

          k =-0.5000 0.6736 0.0000 ( 22149 PWs)   bands (ev):

   -86.0341 -86.0298 -86.0274 -86.0270 -86.0246 -86.0234 -85.8417 -85.8370
   -85.8345 -85.8212 -85.8179 -85.8161 -49.5509 -49.5453 -49.5347 -49.5338
   -49.5269 -49.4994 -49.4963 -49.4961 -49.4754 -49.4691 -49.4647 -49.4591
   -49.4570 -49.4554 -49.4433 -49.4406 -49.4403 -49.4270 -49.3551 -49.3359
   -49.3334 -49.3138 -49.3037 -49.2840 -49.2722 -49.2708 -49.2640 -49.2594
   -49.2571 -49.2570 -49.2522 -49.2516 -49.2420 -49.2391 -49.2379 -49.2377
   -12.1288 -11.1830 -10.2546  -7.6712  -5.8254  -3.4754  -3.4073  -2.4275
    -1.3458  -0.3905  -0.1792  -0.1517  -0.0883  -0.0829  -0.0138   0.1237
     0.1458   0.1626   0.2160   0.2203   0.2405   0.3889   0.3949   0.4943
     0.5772   0.6348   0.6874   0.7492   0.7588   0.9221   0.9240   1.0104
     1.0695   1.1020   1.1417   1.2519   1.3335   1.3734   1.4339   1.4393
     1.4837   1.5192   1.5770   1.7036   1.8012   1.8416   1.8784   1.9290
     1.9806   2.0173   2.0239   2.0400   2.1450   2.1922   2.2000   2.2131
     2.2769   2.3341   2.4096   2.5039   2.5428   2.5459   2.6533   2.6588
     2.6818   2.7565   2.8574   2.9125   2.9255   2.9425   2.9782   3.0089
     3.0507   3.0861   3.1171   3.1266   3.2223   3.8163   4.4559   4.6801
     4.7412   4.9294   5.6813   6.0721   7.0197   7.1254   7.2685   8.3237
     8.9803   9.1230  10.3102  10.5887  10.7457  11.2692  11.2771  11.5640
    11.7685  12.0060  12.5334  12.7642  12.7838  13.1229  13.2165  13.2312
    13.8438  13.8608  13.9265  14.1919

          k =-0.5000-0.2887 0.0000 ( 22116 PWs)   bands (ev):

   -86.0326 -86.0322 -86.0265 -86.0261 -86.0259 -86.0230 -85.8413 -85.8378
   -85.8341 -85.8199 -85.8198 -85.8154 -49.5602 -49.5530 -49.5321 -49.5316
   -49.5064 -49.5061 -49.4937 -49.4867 -49.4866 -49.4707 -49.4606 -49.4587
   -49.4584 -49.4488 -49.4486 -49.4400 -49.4368 -49.4367 -49.3640 -49.3449
   -49.3139 -49.3113 -49.2929 -49.2928 -49.2718 -49.2669 -49.2643 -49.2637
   -49.2597 -49.2569 -49.2521 -49.2463 -49.2462 -49.2409 -49.2407 -49.2373
   -11.8122 -11.8115  -9.0543  -9.0521  -4.4457  -4.4441  -2.7797  -2.7782
    -1.3625  -1.3618  -0.2647  -0.1740  -0.1083   0.1402   0.1760   0.1780
     0.2045   0.2073   0.2841   0.4067   0.4080   0.5690   0.5820   0.5823
     0.6201   0.6213   0.7133   0.7145   0.8513   0.8531   1.0138   1.0140
     1.1181   1.1299   1.1337   1.1681   1.2010   1.2023   1.3731   1.3774
     1.3987   1.4294   1.4302   1.4783   1.4816   1.7204   1.7221   1.7868
     1.7878   1.9624   2.0217   2.0242   2.0247   2.2235   2.2256   2.3132
     2.3470   2.3477   2.5818   2.6200   2.6203   2.7121   2.7133   2.7837
     2.8132   2.8137   2.9734   2.9802   2.9805   3.0456   3.1081   3.1628
     3.1638   3.1913   3.3257   3.3510   3.3544   3.3855   3.6354   3.6365
     5.2335   5.2341   6.1797   7.0029   7.4958   7.4973   7.5173   7.7243
     8.7402   8.7466   9.7334   9.7366  10.1653  10.7312  11.4535  11.6938
    11.6946  11.9858  11.9872  12.6920  12.9974  12.9982  13.2542  13.2573
    13.6111  13.6124  13.8401  13.8404

     the Fermi energy is     6.0613 ev

!    total energy              =   -3595.82989982 Ry
     estimated scf accuracy    <          7.6E-09 Ry
     smearing contrib. (-TS)   =      -0.00109211 Ry
     internal energy E=F+TS    =   -3595.82880770 Ry

     The total energy is F=E-TS. E is the sum of the following terms:
     one-electron contribution =  -23853.40215632 Ry
     hartree contribution      =   11956.81382015 Ry
     xc contribution           =    -362.13793328 Ry
     ewald contribution        =    8712.71965910 Ry
     DFT-D3 Dispersion         =      -0.49508243 Ry
     electric field correction =       0.00000108 Ry
     one-center paw contrib.   =     -49.32711601 Ry

     convergence has been achieved in  34 iterations

     negative rho (up, down):  1.166E-04 0.000E+00

     Forces acting on atoms (cartesian axes, Ry/au):

     atom    1 type  1   force =     0.00008313    0.00050242    0.00199091
     atom    2 type  1   force =     0.00017532    0.00059877    0.00202566
     atom    3 type  1   force =    -0.00021674   -0.00008993   -0.00078587
     atom    4 type  1   force =    -0.00000266   -0.00034215   -0.00081733
     atom    5 type  1   force =     0.00022795    0.00049381    0.00199185
     atom    6 type  1   force =    -0.00029894   -0.00002730   -0.00056487
     atom    7 type  1   force =    -0.00002238   -0.00001783    0.00286369
     atom    8 type  1   force =     0.00002422   -0.00035401   -0.00082542
     atom    9 type  1   force =     0.00074895   -0.00054009    0.00351367
     atom   10 type  1   force =    -0.00026006    0.00000800   -0.00065488
     atom   11 type  1   force =    -0.00001020   -0.00033108   -0.00081882
     atom   12 type  1   force =    -0.00042642    0.00015963    0.00296603
     atom   13 type  2   force =     0.00037135   -0.00022183   -0.00147112
     atom   14 type  2   force =     0.00009058   -0.00036694   -0.00192510
     atom   15 type  2   force =     0.00009342   -0.00005635   -0.00013478
     atom   16 type  2   force =     0.00035253    0.00008429   -0.00195810
     atom   17 type  2   force =    -0.00034066   -0.00006025   -0.00182195
     atom   18 type  2   force =    -0.00013233    0.00006551   -0.00023924
     atom   19 type  2   force =    -0.00013123    0.00031418   -0.00201635
     atom   20 type  2   force =    -0.00032583    0.00018115   -0.00131799

     Total force =     0.008192     Total SCF correction =     0.000733

     Writing all to output data dir ./tmp/V2_hollow_fcc_Ed_p03.save/ :
     XML data file, charge density, pseudopotentials, collected wavefunctions
 
     init_run     :      3.61s CPU      3.76s WALL (       1 calls)
     electrons    :    173.84s CPU    190.26s WALL (       1 calls)
     forces       :      0.71s CPU      0.84s WALL (       1 calls)
     force_dftd3  :      0.04s CPU      0.03s WALL (       1 calls)

     Called by init_run:
     wfcinit      :      1.03s CPU      1.61s WALL (       1 calls)
     potinit      :      1.64s CPU      1.22s WALL (       1 calls)
     hinit0       :      0.63s CPU      0.53s WALL (       1 calls)

     Called by electrons:
     c_bands      :     96.52s CPU    118.87s WALL (      35 calls)
     sum_band     :     19.20s CPU     28.33s WALL (      35 calls)
     v_of_rho     :      8.77s CPU      7.39s WALL (      35 calls)
     newd         :      0.51s CPU      0.52s WALL (      35 calls)
                                        0.52s GPU  (      35 calls)
     PAW_pot      :     40.52s CPU     25.54s WALL (      35 calls)
     mix_rho      :      6.10s CPU      6.47s WALL (      35 calls)
     energy_dftd3 :      0.00s CPU      0.00s WALL (       1 calls)

     Called by c_bands:
     init_us_2    :      1.32s CPU      1.68s WALL (    1440 calls)
     cegterg      :     85.25s CPU     85.64s WALL (     700 calls)

     Called by *egterg:
     cdiaghg      :     16.17s CPU     16.55s WALL (    4080 calls)
                                       16.52s GPU  (    4080 calls)
     h_psi        :     53.97s CPU     54.31s WALL (    4120 calls)
                                       54.16s GPU  (    4120 calls)
     s_psi        :      1.61s CPU      1.58s WALL (    4120 calls)
     g_psi        :      0.02s CPU      0.43s WALL (    3400 calls)
                                        0.41s GPU  (    3400 calls)

     Called by h_psi:
     h_psi:calbec :      0.15s CPU      2.37s WALL (    4120 calls)
                                        2.35s GPU  (    4120 calls)
     vloc_psi     :     47.12s CPU     47.34s WALL (    4120 calls)
                                       47.31s GPU  (    4120 calls)
     add_vuspsi   :      1.70s CPU      3.99s WALL (    4120 calls)
                                        3.96s GPU  (    4120 calls)

     General routines
     calbec       :      0.18s CPU      0.18s WALL (    4900 calls)
     fft          :      1.62s CPU      1.77s WALL (     465 calls)
                                        0.14s GPU  (     430 calls)
     ffts         :      0.35s CPU      0.61s WALL (    3643 calls)
                                        0.28s GPU  (    3608 calls)
     fftw         :      0.54s CPU     40.07s WALL (   41318 calls)
                                       39.84s GPU  (   41318 calls)
     interpolate  :      2.11s CPU      2.58s WALL (      35 calls)
     davcio       :      2.26s CPU     31.81s WALL (    2746 calls)
 
     Parallel routines
 
     PWSCF        :   3m 0.67s CPU   3m17.43s WALL

 
   This run was terminated on:  21:22: 0  26Sep2026            

=------------------------------------------------------------------------------=
   JOB DONE.
=------------------------------------------------------------------------------=
