
     Program PWSCF v.7.4.1 starts on 30Sep2026 at 21:31:29 

     This program is part of the open-source Quantum ESPRESSO suite
     for quantum simulation of materials; please cite
         "P. Giannozzi et al., J. Phys.:Condens. Matter 21 395502 (2009);
         "P. Giannozzi et al., J. Phys.:Condens. Matter 29 465901 (2017);
         "P. Giannozzi et al., J. Chem. Phys. 152 154105 (2020);
          URL http://www.quantum-espresso.org", 
     in publications or presentations arising from this work. More details at
     http://www.quantum-espresso.org/quote

     Parallel version (MPI & OpenMP), running on      16 processor cores
     Number of MPI processes:                 1
     Threads/MPI process:                    16

     MPI processes distributed on     1 nodes
     97729 MiB available memory on the printing compute node when the environment starts
 
     Reading input from pw.in

     Current dimensions of program PWSCF are:
     Max number of different atomic species (ntypx) = 10
     Max number of k-points (npk) =  40000
     Max angular momentum in pseudopotentials (lmaxx) =  4
     Presently no symmetry can be used with electric field

     file C.pbe-n-kjpaw_psl.1.0.0.UPF: wavefunction(s)  2S 2P renormalized
 
     Subspace diagonalization in iterative solution of the eigenvalue problem:
     a serial algorithm will be used

 
     G-vector sticks info
     --------------------
     sticks:   dense  smooth     PW     G-vecs:    dense   smooth      PW
     Sum         769     313    109               292115    74217   15113
 
     Using Slab Decomposition
 


     bravais-lattice index     =            0
     lattice parameter (alat)  =       4.6601  a.u.
     unit-cell volume          =    1460.7278 (a.u.)^3
     number of atoms/cell      =           16
     number of atomic types    =            1
     number of electrons       =        64.00
     number of Kohn-Sham states=           38
     kinetic-energy cutoff     =      52.0000  Ry
     charge density cutoff     =     520.0000  Ry
     scf convergence threshold =      1.0E-08
     mixing beta               =       0.3000
     number of iterations used =            8  local-TF  mixing
     Exchange-correlation= SLA  PW   PBX  PBC
                           (   1   4   3   4   0   0   0)

     GPU acceleration is ACTIVE.  1 visible GPUs per MPI rank


     celldm(1)=   4.660140  celldm(2)=   0.000000  celldm(3)=   0.000000
     celldm(4)=   0.000000  celldm(5)=   0.000000  celldm(6)=   0.000000

     crystal axes: (cart. coord. in units of alat)
               a(1) = (   1.000000   0.000000   0.000000 )  
               a(2) = (   0.500000   0.866025   0.000000 )  
               a(3) = (   0.000000   0.000000  16.666396 )  

     reciprocal axes: (cart. coord. in units 2 pi/alat)
               b(1) = (  1.000000 -0.577350  0.000000 )  
               b(2) = (  0.000000  1.154701  0.000000 )  
               b(3) = (  0.000000  0.000000  0.060001 )  


     PseudoPot. # 1 for C  read from file:
     /home/ubuntu/wad4l/pseudo_kgy/C.pbe-n-kjpaw_psl.1.0.0.UPF
     MD5 check sum: 5d2aebdfa2cae82b50a7e79e9516da0f
     Pseudo is Projector augmented-wave + core cor, Zval =  4.0
     Generated using "atomic" code by A. Dal Corso  v.5.1
     Shape of augmentation charge: PSQ
     Using radial grid of 1073 points,  4 beta functions with: 
                l(1) =   0
                l(2) =   0
                l(3) =   1
                l(4) =   1
     Q(r) pseudized with 0 coefficients 


     atomic species   valence    mass     pseudopotential
     C                 4.00    12.01100     C ( 1.00)

     No symmetry found



   Cartesian axes

     site n.     atom                  positions (alat units)
         1        C      tau(   1) = (   0.0000000   0.0000000   0.2027542  )
         2        C      tau(   2) = (   0.5000000   0.2886751   0.2027542  )
         3        C      tau(   3) = (   0.5000000   0.2886751   1.5612074  )
         4        C      tau(   4) = (   1.0000000   0.5773503   1.5612074  )
         5        C      tau(   5) = (   0.0000000   0.0000000   2.9196607  )
         6        C      tau(   6) = (   0.5000000   0.2886751   2.9196607  )
         7        C      tau(   7) = (   0.5000000   0.2886751   4.2781139  )
         8        C      tau(   8) = (   1.0000000   0.5773503   4.2781139  )
         9        C      tau(   9) = (   0.0000000   0.0000000   8.3331982  )
        10        C      tau(  10) = (   0.5000000   0.2886751   8.3331982  )
        11        C      tau(  11) = (   0.5000000   0.2886751   9.6916514  )
        12        C      tau(  12) = (   1.0000000   0.5773503   9.6916514  )
        13        C      tau(  13) = (   0.0000000   0.0000000  11.0501046  )
        14        C      tau(  14) = (   0.5000000   0.2886751  11.0501046  )
        15        C      tau(  15) = (   0.5000000   0.2886751  12.4085578  )
        16        C      tau(  16) = (   1.0000000   0.5773503  12.4085578  )

     --------------------------------------------
     DFT-D3 Dispersion Correction (no 3-body):
     --------------------------------------------
       Reference C6 values for interpolation: 

         atom   Coordination number   C6
         C          0.000            98.23
         C          0.987            86.49
         C          1.998            58.72
         C          2.999            51.56
         C          3.984            36.41

       Values used:

         atom   Coordination number  R0_AB[au]  C6      C8
         C          3.315            2.750     48.28   1396.23
         C          3.315            2.750     48.27   1396.10
         C          3.322            2.750     48.13   1391.98
         C          3.321            2.750     48.14   1392.23
         C          3.321            2.750     48.14   1392.20
         C          3.322            2.750     48.13   1391.95
         C          3.315            2.750     48.27   1396.03
         C          3.315            2.750     48.27   1396.15
         C          3.315            2.750     48.27   1396.15
         C          3.315            2.750     48.27   1396.03
         C          3.322            2.750     48.13   1391.95
         C          3.321            2.750     48.14   1392.20
         C          3.321            2.750     48.14   1392.23
         C          3.322            2.750     48.13   1391.98
         C          3.315            2.750     48.27   1396.10
         C          3.315            2.750     48.28   1396.23

         Molecular C6 ( Ry / a.u.^6 ) =     12339.90


     number of k points=   164  Marzari-Vanderbilt smearing, width (Ry)=  0.0100

     Number of k-points >= 100: set verbosity='high' to print them.

     Dense  grid:   292115 G-vectors     FFT dimensions: (  36,  36, 576)

     Smooth grid:    74217 G-vectors     FFT dimensions: (  24,  24, 360)

     Estimated max dynamical RAM per process >     593.95 MB

     Check: negative core charge=   -0.000003

     Initial potential from superposition of free atoms

     starting charge      63.9993, renormalised to      64.0000

     negative rho (up, down):  2.782E-05 0.000E+00
 
     Adding external electric field

     Computed dipole along edir(3) : 
        Dipole                0.0000 Ry au,          0.0000 Debye
        Dipole field          0.0000 Ry au, 
 
        Potential amp.       -0.0000 Ry
        Total length         75.7781 bohr
 
     Starting wfcs are   64 randomized atomic wfcs
     Checking if some PAW data can be deallocated... 

     total cpu time spent up to now is        5.1 secs

     Self-consistent Calculation

     iteration #  1     ecut=    52.00 Ry     beta= 0.30
     Davidson diagonalization with overlap
     ethr =  1.00E-02,  avg # of iterations =  2.2
 
     Adding external electric field

     Computed dipole along edir(3) : 
        Dipole                0.0001 Ry au,          0.0003 Debye
        Dipole field          0.0000 Ry au, 
 
        Potential amp.       -0.0002 Ry
        Total length         75.7781 bohr
 

     total cpu time spent up to now is       12.6 secs

     total energy              =    -295.66714364 Ry
     estimated scf accuracy    <       1.43436657 Ry

     iteration #  2     ecut=    52.00 Ry     beta= 0.30
     Davidson diagonalization with overlap
     ethr =  2.24E-03,  avg # of iterations =  1.0
 
     Adding external electric field

     Computed dipole along edir(3) : 
        Dipole                0.0006 Ry au,          0.0015 Debye
        Dipole field          0.0000 Ry au, 
 
        Potential amp.       -0.0008 Ry
        Total length         75.7781 bohr
 

     total cpu time spent up to now is       18.7 secs

     total energy              =    -295.08330060 Ry
     estimated scf accuracy    <       0.97928906 Ry

     iteration #  3     ecut=    52.00 Ry     beta= 0.30
     Davidson diagonalization with overlap
     ethr =  1.53E-03,  avg # of iterations =  2.8
 
     Adding external electric field

     Computed dipole along edir(3) : 
        Dipole                0.0004 Ry au,          0.0010 Debye
        Dipole field          0.0000 Ry au, 
 
        Potential amp.       -0.0005 Ry
        Total length         75.7781 bohr
 

     total cpu time spent up to now is       26.4 secs

     total energy              =    -295.25168970 Ry
     estimated scf accuracy    <       0.07189532 Ry

     iteration #  4     ecut=    52.00 Ry     beta= 0.30
     Davidson diagonalization with overlap
     ethr =  1.12E-04,  avg # of iterations =  3.6
 
     Adding external electric field

     Computed dipole along edir(3) : 
        Dipole                0.0001 Ry au,          0.0002 Debye
        Dipole field          0.0000 Ry au, 
 
        Potential amp.       -0.0001 Ry
        Total length         75.7781 bohr
 

     total cpu time spent up to now is       34.5 secs

     total energy              =    -295.25029280 Ry
     estimated scf accuracy    <       0.03479744 Ry

     iteration #  5     ecut=    52.00 Ry     beta= 0.30
     Davidson diagonalization with overlap
     c_bands:  1 eigenvalues not converged
     c_bands:  1 eigenvalues not converged
     c_bands:  1 eigenvalues not converged
     c_bands:  1 eigenvalues not converged
     ethr =  5.44E-05,  avg # of iterations =  3.2
 
     Adding external electric field

     Computed dipole along edir(3) : 
        Dipole               -0.0000 Ry au,         -0.0000 Debye
        Dipole field         -0.0000 Ry au, 
 
        Potential amp.        0.0000 Ry
        Total length         75.7781 bohr
 

     total cpu time spent up to now is       41.8 secs

     total energy              =    -295.25133706 Ry
     estimated scf accuracy    <       0.01135463 Ry

     iteration #  6     ecut=    52.00 Ry     beta= 0.30
     Davidson diagonalization with overlap
     c_bands:  2 eigenvalues not converged
     c_bands:  1 eigenvalues not converged
     c_bands:  3 eigenvalues not converged
     ethr =  1.77E-05,  avg # of iterations =  1.6

     negative rho (up, down):  2.422E-03 0.000E+00
 
     Adding external electric field

     Computed dipole along edir(3) : 
        Dipole               -0.0006 Ry au,         -0.0015 Debye
        Dipole field         -0.0000 Ry au, 
 
        Potential amp.        0.0008 Ry
        Total length         75.7781 bohr
 

     total cpu time spent up to now is       48.2 secs

     total energy              =    -295.24924095 Ry
     estimated scf accuracy    <       0.01018770 Ry

     iteration #  7     ecut=    52.00 Ry     beta= 0.30
     Davidson diagonalization with overlap
     c_bands:  1 eigenvalues not converged
     c_bands:  1 eigenvalues not converged
     c_bands:  1 eigenvalues not converged
     c_bands:  3 eigenvalues not converged
     c_bands:  1 eigenvalues not converged
     c_bands:  1 eigenvalues not converged
     ethr =  1.59E-05,  avg # of iterations =  4.1

     negative rho (up, down):  1.292E-06 0.000E+00
 
     Adding external electric field

     Computed dipole along edir(3) : 
        Dipole               -0.0005 Ry au,         -0.0012 Debye
        Dipole field         -0.0000 Ry au, 
 
        Potential amp.        0.0006 Ry
        Total length         75.7781 bohr
 

     total cpu time spent up to now is       56.5 secs

     total energy              =    -295.24758365 Ry
     estimated scf accuracy    <       0.00433266 Ry

     iteration #  8     ecut=    52.00 Ry     beta= 0.30
     Davidson diagonalization with overlap
     ethr =  6.77E-06,  avg # of iterations =  2.9

     negative rho (up, down):  1.498E-03 0.000E+00
 
     Adding external electric field

     Computed dipole along edir(3) : 
        Dipole               -0.0004 Ry au,         -0.0010 Debye
        Dipole field         -0.0000 Ry au, 
 
        Potential amp.        0.0005 Ry
        Total length         75.7781 bohr
 

     total cpu time spent up to now is       64.0 secs

     total energy              =    -295.24925545 Ry
     estimated scf accuracy    <       0.00165151 Ry

     iteration #  9     ecut=    52.00 Ry     beta= 0.30
     Davidson diagonalization with overlap
     c_bands:  1 eigenvalues not converged
     c_bands:  5 eigenvalues not converged
     c_bands:  1 eigenvalues not converged
     c_bands:  4 eigenvalues not converged
     ethr =  2.58E-06,  avg # of iterations =  4.8

     negative rho (up, down):  2.442E-04 0.000E+00
 
     Adding external electric field

     Computed dipole along edir(3) : 
        Dipole               -0.0002 Ry au,         -0.0004 Debye
        Dipole field         -0.0000 Ry au, 
 
        Potential amp.        0.0002 Ry
        Total length         75.7781 bohr
 

     total cpu time spent up to now is       72.0 secs

     total energy              =    -295.24754546 Ry
     estimated scf accuracy    <       0.00156918 Ry

     iteration # 10     ecut=    52.00 Ry     beta= 0.30
     Davidson diagonalization with overlap
     c_bands:  1 eigenvalues not converged
     ethr =  2.45E-06,  avg # of iterations =  3.7

     negative rho (up, down):  2.232E-03 0.000E+00
 
     Adding external electric field

     Computed dipole along edir(3) : 
        Dipole                0.0000 Ry au,          0.0001 Debye
        Dipole field          0.0000 Ry au, 
 
        Potential amp.       -0.0000 Ry
        Total length         75.7781 bohr
 

     total cpu time spent up to now is       80.3 secs

     total energy              =    -295.24804366 Ry
     estimated scf accuracy    <       0.00059674 Ry

     iteration # 11     ecut=    52.00 Ry     beta= 0.30
     Davidson diagonalization with overlap
     c_bands:  1 eigenvalues not converged
     c_bands:  1 eigenvalues not converged
     c_bands:  1 eigenvalues not converged
     c_bands:  1 eigenvalues not converged
     c_bands:  1 eigenvalues not converged
     c_bands:  1 eigenvalues not converged
     c_bands:  2 eigenvalues not converged
     ethr =  9.32E-07,  avg # of iterations =  4.3

     negative rho (up, down):  1.005E-03 0.000E+00
 
     Adding external electric field

     Computed dipole along edir(3) : 
        Dipole                0.0003 Ry au,          0.0007 Debye
        Dipole field          0.0000 Ry au, 
 
        Potential amp.       -0.0004 Ry
        Total length         75.7781 bohr
 

     total cpu time spent up to now is       88.2 secs

     total energy              =    -295.24768024 Ry
     estimated scf accuracy    <       0.00061286 Ry

     iteration # 12     ecut=    52.00 Ry     beta= 0.30
     Davidson diagonalization with overlap
     c_bands:  1 eigenvalues not converged
     ethr =  9.32E-07,  avg # of iterations =  3.8

     negative rho (up, down):  6.775E-04 0.000E+00
 
     Adding external electric field

     Computed dipole along edir(3) : 
        Dipole                0.0005 Ry au,          0.0014 Debye
        Dipole field          0.0000 Ry au, 
 
        Potential amp.       -0.0007 Ry
        Total length         75.7781 bohr
 

     total cpu time spent up to now is       95.8 secs

     total energy              =    -295.24771165 Ry
     estimated scf accuracy    <       0.00018163 Ry

     iteration # 13     ecut=    52.00 Ry     beta= 0.30
     Davidson diagonalization with overlap
     ethr =  2.84E-07,  avg # of iterations =  4.5

     negative rho (up, down):  1.061E-03 0.000E+00
 
     Adding external electric field

     Computed dipole along edir(3) : 
        Dipole                0.0006 Ry au,          0.0014 Debye
        Dipole field          0.0000 Ry au, 
 
        Potential amp.       -0.0007 Ry
        Total length         75.7781 bohr
 

     total cpu time spent up to now is      104.1 secs

     total energy              =    -295.24773980 Ry
     estimated scf accuracy    <       0.00012126 Ry

     iteration # 14     ecut=    52.00 Ry     beta= 0.30
     Davidson diagonalization with overlap
     ethr =  1.89E-07,  avg # of iterations =  2.1

     negative rho (up, down):  1.282E-03 0.000E+00
 
     Adding external electric field

     Computed dipole along edir(3) : 
        Dipole                0.0006 Ry au,          0.0016 Debye
        Dipole field          0.0000 Ry au, 
 
        Potential amp.       -0.0008 Ry
        Total length         75.7781 bohr
 

     total cpu time spent up to now is      110.8 secs

     total energy              =    -295.24776254 Ry
     estimated scf accuracy    <       0.00010369 Ry

     iteration # 15     ecut=    52.00 Ry     beta= 0.30
     Davidson diagonalization with overlap
     ethr =  1.62E-07,  avg # of iterations =  1.6

     negative rho (up, down):  5.309E-04 0.000E+00
 
     Adding external electric field

     Computed dipole along edir(3) : 
        Dipole                0.0004 Ry au,          0.0010 Debye
        Dipole field          0.0000 Ry au, 
 
        Potential amp.       -0.0005 Ry
        Total length         75.7781 bohr
 

     total cpu time spent up to now is      117.2 secs

     total energy              =    -295.24768732 Ry
     estimated scf accuracy    <       0.00015796 Ry

     iteration # 16     ecut=    52.00 Ry     beta= 0.30
     Davidson diagonalization with overlap
     c_bands:  2 eigenvalues not converged
     ethr =  1.62E-07,  avg # of iterations =  4.1

     negative rho (up, down):  1.313E-04 0.000E+00
 
     Adding external electric field

     Computed dipole along edir(3) : 
        Dipole                0.0002 Ry au,          0.0006 Debye
        Dipole field          0.0000 Ry au, 
 
        Potential amp.       -0.0003 Ry
        Total length         75.7781 bohr
 

     total cpu time spent up to now is      125.5 secs

     total energy              =    -295.24769102 Ry
     estimated scf accuracy    <       0.00001990 Ry

     iteration # 17     ecut=    52.00 Ry     beta= 0.30
     Davidson diagonalization with overlap
     ethr =  3.11E-08,  avg # of iterations =  4.1

     negative rho (up, down):  2.402E-05 0.000E+00
 
     Adding external electric field

     Computed dipole along edir(3) : 
        Dipole                0.0001 Ry au,          0.0002 Debye
        Dipole field          0.0000 Ry au, 
 
        Potential amp.       -0.0001 Ry
        Total length         75.7781 bohr
 

     total cpu time spent up to now is      133.4 secs

     total energy              =    -295.24769862 Ry
     estimated scf accuracy    <       0.00001311 Ry

     iteration # 18     ecut=    52.00 Ry     beta= 0.30
     Davidson diagonalization with overlap
     ethr =  2.05E-08,  avg # of iterations =  1.8

     negative rho (up, down):  8.776E-06 0.000E+00
 
     Adding external electric field

     Computed dipole along edir(3) : 
        Dipole               -0.0001 Ry au,         -0.0003 Debye
        Dipole field         -0.0000 Ry au, 
 
        Potential amp.        0.0002 Ry
        Total length         75.7781 bohr
 

     total cpu time spent up to now is      139.9 secs

     total energy              =    -295.24769930 Ry
     estimated scf accuracy    <       0.00000902 Ry

     iteration # 19     ecut=    52.00 Ry     beta= 0.30
     Davidson diagonalization with overlap
     ethr =  1.41E-08,  avg # of iterations =  2.6

     negative rho (up, down):  2.589E-04 0.000E+00
 
     Adding external electric field

     Computed dipole along edir(3) : 
        Dipole               -0.0002 Ry au,         -0.0004 Debye
        Dipole field         -0.0000 Ry au, 
 
        Potential amp.        0.0002 Ry
        Total length         75.7781 bohr
 

     total cpu time spent up to now is      146.7 secs

     total energy              =    -295.24770110 Ry
     estimated scf accuracy    <       0.00000729 Ry

     iteration # 20     ecut=    52.00 Ry     beta= 0.30
     Davidson diagonalization with overlap
     ethr =  1.14E-08,  avg # of iterations =  1.1

     negative rho (up, down):  4.683E-04 0.000E+00
 
     Adding external electric field

     Computed dipole along edir(3) : 
        Dipole               -0.0001 Ry au,         -0.0003 Debye
        Dipole field         -0.0000 Ry au, 
 
        Potential amp.        0.0002 Ry
        Total length         75.7781 bohr
 

     total cpu time spent up to now is      152.8 secs

     total energy              =    -295.24770337 Ry
     estimated scf accuracy    <       0.00000609 Ry

     iteration # 21     ecut=    52.00 Ry     beta= 0.30
     Davidson diagonalization with overlap
     ethr =  9.51E-09,  avg # of iterations =  1.1

     negative rho (up, down):  4.978E-04 0.000E+00
 
     Adding external electric field

     Computed dipole along edir(3) : 
        Dipole               -0.0001 Ry au,         -0.0001 Debye
        Dipole field         -0.0000 Ry au, 
 
        Potential amp.        0.0001 Ry
        Total length         75.7781 bohr
 

     total cpu time spent up to now is      159.0 secs

     total energy              =    -295.24770235 Ry
     estimated scf accuracy    <       0.00000462 Ry

     iteration # 22     ecut=    52.00 Ry     beta= 0.30
     Davidson diagonalization with overlap
     ethr =  7.22E-09,  avg # of iterations =  2.2

     negative rho (up, down):  1.679E-04 0.000E+00
 
     Adding external electric field

     Computed dipole along edir(3) : 
        Dipole               -0.0001 Ry au,         -0.0002 Debye
        Dipole field         -0.0000 Ry au, 
 
        Potential amp.        0.0001 Ry
        Total length         75.7781 bohr
 

     total cpu time spent up to now is      165.8 secs

     total energy              =    -295.24770047 Ry
     estimated scf accuracy    <       0.00000169 Ry

     iteration # 23     ecut=    52.00 Ry     beta= 0.30
     Davidson diagonalization with overlap
     ethr =  2.64E-09,  avg # of iterations =  2.7

     negative rho (up, down):  1.201E-04 0.000E+00
 
     Adding external electric field

     Computed dipole along edir(3) : 
        Dipole               -0.0000 Ry au,         -0.0001 Debye
        Dipole field         -0.0000 Ry au, 
 
        Potential amp.        0.0001 Ry
        Total length         75.7781 bohr
 

     total cpu time spent up to now is      173.2 secs

     total energy              =    -295.24770070 Ry
     estimated scf accuracy    <       0.00000050 Ry

     iteration # 24     ecut=    52.00 Ry     beta= 0.30
     Davidson diagonalization with overlap
     ethr =  7.77E-10,  avg # of iterations =  1.5

     negative rho (up, down):  1.383E-04 0.000E+00
 
     Adding external electric field

     Computed dipole along edir(3) : 
        Dipole               -0.0000 Ry au,         -0.0000 Debye
        Dipole field         -0.0000 Ry au, 
 
        Potential amp.        0.0000 Ry
        Total length         75.7781 bohr
 

     total cpu time spent up to now is      179.4 secs

     total energy              =    -295.24770067 Ry
     estimated scf accuracy    <       0.00000023 Ry

     iteration # 25     ecut=    52.00 Ry     beta= 0.30
     Davidson diagonalization with overlap
     ethr =  3.57E-10,  avg # of iterations =  1.1

     negative rho (up, down):  1.417E-04 0.000E+00
 
     Adding external electric field

     Computed dipole along edir(3) : 
        Dipole               -0.0000 Ry au,         -0.0000 Debye
        Dipole field         -0.0000 Ry au, 
 
        Potential amp.        0.0000 Ry
        Total length         75.7781 bohr
 

     total cpu time spent up to now is      185.6 secs

     total energy              =    -295.24770071 Ry
     estimated scf accuracy    <       0.00000024 Ry

     iteration # 26     ecut=    52.00 Ry     beta= 0.30
     Davidson diagonalization with overlap
     ethr =  3.57E-10,  avg # of iterations =  1.0

     negative rho (up, down):  1.150E-04 0.000E+00
 
     Adding external electric field

     Computed dipole along edir(3) : 
        Dipole               -0.0000 Ry au,         -0.0000 Debye
        Dipole field         -0.0000 Ry au, 
 
        Potential amp.        0.0000 Ry
        Total length         75.7781 bohr
 

     total cpu time spent up to now is      191.7 secs

     total energy              =    -295.24770066 Ry
     estimated scf accuracy    <       0.00000025 Ry

     iteration # 27     ecut=    52.00 Ry     beta= 0.30
     Davidson diagonalization with overlap
     ethr =  3.57E-10,  avg # of iterations =  1.0

     negative rho (up, down):  1.160E-04 0.000E+00
 
     Adding external electric field

     Computed dipole along edir(3) : 
        Dipole               -0.0000 Ry au,         -0.0001 Debye
        Dipole field         -0.0000 Ry au, 
 
        Potential amp.        0.0000 Ry
        Total length         75.7781 bohr
 

     total cpu time spent up to now is      197.8 secs

     total energy              =    -295.24770066 Ry
     estimated scf accuracy    <       0.00000021 Ry

     iteration # 28     ecut=    52.00 Ry     beta= 0.30
     Davidson diagonalization with overlap
     ethr =  3.31E-10,  avg # of iterations =  1.0

     negative rho (up, down):  6.472E-05 0.000E+00
 
     Adding external electric field

     Computed dipole along edir(3) : 
        Dipole               -0.0000 Ry au,         -0.0000 Debye
        Dipole field         -0.0000 Ry au, 
 
        Potential amp.        0.0000 Ry
        Total length         75.7781 bohr
 

     total cpu time spent up to now is      203.9 secs

     total energy              =    -295.24770064 Ry
     estimated scf accuracy    <       0.00000023 Ry

     iteration # 29     ecut=    52.00 Ry     beta= 0.30
     Davidson diagonalization with overlap
     ethr =  3.31E-10,  avg # of iterations =  1.0

     negative rho (up, down):  6.631E-05 0.000E+00
 
     Adding external electric field

     Computed dipole along edir(3) : 
        Dipole                0.0000 Ry au,          0.0000 Debye
        Dipole field          0.0000 Ry au, 
 
        Potential amp.       -0.0000 Ry
        Total length         75.7781 bohr
 

     total cpu time spent up to now is      209.9 secs

     total energy              =    -295.24770065 Ry
     estimated scf accuracy    <       0.00000016 Ry

     iteration # 30     ecut=    52.00 Ry     beta= 0.30
     Davidson diagonalization with overlap
     ethr =  2.45E-10,  avg # of iterations =  1.0

     negative rho (up, down):  6.490E-05 0.000E+00
 
     Adding external electric field

     Computed dipole along edir(3) : 
        Dipole               -0.0000 Ry au,         -0.0000 Debye
        Dipole field         -0.0000 Ry au, 
 
        Potential amp.        0.0000 Ry
        Total length         75.7781 bohr
 

     total cpu time spent up to now is      216.0 secs

     total energy              =    -295.24770064 Ry
     estimated scf accuracy    <       0.00000019 Ry

     iteration # 31     ecut=    52.00 Ry     beta= 0.30
     Davidson diagonalization with overlap
     ethr =  2.45E-10,  avg # of iterations =  1.0

     negative rho (up, down):  4.296E-05 0.000E+00
 
     Adding external electric field

     Computed dipole along edir(3) : 
        Dipole                0.0000 Ry au,          0.0000 Debye
        Dipole field          0.0000 Ry au, 
 
        Potential amp.       -0.0000 Ry
        Total length         75.7781 bohr
 

     total cpu time spent up to now is      222.1 secs

     total energy              =    -295.24770058 Ry
     estimated scf accuracy    <       0.00000017 Ry

     iteration # 32     ecut=    52.00 Ry     beta= 0.30
     Davidson diagonalization with overlap
     ethr =  2.45E-10,  avg # of iterations =  1.0

     negative rho (up, down):  5.688E-05 0.000E+00
 
     Adding external electric field

     Computed dipole along edir(3) : 
        Dipole               -0.0000 Ry au,         -0.0000 Debye
        Dipole field         -0.0000 Ry au, 
 
        Potential amp.        0.0000 Ry
        Total length         75.7781 bohr
 

     total cpu time spent up to now is      228.3 secs

     total energy              =    -295.24770065 Ry
     estimated scf accuracy    <       0.00000017 Ry

     iteration # 33     ecut=    52.00 Ry     beta= 0.30
     Davidson diagonalization with overlap
     ethr =  2.45E-10,  avg # of iterations =  1.0

     negative rho (up, down):  4.894E-05 0.000E+00
 
     Adding external electric field

     Computed dipole along edir(3) : 
        Dipole                0.0000 Ry au,          0.0000 Debye
        Dipole field          0.0000 Ry au, 
 
        Potential amp.       -0.0000 Ry
        Total length         75.7781 bohr
 

     total cpu time spent up to now is      234.4 secs

     total energy              =    -295.24770063 Ry
     estimated scf accuracy    <       0.00000018 Ry

     iteration # 34     ecut=    52.00 Ry     beta= 0.30
     Davidson diagonalization with overlap
     ethr =  2.45E-10,  avg # of iterations =  1.0

     negative rho (up, down):  4.759E-05 0.000E+00
 
     Adding external electric field

     Computed dipole along edir(3) : 
        Dipole                0.0000 Ry au,          0.0000 Debye
        Dipole field          0.0000 Ry au, 
 
        Potential amp.       -0.0000 Ry
        Total length         75.7781 bohr
 

     total cpu time spent up to now is      240.5 secs

     total energy              =    -295.24770065 Ry
     estimated scf accuracy    <       0.00000015 Ry

     iteration # 35     ecut=    52.00 Ry     beta= 0.30
     Davidson diagonalization with overlap
     ethr =  2.27E-10,  avg # of iterations =  1.0

     negative rho (up, down):  4.994E-05 0.000E+00
 
     Adding external electric field

     Computed dipole along edir(3) : 
        Dipole                0.0000 Ry au,          0.0000 Debye
        Dipole field          0.0000 Ry au, 
 
        Potential amp.       -0.0000 Ry
        Total length         75.7781 bohr
 

     total cpu time spent up to now is      246.6 secs

     total energy              =    -295.24770068 Ry
     estimated scf accuracy    <       0.00000012 Ry

     iteration # 36     ecut=    52.00 Ry     beta= 0.30
     Davidson diagonalization with overlap
     ethr =  1.83E-10,  avg # of iterations =  1.0

     negative rho (up, down):  6.182E-05 0.000E+00
 
     Adding external electric field

     Computed dipole along edir(3) : 
        Dipole                0.0000 Ry au,          0.0000 Debye
        Dipole field          0.0000 Ry au, 
 
        Potential amp.       -0.0000 Ry
        Total length         75.7781 bohr
 

     total cpu time spent up to now is      252.8 secs

     total energy              =    -295.24770069 Ry
     estimated scf accuracy    <       0.00000010 Ry

     iteration # 37     ecut=    52.00 Ry     beta= 0.30
     Davidson diagonalization with overlap
     ethr =  1.55E-10,  avg # of iterations =  1.0

     negative rho (up, down):  9.130E-05 0.000E+00
 
     Adding external electric field

     Computed dipole along edir(3) : 
        Dipole                0.0000 Ry au,          0.0000 Debye
        Dipole field          0.0000 Ry au, 
 
        Potential amp.       -0.0000 Ry
        Total length         75.7781 bohr
 

     total cpu time spent up to now is      258.8 secs

     total energy              =    -295.24770064 Ry
     estimated scf accuracy    <       0.00000007 Ry

     iteration # 38     ecut=    52.00 Ry     beta= 0.30
     Davidson diagonalization with overlap
     ethr =  1.15E-10,  avg # of iterations =  2.9

     negative rho (up, down):  8.378E-05 0.000E+00
 
     Adding external electric field

     Computed dipole along edir(3) : 
        Dipole                0.0000 Ry au,          0.0000 Debye
        Dipole field          0.0000 Ry au, 
 
        Potential amp.       -0.0000 Ry
        Total length         75.7781 bohr
 

     total cpu time spent up to now is      266.2 secs

     total energy              =    -295.24770064 Ry
     estimated scf accuracy    <       0.00000008 Ry

     iteration # 39     ecut=    52.00 Ry     beta= 0.30
     Davidson diagonalization with overlap
     ethr =  1.15E-10,  avg # of iterations =  2.3

     negative rho (up, down):  8.260E-05 0.000E+00
 
     Adding external electric field

     Computed dipole along edir(3) : 
        Dipole                0.0001 Ry au,          0.0002 Debye
        Dipole field          0.0000 Ry au, 
 
        Potential amp.       -0.0001 Ry
        Total length         75.7781 bohr
 

     total cpu time spent up to now is      272.9 secs

     End of self-consistent calculation

     Number of k-points >= 100: set verbosity='high' to print the bands.

     the Fermi energy is     3.1032 ev

!    total energy              =    -295.24770065 Ry
     total all-electron energy =     -1219.473266 Ry
     estimated scf accuracy    <          3.4E-09 Ry
     smearing contrib. (-TS)   =      -0.00012449 Ry
     internal energy E=F+TS    =    -295.24757616 Ry

     The total energy is F=E-TS. E is the sum of the following terms:
     one-electron contribution =   -1235.11766568 Ry
     hartree contribution      =     641.91347232 Ry
     xc contribution           =     -74.23353967 Ry
     ewald contribution        =     471.02336230 Ry
     DFT-D3 Dispersion         =      -0.16253877 Ry
     electric field correction =       0.00000000 Ry
     one-center paw contrib.   =     -98.67066666 Ry

     convergence has been achieved in  39 iterations

     negative rho (up, down):  8.260E-05 0.000E+00

     Forces acting on atoms (cartesian axes, Ry/au):

     atom    1 type  1   force =     0.00000001    0.00000001   -0.00059183
     atom    2 type  1   force =     0.00000001   -0.00000001    0.00009703
     atom    3 type  1   force =     0.00000001   -0.00000000   -0.00006313
     atom    4 type  1   force =    -0.00000000    0.00000000    0.00012097
     atom    5 type  1   force =     0.00000000    0.00000001   -0.00012042
     atom    6 type  1   force =    -0.00000000    0.00000001    0.00006318
     atom    7 type  1   force =    -0.00000000    0.00000000   -0.00009178
     atom    8 type  1   force =    -0.00000001    0.00000002    0.00059825
     atom    9 type  1   force =    -0.00000002   -0.00000001   -0.00059789
     atom   10 type  1   force =    -0.00000003    0.00000001    0.00009260
     atom   11 type  1   force =    -0.00000001   -0.00000001   -0.00006631
     atom   12 type  1   force =     0.00000003    0.00000002    0.00011764
     atom   13 type  1   force =     0.00000001   -0.00000000   -0.00011928
     atom   14 type  1   force =     0.00000002   -0.00000000    0.00006503
     atom   15 type  1   force =     0.00000002   -0.00000002   -0.00009680
     atom   16 type  1   force =    -0.00000004   -0.00000002    0.00059274

     Total force =     0.001236     Total SCF correction =     0.000136
     SCF correction compared to forces is large: reduce conv_thr to get better values

     Writing all to output data dir ./tmp/CC_S44_AB_dft_far.save/ :
     XML data file, charge density, pseudopotentials, collected wavefunctions
 
     init_run     :      5.45s CPU      4.90s WALL (       1 calls)
     electrons    :    277.59s CPU    267.87s WALL (       1 calls)
     forces       :      0.90s CPU      0.98s WALL (       1 calls)
     force_dftd3  :      0.06s CPU      0.04s WALL (       1 calls)

     Called by init_run:
     wfcinit      :      1.95s CPU      2.46s WALL (       1 calls)
     potinit      :      2.83s CPU      1.82s WALL (       1 calls)
     hinit0       :      0.39s CPU      0.31s WALL (       1 calls)

     Called by electrons:
     c_bands      :    143.28s CPU    163.37s WALL (      39 calls)
     sum_band     :     27.17s CPU     33.84s WALL (      39 calls)
     v_of_rho     :      7.38s CPU      5.35s WALL (      40 calls)
     newd         :      0.29s CPU      0.30s WALL (      40 calls)
                                        0.30s GPU  (      40 calls)
     PAW_pot      :     96.59s CPU     61.04s WALL (      40 calls)
     mix_rho      :      3.80s CPU      3.92s WALL (      39 calls)
     energy_dftd3 :      0.01s CPU      0.01s WALL (       1 calls)

     Called by c_bands:
     init_us_2    :      4.53s CPU      6.94s WALL (   13120 calls)
     cegterg      :    119.72s CPU    122.02s WALL (    6396 calls)

     Called by *egterg:
     cdiaghg      :     28.73s CPU     29.31s WALL (   20418 calls)
                                       29.17s GPU  (   20418 calls)
     h_psi        :     68.90s CPU     70.78s WALL (   20582 calls)
                                       70.59s GPU  (   20582 calls)
     s_psi        :      8.45s CPU      8.58s WALL (   20582 calls)
     g_psi        :      0.07s CPU      0.63s WALL (   14022 calls)
                                        0.55s GPU  (   14022 calls)

     Called by h_psi:
     h_psi:calbec :      0.69s CPU      2.53s WALL (   20582 calls)
                                        2.41s GPU  (   20582 calls)
     vloc_psi     :     56.51s CPU     58.09s WALL (   20582 calls)
                                       57.98s GPU  (   20582 calls)
     add_vuspsi   :      6.63s CPU      8.84s WALL (   20582 calls)
                                        8.71s GPU  (   20582 calls)

     General routines
     calbec       :      0.83s CPU      0.86s WALL (   27634 calls)
     fft          :      0.69s CPU      0.76s WALL (     529 calls)
                                        0.08s GPU  (     489 calls)
     ffts         :      0.22s CPU      0.34s WALL (    4401 calls)
                                        0.17s GPU  (    4361 calls)
     fftw         :      1.46s CPU     44.63s WALL (  116298 calls)
                                       43.99s GPU  (  116298 calls)
     interpolate  :      0.97s CPU      0.98s WALL (      40 calls)
     davcio       :     13.81s CPU     27.92s WALL (   20366 calls)
 
     Parallel routines
 
     PWSCF        :   4m56.23s CPU   4m42.25s WALL

 
   This run was terminated on:  21:36:11  30Sep2026            

=------------------------------------------------------------------------------=
   JOB DONE.
=------------------------------------------------------------------------------=
