20
Lattice="4.985262761755894 -2.6594745695436836e-17 0.0 2.492631380877947 4.317364196221174 0.0 0.0 0.0 24.050226209668736" Properties=species:S:1:pos:R:3:tags:I:1 pbc="T T F"
Ag       1.66392878       2.87447640       2.85007540        3
Ag       4.15656016       4.31359780       2.85007540        3
Ag       0.84623761       1.44288779       5.20015081        2
Ag       2.49487530       1.45054077       0.50000000        4
Ag       4.15656016       1.43535500       2.85007540        3
Ag       3.33886899       2.88200919       5.20015081        2
Ag       2.49487530       1.45054077       7.55022621        1
Ag       4.98750668       2.88966217       0.50000000        4
Ag       4.98750668       2.88966217       7.55022621        1
Ag       3.33886899       0.00376640       5.20015081        2
Ag       4.98750668       0.01141937       0.50000000        4
Ag       4.98750668       0.01141937       7.55022621        1
C        3.74119099       2.17010147      10.85022621        0
C        4.98750668       2.88966217      10.85022621        0
C        4.98750668       4.32878357      10.85022621        0
C        6.23382237       5.04834427      10.85022621        0
C        6.23382237       2.17010147      10.85022621        0
C        7.48013806       2.88966217      10.85022621        0
C        7.48013806       4.32878357      10.85022621        0
C        8.72645375       5.04834427      10.85022621        0
