
     Program PWSCF v.7.4.1 starts on  6Oct2026 at  6:50:11 

     This program is part of the open-source Quantum ESPRESSO suite
     for quantum simulation of materials; please cite
         "P. Giannozzi et al., J. Phys.:Condens. Matter 21 395502 (2009);
         "P. Giannozzi et al., J. Phys.:Condens. Matter 29 465901 (2017);
         "P. Giannozzi et al., J. Chem. Phys. 152 154105 (2020);
          URL http://www.quantum-espresso.org", 
     in publications or presentations arising from this work. More details at
     http://www.quantum-espresso.org/quote

     Parallel version (MPI & OpenMP), running on       1 processor cores
     Number of MPI processes:                 1
     Threads/MPI process:                     1

     MPI processes distributed on     1 nodes
     12726 MiB available memory on the printing compute node when the environment starts
 
     Reading input from pw.in

     Current dimensions of program PWSCF are:
     Max number of different atomic species (ntypx) = 10
     Max number of k-points (npk) =  40000
     Max angular momentum in pseudopotentials (lmaxx) =  4
     Presently no symmetry can be used with electric field

     file C.pbe-n-kjpaw_psl.1.0.0.UPF: wavefunction(s)  2S 2P renormalized
 
     Subspace diagonalization in iterative solution of the eigenvalue problem:
     a serial algorithm will be used

 
     G-vector sticks info
     --------------------
     sticks:   dense  smooth     PW     G-vecs:    dense   smooth      PW
     Sum        3193    1273    367              1013735   256635   40609
 
     Using Slab Decomposition
 


     bravais-lattice index     =            0
     lattice parameter (alat)  =       9.4208  a.u.
     unit-cell volume          =    5061.5970 (a.u.)^3
     number of atoms/cell      =           36
     number of atomic types    =            2
     number of electrons       =       324.00
     number of Kohn-Sham states=          194
     kinetic-energy cutoff     =      52.0000  Ry
     charge density cutoff     =     520.0000  Ry
     scf convergence threshold =      1.0E-08
     mixing beta               =       0.3000
     number of iterations used =            8  local-TF  mixing
     Exchange-correlation= SLA  PW   PBX  PBC
                           (   1   4   3   4   0   0   0)

     GPU acceleration is ACTIVE.  1 visible GPUs per MPI rank


     celldm(1)=   9.420781  celldm(2)=   0.000000  celldm(3)=   0.000000
     celldm(4)=   0.000000  celldm(5)=   0.000000  celldm(6)=   0.000000

     crystal axes: (cart. coord. in units of alat)
               a(1) = (   1.000000  -0.000000   0.000000 )  
               a(2) = (   0.500000   0.866025   0.000000 )  
               a(3) = (   0.000000   0.000000   6.990306 )  

     reciprocal axes: (cart. coord. in units 2 pi/alat)
               b(1) = (  1.000000 -0.577350  0.000000 )  
               b(2) = (  0.000000  1.154701 -0.000000 )  
               b(3) = ( -0.000000  0.000000  0.143055 )  


     PseudoPot. # 1 for Ag read from file:
     /home/kgy/work/pseudo/Ag_ONCV_PBE-1.0.oncvpsp.upf
     MD5 check sum: 94f47bd0669c641108e45594df92fabc
     Pseudo is Norm-conserving, Zval = 19.0
     Generated using ONCVPSP code by D. R. Hamann
     Using radial grid of 1398 points,  6 beta functions with: 
                l(1) =   0
                l(2) =   0
                l(3) =   1
                l(4) =   1
                l(5) =   2
                l(6) =   2

     PseudoPot. # 2 for C  read from file:
     /home/kgy/work/pseudo/C.pbe-n-kjpaw_psl.1.0.0.UPF
     MD5 check sum: 5d2aebdfa2cae82b50a7e79e9516da0f
     Pseudo is Projector augmented-wave + core cor, Zval =  4.0
     Generated using "atomic" code by A. Dal Corso  v.5.1
     Shape of augmentation charge: PSQ
     Using radial grid of 1073 points,  4 beta functions with: 
                l(1) =   0
                l(2) =   0
                l(3) =   1
                l(4) =   1
     Q(r) pseudized with 0 coefficients 


     atomic species   valence    mass     pseudopotential
     Ag               19.00   107.86820     Ag( 1.00)
     C                 4.00    12.01100     C ( 1.00)

     No symmetry found



   Cartesian axes

     site n.     atom                  positions (alat units)
         1        Ag     tau(   1) = (   0.3337695   0.5765948   0.5717001  )
         2        Ag     tau(   2) = (   0.8337695   0.8652699   0.5717001  )
         3        Ag     tau(   3) = (   0.1663116   0.2882288   1.0405207  )
         4        Ag     tau(   4) = (   0.5004501   0.2909658   0.1002956  )
         5        Ag     tau(   5) = (   0.8337695   0.2879196   0.5717001  )
         6        Ag     tau(   6) = (   0.6665315   0.5768011   1.0405139  )
         7        Ag     tau(   7) = (   0.5010389   0.2880917   1.5114705  )
         8        Ag     tau(   8) = (   1.0004501   0.5796409   0.1002956  )
         9        Ag     tau(   9) = (   1.0010564   0.5767426   1.5120106  )
        10        Ag     tau(  10) = (   0.6663668  -0.0006351   1.0404133  )
        11        Ag     tau(  11) = (   1.0004501   0.0022906   0.1002956  )
        12        Ag     tau(  12) = (   1.0010299  -0.0005160   1.5115225  )
        13        C      tau(  13) = (   0.5004501   0.3871908   2.1586417  )
        14        C      tau(  14) = (   0.7504501   0.5315284   2.1592476  )
        15        C      tau(  15) = (   0.7504501   0.8202035   2.1591538  )
        16        C      tau(  16) = (   1.0004501   0.9645411   2.1590854  )
        17        C      tau(  17) = (   1.0004501   0.3871908   2.1589487  )
        18        C      tau(  18) = (   1.2504501   0.5315284   2.1592441  )
        19        C      tau(  19) = (   1.2504501   0.8202035   2.1591634  )
        20        C      tau(  20) = (   1.5004501   0.9645411   2.1587668  )
        21        C      tau(  21) = (   0.7504501   0.5315284   2.8434907  )
        22        C      tau(  22) = (   1.0004501   0.6758659   2.8434330  )
        23        C      tau(  23) = (   1.0004501   0.9645411   2.8434904  )
        24        C      tau(  24) = (   1.2504501   1.1088786   2.8434215  )
        25        C      tau(  25) = (   1.2504501   0.5315284   2.8434917  )
        26        C      tau(  26) = (   1.5004501   0.6758659   2.8434256  )
        27        C      tau(  27) = (   1.5004501   0.9645411   2.8434875  )
        28        C      tau(  28) = (   1.7504501   1.1088786   2.8434220  )
        29        C      tau(  29) = (   0.5004501   0.3871908   3.5248152  )
        30        C      tau(  30) = (   0.7504501   0.5315284   3.5246938  )
        31        C      tau(  31) = (   0.7504501   0.8202035   3.5248165  )
        32        C      tau(  32) = (   1.0004501   0.9645411   3.5246945  )
        33        C      tau(  33) = (   1.0004501   0.3871908   3.5248160  )
        34        C      tau(  34) = (   1.2504501   0.5315284   3.5246939  )
        35        C      tau(  35) = (   1.2504501   0.8202035   3.5248165  )
        36        C      tau(  36) = (   1.5004501   0.9645411   3.5246956  )

     --------------------------------------------
     DFT-D3 Dispersion Correction (no 3-body):
     --------------------------------------------
       Reference C6 values for interpolation: 

         atom   Coordination number   C6
         C          0.000            98.23
         C          0.987            86.49
         C          1.998            58.72
         C          2.999            51.56
         C          3.984            36.41
         Ag         0.000           853.49
         Ag         0.968           537.23

       Values used:

         atom   Coordination number  R0_AB[au]  C6      C8
         Ag         9.097            3.147    537.23  47741.54
         Ag         9.097            3.147    537.23  47741.54
         Ag         9.103            3.147    537.23  47741.54
         Ag         6.767            3.147    537.23  47741.54
         Ag         9.097            3.147    537.23  47741.54
         Ag         9.102            3.147    537.23  47741.54
         Ag         6.860            3.147    537.23  47741.54
         Ag         6.767            3.147    537.23  47741.54
         Ag         6.850            3.147    537.23  47741.54
         Ag         9.103            3.147    537.23  47741.54
         Ag         6.767            3.147    537.23  47741.54
         Ag         6.859            3.147    537.23  47741.54
         C          3.313            2.750     48.31   1397.22
         C          3.305            2.750     48.47   1401.98
         C          3.304            2.750     48.48   1402.07
         C          3.307            2.750     48.42   1400.38
         C          3.307            2.750     48.42   1400.36
         C          3.305            2.750     48.47   1401.96
         C          3.304            2.750     48.48   1402.08
         C          3.313            2.750     48.31   1397.15
         C          3.281            2.750     48.91   1414.57
         C          3.281            2.750     48.92   1414.74
         C          3.281            2.750     48.91   1414.57
         C          3.281            2.750     48.92   1414.74
         C          3.281            2.750     48.91   1414.57
         C          3.281            2.750     48.92   1414.74
         C          3.281            2.750     48.91   1414.57
         C          3.281            2.750     48.92   1414.75
         C          3.274            2.750     49.03   1417.92
         C          3.275            2.750     49.02   1417.83
         C          3.274            2.750     49.03   1417.92
         C          3.275            2.750     49.02   1417.83
         C          3.274            2.750     49.03   1417.92
         C          3.275            2.750     49.02   1417.83
         C          3.274            2.750     49.03   1417.92
         C          3.275            2.750     49.02   1417.83

         Molecular C6 ( Ry / a.u.^6 ) =    198485.00


     number of k points=    41  Marzari-Vanderbilt smearing, width (Ry)=  0.0100
                       cart. coord. in units 2pi/alat
        k(    1) = (   0.0000000   0.0000000   0.0000000), wk =   0.0246914
        k(    2) = (   0.0000000   0.1283001   0.0000000), wk =   0.0493827
        k(    3) = (   0.0000000   0.2566001   0.0000000), wk =   0.0493827
        k(    4) = (   0.0000000   0.3849002   0.0000000), wk =   0.0493827
        k(    5) = (   0.0000000   0.5132002   0.0000000), wk =   0.0493827
        k(    6) = (   0.1111111  -0.0641500   0.0000000), wk =   0.0493827
        k(    7) = (   0.1111111   0.0641500   0.0000000), wk =   0.0493827
        k(    8) = (   0.1111111   0.1924501   0.0000000), wk =   0.0493827
        k(    9) = (   0.1111111   0.3207501   0.0000000), wk =   0.0493827
        k(   10) = (   0.1111111   0.4490502   0.0000000), wk =   0.0493827
        k(   11) = (   0.1111111  -0.5773503   0.0000000), wk =   0.0493827
        k(   12) = (   0.1111111  -0.4490502   0.0000000), wk =   0.0493827
        k(   13) = (   0.1111111  -0.3207501   0.0000000), wk =   0.0493827
        k(   14) = (   0.1111111  -0.1924501   0.0000000), wk =   0.0493827
        k(   15) = (   0.2222222  -0.1283001   0.0000000), wk =   0.0493827
        k(   16) = (   0.2222222   0.0000000   0.0000000), wk =   0.0493827
        k(   17) = (   0.2222222   0.1283001   0.0000000), wk =   0.0493827
        k(   18) = (   0.2222222   0.2566001   0.0000000), wk =   0.0493827
        k(   19) = (   0.2222222   0.3849002   0.0000000), wk =   0.0493827
        k(   20) = (   0.2222222  -0.6415003   0.0000000), wk =   0.0493827
        k(   21) = (   0.2222222  -0.5132002   0.0000000), wk =   0.0493827
        k(   22) = (   0.2222222  -0.3849002   0.0000000), wk =   0.0493827
        k(   23) = (   0.2222222  -0.2566001   0.0000000), wk =   0.0493827
        k(   24) = (   0.3333333  -0.1924501   0.0000000), wk =   0.0493827
        k(   25) = (   0.3333333  -0.0641500   0.0000000), wk =   0.0493827
        k(   26) = (   0.3333333   0.0641500   0.0000000), wk =   0.0493827
        k(   27) = (   0.3333333   0.1924501   0.0000000), wk =   0.0493827
        k(   28) = (   0.3333333   0.3207501   0.0000000), wk =   0.0493827
        k(   29) = (   0.3333333  -0.7056503   0.0000000), wk =   0.0493827
        k(   30) = (   0.3333333  -0.5773503   0.0000000), wk =   0.0493827
        k(   31) = (   0.3333333  -0.4490502   0.0000000), wk =   0.0493827
        k(   32) = (   0.3333333  -0.3207501   0.0000000), wk =   0.0493827
        k(   33) = (   0.4444444  -0.2566001   0.0000000), wk =   0.0493827
        k(   34) = (   0.4444444  -0.1283001   0.0000000), wk =   0.0493827
        k(   35) = (   0.4444444   0.0000000   0.0000000), wk =   0.0493827
        k(   36) = (   0.4444444   0.1283001   0.0000000), wk =   0.0493827
        k(   37) = (   0.4444444   0.2566001   0.0000000), wk =   0.0493827
        k(   38) = (   0.4444444  -0.7698004   0.0000000), wk =   0.0493827
        k(   39) = (   0.4444444  -0.6415003   0.0000000), wk =   0.0493827
        k(   40) = (   0.4444444  -0.5132002   0.0000000), wk =   0.0493827
        k(   41) = (   0.4444444  -0.3849002   0.0000000), wk =   0.0493827

     Dense  grid:  1013735 G-vectors     FFT dimensions: (  72,  72, 480)

     Smooth grid:   256635 G-vectors     FFT dimensions: (  45,  45, 320)

     Estimated max dynamical RAM per process >       2.73 GB

     Check: negative core charge=   -0.000002

     Initial potential from superposition of free atoms

     starting charge     323.9955, renormalised to     324.0000

     negative rho (up, down):  2.437E-04 0.000E+00
 
     Adding external electric field

     Computed dipole along edir(3) : 
        Dipole               -0.0064 Ry au,         -0.0164 Debye
        Dipole field         -0.0000 Ry au, 
 
        Potential amp.        0.0020 Ry
        Total length         63.9641 bohr
 
     Starting wfcs are  216 randomized atomic wfcs
     Checking if some PAW data can be deallocated... 

     total cpu time spent up to now is       65.7 secs

     Self-consistent Calculation

     iteration #  1     ecut=    52.00 Ry     beta= 0.30
     Davidson diagonalization with overlap
     ethr =  1.00E-02,  avg # of iterations =  8.1

     negative rho (up, down):  1.254E-07 0.000E+00
 
     Adding external electric field

     Computed dipole along edir(3) : 
        Dipole               -0.1482 Ry au,         -0.3768 Debye
        Dipole field         -0.0004 Ry au, 
 
        Potential amp.        0.0471 Ry
        Total length         63.9641 bohr
 

     total cpu time spent up to now is      302.5 secs

     total energy              =   -3891.65957396 Ry
     estimated scf accuracy    <       4.67836732 Ry

     iteration #  2     ecut=    52.00 Ry     beta= 0.30
     Davidson diagonalization with overlap
     ethr =  1.44E-03,  avg # of iterations =  1.8

     negative rho (up, down):  1.718E-08 0.000E+00
 
     Adding external electric field

     Computed dipole along edir(3) : 
        Dipole               -0.3699 Ry au,         -0.9402 Debye
        Dipole field         -0.0009 Ry au, 
 
        Potential amp.        0.1175 Ry
        Total length         63.9641 bohr
 

     total cpu time spent up to now is      449.6 secs

     total energy              =   -3891.28076570 Ry
     estimated scf accuracy    <       1.80159124 Ry

     iteration #  3     ecut=    52.00 Ry     beta= 0.30
     Davidson diagonalization with overlap
     ethr =  5.56E-04,  avg # of iterations =  7.3

     negative rho (up, down):  6.831E-08 0.000E+00
 
     Adding external electric field

     Computed dipole along edir(3) : 
        Dipole               -0.7148 Ry au,         -1.8168 Debye
        Dipole field         -0.0018 Ry au, 
 
        Potential amp.        0.2270 Ry
        Total length         63.9641 bohr
 

     total cpu time spent up to now is      641.1 secs

     total energy              =   -3891.07515299 Ry
     estimated scf accuracy    <       0.71009898 Ry

     iteration #  4     ecut=    52.00 Ry     beta= 0.30
     Davidson diagonalization with overlap
     c_bands:  1 eigenvalues not converged
     c_bands:  1 eigenvalues not converged
     c_bands:  2 eigenvalues not converged
     ethr =  2.19E-04,  avg # of iterations = 11.0

     negative rho (up, down):  6.226E-08 0.000E+00
 
     Adding external electric field

     Computed dipole along edir(3) : 
        Dipole               -0.9735 Ry au,         -2.4743 Debye
        Dipole field         -0.0024 Ry au, 
 
        Potential amp.        0.3092 Ry
        Total length         63.9641 bohr
 

     total cpu time spent up to now is      878.9 secs

     total energy              =   -3891.12014092 Ry
     estimated scf accuracy    <       0.70574152 Ry

     iteration #  5     ecut=    52.00 Ry     beta= 0.30
     Davidson diagonalization with overlap
     ethr =  2.18E-04,  avg # of iterations =  1.5

     negative rho (up, down):  4.473E-08 0.000E+00
 
     Adding external electric field

     Computed dipole along edir(3) : 
        Dipole               -0.9603 Ry au,         -2.4409 Debye
        Dipole field         -0.0024 Ry au, 
 
        Potential amp.        0.3050 Ry
        Total length         63.9641 bohr
 

     total cpu time spent up to now is     1021.6 secs

     total energy              =   -3891.12668945 Ry
     estimated scf accuracy    <       1.17859734 Ry

     iteration #  6     ecut=    52.00 Ry     beta= 0.30
     Davidson diagonalization with overlap
     ethr =  2.18E-04,  avg # of iterations =  1.2

     negative rho (up, down):  3.724E-06 0.000E+00
 
     Adding external electric field

     Computed dipole along edir(3) : 
        Dipole               -1.3005 Ry au,         -3.3057 Debye
        Dipole field         -0.0032 Ry au, 
 
        Potential amp.        0.4131 Ry
        Total length         63.9641 bohr
 

     total cpu time spent up to now is     1161.2 secs

     total energy              =   -3891.11847102 Ry
     estimated scf accuracy    <       1.17796967 Ry

     iteration #  7     ecut=    52.00 Ry     beta= 0.30
     Davidson diagonalization with overlap
     c_bands:  1 eigenvalues not converged
     c_bands:  1 eigenvalues not converged
     c_bands:  1 eigenvalues not converged
     ethr =  2.18E-04,  avg # of iterations =  5.3

     negative rho (up, down):  8.495E-06 0.000E+00
 
     Adding external electric field

     Computed dipole along edir(3) : 
        Dipole               -1.2297 Ry au,         -3.1256 Debye
        Dipole field         -0.0031 Ry au, 
 
        Potential amp.        0.3906 Ry
        Total length         63.9641 bohr
 

     total cpu time spent up to now is     1336.1 secs

     total energy              =   -3891.10132707 Ry
     estimated scf accuracy    <       1.22748789 Ry

     iteration #  8     ecut=    52.00 Ry     beta= 0.30
     Davidson diagonalization with overlap
     ethr =  2.18E-04,  avg # of iterations =  1.3

     negative rho (up, down):  2.743E-06 0.000E+00
 
     Adding external electric field

     Computed dipole along edir(3) : 
        Dipole               -1.1574 Ry au,         -2.9417 Debye
        Dipole field         -0.0029 Ry au, 
 
        Potential amp.        0.3676 Ry
        Total length         63.9641 bohr
 

     total cpu time spent up to now is     1477.0 secs

     total energy              =   -3891.10515599 Ry
     estimated scf accuracy    <       0.30935523 Ry

     iteration #  9     ecut=    52.00 Ry     beta= 0.30
     Davidson diagonalization with overlap
     ethr =  9.55E-05,  avg # of iterations =  1.4
 
     Adding external electric field

     Computed dipole along edir(3) : 
        Dipole               -0.9637 Ry au,         -2.4494 Debye
        Dipole field         -0.0024 Ry au, 
 
        Potential amp.        0.3061 Ry
        Total length         63.9641 bohr
 

     total cpu time spent up to now is     1617.6 secs

     total energy              =   -3891.10049847 Ry
     estimated scf accuracy    <       0.16770876 Ry

     iteration # 10     ecut=    52.00 Ry     beta= 0.30
     Davidson diagonalization with overlap
     ethr =  5.18E-05,  avg # of iterations =  4.1
 
     Adding external electric field

     Computed dipole along edir(3) : 
        Dipole               -0.7866 Ry au,         -1.9992 Debye
        Dipole field         -0.0020 Ry au, 
 
        Potential amp.        0.2498 Ry
        Total length         63.9641 bohr
 

     total cpu time spent up to now is     1785.2 secs

     total energy              =   -3891.09759322 Ry
     estimated scf accuracy    <       0.05553142 Ry

     iteration # 11     ecut=    52.00 Ry     beta= 0.30
     Davidson diagonalization with overlap
     ethr =  1.71E-05,  avg # of iterations =  9.3

     negative rho (up, down):  1.152E-08 0.000E+00
 
     Adding external electric field

     Computed dipole along edir(3) : 
        Dipole               -0.7531 Ry au,         -1.9143 Debye
        Dipole field         -0.0019 Ry au, 
 
        Potential amp.        0.2392 Ry
        Total length         63.9641 bohr
 

     total cpu time spent up to now is     1992.5 secs

     total energy              =   -3891.09779725 Ry
     estimated scf accuracy    <       0.03199572 Ry

     iteration # 12     ecut=    52.00 Ry     beta= 0.30
     Davidson diagonalization with overlap
     ethr =  9.88E-06,  avg # of iterations =  1.3

     negative rho (up, down):  5.935E-06 0.000E+00
 
     Adding external electric field

     Computed dipole along edir(3) : 
        Dipole               -0.5777 Ry au,         -1.4684 Debye
        Dipole field         -0.0014 Ry au, 
 
        Potential amp.        0.1835 Ry
        Total length         63.9641 bohr
 

     total cpu time spent up to now is     2131.9 secs

     total energy              =   -3891.09334625 Ry
     estimated scf accuracy    <       0.03042265 Ry

     iteration # 13     ecut=    52.00 Ry     beta= 0.30
     Davidson diagonalization with overlap
     ethr =  9.39E-06,  avg # of iterations = 10.5

     negative rho (up, down):  2.822E-06 0.000E+00
 
     Adding external electric field

     Computed dipole along edir(3) : 
        Dipole               -0.5554 Ry au,         -1.4116 Debye
        Dipole field         -0.0014 Ry au, 
 
        Potential amp.        0.1764 Ry
        Total length         63.9641 bohr
 

     total cpu time spent up to now is     2350.7 secs

     total energy              =   -3891.09405797 Ry
     estimated scf accuracy    <       0.00984227 Ry

     iteration # 14     ecut=    52.00 Ry     beta= 0.30
     Davidson diagonalization with overlap
     c_bands:  1 eigenvalues not converged
     c_bands:  1 eigenvalues not converged
     ethr =  3.04E-06,  avg # of iterations =  8.7

     negative rho (up, down):  1.890E-07 0.000E+00
 
     Adding external electric field

     Computed dipole along edir(3) : 
        Dipole               -0.5067 Ry au,         -1.2880 Debye
        Dipole field         -0.0013 Ry au, 
 
        Potential amp.        0.1609 Ry
        Total length         63.9641 bohr
 

     total cpu time spent up to now is     2554.9 secs

     total energy              =   -3891.09236568 Ry
     estimated scf accuracy    <       0.00810864 Ry

     iteration # 15     ecut=    52.00 Ry     beta= 0.30
     Davidson diagonalization with overlap
     ethr =  2.50E-06,  avg # of iterations = 11.3

     negative rho (up, down):  1.014E-07 0.000E+00
 
     Adding external electric field

     Computed dipole along edir(3) : 
        Dipole               -0.4423 Ry au,         -1.1243 Debye
        Dipole field         -0.0011 Ry au, 
 
        Potential amp.        0.1405 Ry
        Total length         63.9641 bohr
 

     total cpu time spent up to now is     2782.4 secs

     total energy              =   -3891.09174209 Ry
     estimated scf accuracy    <       0.00585886 Ry

     iteration # 16     ecut=    52.00 Ry     beta= 0.30
     Davidson diagonalization with overlap
     ethr =  1.81E-06,  avg # of iterations =  8.4

     negative rho (up, down):  2.509E-04 0.000E+00
 
     Adding external electric field

     Computed dipole along edir(3) : 
        Dipole               -0.2891 Ry au,         -0.7347 Debye
        Dipole field         -0.0007 Ry au, 
 
        Potential amp.        0.0918 Ry
        Total length         63.9641 bohr
 

     total cpu time spent up to now is     2984.3 secs

     total energy              =   -3891.09051102 Ry
     estimated scf accuracy    <       0.00581512 Ry

     iteration # 17     ecut=    52.00 Ry     beta= 0.30
     Davidson diagonalization with overlap
     ethr =  1.79E-06,  avg # of iterations =  9.0

     negative rho (up, down):  2.472E-06 0.000E+00
 
     Adding external electric field

     Computed dipole along edir(3) : 
        Dipole               -0.3931 Ry au,         -0.9993 Debye
        Dipole field         -0.0010 Ry au, 
 
        Potential amp.        0.1249 Ry
        Total length         63.9641 bohr
 

     total cpu time spent up to now is     3193.1 secs

     total energy              =   -3891.09088714 Ry
     estimated scf accuracy    <       0.00923810 Ry

     iteration # 18     ecut=    52.00 Ry     beta= 0.30
     Davidson diagonalization with overlap
     ethr =  1.79E-06,  avg # of iterations =  8.7

     negative rho (up, down):  1.623E-04 0.000E+00
 
     Adding external electric field

     Computed dipole along edir(3) : 
        Dipole               -0.2326 Ry au,         -0.5912 Debye
        Dipole field         -0.0006 Ry au, 
 
        Potential amp.        0.0739 Ry
        Total length         63.9641 bohr
 

     total cpu time spent up to now is     3397.0 secs

     total energy              =   -3891.09053401 Ry
     estimated scf accuracy    <       0.00698213 Ry

     iteration # 19     ecut=    52.00 Ry     beta= 0.30
     Davidson diagonalization with overlap
     c_bands:  1 eigenvalues not converged
     c_bands:  1 eigenvalues not converged
     c_bands:  1 eigenvalues not converged
     c_bands:  1 eigenvalues not converged
     ethr =  1.79E-06,  avg # of iterations =  9.4

     negative rho (up, down):  3.084E-06 0.000E+00
 
     Adding external electric field

     Computed dipole along edir(3) : 
        Dipole               -0.3069 Ry au,         -0.7800 Debye
        Dipole field         -0.0008 Ry au, 
 
        Potential amp.        0.0975 Ry
        Total length         63.9641 bohr
 

     total cpu time spent up to now is     3609.0 secs

     total energy              =   -3891.09096548 Ry
     estimated scf accuracy    <       0.00933107 Ry

     iteration # 20     ecut=    52.00 Ry     beta= 0.30
     Davidson diagonalization with overlap
     c_bands:  1 eigenvalues not converged
     c_bands:  1 eigenvalues not converged
     c_bands:  1 eigenvalues not converged
     c_bands:  1 eigenvalues not converged
     c_bands:  1 eigenvalues not converged
     c_bands:  1 eigenvalues not converged
     ethr =  1.79E-06,  avg # of iterations =  7.7

     negative rho (up, down):  3.379E-03 0.000E+00
 
     Adding external electric field

     Computed dipole along edir(3) : 
        Dipole               -0.1147 Ry au,         -0.2914 Debye
        Dipole field         -0.0003 Ry au, 
 
        Potential amp.        0.0364 Ry
        Total length         63.9641 bohr
 

     total cpu time spent up to now is     3806.1 secs

     total energy              =   -3891.09064358 Ry
     estimated scf accuracy    <       0.00824029 Ry

     iteration # 21     ecut=    52.00 Ry     beta= 0.30
     Davidson diagonalization with overlap
     c_bands:  1 eigenvalues not converged
     c_bands:  1 eigenvalues not converged
     c_bands:  1 eigenvalues not converged
     ethr =  1.79E-06,  avg # of iterations = 10.9

     negative rho (up, down):  4.024E-03 0.000E+00
 
     Adding external electric field

     Computed dipole along edir(3) : 
        Dipole               -0.1315 Ry au,         -0.3341 Debye
        Dipole field         -0.0003 Ry au, 
 
        Potential amp.        0.0418 Ry
        Total length         63.9641 bohr
 

     total cpu time spent up to now is     4031.7 secs

     total energy              =   -3891.09056992 Ry
     estimated scf accuracy    <       0.01866847 Ry

     iteration # 22     ecut=    52.00 Ry     beta= 0.30
     Davidson diagonalization with overlap
     c_bands:  1 eigenvalues not converged
     c_bands:  1 eigenvalues not converged
     c_bands:  1 eigenvalues not converged
     ethr =  1.79E-06,  avg # of iterations =  8.1

     negative rho (up, down):  6.434E-03 0.000E+00
 
     Adding external electric field

     Computed dipole along edir(3) : 
        Dipole               -0.0431 Ry au,         -0.1096 Debye
        Dipole field         -0.0001 Ry au, 
 
        Potential amp.        0.0137 Ry
        Total length         63.9641 bohr
 

     total cpu time spent up to now is     4231.8 secs

     total energy              =   -3891.09023423 Ry
     estimated scf accuracy    <       0.01376429 Ry

     iteration # 23     ecut=    52.00 Ry     beta= 0.30
     Davidson diagonalization with overlap
     ethr =  1.79E-06,  avg # of iterations = 10.5

     negative rho (up, down):  5.740E-03 0.000E+00
 
     Adding external electric field

     Computed dipole along edir(3) : 
        Dipole               -0.0416 Ry au,         -0.1058 Debye
        Dipole field         -0.0001 Ry au, 
 
        Potential amp.        0.0132 Ry
        Total length         63.9641 bohr
 

     total cpu time spent up to now is     4452.2 secs

     total energy              =   -3891.09011718 Ry
     estimated scf accuracy    <       0.00786125 Ry

     iteration # 24     ecut=    52.00 Ry     beta= 0.30
     Davidson diagonalization with overlap
     ethr =  1.79E-06,  avg # of iterations =  3.4

     negative rho (up, down):  3.559E-03 0.000E+00
 
     Adding external electric field

     Computed dipole along edir(3) : 
        Dipole               -0.0558 Ry au,         -0.1417 Debye
        Dipole field         -0.0001 Ry au, 
 
        Potential amp.        0.0177 Ry
        Total length         63.9641 bohr
 

     total cpu time spent up to now is     4614.4 secs

     total energy              =   -3891.08989885 Ry
     estimated scf accuracy    <       0.00582601 Ry

     iteration # 25     ecut=    52.00 Ry     beta= 0.30
     Davidson diagonalization with overlap
     ethr =  1.79E-06,  avg # of iterations =  9.8

     negative rho (up, down):  1.074E-03 0.000E+00
 
     Adding external electric field

     Computed dipole along edir(3) : 
        Dipole               -0.0134 Ry au,         -0.0341 Debye
        Dipole field         -0.0000 Ry au, 
 
        Potential amp.        0.0043 Ry
        Total length         63.9641 bohr
 

     total cpu time spent up to now is     4827.9 secs

     total energy              =   -3891.08967772 Ry
     estimated scf accuracy    <       0.00380827 Ry

     iteration # 26     ecut=    52.00 Ry     beta= 0.30
     Davidson diagonalization with overlap
     c_bands:  1 eigenvalues not converged
     c_bands:  1 eigenvalues not converged
     ethr =  1.18E-06,  avg # of iterations =  9.4

     negative rho (up, down):  8.992E-05 0.000E+00
 
     Adding external electric field

     Computed dipole along edir(3) : 
        Dipole               -0.0244 Ry au,         -0.0620 Debye
        Dipole field         -0.0001 Ry au, 
 
        Potential amp.        0.0077 Ry
        Total length         63.9641 bohr
 

     total cpu time spent up to now is     5039.7 secs

     total energy              =   -3891.08971192 Ry
     estimated scf accuracy    <       0.00205140 Ry

     iteration # 27     ecut=    52.00 Ry     beta= 0.30
     Davidson diagonalization with overlap
     ethr =  6.33E-07,  avg # of iterations =  4.2

     negative rho (up, down):  1.335E-05 0.000E+00
 
     Adding external electric field

     Computed dipole along edir(3) : 
        Dipole               -0.0540 Ry au,         -0.1373 Debye
        Dipole field         -0.0001 Ry au, 
 
        Potential amp.        0.0172 Ry
        Total length         63.9641 bohr
 

     total cpu time spent up to now is     5209.5 secs

     total energy              =   -3891.08969683 Ry
     estimated scf accuracy    <       0.00091523 Ry

     iteration # 28     ecut=    52.00 Ry     beta= 0.30
     Davidson diagonalization with overlap
     ethr =  2.82E-07,  avg # of iterations =  3.6

     negative rho (up, down):  2.028E-06 0.000E+00
 
     Adding external electric field

     Computed dipole along edir(3) : 
        Dipole               -0.0670 Ry au,         -0.1702 Debye
        Dipole field         -0.0002 Ry au, 
 
        Potential amp.        0.0213 Ry
        Total length         63.9641 bohr
 

     total cpu time spent up to now is     5374.7 secs

     total energy              =   -3891.08968016 Ry
     estimated scf accuracy    <       0.00075499 Ry

     iteration # 29     ecut=    52.00 Ry     beta= 0.30
     Davidson diagonalization with overlap
     ethr =  2.33E-07,  avg # of iterations =  3.6

     negative rho (up, down):  2.532E-05 0.000E+00
 
     Adding external electric field

     Computed dipole along edir(3) : 
        Dipole               -0.0233 Ry au,         -0.0592 Debye
        Dipole field         -0.0001 Ry au, 
 
        Potential amp.        0.0074 Ry
        Total length         63.9641 bohr
 

     total cpu time spent up to now is     5538.6 secs

     total energy              =   -3891.08957394 Ry
     estimated scf accuracy    <       0.00046681 Ry

     iteration # 30     ecut=    52.00 Ry     beta= 0.30
     Davidson diagonalization with overlap
     ethr =  1.44E-07,  avg # of iterations =  6.3

     negative rho (up, down):  1.117E-04 0.000E+00
 
     Adding external electric field

     Computed dipole along edir(3) : 
        Dipole               -0.0088 Ry au,         -0.0225 Debye
        Dipole field         -0.0000 Ry au, 
 
        Potential amp.        0.0028 Ry
        Total length         63.9641 bohr
 

     total cpu time spent up to now is     5733.5 secs

     total energy              =   -3891.08959605 Ry
     estimated scf accuracy    <       0.00109999 Ry

     iteration # 31     ecut=    52.00 Ry     beta= 0.30
     Davidson diagonalization with overlap
     ethr =  1.44E-07,  avg # of iterations =  6.9

     negative rho (up, down):  1.558E-03 0.000E+00
 
     Adding external electric field

     Computed dipole along edir(3) : 
        Dipole                0.0161 Ry au,          0.0410 Debye
        Dipole field          0.0000 Ry au, 
 
        Potential amp.       -0.0051 Ry
        Total length         63.9641 bohr
 

     total cpu time spent up to now is     5923.7 secs

     total energy              =   -3891.08961832 Ry
     estimated scf accuracy    <       0.00018874 Ry

     iteration # 32     ecut=    52.00 Ry     beta= 0.30
     Davidson diagonalization with overlap
     ethr =  5.83E-08,  avg # of iterations =  8.1

     negative rho (up, down):  5.716E-04 0.000E+00
 
     Adding external electric field

     Computed dipole along edir(3) : 
        Dipole                0.0173 Ry au,          0.0440 Debye
        Dipole field          0.0000 Ry au, 
 
        Potential amp.       -0.0055 Ry
        Total length         63.9641 bohr
 

     total cpu time spent up to now is     6128.4 secs

     total energy              =   -3891.08959765 Ry
     estimated scf accuracy    <       0.00186055 Ry

     iteration # 33     ecut=    52.00 Ry     beta= 0.30
     Davidson diagonalization with overlap
     ethr =  5.83E-08,  avg # of iterations =  7.0

     negative rho (up, down):  4.634E-04 0.000E+00
 
     Adding external electric field

     Computed dipole along edir(3) : 
        Dipole                0.0227 Ry au,          0.0577 Debye
        Dipole field          0.0001 Ry au, 
 
        Potential amp.       -0.0072 Ry
        Total length         63.9641 bohr
 

     total cpu time spent up to now is     6321.6 secs

     total energy              =   -3891.08963365 Ry
     estimated scf accuracy    <       0.00014526 Ry

     iteration # 34     ecut=    52.00 Ry     beta= 0.30
     Davidson diagonalization with overlap
     ethr =  4.48E-08,  avg # of iterations =  1.5

     negative rho (up, down):  4.115E-04 0.000E+00
 
     Adding external electric field

     Computed dipole along edir(3) : 
        Dipole                0.0222 Ry au,          0.0565 Debye
        Dipole field          0.0001 Ry au, 
 
        Potential amp.       -0.0071 Ry
        Total length         63.9641 bohr
 

     total cpu time spent up to now is     6466.0 secs

     total energy              =   -3891.08963562 Ry
     estimated scf accuracy    <       0.00005699 Ry

     iteration # 35     ecut=    52.00 Ry     beta= 0.30
     Davidson diagonalization with overlap
     ethr =  1.76E-08,  avg # of iterations =  1.0

     negative rho (up, down):  1.045E-04 0.000E+00
 
     Adding external electric field

     Computed dipole along edir(3) : 
        Dipole                0.0211 Ry au,          0.0537 Debye
        Dipole field          0.0001 Ry au, 
 
        Potential amp.       -0.0067 Ry
        Total length         63.9641 bohr
 

     total cpu time spent up to now is     6602.6 secs

     total energy              =   -3891.08963558 Ry
     estimated scf accuracy    <       0.00003925 Ry

     iteration # 36     ecut=    52.00 Ry     beta= 0.30
     Davidson diagonalization with overlap
     ethr =  1.21E-08,  avg # of iterations =  6.5

     negative rho (up, down):  2.344E-04 0.000E+00
 
     Adding external electric field

     Computed dipole along edir(3) : 
        Dipole                0.0233 Ry au,          0.0591 Debye
        Dipole field          0.0001 Ry au, 
 
        Potential amp.       -0.0074 Ry
        Total length         63.9641 bohr
 

     total cpu time spent up to now is     6791.3 secs

     total energy              =   -3891.08963949 Ry
     estimated scf accuracy    <       0.00007708 Ry

     iteration # 37     ecut=    52.00 Ry     beta= 0.30
     Davidson diagonalization with overlap
     ethr =  1.21E-08,  avg # of iterations =  1.0

     negative rho (up, down):  2.738E-04 0.000E+00
 
     Adding external electric field

     Computed dipole along edir(3) : 
        Dipole                0.0235 Ry au,          0.0597 Debye
        Dipole field          0.0001 Ry au, 
 
        Potential amp.       -0.0075 Ry
        Total length         63.9641 bohr
 

     total cpu time spent up to now is     6929.4 secs

     total energy              =   -3891.08963906 Ry
     estimated scf accuracy    <       0.00002450 Ry

     iteration # 38     ecut=    52.00 Ry     beta= 0.30
     Davidson diagonalization with overlap
     ethr =  7.56E-09,  avg # of iterations =  1.0

     negative rho (up, down):  3.150E-04 0.000E+00
 
     Adding external electric field

     Computed dipole along edir(3) : 
        Dipole                0.0242 Ry au,          0.0614 Debye
        Dipole field          0.0001 Ry au, 
 
        Potential amp.       -0.0077 Ry
        Total length         63.9641 bohr
 

     total cpu time spent up to now is     7066.3 secs

     total energy              =   -3891.08963858 Ry
     estimated scf accuracy    <       0.00000590 Ry

     iteration # 39     ecut=    52.00 Ry     beta= 0.30
     Davidson diagonalization with overlap
     ethr =  1.82E-09,  avg # of iterations =  1.5

     negative rho (up, down):  3.086E-04 0.000E+00
 
     Adding external electric field

     Computed dipole along edir(3) : 
        Dipole                0.0240 Ry au,          0.0609 Debye
        Dipole field          0.0001 Ry au, 
 
        Potential amp.       -0.0076 Ry
        Total length         63.9641 bohr
 

     total cpu time spent up to now is     7210.7 secs

     total energy              =   -3891.08963890 Ry
     estimated scf accuracy    <       0.00000074 Ry

     iteration # 40     ecut=    52.00 Ry     beta= 0.30
     Davidson diagonalization with overlap
     ethr =  2.29E-10,  avg # of iterations =  1.0

     negative rho (up, down):  2.935E-04 0.000E+00
 
     Adding external electric field

     Computed dipole along edir(3) : 
        Dipole                0.0237 Ry au,          0.0601 Debye
        Dipole field          0.0001 Ry au, 
 
        Potential amp.       -0.0075 Ry
        Total length         63.9641 bohr
 

     total cpu time spent up to now is     7347.7 secs

     total energy              =   -3891.08963894 Ry
     estimated scf accuracy    <       0.00000009 Ry

     iteration # 41     ecut=    52.00 Ry     beta= 0.30
     Davidson diagonalization with overlap
     ethr =  2.75E-11,  avg # of iterations =  2.0

     negative rho (up, down):  2.863E-04 0.000E+00
 
     Adding external electric field

     Computed dipole along edir(3) : 
        Dipole                0.0234 Ry au,          0.0594 Debye
        Dipole field          0.0001 Ry au, 
 
        Potential amp.       -0.0074 Ry
        Total length         63.9641 bohr
 

     total cpu time spent up to now is     7498.6 secs

     total energy              =   -3891.08963896 Ry
     estimated scf accuracy    <       0.00000002 Ry

     iteration # 42     ecut=    52.00 Ry     beta= 0.30
     Davidson diagonalization with overlap
     ethr =  7.31E-12,  avg # of iterations =  2.0

     negative rho (up, down):  2.756E-04 0.000E+00
 
     Adding external electric field

     Computed dipole along edir(3) : 
        Dipole                0.0237 Ry au,          0.0602 Debye
        Dipole field          0.0001 Ry au, 
 
        Potential amp.       -0.0075 Ry
        Total length         63.9641 bohr
 

     total cpu time spent up to now is     7655.1 secs

     End of self-consistent calculation

          k = 0.0000 0.0000 0.0000 ( 32011 PWs)   bands (ev):

   -87.1898 -87.1770 -87.1741 -87.1738 -87.1655 -87.1654 -87.0026 -86.9892
   -86.9891 -86.9237 -86.9103 -86.9100 -50.6908 -50.6747 -50.6746 -50.6738
   -50.6735 -50.6705 -50.6704 -50.6469 -50.6468 -50.6164 -50.6161 -50.6094
   -50.6094 -50.6044 -50.5754 -50.5754 -50.5597 -50.5593 -50.4887 -50.4881
   -50.4857 -50.4851 -50.4219 -50.4110 -50.4108 -50.4099 -50.4099 -50.4079
   -50.4079 -50.3983 -50.3981 -50.3381 -50.3257 -50.3254 -50.3198 -50.3193
   -14.6818 -14.3395 -14.1838  -9.5788  -9.5725  -9.5698  -9.2215  -9.2215
    -9.2214  -9.1225  -9.1225  -9.1225  -8.4420  -8.4383  -8.4369  -8.0831
    -8.0831  -8.0830  -7.9918  -7.9918  -7.9918  -3.2852  -2.6850  -2.4890
    -1.8531  -1.7357  -1.7337  -1.7300  -1.6080  -1.3758  -1.3757  -1.3757
    -1.3478  -1.2912  -1.2912  -1.2912  -1.1818  -0.7288  -0.7277  -0.7091
    -0.7090  -0.7042  -0.7040  -0.3667  -0.3661  -0.3497  -0.3496  -0.1830
    -0.1798  -0.1468  -0.1465   0.0850   0.1252   0.1258   0.1738   0.1748
     0.2365   0.2377   0.2666   0.2673   0.2935   0.3864   0.3872   0.4753
     0.4775   0.4957   0.5110   0.5327   0.5447   0.6286   0.6286   0.6453
     0.6453   1.0220   1.0225   1.1443   1.1473   1.1479   1.1537   1.2064
     1.2065   1.2955   1.3084   1.5031   1.5483   1.5498   1.5580   1.6155
     1.6434   1.6472   1.7538   1.7658   1.8084   1.8115   1.8271   1.8295
     1.8901   1.8983   1.9070   1.9070   1.9875   1.9875   2.2257   2.2370
     2.2621   2.5565   2.5575   2.5598   2.8531   2.8531   2.8532   4.1234
     5.3723   6.1277   6.1620   6.1754   6.5456   6.5483   6.5495   6.8803
     6.8823   6.8832   8.3527   8.3539   8.5483   8.5532   8.5560   8.5581
     8.6427   9.0533   9.3373   9.3518   9.3617   9.3652   9.5635   9.7539
     9.7588  10.0263  10.7346  11.0134  11.0240  11.0364  11.0388  11.0707
    11.3206  11.3321

          k = 0.0000 0.1283 0.0000 ( 32037 PWs)   bands (ev):

   -87.1893 -87.1766 -87.1744 -87.1741 -87.1657 -87.1656 -87.0022 -86.9895
   -86.9893 -86.9232 -86.9105 -86.9103 -50.6894 -50.6870 -50.6843 -50.6778
   -50.6762 -50.6598 -50.6576 -50.6394 -50.6393 -50.6180 -50.6167 -50.6080
   -50.6070 -50.6056 -50.5794 -50.5770 -50.5647 -50.5607 -50.4998 -50.4977
   -50.4724 -50.4712 -50.4221 -50.4215 -50.4199 -50.4112 -50.4110 -50.4034
   -50.3994 -50.3943 -50.3929 -50.3376 -50.3259 -50.3256 -50.3247 -50.3208
   -14.6101 -14.2678 -14.1126 -10.2865  -9.9392  -9.8149  -9.7788  -9.7716
    -9.4259  -9.4258  -9.3116  -9.3116  -8.1280  -8.1233  -7.7737  -7.7737
    -7.6684  -7.6684  -7.6276  -7.2771  -7.1668  -3.1980  -2.5953  -2.3808
    -1.9558  -1.9509  -1.7686  -1.6624  -1.5963  -1.5963  -1.5107  -1.5107
    -1.5103  -1.3052  -1.2659  -1.2207  -1.0961  -0.9153  -0.8430  -0.7837
    -0.7328  -0.6075  -0.5688  -0.4947  -0.4455  -0.4361  -0.3755  -0.2190
    -0.1864  -0.1718  -0.1212   0.0567   0.0784   0.0950   0.1847   0.1894
     0.1963   0.2204   0.2880   0.2934   0.3394   0.3573   0.3944   0.4366
     0.4394   0.4527   0.5229   0.5310   0.5658   0.6457   0.7670   0.7796
     0.8980   0.9287   0.9769   1.0323   1.1118   1.1661   1.1732   1.2112
     1.2421   1.2541   1.2996   1.3137   1.3974   1.4327   1.5277   1.5359
     1.6121   1.6185   1.6423   1.6932   1.6959   1.7554   1.7557   1.8067
     1.8365   1.8404   1.8538   1.8942   1.9186   1.9546   2.1182   2.1488
     2.1571   2.1963   2.5031   2.5089   2.5941   2.8585   2.8585   4.2852
     5.6094   6.2442   6.2794   6.5702   6.6528   6.6586   6.7051   7.0117
     7.0136   7.0256   7.4295   7.4447   7.6066   7.7071   8.3516   8.7393
     8.7801   8.9414   9.1484   9.5392   9.6013   9.6586   9.9789  10.1090
    10.4208  10.5152  10.5987  10.7934  10.8261  11.1072  11.1524  11.5743
    11.6862  11.7094

          k = 0.0000 0.2566 0.0000 ( 32017 PWs)   bands (ev):

   -87.1877 -87.1755 -87.1753 -87.1747 -87.1664 -87.1660 -87.0008 -86.9904
   -86.9898 -86.9218 -86.9114 -86.9108 -50.6982 -50.6877 -50.6872 -50.6855
   -50.6793 -50.6489 -50.6403 -50.6324 -50.6273 -50.6178 -50.6111 -50.6106
   -50.6062 -50.6028 -50.5885 -50.5833 -50.5769 -50.5645 -50.5102 -50.5006
   -50.4577 -50.4542 -50.4330 -50.4229 -50.4207 -50.4172 -50.4119 -50.4115
   -50.4034 -50.3793 -50.3756 -50.3392 -50.3361 -50.3266 -50.3261 -50.3248
   -14.3954 -14.0529 -13.8991 -11.2587 -10.9131 -10.7800 -10.0967 -10.0898
    -9.7457  -9.7456  -9.6226  -9.6226  -7.4697  -7.4647  -7.1164  -7.1163
    -7.0077  -7.0077  -6.3413  -5.9901  -5.8830  -2.9382  -2.5452  -2.5400
    -2.3325  -2.1863  -2.1863  -2.0980  -2.0980  -2.0680  -1.5184  -1.4535
    -1.2491  -1.0962  -1.0926  -1.0375  -1.0119  -0.9280  -0.9062  -0.8950
    -0.8709  -0.8481  -0.6535  -0.5961  -0.4346  -0.4340  -0.3861  -0.3108
    -0.2707  -0.2602  -0.2055  -0.1270  -0.0189   0.0488   0.1063   0.1813
     0.2657   0.2725   0.3242   0.3402   0.3520   0.3809   0.4111   0.4266
     0.4442   0.4892   0.5257   0.5588   0.5730   0.6367   0.6778   0.7575
     0.7700   0.8034   0.8183   0.8863   0.9353   0.9667   0.9946   1.0422
     1.0994   1.1226   1.1886   1.1999   1.2251   1.2453   1.2792   1.3533
     1.3570   1.3757   1.4349   1.4967   1.5370   1.5883   1.5925   1.6391
     1.7845   1.7995   1.8490   1.8818   1.9032   1.9617   1.9845   2.0002
     2.0660   2.0895   2.3841   2.4006   2.5499   2.8391   2.8397   4.7063
     5.0053   5.8538   6.2364   6.4570   6.5513   6.5799   6.9284   6.9512
     6.9776   7.2950   7.3231   7.3240   7.4967   7.8259   7.9334   8.1958
     8.6303   9.0291   9.3508   9.4328   9.4375   9.9435  10.1140  10.3592
    10.8090  10.8816  11.0674  11.1000  11.4032  11.5716  11.8055  11.8465
    12.1446  12.1857

          k = 0.0000 0.3849 0.0000 ( 32055 PWs)   bands (ev):

   -87.1854 -87.1773 -87.1754 -87.1736 -87.1677 -87.1664 -86.9988 -86.9919
   -86.9903 -86.9198 -86.9129 -86.9113 -50.7063 -50.6955 -50.6819 -50.6799
   -50.6750 -50.6448 -50.6332 -50.6255 -50.6247 -50.6171 -50.6091 -50.6059
   -50.6036 -50.5984 -50.5978 -50.5932 -50.5857 -50.5711 -50.5177 -50.4947
   -50.4434 -50.4407 -50.4399 -50.4381 -50.4184 -50.4169 -50.4131 -50.4120
   -50.4099 -50.3649 -50.3612 -50.3595 -50.3343 -50.3314 -50.3280 -50.3267
   -14.0388 -13.6960 -13.5446 -12.1443 -11.7997 -11.6606 -10.3397 -10.3330
    -9.9894  -9.9894  -9.8630  -9.8630  -6.6954  -6.6905  -6.3412  -6.3411
    -6.2363  -6.2363  -4.9461  -4.5935  -4.4920  -3.3353  -3.3297  -2.9770
    -2.9770  -2.8859  -2.8859  -2.5098  -1.9064  -1.6050  -1.2583  -1.1599
    -1.1526  -1.1147  -1.1103  -0.9198  -0.8744  -0.8529  -0.8312  -0.7572
    -0.7514  -0.7133  -0.6920  -0.6732  -0.6610  -0.6198  -0.5197  -0.4562
    -0.3906  -0.3559  -0.3182  -0.2834  -0.2699  -0.2314  -0.1795  -0.1372
    -0.1093  -0.0187   0.0921   0.1051   0.1528   0.1870   0.2570   0.2635
     0.3003   0.3331   0.4048   0.4524   0.5191   0.5308   0.5562   0.6509
     0.6515   0.6590   0.7084   0.7227   0.8110   0.8583   0.8683   0.8934
     0.9127   0.9470   0.9841   1.1070   1.1215   1.1987   1.2631   1.3108
     1.3248   1.3588   1.4340   1.4698   1.5753   1.6446   1.6704   1.7313
     1.7417   1.8420   1.8592   1.8712   1.8937   1.9434   1.9721   1.9809
     2.0436   2.0777   2.2655   2.2987   2.7910   2.7928   3.0685   3.5787
     4.3202   5.2942   5.6577   5.8484   6.2900   6.7820   6.9197   6.9865
     7.1228   7.1683   7.3147   7.3223   7.6522   7.6543   8.0209   9.1637
     9.2596   9.5112   9.6263   9.8203   9.9049  10.0215  10.4174  10.5179
    10.6466  10.7834  11.5522  11.8238  11.8351  11.9773  12.0789  12.2541
    12.3325  12.3798

          k = 0.0000 0.5132 0.0000 ( 32106 PWs)   bands (ev):

   -87.1826 -87.1797 -87.1757 -87.1715 -87.1695 -87.1667 -86.9964 -86.9940
   -86.9906 -86.9174 -86.9150 -86.9116 -50.7106 -50.6997 -50.6745 -50.6740
   -50.6637 -50.6454 -50.6405 -50.6344 -50.6251 -50.6141 -50.6078 -50.6060
   -50.6006 -50.5972 -50.5945 -50.5903 -50.5901 -50.5801 -50.5215 -50.4806
   -50.4605 -50.4448 -50.4317 -50.4303 -50.4190 -50.4165 -50.4147 -50.4123
   -50.4026 -50.3822 -50.3531 -50.3517 -50.3404 -50.3321 -50.3299 -50.3270
   -13.5423 -13.1990 -13.0509 -12.9090 -12.5651 -12.4212 -10.4664 -10.4597
   -10.1164 -10.1164  -9.9886  -9.9886  -6.0003  -5.9958  -5.6436  -5.6436
    -5.5491  -5.5491  -4.0601  -4.0540  -3.7008  -3.7007  -3.6119  -3.6119
    -3.5031  -3.1488  -3.0531  -2.0671  -1.9214  -1.7110  -1.6205  -1.3947
    -1.3259  -1.3031  -1.2430  -1.1911  -1.1256  -0.9841  -0.8660  -0.8262
    -0.7896  -0.6960  -0.6624  -0.6310  -0.6291  -0.6044  -0.5671  -0.5430
    -0.5275  -0.4656  -0.3947  -0.3748  -0.3046  -0.2917  -0.2894  -0.2209
    -0.1246  -0.0573  -0.0409   0.0238   0.0461   0.0741   0.0871   0.1405
     0.1781   0.2285   0.2337   0.2609   0.2723   0.3168   0.3562   0.3614
     0.4641   0.5537   0.6015   0.6309   0.7151   0.7979   0.8378   0.8812
     0.9078   1.0698   1.0796   1.1379   1.1477   1.2865   1.3850   1.4302
     1.4643   1.5147   1.5240   1.5747   1.6837   1.7032   1.7366   1.7671
     1.8033   1.8180   1.8313   1.9016   1.9195   1.9575   2.0272   2.1380
     2.1429   2.1928   2.2016   2.2423   2.4500   2.7520   2.7553   3.0374
     3.7295   4.6377   5.1240   5.9170   6.0183   6.4500   6.6668   6.8961
     7.2202   7.2257   7.5706   7.5727   7.8555   7.8564   8.1619   9.0577
     9.3059   9.6710  10.1831  10.4266  10.5628  10.7840  11.0203  11.0795
    11.1609  11.3857  11.4059  11.4675  11.6174  11.9366  12.1287  12.1361
    12.2883  12.2937

          k = 0.1111-0.0642 0.0000 ( 32037 PWs)   bands (ev):

   -87.1893 -87.1766 -87.1744 -87.1741 -87.1657 -87.1656 -87.0022 -86.9895
   -86.9893 -86.9232 -86.9105 -86.9103 -50.6894 -50.6869 -50.6844 -50.6777
   -50.6764 -50.6596 -50.6577 -50.6394 -50.6393 -50.6180 -50.6168 -50.6078
   -50.6071 -50.6056 -50.5794 -50.5769 -50.5648 -50.5606 -50.4999 -50.4976
   -50.4726 -50.4710 -50.4220 -50.4214 -50.4200 -50.4112 -50.4110 -50.4033
   -50.3996 -50.3941 -50.3930 -50.3376 -50.3259 -50.3256 -50.3248 -50.3207
   -14.6101 -14.2678 -14.1126 -10.2865  -9.9392  -9.8149  -9.7777  -9.7728
    -9.4259  -9.4258  -9.3116  -9.3116  -8.1276  -8.1236  -7.7737  -7.7737
    -7.6684  -7.6684  -7.6275  -7.2771  -7.1668  -3.1980  -2.5953  -2.3808
    -1.9545  -1.9521  -1.7686  -1.6627  -1.5963  -1.5963  -1.5107  -1.5107
    -1.5103  -1.3052  -1.2658  -1.2207  -1.0960  -0.9146  -0.8437  -0.7844
    -0.7324  -0.6082  -0.5678  -0.4953  -0.4450  -0.4362  -0.3754  -0.2192
    -0.1860  -0.1728  -0.1205   0.0572   0.0778   0.0947   0.1848   0.1897
     0.1969   0.2204   0.2882   0.2924   0.3396   0.3568   0.3927   0.4372
     0.4393   0.4535   0.5245   0.5308   0.5657   0.6437   0.7672   0.7812
     0.8984   0.9291   0.9761   1.0341   1.1086   1.1662   1.1740   1.2128
     1.2424   1.2544   1.3005   1.3124   1.3949   1.4296   1.5261   1.5411
     1.6121   1.6204   1.6434   1.6932   1.6960   1.7557   1.7567   1.8097
     1.8365   1.8403   1.8490   1.8912   1.9187   1.9521   2.1195   2.1456
     2.1663   2.1919   2.5036   2.5083   2.5941   2.8584   2.8586   4.2853
     5.6094   6.2505   6.2731   6.5694   6.6533   6.6583   6.7058   7.0117
     7.0135   7.0258   7.4288   7.4445   7.6063   7.7084   8.3519   8.7393
     8.7833   8.9409   9.1484   9.5375   9.6026   9.6586   9.9745  10.1090
    10.4210  10.5166  10.5986  10.7935  10.8261  11.1071  11.1524  11.5739
    11.6856  11.7072

          k = 0.1111 0.0642 0.0000 ( 32037 PWs)   bands (ev):

   -87.1893 -87.1766 -87.1744 -87.1741 -87.1657 -87.1656 -87.0022 -86.9895
   -86.9893 -86.9232 -86.9105 -86.9103 -50.6894 -50.6871 -50.6843 -50.6778
   -50.6762 -50.6598 -50.6576 -50.6395 -50.6393 -50.6178 -50.6169 -50.6077
   -50.6073 -50.6056 -50.5794 -50.5770 -50.5645 -50.5609 -50.4999 -50.4976
   -50.4726 -50.4710 -50.4223 -50.4214 -50.4197 -50.4112 -50.4110 -50.4032
   -50.3996 -50.3945 -50.3927 -50.3376 -50.3259 -50.3256 -50.3244 -50.3211
   -14.6101 -14.2678 -14.1126 -10.2865  -9.9392  -9.8149  -9.7777  -9.7728
    -9.4259  -9.4258  -9.3116  -9.3116  -8.1276  -8.1236  -7.7737  -7.7737
    -7.6684  -7.6684  -7.6276  -7.2771  -7.1668  -3.1980  -2.5953  -2.3808
    -1.9545  -1.9521  -1.7686  -1.6627  -1.5963  -1.5963  -1.5107  -1.5107
    -1.5103  -1.3052  -1.2660  -1.2207  -1.0963  -0.9160  -0.8438  -0.7819
    -0.7312  -0.6088  -0.5682  -0.4951  -0.4452  -0.4368  -0.3769  -0.2187
    -0.1868  -0.1715  -0.1199   0.0579   0.0781   0.0950   0.1849   0.1885
     0.1973   0.2194   0.2882   0.2958   0.3407   0.3564   0.3941   0.4368
     0.4386   0.4525   0.5191   0.5319   0.5668   0.6453   0.7661   0.7784
     0.8969   0.9320   0.9758   1.0377   1.1108   1.1669   1.1737   1.2105
     1.2421   1.2553   1.2936   1.3129   1.3939   1.4313   1.5268   1.5419
     1.6121   1.6154   1.6450   1.6932   1.6962   1.7557   1.7593   1.8077
     1.8365   1.8396   1.8465   1.8978   1.9179   1.9559   2.1173   2.1457
     2.1658   2.1921   2.5038   2.5081   2.5941   2.8584   2.8586   4.2849
     5.6091   6.2500   6.2735   6.5697   6.6532   6.6582   6.7059   7.0117
     7.0135   7.0258   7.4282   7.4445   7.6063   7.7096   8.3485   8.7393
     8.7774   8.9437   9.1484   9.5393   9.6020   9.6586   9.9801  10.1090
    10.4215  10.5152  10.6007  10.7910  10.8261  11.1069  11.1524  11.5726
    11.6861  11.7101

          k = 0.1111 0.1925 0.0000 ( 31991 PWs)   bands (ev):

   -87.1882 -87.1758 -87.1750 -87.1747 -87.1661 -87.1660 -87.0012 -86.9899
   -86.9898 -86.9223 -86.9110 -86.9107 -50.6917 -50.6915 -50.6868 -50.6822
   -50.6821 -50.6480 -50.6478 -50.6323 -50.6319 -50.6157 -50.6156 -50.6089
   -50.6054 -50.6049 -50.5862 -50.5798 -50.5744 -50.5630 -50.5045 -50.5042
   -50.4601 -50.4598 -50.4269 -50.4268 -50.4207 -50.4130 -50.4116 -50.4114
   -50.4020 -50.3817 -50.3815 -50.3369 -50.3341 -50.3263 -50.3260 -50.3235
   -14.4669 -14.1245 -13.9702 -10.7299 -10.7284 -10.3828 -10.3827 -10.2537
   -10.2537  -9.3879  -9.0355  -8.9371  -8.2649  -7.9086  -7.8182  -6.9663
    -6.9662  -6.6156  -6.6155  -6.5065  -6.5065  -3.0246  -2.6162  -2.4193
    -2.2600  -2.1716  -2.1706  -1.8126  -1.8107  -1.6014  -1.4545  -1.4545
    -1.3691  -1.3691  -1.3329  -1.1123  -0.9876  -0.9869  -0.9421  -0.8287
    -0.8284  -0.7326  -0.7324  -0.5127  -0.5116  -0.3782  -0.3755  -0.3097
    -0.3070  -0.1915  -0.1898  -0.0768   0.0192   0.0701   0.1604   0.1634
     0.2939   0.3001   0.3039   0.3267   0.3281   0.3513   0.3924   0.3998
     0.4335   0.5442   0.5463   0.5497   0.6346   0.7274   0.8043   0.8152
     0.8173   0.9261   0.9325   1.0363   1.0427   1.0700   1.0837   1.0905
     1.0972   1.1679   1.1818   1.2030   1.3014   1.3088   1.3124   1.3715
     1.3735   1.3914   1.4532   1.5339   1.5518   1.5566   1.5580   1.6439
     1.7193   1.7266   1.8739   1.8771   1.9073   1.9174   1.9268   2.0352
     2.0411   2.3290   2.3306   2.4214   2.4862   2.8141   3.1097   4.5731
     5.8185   5.8284   6.0349   6.1098   6.4866   6.6616   6.6679   6.7528
     7.1366   7.1572   7.5347   7.5382   7.9568   7.9580   8.0390   8.0423
     8.8484   8.8519   8.9326   9.3381   9.8486   9.8957   9.9010  10.2756
    10.5196  10.5251  11.0089  11.3188  11.4223  11.4258  11.5662  11.5686
    12.0583  12.0614

          k = 0.1111 0.3208 0.0000 ( 32047 PWs)   bands (ev):

   -87.1863 -87.1762 -87.1755 -87.1743 -87.1670 -87.1665 -86.9996 -86.9910
   -86.9904 -86.9206 -86.9120 -86.9114 -50.6998 -50.6897 -50.6894 -50.6820
   -50.6813 -50.6426 -50.6363 -50.6273 -50.6238 -50.6200 -50.6093 -50.6060
   -50.6024 -50.6004 -50.5960 -50.5903 -50.5843 -50.5676 -50.5117 -50.5023
   -50.4470 -50.4450 -50.4345 -50.4310 -50.4248 -50.4190 -50.4125 -50.4120
   -50.4068 -50.3684 -50.3664 -50.3522 -50.3351 -50.3283 -50.3273 -50.3267
   -14.1813 -13.8386 -13.6863 -11.6646 -11.3194 -11.1836 -11.0581 -10.7122
   -10.5804  -9.3991  -9.0493  -8.9371  -7.8005  -7.4478  -7.3454  -6.2104
    -5.8587  -5.7536  -5.6235  -5.2715  -5.1676  -3.4952  -3.1399  -3.0480
    -2.6805  -2.3229  -2.0758  -1.9664  -1.8786  -1.7870  -1.5331  -1.2727
    -1.1759  -1.1421  -1.0908  -1.0648  -1.0337  -1.0237  -0.9896  -0.8992
    -0.8627  -0.8223  -0.7038  -0.6939  -0.5520  -0.5155  -0.4543  -0.3782
    -0.3313  -0.2451  -0.2078  -0.1916  -0.1753  -0.0835  -0.0272   0.1100
     0.1537   0.1641   0.2370   0.2416   0.2578   0.3060   0.3072   0.3244
     0.4091   0.4441   0.4633   0.5233   0.5454   0.5503   0.5696   0.5803
     0.6005   0.7539   0.7618   0.8321   0.8695   0.9143   0.9286   0.9586
     0.9774   1.0102   1.0502   1.0687   1.0847   1.1972   1.2042   1.2771
     1.3274   1.3413   1.3522   1.4348   1.4364   1.4989   1.5361   1.5928
     1.5966   1.6593   1.6825   1.8542   1.8591   1.9051   1.9441   1.9663
     2.0726   2.0844   2.1240   2.6423   2.8642   3.0045   3.3637   4.2724
     5.0660   5.0675   5.0891   5.8587   6.1133   6.4755   6.5516   6.7217
     6.7833   7.1127   7.7125   8.0826   8.1773   8.4150   8.4715   8.6849
     8.8701   9.2681   9.3187   9.4838   9.7161  10.1321  10.2278  10.3675
    10.6132  11.0002  11.0664  11.3730  11.6611  11.6782  12.2117  12.4267
    12.5367  12.6550

          k = 0.1111 0.4491 0.0000 ( 32081 PWs)   bands (ev):

   -87.1837 -87.1783 -87.1760 -87.1724 -87.1685 -87.1669 -86.9974 -86.9928
   -86.9909 -86.9184 -86.9138 -86.9118 -50.7054 -50.6950 -50.6802 -50.6765
   -50.6739 -50.6421 -50.6389 -50.6356 -50.6170 -50.6160 -50.6128 -50.6056
   -50.6019 -50.5960 -50.5932 -50.5925 -50.5913 -50.5746 -50.5167 -50.4920
   -50.4528 -50.4397 -50.4345 -50.4338 -50.4174 -50.4143 -50.4139 -50.4138
   -50.4124 -50.3743 -50.3558 -50.3551 -50.3355 -50.3330 -50.3289 -50.3272
   -13.7547 -13.4117 -13.2621 -12.4906 -12.1463 -12.0051 -11.2590 -10.9134
   -10.7802  -9.5220  -9.1737  -9.0543  -7.0768  -6.7241  -6.6225  -5.4487
    -5.0952  -4.9970  -4.3976  -4.2122  -4.0426  -3.9496  -3.8586  -3.7607
    -2.9994  -2.6432  -2.5541  -2.1720  -1.5738  -1.4195  -1.3378  -1.3069
    -1.2279  -1.1805  -1.1286  -1.0620  -0.9752  -0.9381  -0.9163  -0.9000
    -0.8741  -0.8442  -0.7953  -0.7712  -0.7357  -0.7084  -0.6985  -0.6865
    -0.5602  -0.5277  -0.5182  -0.3719  -0.3472  -0.3250  -0.1704  -0.1629
    -0.1438  -0.0748  -0.0328  -0.0113   0.0949   0.1293   0.2145   0.2547
     0.2860   0.2951   0.3258   0.3808   0.4086   0.4218   0.4574   0.5745
     0.5860   0.6145   0.6318   0.7675   0.7886   0.8048   0.8453   0.8565
     0.8689   0.9925   1.0003   1.0075   1.1302   1.1763   1.2020   1.3038
     1.3426   1.3533   1.4138   1.4691   1.5045   1.5651   1.5924   1.7386
     1.7839   1.8161   1.8173   1.8596   1.8641   1.9162   1.9352   1.9723
     1.9807   2.0256   2.1261   2.6749   2.9635   3.0864   3.4266   3.5477
     3.6457   4.4915   5.2288   5.2472   5.7045   6.1893   6.4887   6.5462
     6.8238   7.4698   7.6534   7.7268   8.1743   8.5295   8.8382   9.2842
     9.8630   9.8962   9.9122  10.0556  10.2801  10.3284  10.6743  10.7133
    10.7954  11.1297  11.6200  11.8656  11.9099  12.0883  12.1118  12.1885
    12.4089  12.5089

          k = 0.1111-0.5774 0.0000 ( 32048 PWs)   bands (ev):

   -87.1811 -87.1808 -87.1762 -87.1703 -87.1703 -87.1670 -86.9951 -86.9949
   -86.9910 -86.9161 -86.9158 -86.9120 -50.7073 -50.6970 -50.6737 -50.6736
   -50.6593 -50.6592 -50.6361 -50.6346 -50.6345 -50.6106 -50.6078 -50.6023
   -50.6021 -50.5976 -50.5974 -50.5883 -50.5836 -50.5835 -50.5185 -50.4748
   -50.4743 -50.4416 -50.4297 -50.4237 -50.4228 -50.4156 -50.4154 -50.4126
   -50.3965 -50.3962 -50.3510 -50.3449 -50.3445 -50.3310 -50.3307 -50.3274
   -13.1909 -13.1886 -12.8463 -12.8461 -12.7004 -12.7004 -11.3265 -10.9810
   -10.8473  -9.5727  -9.2246  -9.1037  -6.6298  -6.2745  -6.1833  -5.0182
    -4.8995  -4.6621  -4.5737  -4.5423  -4.4559  -3.4110  -3.0535  -2.9683
    -2.7897  -2.7860  -2.4326  -2.4325  -2.3403  -2.3403  -1.5141  -1.5089
    -1.3830  -1.3025  -1.2196  -1.0282  -1.0274  -0.9801  -0.9188  -0.9159
    -0.8309  -0.8297  -0.8208  -0.7787  -0.7785  -0.6180  -0.6172  -0.5488
    -0.5335  -0.5332  -0.3573  -0.3555  -0.2761  -0.2754  -0.2596  -0.2596
    -0.1757  -0.1757  -0.1461  -0.1444  -0.0526  -0.0517  -0.0321   0.0707
     0.0772   0.0781   0.2691   0.3368   0.3374   0.3599   0.3648   0.5226
     0.5234   0.6174   0.6830   0.6836   0.7995   0.8040   0.8332   0.8830
     0.9388   0.9402   1.0779   1.0808   1.1134   1.2363   1.2380   1.3049
     1.4484   1.5105   1.5126   1.5626   1.5637   1.6336   1.6861   1.6872
     1.8205   1.8503   1.8720   1.8723   1.9020   1.9523   2.0016   2.0022
     2.0044   2.1121   2.1888   2.5240   2.5258   2.6738   3.1037   3.6092
     4.1841   4.1870   4.2314   5.0019   6.2172   6.2445   6.4976   6.5073
     6.6015   6.8811   7.4669   8.3517   8.7050   8.8020   8.8123   8.9690
     9.2252   9.8294  10.6086  10.6594  10.6595  11.0253  11.0263  11.4471
    11.4545  11.5599  11.5634  11.7493  11.7507  11.8925  11.8938  11.9701
    12.0829  12.0837

          k = 0.1111-0.4491 0.0000 ( 32081 PWs)   bands (ev):

   -87.1837 -87.1783 -87.1760 -87.1724 -87.1685 -87.1669 -86.9974 -86.9928
   -86.9909 -86.9184 -86.9138 -86.9118 -50.7054 -50.6951 -50.6801 -50.6765
   -50.6739 -50.6420 -50.6390 -50.6356 -50.6170 -50.6161 -50.6127 -50.6056
   -50.6022 -50.5961 -50.5933 -50.5924 -50.5913 -50.5744 -50.5167 -50.4920
   -50.4529 -50.4398 -50.4345 -50.4338 -50.4174 -50.4141 -50.4139 -50.4137
   -50.4124 -50.3745 -50.3561 -50.3551 -50.3352 -50.3330 -50.3288 -50.3272
   -13.7547 -13.4117 -13.2621 -12.4906 -12.1463 -12.0051 -11.2590 -10.9134
   -10.7802  -9.5220  -9.1737  -9.0543  -7.0768  -6.7241  -6.6225  -5.4487
    -5.0952  -4.9970  -4.3976  -4.2122  -4.0426  -3.9496  -3.8586  -3.7607
    -2.9994  -2.6432  -2.5541  -2.1720  -1.5738  -1.4195  -1.3373  -1.3068
    -1.2281  -1.1806  -1.1286  -1.0620  -0.9752  -0.9387  -0.9156  -0.8997
    -0.8734  -0.8450  -0.7951  -0.7712  -0.7358  -0.7083  -0.6976  -0.6865
    -0.5598  -0.5281  -0.5160  -0.3733  -0.3490  -0.3267  -0.1713  -0.1627
    -0.1441  -0.0776  -0.0326  -0.0116   0.0969   0.1302   0.2145   0.2541
     0.2849   0.2916   0.3258   0.3791   0.4086   0.4216   0.4585   0.5798
     0.5887   0.6177   0.6335   0.7634   0.7875   0.8072   0.8486   0.8547
     0.8698   0.9930   0.9994   1.0066   1.1292   1.1731   1.2024   1.3029
     1.3460   1.3533   1.4145   1.4699   1.5008   1.5672   1.5931   1.7359
     1.7835   1.8163   1.8190   1.8611   1.8677   1.9154   1.9328   1.9727
     1.9796   2.0257   2.1224   2.6749   2.9635   3.0864   3.4263   3.5477
     3.6460   4.4916   5.2300   5.2472   5.7059   6.1893   6.4889   6.5462
     6.8238   7.4691   7.6537   7.7286   8.1743   8.5295   8.8382   9.2841
     9.8615   9.8962   9.9114  10.0544  10.2801  10.3284  10.6743  10.7133
    10.7954  11.1297  11.6200  11.8660  11.9098  12.0882  12.1101  12.1886
    12.4101  12.5067

          k = 0.1111-0.3208 0.0000 ( 32047 PWs)   bands (ev):

   -87.1863 -87.1762 -87.1755 -87.1743 -87.1670 -87.1665 -86.9996 -86.9910
   -86.9904 -86.9206 -86.9120 -86.9114 -50.6998 -50.6898 -50.6893 -50.6820
   -50.6814 -50.6425 -50.6363 -50.6273 -50.6236 -50.6200 -50.6097 -50.6065
   -50.6019 -50.6004 -50.5959 -50.5906 -50.5843 -50.5673 -50.5117 -50.5023
   -50.4470 -50.4450 -50.4345 -50.4310 -50.4246 -50.4190 -50.4125 -50.4120
   -50.4067 -50.3687 -50.3664 -50.3525 -50.3351 -50.3280 -50.3273 -50.3267
   -14.1813 -13.8386 -13.6863 -11.6646 -11.3194 -11.1836 -11.0581 -10.7122
   -10.5804  -9.3991  -9.0493  -8.9371  -7.8005  -7.4478  -7.3454  -6.2104
    -5.8587  -5.7536  -5.6235  -5.2715  -5.1676  -3.4952  -3.1399  -3.0480
    -2.6805  -2.3229  -2.0758  -1.9664  -1.8786  -1.7868  -1.5331  -1.2727
    -1.1759  -1.1422  -1.0908  -1.0646  -1.0345  -1.0234  -0.9885  -0.9002
    -0.8619  -0.8228  -0.7010  -0.6930  -0.5515  -0.5154  -0.4557  -0.3790
    -0.3320  -0.2482  -0.2080  -0.1928  -0.1761  -0.0848  -0.0269   0.1089
     0.1537   0.1679   0.2370   0.2418   0.2559   0.3036   0.3052   0.3188
     0.4092   0.4421   0.4687   0.5228   0.5456   0.5535   0.5692   0.5851
     0.6094   0.7530   0.7611   0.8313   0.8691   0.9160   0.9286   0.9556
     0.9781   1.0102   1.0491   1.0669   1.0859   1.1939   1.2048   1.2752
     1.3322   1.3453   1.3538   1.4318   1.4368   1.4981   1.5364   1.5947
     1.5967   1.6593   1.6812   1.8540   1.8610   1.9014   1.9448   1.9664
     2.0695   2.0836   2.1233   2.6423   2.8643   3.0045   3.3637   4.2725
     5.0667   5.0685   5.0890   5.8588   6.1134   6.4755   6.5536   6.7217
     6.7846   7.1127   7.7126   8.0827   8.1778   8.4153   8.4714   8.6859
     8.8702   9.2681   9.3187   9.4836   9.7161  10.1319  10.2278  10.3632
    10.6132  11.0004  11.0620  11.3730  11.6610  11.6784  12.2116  12.4278
    12.5366  12.6548

          k = 0.1111-0.1925 0.0000 ( 31991 PWs)   bands (ev):

   -87.1882 -87.1758 -87.1750 -87.1747 -87.1661 -87.1660 -87.0012 -86.9899
   -86.9898 -86.9223 -86.9110 -86.9107 -50.6916 -50.6915 -50.6868 -50.6823
   -50.6822 -50.6480 -50.6477 -50.6321 -50.6319 -50.6160 -50.6159 -50.6090
   -50.6051 -50.6050 -50.5862 -50.5797 -50.5747 -50.5628 -50.5045 -50.5041
   -50.4601 -50.4598 -50.4269 -50.4267 -50.4207 -50.4131 -50.4116 -50.4114
   -50.4019 -50.3817 -50.3815 -50.3370 -50.3344 -50.3263 -50.3260 -50.3231
   -14.4669 -14.1245 -13.9702 -10.7299 -10.7284 -10.3828 -10.3827 -10.2537
   -10.2537  -9.3879  -9.0355  -8.9371  -8.2649  -7.9086  -7.8182  -6.9663
    -6.9662  -6.6156  -6.6155  -6.5065  -6.5065  -3.0246  -2.6162  -2.4193
    -2.2600  -2.1716  -2.1705  -1.8126  -1.8107  -1.6014  -1.4545  -1.4545
    -1.3691  -1.3691  -1.3329  -1.1117  -0.9872  -0.9862  -0.9410  -0.8303
    -0.8295  -0.7328  -0.7324  -0.5116  -0.5108  -0.3775  -0.3762  -0.3092
    -0.3078  -0.1921  -0.1912  -0.0794   0.0189   0.0706   0.1603   0.1640
     0.2941   0.2993   0.3040   0.3243   0.3269   0.3478   0.3891   0.3976
     0.4394   0.5443   0.5511   0.5575   0.6334   0.7275   0.8010   0.8110
     0.8218   0.9274   0.9344   1.0358   1.0414   1.0717   1.0836   1.0857
     1.0970   1.1679   1.1905   1.1980   1.2891   1.3166   1.3233   1.3706
     1.3729   1.3899   1.4531   1.5339   1.5520   1.5538   1.5632   1.6422
     1.7150   1.7320   1.8744   1.8773   1.9015   1.9124   1.9319   2.0349
     2.0381   2.3292   2.3304   2.4221   2.4862   2.8141   3.1097   4.5742
     5.8188   5.8279   6.0359   6.1097   6.4866   6.6626   6.6672   6.7527
     7.1329   7.1610   7.5335   7.5395   7.9551   7.9605   8.0348   8.0491
     8.8518   8.8550   8.9326   9.3381   9.8486   9.8908   9.8959  10.2755
    10.5181  10.5229  11.0089  11.3187  11.4238  11.4257  11.5657  11.5683
    12.0582  12.0615

          k = 0.2222-0.1283 0.0000 ( 32017 PWs)   bands (ev):

   -87.1877 -87.1755 -87.1753 -87.1748 -87.1664 -87.1660 -87.0008 -86.9904
   -86.9898 -86.9218 -86.9114 -86.9108 -50.6981 -50.6876 -50.6872 -50.6855
   -50.6795 -50.6486 -50.6404 -50.6326 -50.6272 -50.6179 -50.6112 -50.6107
   -50.6060 -50.6028 -50.5884 -50.5834 -50.5769 -50.5644 -50.5103 -50.5005
   -50.4578 -50.4540 -50.4328 -50.4231 -50.4206 -50.4171 -50.4119 -50.4115
   -50.4035 -50.3792 -50.3758 -50.3393 -50.3361 -50.3267 -50.3261 -50.3246
   -14.3954 -14.0529 -13.8991 -11.2587 -10.9131 -10.7800 -10.0960 -10.0905
    -9.7457  -9.7456  -9.6226  -9.6226  -7.4695  -7.4649  -7.1164  -7.1163
    -7.0077  -7.0077  -6.3413  -5.9901  -5.8830  -2.9382  -2.5441  -2.5410
    -2.3325  -2.1863  -2.1863  -2.0980  -2.0980  -2.0679  -1.5184  -1.4538
    -1.2488  -1.0962  -1.0922  -1.0375  -1.0119  -0.9279  -0.9064  -0.8956
    -0.8705  -0.8490  -0.6530  -0.5962  -0.4352  -0.4344  -0.3858  -0.3093
    -0.2710  -0.2595  -0.2066  -0.1272  -0.0189   0.0479   0.1070   0.1819
     0.2656   0.2729   0.3223   0.3420   0.3506   0.3808   0.4119   0.4257
     0.4453   0.4896   0.5266   0.5595   0.5727   0.6336   0.6789   0.7573
     0.7710   0.8034   0.8183   0.8863   0.9348   0.9677   0.9955   1.0408
     1.1003   1.1223   1.1882   1.1994   1.2270   1.2452   1.2788   1.3533
     1.3571   1.3750   1.4349   1.4962   1.5362   1.5903   1.5955   1.6395
     1.7859   1.7965   1.8489   1.8790   1.9038   1.9478   1.9941   2.0035
     2.0723   2.0821   2.3847   2.3999   2.5510   2.8389   2.8399   4.7066
     5.0052   5.8535   6.2365   6.4527   6.5635   6.5707   6.9288   6.9542
     6.9753   7.2954   7.3221   7.3251   7.4977   7.8260   7.9386   8.1958
     8.6303   9.0291   9.3507   9.4313   9.4329   9.9435  10.1137  10.3592
    10.8111  10.8802  11.0632  11.0999  11.4032  11.5708  11.8053  11.8484
    12.1446  12.1840

          k = 0.2222 0.0000 0.0000 ( 31991 PWs)   bands (ev):

   -87.1882 -87.1758 -87.1750 -87.1747 -87.1661 -87.1660 -87.0012 -86.9899
   -86.9898 -86.9223 -86.9110 -86.9107 -50.6917 -50.6914 -50.6868 -50.6823
   -50.6821 -50.6479 -50.6477 -50.6323 -50.6321 -50.6158 -50.6157 -50.6090
   -50.6053 -50.6049 -50.5862 -50.5797 -50.5745 -50.5629 -50.5046 -50.5040
   -50.4603 -50.4596 -50.4270 -50.4267 -50.4207 -50.4129 -50.4116 -50.4114
   -50.4021 -50.3818 -50.3814 -50.3369 -50.3343 -50.3263 -50.3260 -50.3233
   -14.4669 -14.1245 -13.9702 -10.7309 -10.7274 -10.3828 -10.3827 -10.2537
   -10.2537  -9.3879  -9.0355  -8.9371  -8.2649  -7.9086  -7.8182  -6.9663
    -6.9662  -6.6156  -6.6155  -6.5065  -6.5065  -3.0245  -2.6162  -2.4194
    -2.2600  -2.1716  -2.1705  -1.8140  -1.8094  -1.6014  -1.4546  -1.4545
    -1.3691  -1.3691  -1.3327  -1.1123  -0.9879  -0.9864  -0.9418  -0.8290
    -0.8285  -0.7327  -0.7324  -0.5135  -0.5121  -0.3769  -0.3755  -0.3088
    -0.3077  -0.1915  -0.1904  -0.0776   0.0189   0.0706   0.1588   0.1662
     0.2938   0.2992   0.3039   0.3268   0.3282   0.3505   0.3922   0.3963
     0.4353   0.5446   0.5452   0.5537   0.6345   0.7274   0.8048   0.8092
     0.8221   0.9282   0.9332   1.0382   1.0408   1.0702   1.0835   1.0891
     1.0966   1.1679   1.1883   1.1974   1.2863   1.3095   1.3318   1.3686
     1.3729   1.3905   1.4531   1.5339   1.5495   1.5577   1.5586   1.6451
     1.7157   1.7325   1.8722   1.8777   1.9030   1.9054   1.9389   2.0324
     2.0433   2.3281   2.3318   2.4224   2.4859   2.8140   3.1097   4.5735
     5.8173   5.8294   6.0345   6.1107   6.4865   6.6628   6.6678   6.7531
     7.1200   7.1725   7.5316   7.5418   7.9544   7.9613   8.0330   8.0482
     8.8486   8.8545   8.9326   9.3381   9.8486   9.8918   9.9008  10.2756
    10.5190  10.5253  11.0089  11.3188  11.4204  11.4254  11.5661  11.5684
    12.0566  12.0631

          k = 0.2222 0.1283 0.0000 ( 32017 PWs)   bands (ev):

   -87.1877 -87.1755 -87.1753 -87.1748 -87.1664 -87.1660 -87.0008 -86.9904
   -86.9898 -86.9218 -86.9114 -86.9108 -50.6983 -50.6877 -50.6871 -50.6855
   -50.6793 -50.6488 -50.6402 -50.6330 -50.6271 -50.6177 -50.6111 -50.6105
   -50.6058 -50.6032 -50.5885 -50.5832 -50.5767 -50.5647 -50.5103 -50.5005
   -50.4578 -50.4540 -50.4331 -50.4228 -50.4206 -50.4171 -50.4119 -50.4115
   -50.4035 -50.3795 -50.3754 -50.3390 -50.3361 -50.3266 -50.3262 -50.3250
   -14.3954 -14.0529 -13.8991 -11.2587 -10.9131 -10.7800 -10.0960 -10.0905
    -9.7457  -9.7456  -9.6226  -9.6226  -7.4695  -7.4649  -7.1164  -7.1163
    -7.0077  -7.0077  -6.3413  -5.9901  -5.8830  -2.9382  -2.5441  -2.5410
    -2.3325  -2.1863  -2.1863  -2.0980  -2.0980  -2.0681  -1.5185  -1.4538
    -1.2488  -1.0962  -1.0932  -1.0381  -1.0119  -0.9275  -0.9060  -0.8953
    -0.8716  -0.8468  -0.6529  -0.5950  -0.4361  -0.4346  -0.3867  -0.3083
    -0.2712  -0.2600  -0.2061  -0.1256  -0.0192   0.0488   0.1038   0.1827
     0.2657   0.2738   0.3216   0.3394   0.3507   0.3851   0.4094   0.4279
     0.4443   0.4937   0.5206   0.5565   0.5760   0.6380   0.6775   0.7603
     0.7678   0.8034   0.8180   0.8863   0.9338   0.9650   0.9954   1.0433
     1.0987   1.1212   1.1882   1.2006   1.2201   1.2492   1.2793   1.3533
     1.3551   1.3756   1.4349   1.4969   1.5366   1.5900   1.5942   1.6390
     1.7875   1.7949   1.8488   1.8849   1.9027   1.9456   1.9912   2.0132
     2.0633   2.0898   2.3847   2.3999   2.5499   2.8389   2.8399   4.7054
     5.0056   5.8536   6.2355   6.4535   6.5575   6.5775   6.9308   6.9540
     6.9778   7.2959   7.3226   7.3246   7.4893   7.8258   7.9249   8.1958
     8.6303   9.0291   9.3507   9.4329   9.4438   9.9435  10.1190  10.3593
    10.8107  10.8790  11.0654  11.1000  11.4033  11.5702  11.8056  11.8467
    12.1444  12.3177

          k = 0.2222 0.2566 0.0000 ( 32047 PWs)   bands (ev):

   -87.1863 -87.1762 -87.1755 -87.1743 -87.1670 -87.1665 -86.9996 -86.9910
   -86.9904 -86.9206 -86.9120 -86.9114 -50.6999 -50.6897 -50.6894 -50.6820
   -50.6814 -50.6424 -50.6367 -50.6275 -50.6236 -50.6200 -50.6093 -50.6059
   -50.6020 -50.6009 -50.5958 -50.5903 -50.5843 -50.5676 -50.5118 -50.5022
   -50.4472 -50.4448 -50.4347 -50.4310 -50.4246 -50.4190 -50.4124 -50.4120
   -50.4068 -50.3687 -50.3662 -50.3521 -50.3351 -50.3284 -50.3273 -50.3267
   -14.1813 -13.8386 -13.6863 -11.6646 -11.3194 -11.1836 -11.0581 -10.7122
   -10.5804  -9.3991  -9.0493  -8.9371  -7.8005  -7.4478  -7.3454  -6.2104
    -5.8587  -5.7536  -5.6235  -5.2715  -5.1676  -3.4952  -3.1399  -3.0480
    -2.6805  -2.3228  -2.0759  -1.9664  -1.8786  -1.7870  -1.5332  -1.2727
    -1.1759  -1.1425  -1.0908  -1.0647  -1.0338  -1.0235  -0.9889  -0.8992
    -0.8632  -0.8224  -0.7039  -0.6922  -0.5535  -0.5148  -0.4540  -0.3773
    -0.3299  -0.2447  -0.2088  -0.1942  -0.1747  -0.0838  -0.0272   0.1070
     0.1537   0.1650   0.2370   0.2422   0.2582   0.3045   0.3063   0.3203
     0.4082   0.4457   0.4655   0.5247   0.5477   0.5568   0.5693   0.5811
     0.5999   0.7517   0.7614   0.8302   0.8672   0.9141   0.9286   0.9605
     0.9783   1.0102   1.0503   1.0664   1.0851   1.1938   1.2048   1.2762
     1.3274   1.3434   1.3533   1.4339   1.4369   1.4990   1.5354   1.5958
     1.5981   1.6557   1.6836   1.8533   1.8589   1.9060   1.9434   1.9674
     2.0723   2.0856   2.1238   2.6422   2.8640   3.0045   3.3637   4.2727
     5.0654   5.0677   5.0889   5.8595   6.1137   6.4755   6.5535   6.7217
     6.7829   7.1072   7.7122   8.0825   8.1726   8.4151   8.4714   8.6850
     8.8701   9.2680   9.3187   9.4909   9.7162  10.1370  10.2279  10.3652
    10.6132  10.9981  11.0613  11.3731  11.6612  11.6817  12.2115  12.4499
    12.5366  12.6549

          k = 0.2222 0.3849 0.0000 ( 32067 PWs)   bands (ev):

   -87.1841 -87.1771 -87.1768 -87.1727 -87.1675 -87.1675 -86.9977 -86.9917
   -86.9916 -86.9187 -86.9128 -86.9125 -50.6936 -50.6934 -50.6852 -50.6851
   -50.6774 -50.6394 -50.6390 -50.6373 -50.6170 -50.6169 -50.6121 -50.6031
   -50.6029 -50.5957 -50.5941 -50.5938 -50.5906 -50.5718 -50.5058 -50.5055
   -50.4506 -50.4353 -50.4350 -50.4284 -50.4282 -50.4176 -50.4131 -50.4129
   -50.4116 -50.3719 -50.3566 -50.3564 -50.3334 -50.3331 -50.3280 -50.3277
   -13.8257 -13.4827 -13.3327 -11.9391 -11.9379 -11.5937 -11.5936 -11.4560
   -11.4560  -8.8316  -8.4789  -8.3819  -7.8183  -7.4611  -7.3744  -4.8648
    -4.8644  -4.5113  -4.5113  -4.5027  -4.4123  -4.4123  -4.1481  -4.0539
    -2.2563  -1.9613  -1.9598  -1.6575  -1.6037  -1.6037  -1.5169  -1.5169
    -1.4300  -1.1300  -1.1292  -1.0963  -1.0898  -1.0896  -1.0449  -1.0439
    -0.9731  -0.8720  -0.7478  -0.7416  -0.7397  -0.7374  -0.6541  -0.5659
    -0.5627  -0.5608  -0.4560  -0.4525  -0.3708  -0.1714  -0.1634  -0.1514
    -0.1123  -0.0853   0.0163   0.0251   0.1975   0.1984   0.2409   0.2456
     0.3273   0.3372   0.3408   0.4013   0.4557   0.4764   0.4908   0.5453
     0.5547   0.5591   0.6991   0.7117   0.7171   0.7375   0.8685   0.9022
     1.0315   1.0538   1.0570   1.1018   1.1661   1.1696   1.2026   1.2239
     1.2255   1.3612   1.3875   1.3917   1.4172   1.4191   1.5329   1.5358
     1.6266   1.6330   1.6358   1.7663   1.8568   1.8587   1.9279   1.9286
     1.9315   2.0564   2.0589   3.2187   3.3153   3.5659   3.6162   3.6392
     3.8714   4.3723   4.3776   5.5825   5.7352   5.9078   5.9117   6.1158
     6.1997   7.5740   8.0189   8.0274   9.0921   9.0934   9.4511   9.4514
     9.7883   9.7884   9.8005  10.0464  10.0504  10.1854  10.6578  10.6717
    10.7004  11.0443  11.3535  11.3813  11.8253  12.1021  12.3744  12.3749
    12.6054  12.6333

          k = 0.2222-0.6415 0.0000 ( 32050 PWs)   bands (ev):

   -87.1816 -87.1791 -87.1774 -87.1708 -87.1690 -87.1678 -86.9956 -86.9934
   -86.9920 -86.9166 -86.9144 -86.9130 -50.6961 -50.6876 -50.6806 -50.6755
   -50.6745 -50.6583 -50.6401 -50.6390 -50.6305 -50.6093 -50.6070 -50.6040
   -50.6000 -50.5993 -50.5968 -50.5867 -50.5852 -50.5778 -50.5079 -50.4920
   -50.4724 -50.4306 -50.4279 -50.4259 -50.4180 -50.4159 -50.4145 -50.4141
   -50.4133 -50.3941 -50.3492 -50.3471 -50.3395 -50.3314 -50.3295 -50.3282
   -13.3307 -12.9872 -12.8405 -12.6997 -12.3557 -12.2131 -12.0764 -11.7317
   -11.5931  -8.6679  -8.3173  -8.2084  -7.4187  -7.0639  -6.9703  -5.3189
    -4.9626  -4.8734  -4.2217  -3.8661  -3.7757  -3.5062  -3.1510  -3.0586
    -2.4736  -2.2165  -2.1163  -2.0305  -1.8596  -1.7731  -1.6750  -1.4614
    -1.2754  -1.2296  -1.1953  -1.1240  -1.1161  -1.1039  -1.0797  -1.0737
    -1.0186  -1.0067  -0.9811  -0.9144  -0.8905  -0.8342  -0.8118  -0.7233
    -0.7194  -0.6457  -0.5352  -0.4895  -0.4761  -0.4675  -0.3968  -0.3929
    -0.3108  -0.3045  -0.2374  -0.2198   0.0302   0.0352   0.0625   0.1622
     0.2155   0.2692   0.3108   0.3517   0.3715   0.3723   0.3878   0.4284
     0.4349   0.6920   0.7061   0.7549   0.8300   0.8793   0.9662   0.9873
     1.0297   1.0336   1.1068   1.1126   1.1546   1.2294   1.2536   1.2872
     1.3510   1.4076   1.4409   1.4533   1.4834   1.5804   1.6063   1.6639
     1.6850   1.7149   1.7406   1.7689   1.7868   1.8689   1.9234   1.9389
     1.9482   2.0441   2.1685   2.4013   3.0767   3.1094   3.5763   3.8945
     3.9301   3.9755   4.3300   4.7843   5.3933   5.5247   5.7448   6.0041
     6.2764   7.1023   7.7028   8.5282   9.4623   9.5753   9.8196   9.8760
    10.0805  10.4537  10.4722  10.5236  10.8346  10.8575  11.1344  11.1975
    11.3372  11.3585  11.5737  11.6551  11.8712  11.8968  12.1850  12.2089
    12.2116  12.4150

          k = 0.2222-0.5132 0.0000 ( 32050 PWs)   bands (ev):

   -87.1816 -87.1791 -87.1774 -87.1708 -87.1690 -87.1678 -86.9956 -86.9934
   -86.9920 -86.9166 -86.9144 -86.9130 -50.6961 -50.6876 -50.6805 -50.6755
   -50.6744 -50.6584 -50.6399 -50.6390 -50.6307 -50.6093 -50.6070 -50.6040
   -50.6002 -50.5992 -50.5967 -50.5867 -50.5854 -50.5775 -50.5079 -50.4920
   -50.4724 -50.4306 -50.4279 -50.4259 -50.4179 -50.4159 -50.4144 -50.4139
   -50.4133 -50.3944 -50.3492 -50.3475 -50.3392 -50.3314 -50.3294 -50.3282
   -13.3307 -12.9872 -12.8405 -12.6997 -12.3557 -12.2131 -12.0764 -11.7317
   -11.5931  -8.6679  -8.3173  -8.2084  -7.4187  -7.0639  -6.9703  -5.3189
    -4.9626  -4.8734  -4.2217  -3.8661  -3.7757  -3.5062  -3.1510  -3.0586
    -2.4736  -2.2165  -2.1163  -2.0305  -1.8596  -1.7731  -1.6750  -1.4614
    -1.2753  -1.2297  -1.1945  -1.1250  -1.1162  -1.1039  -1.0806  -1.0736
    -1.0186  -1.0057  -0.9804  -0.9140  -0.8903  -0.8342  -0.8114  -0.7234
    -0.7201  -0.6454  -0.5379  -0.4898  -0.4761  -0.4649  -0.3966  -0.3929
    -0.3114  -0.3059  -0.2375  -0.2200   0.0281   0.0357   0.0606   0.1646
     0.2157   0.2760   0.3105   0.3497   0.3657   0.3702   0.3877   0.4319
     0.4346   0.6886   0.7086   0.7601   0.8316   0.8807   0.9645   0.9896
     1.0289   1.0316   1.1046   1.1116   1.1534   1.2305   1.2536   1.2902
     1.3515   1.4069   1.4395   1.4564   1.4844   1.5806   1.6044   1.6636
     1.6819   1.7140   1.7403   1.7694   1.7913   1.8671   1.9223   1.9393
     1.9479   2.0410   2.1693   2.4013   3.0770   3.1096   3.5763   3.8945
     3.9294   3.9755   4.3300   4.7862   5.3933   5.5250   5.7448   6.0041
     6.2787   7.1007   7.7030   8.5321   9.4619   9.5703   9.8196   9.8759
    10.0805  10.4534  10.4723  10.5240  10.8347  10.8575  11.1344  11.1974
    11.3371  11.3585  11.5739  11.6553  11.8712  11.8944  12.1850  12.2086
    12.2109  12.4155

          k = 0.2222-0.3849 0.0000 ( 32067 PWs)   bands (ev):

   -87.1841 -87.1771 -87.1768 -87.1727 -87.1676 -87.1675 -86.9977 -86.9917
   -86.9916 -86.9187 -86.9128 -86.9125 -50.6935 -50.6934 -50.6852 -50.6851
   -50.6774 -50.6392 -50.6389 -50.6374 -50.6170 -50.6169 -50.6124 -50.6034
   -50.6032 -50.5957 -50.5939 -50.5938 -50.5905 -50.5715 -50.5059 -50.5055
   -50.4506 -50.4353 -50.4350 -50.4283 -50.4281 -50.4176 -50.4131 -50.4129
   -50.4115 -50.3723 -50.3567 -50.3565 -50.3334 -50.3327 -50.3280 -50.3277
   -13.8257 -13.4827 -13.3327 -11.9391 -11.9379 -11.5937 -11.5936 -11.4560
   -11.4560  -8.8316  -8.4789  -8.3819  -7.8183  -7.4611  -7.3744  -4.8648
    -4.8644  -4.5113  -4.5113  -4.5027  -4.4123  -4.4123  -4.1481  -4.0539
    -2.2563  -1.9613  -1.9598  -1.6575  -1.6037  -1.6037  -1.5169  -1.5169
    -1.4294  -1.1299  -1.1293  -1.0963  -1.0907  -1.0902  -1.0446  -1.0437
    -0.9724  -0.8718  -0.7460  -0.7407  -0.7401  -0.7374  -0.6541  -0.5637
    -0.5625  -0.5623  -0.4575  -0.4539  -0.3727  -0.1734  -0.1639  -0.1527
    -0.1118  -0.0865   0.0183   0.0209   0.2032   0.2042   0.2380   0.2456
     0.3273   0.3345   0.3353   0.3988   0.4580   0.4832   0.4849   0.5448
     0.5566   0.5595   0.7022   0.7172   0.7217   0.7373   0.8692   0.8978
     1.0319   1.0523   1.0562   1.0990   1.1666   1.1691   1.2024   1.2227
     1.2255   1.3646   1.3921   1.3928   1.4177   1.4215   1.5317   1.5333
     1.6265   1.6280   1.6351   1.7698   1.8577   1.8605   1.9246   1.9291
     1.9316   2.0530   2.0551   3.2187   3.3154   3.5659   3.6163   3.6389
     3.8714   4.3725   4.3780   5.5847   5.7354   5.9099   5.9137   6.1158
     6.1998   7.5769   8.0200   8.0284   9.0920   9.0934   9.4510   9.4514
     9.7883   9.7884   9.8005  10.0436  10.0469  10.1854  10.6560  10.6686
    10.7003  11.0444  11.3531  11.3807  11.8252  12.1022  12.3742  12.3746
    12.5989  12.6258

          k = 0.2222-0.2566 0.0000 ( 32047 PWs)   bands (ev):

   -87.1863 -87.1762 -87.1755 -87.1743 -87.1670 -87.1665 -86.9996 -86.9910
   -86.9904 -86.9206 -86.9120 -86.9114 -50.6997 -50.6896 -50.6894 -50.6820
   -50.6815 -50.6423 -50.6365 -50.6274 -50.6236 -50.6201 -50.6098 -50.6063
   -50.6020 -50.6004 -50.5958 -50.5907 -50.5842 -50.5673 -50.5118 -50.5022
   -50.4472 -50.4448 -50.4344 -50.4310 -50.4248 -50.4190 -50.4124 -50.4120
   -50.4068 -50.3685 -50.3666 -50.3525 -50.3351 -50.3279 -50.3273 -50.3267
   -14.1813 -13.8386 -13.6863 -11.6646 -11.3194 -11.1836 -11.0581 -10.7122
   -10.5804  -9.3991  -9.0493  -8.9371  -7.8005  -7.4478  -7.3454  -6.2104
    -5.8587  -5.7536  -5.6235  -5.2715  -5.1676  -3.4952  -3.1399  -3.0480
    -2.6805  -2.3228  -2.0759  -1.9664  -1.8786  -1.7867  -1.5332  -1.2727
    -1.1759  -1.1419  -1.0908  -1.0645  -1.0345  -1.0234  -0.9892  -0.9006
    -0.8619  -0.8225  -0.7007  -0.6929  -0.5513  -0.5156  -0.4559  -0.3781
    -0.3324  -0.2482  -0.2077  -0.1932  -0.1765  -0.0848  -0.0274   0.1104
     0.1537   0.1675   0.2370   0.2417   0.2559   0.3034   0.3054   0.3191
     0.4102   0.4419   0.4680   0.5235   0.5447   0.5539   0.5683   0.5855
     0.6090   0.7531   0.7613   0.8320   0.8684   0.9155   0.9286   0.9548
     0.9785   1.0102   1.0490   1.0687   1.0853   1.1942   1.2045   1.2750
     1.3324   1.3455   1.3538   1.4324   1.4358   1.4981   1.5363   1.5941
     1.5984   1.6575   1.6821   1.8540   1.8608   1.9006   1.9436   1.9675
     2.0711   2.0811   2.1237   2.6422   2.8648   3.0045   3.3637   4.2725
     5.0662   5.0688   5.0884   5.8595   6.1137   6.4755   6.5537   6.7217
     6.7847   7.1138   7.7130   8.0830   8.1810   8.4152   8.4714   8.6858
     8.8701   9.2680   9.3187   9.4780   9.7161  10.1314  10.2278  10.3652
    10.6132  10.9967  11.0620  11.3730  11.6611  11.6812  12.2115  12.4220
    12.5366  12.6546

          k = 0.3333-0.1925 0.0000 ( 32055 PWs)   bands (ev):

   -87.1853 -87.1773 -87.1754 -87.1736 -87.1677 -87.1664 -86.9988 -86.9919
   -86.9903 -86.9198 -86.9129 -86.9113 -50.7063 -50.6954 -50.6820 -50.6799
   -50.6753 -50.6445 -50.6335 -50.6256 -50.6247 -50.6171 -50.6092 -50.6057
   -50.6036 -50.5985 -50.5977 -50.5932 -50.5857 -50.5710 -50.5177 -50.4946
   -50.4435 -50.4406 -50.4398 -50.4379 -50.4184 -50.4171 -50.4131 -50.4120
   -50.4100 -50.3647 -50.3614 -50.3597 -50.3344 -50.3311 -50.3281 -50.3266
   -14.0388 -13.6960 -13.5446 -12.1443 -11.7997 -11.6606 -10.3392 -10.3335
    -9.9895  -9.9894  -9.8630  -9.8630  -6.6953  -6.6906  -6.3412  -6.3412
    -6.2363  -6.2363  -4.9461  -4.5935  -4.4920  -3.3343  -3.3307  -2.9770
    -2.9770  -2.8859  -2.8859  -2.5099  -1.9065  -1.6048  -1.2584  -1.1601
    -1.1525  -1.1155  -1.1098  -0.9191  -0.8750  -0.8539  -0.8311  -0.7573
    -0.7519  -0.7131  -0.6915  -0.6732  -0.6610  -0.6191  -0.5200  -0.4566
    -0.3906  -0.3559  -0.3171  -0.2834  -0.2699  -0.2320  -0.1796  -0.1382
    -0.1083  -0.0194   0.0925   0.1069   0.1528   0.1871   0.2575   0.2632
     0.2999   0.3345   0.4020   0.4521   0.5213   0.5314   0.5552   0.6502
     0.6511   0.6606   0.7060   0.7238   0.8110   0.8596   0.8687   0.8934
     0.9135   0.9457   0.9842   1.1074   1.1209   1.1979   1.2623   1.3094
     1.3262   1.3603   1.4330   1.4717   1.5767   1.6432   1.6712   1.7302
     1.7413   1.8408   1.8574   1.8690   1.8955   1.9476   1.9706   1.9807
     2.0412   2.0777   2.2656   2.2985   2.7906   2.7931   3.0696   3.5787
     4.3199   5.2948   5.6551   5.8487   6.2919   6.7763   6.9375   6.9781
     7.1228   7.1735   7.3164   7.3203   7.6525   7.6540   8.0217   9.1571
     9.2591   9.5112   9.6261   9.8199   9.9048  10.0215  10.4173  10.5194
    10.6420  10.7834  11.5521  11.8200  11.8351  11.9772  12.0789  12.2517
    12.3325  12.3829

          k = 0.3333-0.0642 0.0000 ( 32047 PWs)   bands (ev):

   -87.1863 -87.1762 -87.1755 -87.1743 -87.1670 -87.1665 -86.9996 -86.9910
   -86.9904 -86.9206 -86.9120 -86.9114 -50.6997 -50.6896 -50.6894 -50.6820
   -50.6815 -50.6423 -50.6364 -50.6275 -50.6239 -50.6201 -50.6094 -50.6059
   -50.6025 -50.6004 -50.5959 -50.5905 -50.5842 -50.5674 -50.5118 -50.5023
   -50.4471 -50.4448 -50.4344 -50.4309 -50.4249 -50.4190 -50.4124 -50.4120
   -50.4069 -50.3684 -50.3666 -50.3524 -50.3351 -50.3281 -50.3273 -50.3266
   -14.1813 -13.8386 -13.6863 -11.6646 -11.3194 -11.1836 -11.0581 -10.7122
   -10.5804  -9.3991  -9.0493  -8.9371  -7.8005  -7.4478  -7.3454  -6.2104
    -5.8587  -5.7536  -5.6235  -5.2715  -5.1676  -3.4951  -3.1399  -3.0480
    -2.6805  -2.3229  -2.0758  -1.9664  -1.8786  -1.7868  -1.5332  -1.2727
    -1.1759  -1.1419  -1.0908  -1.0640  -1.0338  -1.0239  -0.9899  -0.8997
    -0.8632  -0.8223  -0.7032  -0.6940  -0.5524  -0.5152  -0.4549  -0.3771
    -0.3316  -0.2459  -0.2077  -0.1922  -0.1760  -0.0834  -0.0276   0.1109
     0.1537   0.1664   0.2370   0.2409   0.2570   0.3052   0.3070   0.3233
     0.4101   0.4428   0.4645   0.5236   0.5449   0.5501   0.5690   0.5823
     0.6024   0.7539   0.7609   0.8329   0.8693   0.9148   0.9286   0.9574
     0.9785   1.0102   1.0502   1.0701   1.0841   1.1968   1.2043   1.2773
     1.3284   1.3407   1.3523   1.4329   1.4369   1.4986   1.5374   1.5936
     1.5953   1.6593   1.6828   1.8508   1.8626   1.9026   1.9438   1.9678
     2.0725   2.0812   2.1248   2.6421   2.8654   3.0045   3.3637   4.2724
     5.0658   5.0681   5.0887   5.8593   6.1140   6.4755   6.5518   6.7217
     6.7840   7.1139   7.7125   8.0826   8.1814   8.4151   8.4716   8.6850
     8.8700   9.2680   9.3187   9.4781   9.7161  10.1316  10.2278  10.3675
    10.6132  10.9964  11.0666  11.3730  11.6611  11.6783  12.2116  12.4210
    12.5366  12.6550

          k = 0.3333 0.0642 0.0000 ( 32047 PWs)   bands (ev):

   -87.1863 -87.1762 -87.1755 -87.1743 -87.1670 -87.1665 -86.9996 -86.9910
   -86.9904 -86.9206 -86.9120 -86.9114 -50.6998 -50.6897 -50.6893 -50.6820
   -50.6814 -50.6424 -50.6365 -50.6276 -50.6237 -50.6201 -50.6094 -50.6060
   -50.6019 -50.6008 -50.5958 -50.5904 -50.5843 -50.5676 -50.5118 -50.5022
   -50.4471 -50.4448 -50.4347 -50.4309 -50.4245 -50.4190 -50.4124 -50.4120
   -50.4069 -50.3688 -50.3662 -50.3522 -50.3351 -50.3282 -50.3272 -50.3267
   -14.1813 -13.8386 -13.6863 -11.6646 -11.3194 -11.1836 -11.0581 -10.7122
   -10.5804  -9.3991  -9.0493  -8.9371  -7.8005  -7.4478  -7.3454  -6.2104
    -5.8587  -5.7536  -5.6235  -5.2715  -5.1676  -3.4951  -3.1399  -3.0480
    -2.6805  -2.3229  -2.0758  -1.9664  -1.8786  -1.7869  -1.5332  -1.2727
    -1.1759  -1.1425  -1.0908  -1.0641  -1.0338  -1.0238  -0.9885  -0.8993
    -0.8636  -0.8227  -0.7035  -0.6924  -0.5541  -0.5143  -0.4544  -0.3771
    -0.3298  -0.2456  -0.2090  -0.1943  -0.1750  -0.0837  -0.0272   0.1064
     0.1537   0.1676   0.2370   0.2416   0.2574   0.3038   0.3058   0.3190
     0.4083   0.4445   0.4672   0.5244   0.5482   0.5556   0.5703   0.5827
     0.6022   0.7517   0.7603   0.8302   0.8677   0.9150   0.9286   0.9602
     0.9790   1.0102   1.0503   1.0660   1.0850   1.1931   1.2052   1.2767
     1.3282   1.3426   1.3532   1.4322   1.4376   1.4986   1.5368   1.5952
     1.5972   1.6575   1.6829   1.8501   1.8623   1.9042   1.9442   1.9678
     2.0704   2.0850   2.1242   2.6421   2.8647   3.0045   3.3637   4.2726
     5.0657   5.0680   5.0890   5.8595   6.1140   6.4755   6.5536   6.7217
     6.7835   7.1074   7.7118   8.0822   8.1736   8.4152   8.4716   8.6853
     8.8700   9.2680   9.3187   9.4908   9.7161  10.1370  10.2278  10.3632
    10.6132  10.9979  11.0616  11.3730  11.6611  11.6791  12.2115  12.4500
    12.5366  12.6546

          k = 0.3333 0.1925 0.0000 ( 32055 PWs)   bands (ev):

   -87.1853 -87.1773 -87.1754 -87.1736 -87.1677 -87.1664 -86.9988 -86.9919
   -86.9903 -86.9198 -86.9129 -86.9113 -50.7064 -50.6955 -50.6819 -50.6799
   -50.6751 -50.6445 -50.6338 -50.6256 -50.6246 -50.6170 -50.6089 -50.6055
   -50.6034 -50.5983 -50.5982 -50.5931 -50.5857 -50.5713 -50.5178 -50.4946
   -50.4435 -50.4409 -50.4397 -50.4379 -50.4184 -50.4168 -50.4131 -50.4120
   -50.4101 -50.3651 -50.3610 -50.3593 -50.3343 -50.3316 -50.3280 -50.3267
   -14.0388 -13.6960 -13.5446 -12.1443 -11.7997 -11.6606 -10.3392 -10.3335
    -9.9895  -9.9894  -9.8630  -9.8630  -6.6953  -6.6906  -6.3412  -6.3412
    -6.2363  -6.2363  -4.9461  -4.5935  -4.4920  -3.3343  -3.3306  -2.9770
    -2.9770  -2.8859  -2.8859  -2.5099  -1.9065  -1.6050  -1.2581  -1.1598
    -1.1530  -1.1155  -1.1098  -0.9195  -0.8739  -0.8522  -0.8301  -0.7573
    -0.7532  -0.7131  -0.6919  -0.6732  -0.6595  -0.6210  -0.5184  -0.4582
    -0.3896  -0.3559  -0.3174  -0.2812  -0.2699  -0.2319  -0.1797  -0.1421
    -0.1063  -0.0199   0.0882   0.1035   0.1529   0.1872   0.2577   0.2628
     0.2988   0.3358   0.4082   0.4517   0.5163   0.5318   0.5567   0.6518
     0.6540   0.6593   0.7084   0.7304   0.8110   0.8534   0.8615   0.8934
     0.9126   0.9501   0.9840   1.1022   1.1231   1.1999   1.2601   1.3109
     1.3235   1.3581   1.4348   1.4740   1.5788   1.6431   1.6731   1.7290
     1.7421   1.8327   1.8626   1.8725   1.8941   1.9494   1.9690   1.9801
     2.0458   2.0786   2.2655   2.2985   2.7906   2.7931   3.0682   3.5789
     4.3202   5.2930   5.6589   5.8487   6.2992   6.7688   6.9368   6.9714
     7.1191   7.1593   7.3167   7.3198   7.6525   7.6540   8.0201   9.1714
     9.2599   9.5112   9.6262   9.8268   9.9049  10.0215  10.4174  10.5160
    10.6438  10.7835  11.5523  11.8351  11.8445  11.9772  12.0788  12.2530
    12.3325  12.3816

          k = 0.3333 0.3208 0.0000 ( 32081 PWs)   bands (ev):

   -87.1837 -87.1783 -87.1760 -87.1724 -87.1685 -87.1669 -86.9974 -86.9928
   -86.9909 -86.9184 -86.9138 -86.9118 -50.7055 -50.6950 -50.6801 -50.6765
   -50.6739 -50.6418 -50.6390 -50.6361 -50.6170 -50.6158 -50.6127 -50.6052
   -50.6020 -50.5960 -50.5936 -50.5923 -50.5914 -50.5747 -50.5168 -50.4919
   -50.4528 -50.4399 -50.4347 -50.4336 -50.4173 -50.4141 -50.4140 -50.4137
   -50.4125 -50.3742 -50.3561 -50.3549 -50.3356 -50.3330 -50.3288 -50.3272
   -13.7547 -13.4117 -13.2621 -12.4906 -12.1463 -12.0051 -11.2590 -10.9134
   -10.7802  -9.5220  -9.1737  -9.0543  -7.0768  -6.7241  -6.6225  -5.4487
    -5.0952  -4.9970  -4.3976  -4.2122  -4.0426  -3.9496  -3.8586  -3.7607
    -2.9993  -2.6432  -2.5541  -2.1720  -1.5739  -1.4195  -1.3377  -1.3064
    -1.2279  -1.1814  -1.1288  -1.0620  -0.9752  -0.9376  -0.9159  -0.8986
    -0.8741  -0.8446  -0.7955  -0.7712  -0.7341  -0.7081  -0.6996  -0.6865
    -0.5622  -0.5264  -0.5172  -0.3711  -0.3482  -0.3252  -0.1702  -0.1632
    -0.1434  -0.0814  -0.0326  -0.0087   0.0926   0.1266   0.2156   0.2520
     0.2850   0.2963   0.3258   0.3824   0.4086   0.4270   0.4561   0.5746
     0.5862   0.6148   0.6353   0.7683   0.7919   0.8021   0.8487   0.8523
     0.8683   0.9893   1.0007   1.0077   1.1257   1.1754   1.2047   1.3032
     1.3433   1.3531   1.4135   1.4685   1.5042   1.5689   1.5951   1.7372
     1.7850   1.8150   1.8181   1.8614   1.8642   1.9151   1.9338   1.9728
     1.9829   2.0250   2.1252   2.6748   2.9636   3.0864   3.4259   3.5477
     3.6456   4.4921   5.2293   5.2493   5.7037   6.1892   6.4812   6.5462
     6.8238   7.4685   7.6482   7.7259   8.1745   8.5295   8.8382   9.2919
     9.8601   9.8962   9.9191  10.0542  10.2801  10.3284  10.6741  10.7108
    10.7954  11.1297  11.6200  11.8648  11.9099  12.1041  12.1216  12.1886
    12.4099  12.5073

          k = 0.3333-0.7057 0.0000 ( 32050 PWs)   bands (ev):

   -87.1816 -87.1791 -87.1774 -87.1708 -87.1690 -87.1678 -86.9956 -86.9934
   -86.9920 -86.9166 -86.9144 -86.9130 -50.6962 -50.6876 -50.6806 -50.6755
   -50.6745 -50.6583 -50.6398 -50.6395 -50.6304 -50.6092 -50.6070 -50.6038
   -50.6002 -50.5993 -50.5968 -50.5866 -50.5854 -50.5778 -50.5080 -50.4919
   -50.4724 -50.4307 -50.4278 -50.4260 -50.4180 -50.4160 -50.4144 -50.4140
   -50.4133 -50.3940 -50.3490 -50.3474 -50.3396 -50.3314 -50.3295 -50.3283
   -13.3307 -12.9872 -12.8405 -12.6997 -12.3557 -12.2131 -12.0764 -11.7317
   -11.5931  -8.6679  -8.3173  -8.2084  -7.4187  -7.0639  -6.9703  -5.3189
    -4.9626  -4.8734  -4.2218  -3.8661  -3.7757  -3.5062  -3.1510  -3.0586
    -2.4736  -2.2165  -2.1163  -2.0305  -1.8596  -1.7731  -1.6751  -1.4614
    -1.2746  -1.2296  -1.1953  -1.1243  -1.1171  -1.1039  -1.0803  -1.0737
    -1.0186  -1.0067  -0.9801  -0.9147  -0.8892  -0.8343  -0.8118  -0.7221
    -0.7202  -0.6459  -0.5368  -0.4889  -0.4761  -0.4673  -0.3962  -0.3929
    -0.3106  -0.3050  -0.2370  -0.2204   0.0260   0.0397   0.0634   0.1586
     0.2150   0.2700   0.3110   0.3491   0.3704   0.3732   0.3873   0.4316
     0.4355   0.6895   0.7127   0.7517   0.8329   0.8773   0.9658   0.9875
     1.0272   1.0344   1.1064   1.1130   1.1521   1.2281   1.2533   1.2895
     1.3531   1.4065   1.4390   1.4557   1.4840   1.5810   1.6065   1.6632
     1.6843   1.7163   1.7411   1.7681   1.7880   1.8677   1.9249   1.9384
     1.9500   2.0433   2.1680   2.4012   3.0762   3.1097   3.5762   3.8950
     3.9297   3.9757   4.3300   4.7858   5.3933   5.5209   5.7448   6.0041
     6.2760   7.1007   7.7026   8.5278   9.4625   9.5714   9.8196   9.8801
    10.0805  10.4579  10.4723  10.5246  10.8346  10.8575  11.1343  11.1953
    11.3372  11.3585  11.5729  11.6550  11.8708  11.8965  12.1854  12.2087
    12.2116  12.4177

          k = 0.3333-0.5774 0.0000 ( 32121 PWs)   bands (ev):

   -87.1797 -87.1792 -87.1792 -87.1693 -87.1692 -87.1692 -86.9938 -86.9936
   -86.9936 -86.9148 -86.9148 -86.9144 -50.6812 -50.6809 -50.6808 -50.6763
   -50.6762 -50.6762 -50.6397 -50.6394 -50.6393 -50.6028 -50.6028 -50.6026
   -50.6017 -50.6015 -50.6014 -50.5818 -50.5817 -50.5816 -50.4925 -50.4923
   -50.4918 -50.4230 -50.4225 -50.4221 -50.4148 -50.4147 -50.4146 -50.4143
   -50.4142 -50.4141 -50.3441 -50.3439 -50.3437 -50.3299 -50.3298 -50.3294
   -12.7708 -12.7700 -12.7682 -12.4258 -12.4257 -12.4256 -12.2826 -12.2826
   -12.2826  -7.9136  -7.9058  -7.5668  -7.5461  -7.4642  -7.4473  -5.7283
    -5.3699  -5.2868  -3.1303  -3.1281  -3.1271  -2.7715  -2.7715  -2.7714
    -2.6857  -2.6857  -2.6857  -1.7283  -1.7275  -1.7261  -1.3691  -1.3691
    -1.3690  -1.2858  -1.2858  -1.2858  -1.2074  -1.2067  -1.2060  -1.1643
    -1.1632  -1.1629  -1.0410  -1.0384  -1.0358  -0.9613  -0.9597  -0.9584
    -0.7928  -0.7918  -0.7899  -0.6242  -0.6235  -0.6215  -0.4470  -0.4441
    -0.4417  -0.3272  -0.3233  -0.3221   0.0698   0.0730   0.0742   0.2562
     0.2604   0.2621   0.3366   0.3394   0.3405   0.3658   0.3677   0.3686
     0.5019   0.5026   0.5070   0.8727   0.8729   0.8763   0.9474   0.9505
     0.9528   1.2455   1.2459   1.2481   1.3061   1.3074   1.3078   1.5101
     1.5108   1.5133   1.5461   1.5464   1.5473   1.6178   1.6181   1.6186
     1.7104   1.7107   1.7113   1.7698   1.7705   1.7709   1.9643   1.9650
     1.9660   2.0011   2.0020   2.0029   2.8018   2.8027   2.8042   4.3593
     4.5505   4.6179   4.6211   4.6356   4.8231   4.9288   5.0318   5.3714
     6.9659   6.9709   6.9726   9.4279   9.4350   9.4390  10.7226  10.7241
    10.7274  11.0693  11.0695  11.0699  11.2356  11.2358  11.2358  11.3008
    11.3011  11.3012  11.4676  11.4740  11.4742  11.8036  11.8293  11.8313
    12.1070  12.1177

          k = 0.3333-0.4491 0.0000 ( 32050 PWs)   bands (ev):

   -87.1816 -87.1791 -87.1774 -87.1708 -87.1690 -87.1678 -86.9956 -86.9934
   -86.9920 -86.9166 -86.9144 -86.9130 -50.6960 -50.6875 -50.6806 -50.6755
   -50.6744 -50.6584 -50.6398 -50.6391 -50.6307 -50.6093 -50.6070 -50.6040
   -50.6003 -50.5992 -50.5967 -50.5868 -50.5853 -50.5775 -50.5080 -50.4919
   -50.4724 -50.4304 -50.4278 -50.4260 -50.4179 -50.4160 -50.4144 -50.4141
   -50.4133 -50.3944 -50.3494 -50.3473 -50.3392 -50.3314 -50.3295 -50.3282
   -13.3307 -12.9872 -12.8405 -12.6997 -12.3557 -12.2131 -12.0764 -11.7317
   -11.5931  -8.6679  -8.3173  -8.2084  -7.4187  -7.0639  -6.9703  -5.3189
    -4.9626  -4.8734  -4.2218  -3.8661  -3.7757  -3.5062  -3.1510  -3.0586
    -2.4736  -2.2165  -2.1163  -2.0305  -1.8596  -1.7731  -1.6751  -1.4614
    -1.2756  -1.2303  -1.1945  -1.1246  -1.1158  -1.1039  -1.0800  -1.0736
    -1.0186  -1.0057  -0.9803  -0.9150  -0.8900  -0.8344  -0.8115  -0.7240
    -0.7200  -0.6455  -0.5373  -0.4900  -0.4761  -0.4649  -0.3965  -0.3929
    -0.3112  -0.3058  -0.2373  -0.2206   0.0290   0.0349   0.0600   0.1665
     0.2157   0.2762   0.3091   0.3499   0.3675   0.3705   0.3878   0.4311
     0.4349   0.6888   0.7088   0.7601   0.8311   0.8805   0.9637   0.9894
     1.0292   1.0321   1.1036   1.1119   1.1534   1.2302   1.2541   1.2894
     1.3520   1.4069   1.4399   1.4559   1.4844   1.5804   1.6047   1.6639
     1.6816   1.7141   1.7405   1.7696   1.7909   1.8678   1.9213   1.9391
     1.9463   2.0419   2.1696   2.4017   3.0761   3.1088   3.5761   3.8956
     3.9297   3.9759   4.3300   4.7867   5.3934   5.5252   5.7448   6.0041
     6.2788   7.1014   7.7036   8.5322   9.4625   9.5721   9.8196   9.8725
    10.0805  10.4527  10.4723  10.5245  10.8347  10.8575  11.1344  11.1940
    11.3372  11.3585  11.5730  11.6554  11.8705  11.8964  12.1849  12.2089
    12.2116  12.4115

          k = 0.3333-0.3208 0.0000 ( 32081 PWs)   bands (ev):

   -87.1837 -87.1783 -87.1760 -87.1724 -87.1685 -87.1669 -86.9974 -86.9928
   -86.9909 -86.9184 -86.9138 -86.9118 -50.7053 -50.6950 -50.6801 -50.6765
   -50.6741 -50.6418 -50.6391 -50.6358 -50.6171 -50.6161 -50.6127 -50.6055
   -50.6023 -50.5961 -50.5931 -50.5925 -50.5913 -50.5743 -50.5168 -50.4919
   -50.4528 -50.4396 -50.4347 -50.4336 -50.4173 -50.4143 -50.4140 -50.4137
   -50.4125 -50.3746 -50.3559 -50.3553 -50.3352 -50.3330 -50.3289 -50.3271
   -13.7547 -13.4117 -13.2621 -12.4906 -12.1463 -12.0051 -11.2590 -10.9134
   -10.7802  -9.5220  -9.1737  -9.0543  -7.0768  -6.7241  -6.6225  -5.4487
    -5.0952  -4.9970  -4.3976  -4.2122  -4.0426  -3.9496  -3.8586  -3.7607
    -2.9993  -2.6432  -2.5541  -2.1720  -1.5739  -1.4195  -1.3372  -1.3071
    -1.2285  -1.1803  -1.1288  -1.0620  -0.9752  -0.9386  -0.9164  -0.8994
    -0.8732  -0.8446  -0.7952  -0.7712  -0.7360  -0.7084  -0.6981  -0.6865
    -0.5598  -0.5284  -0.5157  -0.3726  -0.3484  -0.3269  -0.1714  -0.1630
    -0.1444  -0.0787  -0.0328  -0.0110   0.0996   0.1307   0.2143   0.2551
     0.2842   0.2914   0.3258   0.3794   0.4086   0.4208   0.4598   0.5790
     0.5883   0.6179   0.6337   0.7635   0.7871   0.8080   0.8480   0.8550
     0.8693   0.9929   0.9999   1.0054   1.1295   1.1726   1.2028   1.3029
     1.3458   1.3529   1.4143   1.4703   1.5012   1.5666   1.5940   1.7361
     1.7836   1.8156   1.8174   1.8620   1.8671   1.9158   1.9331   1.9721
     1.9786   2.0253   2.1230   2.6748   2.9636   3.0864   3.4269   3.5477
     3.6454   4.4904   5.2303   5.2490   5.7063   6.1893   6.4903   6.5462
     6.8238   7.4698   7.6577   7.7287   8.1745   8.5295   8.8382   9.2781
     9.8588   9.8962   9.9146  10.0548  10.2801  10.3284  10.6741  10.7095
    10.7953  11.1297  11.6200  11.8651  11.9098  12.0835  12.1097  12.1886
    12.4088  12.5087

          k = 0.4444-0.2566 0.0000 ( 32106 PWs)   bands (ev):

   -87.1826 -87.1797 -87.1757 -87.1715 -87.1695 -87.1667 -86.9964 -86.9940
   -86.9906 -86.9174 -86.9150 -86.9116 -50.7105 -50.6996 -50.6745 -50.6740
   -50.6638 -50.6456 -50.6403 -50.6346 -50.6251 -50.6141 -50.6077 -50.6060
   -50.6008 -50.5971 -50.5946 -50.5904 -50.5900 -50.5799 -50.5216 -50.4805
   -50.4604 -50.4446 -50.4317 -50.4303 -50.4191 -50.4165 -50.4147 -50.4123
   -50.4027 -50.3823 -50.3532 -50.3516 -50.3403 -50.3321 -50.3299 -50.3269
   -13.5423 -13.1990 -13.0509 -12.9090 -12.5651 -12.4212 -10.4659 -10.4602
   -10.1164 -10.1163  -9.9886  -9.9886  -6.0004  -5.9957  -5.6436  -5.6436
    -5.5491  -5.5491  -4.0590  -4.0551  -3.7007  -3.7007  -3.6119  -3.6119
    -3.5031  -3.1488  -3.0531  -2.0671  -1.9214  -1.7110  -1.6205  -1.3950
    -1.3259  -1.3035  -1.2428  -1.1911  -1.1253  -0.9839  -0.8663  -0.8265
    -0.7908  -0.6972  -0.6629  -0.6300  -0.6282  -0.6044  -0.5674  -0.5431
    -0.5267  -0.4652  -0.3948  -0.3754  -0.3046  -0.2911  -0.2896  -0.2209
    -0.1243  -0.0562  -0.0447   0.0256   0.0521   0.0724   0.0865   0.1408
     0.1789   0.2283   0.2337   0.2599   0.2735   0.3168   0.3575   0.3592
     0.4651   0.5552   0.6000   0.6297   0.7137   0.7973   0.8387   0.8831
     0.9092   1.0692   1.0785   1.1382   1.1467   1.2861   1.3855   1.4297
     1.4644   1.5132   1.5271   1.5732   1.6795   1.7044   1.7403   1.7675
     1.8019   1.8161   1.8315   1.8996   1.9200   1.9577   2.0272   2.1385
     2.1427   2.1923   2.2013   2.2424   2.4501   2.7517   2.7556   3.0372
     3.7304   4.6384   5.1207   5.9192   6.0189   6.4491   6.6759   6.8971
     7.2196   7.2263   7.5710   7.5723   7.8557   7.8562   8.1628   9.0508
     9.3069   9.6699  10.1831  10.4218  10.5627  10.7841  11.0203  11.0794
    11.1609  11.3858  11.4058  11.4675  11.6130  11.9365  12.1287  12.1361
    12.2894  12.2922

          k = 0.4444-0.1283 0.0000 ( 32081 PWs)   bands (ev):

   -87.1837 -87.1783 -87.1760 -87.1724 -87.1685 -87.1669 -86.9974 -86.9928
   -86.9909 -86.9184 -86.9138 -86.9118 -50.7053 -50.6950 -50.6802 -50.6765
   -50.6741 -50.6420 -50.6391 -50.6357 -50.6171 -50.6160 -50.6128 -50.6054
   -50.6020 -50.5960 -50.5931 -50.5926 -50.5913 -50.5744 -50.5168 -50.4919
   -50.4527 -50.4396 -50.4346 -50.4335 -50.4173 -50.4143 -50.4141 -50.4137
   -50.4125 -50.3745 -50.3557 -50.3553 -50.3353 -50.3329 -50.3289 -50.3271
   -13.7547 -13.4117 -13.2621 -12.4906 -12.1463 -12.0051 -11.2590 -10.9134
   -10.7802  -9.5220  -9.1737  -9.0543  -7.0768  -6.7241  -6.6225  -5.4487
    -5.0952  -4.9970  -4.3976  -4.2122  -4.0426  -3.9496  -3.8586  -3.7607
    -2.9994  -2.6432  -2.5541  -2.1720  -1.5739  -1.4195  -1.3372  -1.3071
    -1.2282  -1.1804  -1.1288  -1.0620  -0.9752  -0.9384  -0.9165  -0.8998
    -0.8730  -0.8442  -0.7955  -0.7712  -0.7359  -0.7083  -0.6997  -0.6865
    -0.5606  -0.5280  -0.5185  -0.3706  -0.3461  -0.3257  -0.1705  -0.1633
    -0.1442  -0.0769  -0.0328  -0.0119   0.0986   0.1296   0.2149   0.2576
     0.2853   0.2956   0.3258   0.3791   0.4086   0.4200   0.4578   0.5753
     0.5869   0.6163   0.6302   0.7682   0.7879   0.8059   0.8449   0.8568
     0.8691   0.9929   1.0003   1.0062   1.1307   1.1753   1.2023   1.3040
     1.3418   1.3527   1.4134   1.4695   1.5048   1.5647   1.5938   1.7379
     1.7838   1.8143   1.8169   1.8612   1.8651   1.9162   1.9342   1.9715
     1.9791   2.0260   2.1252   2.6747   2.9635   3.0863   3.4277   3.5477
     3.6456   4.4904   5.2291   5.2489   5.7051   6.1896   6.4903   6.5463
     6.8238   7.4700   7.6576   7.7277   8.1744   8.5295   8.8382   9.2781
     9.8621   9.8962   9.9122  10.0561  10.2800  10.3284  10.6740  10.7096
    10.7953  11.1297  11.6201  11.8657  11.9097  12.0831  12.1101  12.1886
    12.4100  12.5071

          k = 0.4444 0.0000 0.0000 ( 32067 PWs)   bands (ev):

   -87.1841 -87.1771 -87.1768 -87.1727 -87.1675 -87.1675 -86.9977 -86.9917
   -86.9916 -86.9187 -86.9128 -86.9125 -50.6936 -50.6934 -50.6852 -50.6851
   -50.6774 -50.6393 -50.6390 -50.6374 -50.6171 -50.6170 -50.6122 -50.6031
   -50.6030 -50.5957 -50.5941 -50.5937 -50.5905 -50.5717 -50.5060 -50.5054
   -50.4505 -50.4354 -50.4347 -50.4284 -50.4281 -50.4176 -50.4131 -50.4129
   -50.4117 -50.3721 -50.3568 -50.3563 -50.3335 -50.3328 -50.3280 -50.3277
   -13.8257 -13.4827 -13.3327 -11.9398 -11.9372 -11.5937 -11.5936 -11.4560
   -11.4560  -8.8316  -8.4789  -8.3819  -7.8183  -7.4611  -7.3744  -4.8651
    -4.8640  -4.5113  -4.5112  -4.5027  -4.4123  -4.4123  -4.1481  -4.0539
    -2.2563  -1.9624  -1.9587  -1.6575  -1.6038  -1.6037  -1.5169  -1.5169
    -1.4294  -1.1301  -1.1290  -1.0962  -1.0902  -1.0897  -1.0453  -1.0439
    -0.9721  -0.8721  -0.7485  -0.7416  -0.7399  -0.7374  -0.6541  -0.5661
    -0.5631  -0.5601  -0.4551  -0.4541  -0.3702  -0.1710  -0.1656  -0.1519
    -0.1118  -0.0857   0.0141   0.0254   0.1999   0.2016   0.2405   0.2456
     0.3273   0.3353   0.3393   0.4019   0.4572   0.4781   0.4897   0.5431
     0.5558   0.5595   0.7004   0.7129   0.7175   0.7371   0.8687   0.9014
     1.0318   1.0540   1.0577   1.1012   1.1664   1.1692   1.2020   1.2221
     1.2271   1.3618   1.3866   1.3907   1.4179   1.4202   1.5328   1.5349
     1.6275   1.6325   1.6368   1.7657   1.8558   1.8597   1.9264   1.9289
     1.9327   2.0539   2.0582   3.2186   3.3162   3.5659   3.6161   3.6389
     3.8714   4.3726   4.3782   5.5824   5.7363   5.9067   5.9133   6.1158
     6.1998   7.5750   8.0152   8.0320   9.0913   9.0941   9.4509   9.4516
     9.7882   9.7885   9.8005  10.0436  10.0504  10.1853  10.6571  10.6725
    10.7003  11.0444  11.3522  11.3793  11.8252  12.1022  12.3743  12.3749
    12.6028  12.6324

          k = 0.4444 0.1283 0.0000 ( 32081 PWs)   bands (ev):

   -87.1837 -87.1783 -87.1760 -87.1724 -87.1685 -87.1669 -86.9974 -86.9928
   -86.9909 -86.9184 -86.9138 -86.9118 -50.7055 -50.6951 -50.6801 -50.6765
   -50.6740 -50.6418 -50.6390 -50.6361 -50.6170 -50.6158 -50.6128 -50.6053
   -50.6020 -50.5960 -50.5937 -50.5923 -50.5913 -50.5746 -50.5168 -50.4919
   -50.4527 -50.4399 -50.4347 -50.4335 -50.4173 -50.4142 -50.4140 -50.4137
   -50.4125 -50.3743 -50.3562 -50.3549 -50.3354 -50.3330 -50.3288 -50.3272
   -13.7547 -13.4117 -13.2621 -12.4906 -12.1463 -12.0051 -11.2590 -10.9134
   -10.7802  -9.5220  -9.1737  -9.0543  -7.0768  -6.7241  -6.6225  -5.4487
    -5.0952  -4.9970  -4.3976  -4.2122  -4.0426  -3.9496  -3.8586  -3.7607
    -2.9994  -2.6432  -2.5541  -2.1720  -1.5739  -1.4195  -1.3373  -1.3063
    -1.2279  -1.1815  -1.1288  -1.0620  -0.9752  -0.9381  -0.9153  -0.8987
    -0.8732  -0.8449  -0.7956  -0.7712  -0.7340  -0.7080  -0.7003  -0.6865
    -0.5627  -0.5265  -0.5178  -0.3705  -0.3476  -0.3257  -0.1702  -0.1633
    -0.1435  -0.0823  -0.0325  -0.0099   0.0935   0.1263   0.2162   0.2539
     0.2850   0.2970   0.3258   0.3804   0.4086   0.4260   0.4552   0.5764
     0.5875   0.6160   0.6336   0.7689   0.7916   0.8024   0.8490   0.8522
     0.8690   0.9899   1.0003   1.0075   1.1258   1.1749   1.2046   1.3034
     1.3428   1.3529   1.4133   1.4686   1.5042   1.5691   1.5955   1.7364
     1.7848   1.8148   1.8185   1.8624   1.8655   1.9147   1.9325   1.9725
     1.9825   2.0258   2.1236   2.6747   2.9635   3.0863   3.4264   3.5477
     3.6460   4.4922   5.2294   5.2492   5.7039   6.1895   6.4813   6.5463
     6.8238   7.4680   7.6484   7.7267   8.1744   8.5295   8.8382   9.2919
     9.8618   9.8962   9.9160  10.0543  10.2801  10.3284  10.6741  10.7109
    10.7954  11.1297  11.6200  11.8659  11.9099  12.1027  12.1217  12.1886
    12.4088  12.5083

          k = 0.4444 0.2566 0.0000 ( 32106 PWs)   bands (ev):

   -87.1826 -87.1797 -87.1757 -87.1715 -87.1695 -87.1667 -86.9964 -86.9940
   -86.9906 -86.9174 -86.9150 -86.9116 -50.7107 -50.6997 -50.6745 -50.6740
   -50.6637 -50.6455 -50.6402 -50.6350 -50.6249 -50.6140 -50.6074 -50.6060
   -50.6005 -50.5971 -50.5946 -50.5905 -50.5902 -50.5803 -50.5216 -50.4805
   -50.4604 -50.4449 -50.4317 -50.4303 -50.4191 -50.4165 -50.4147 -50.4123
   -50.4024 -50.3820 -50.3529 -50.3519 -50.3406 -50.3321 -50.3299 -50.3271
   -13.5423 -13.1990 -13.0509 -12.9090 -12.5651 -12.4212 -10.4659 -10.4602
   -10.1164 -10.1163  -9.9886  -9.9886  -6.0004  -5.9957  -5.6436  -5.6436
    -5.5491  -5.5491  -4.0590  -4.0550  -3.7007  -3.7007  -3.6119  -3.6119
    -3.5031  -3.1488  -3.0531  -2.0671  -1.9214  -1.7110  -1.6205  -1.3941
    -1.3259  -1.3031  -1.2440  -1.1911  -1.1253  -0.9830  -0.8649  -0.8243
    -0.7897  -0.6974  -0.6633  -0.6302  -0.6291  -0.6044  -0.5653  -0.5433
    -0.5280  -0.4662  -0.3966  -0.3760  -0.3046  -0.2912  -0.2900  -0.2209
    -0.1241  -0.0538  -0.0480   0.0252   0.0426   0.0734   0.0864   0.1403
     0.1795   0.2259   0.2337   0.2613   0.2740   0.3168   0.3555   0.3637
     0.4665   0.5506   0.6046   0.6323   0.7205   0.8012   0.8453   0.8726
     0.8987   1.0698   1.0792   1.1309   1.1489   1.2865   1.3877   1.4289
     1.4669   1.5190   1.5270   1.5728   1.6817   1.7033   1.7385   1.7656
     1.8058   1.8203   1.8311   1.9044   1.9190   1.9560   2.0255   2.1386
     2.1420   2.1920   2.2019   2.2428   2.4499   2.7517   2.7557   3.0374
     3.7289   4.6374   5.1267   5.9285   6.0168   6.4357   6.6531   6.8951
     7.2191   7.2266   7.5710   7.5723   7.8557   7.8562   8.1606   9.0663
     9.3041   9.6780  10.1831  10.4232  10.5628  10.7842  11.0203  11.0795
    11.1609  11.3857  11.4058  11.4675  11.6411  11.9366  12.1288  12.1360
    12.2892  12.2923

          k = 0.4444-0.7698 0.0000 ( 32048 PWs)   bands (ev):

   -87.1811 -87.1808 -87.1762 -87.1704 -87.1703 -87.1670 -86.9951 -86.9949
   -86.9910 -86.9161 -86.9158 -86.9120 -50.7074 -50.6969 -50.6738 -50.6736
   -50.6593 -50.6592 -50.6366 -50.6343 -50.6343 -50.6105 -50.6075 -50.6023
   -50.6021 -50.5976 -50.5975 -50.5882 -50.5838 -50.5837 -50.5186 -50.4747
   -50.4742 -50.4417 -50.4296 -50.4235 -50.4232 -50.4156 -50.4154 -50.4126
   -50.3963 -50.3961 -50.3508 -50.3450 -50.3447 -50.3310 -50.3307 -50.3274
   -13.1902 -13.1893 -12.8462 -12.8462 -12.7004 -12.7004 -11.3265 -10.9810
   -10.8473  -9.5727  -9.2246  -9.1037  -6.6298  -6.2745  -6.1833  -5.0182
    -4.8995  -4.6621  -4.5737  -4.5423  -4.4559  -3.4110  -3.0535  -2.9683
    -2.7886  -2.7871  -2.4325  -2.4325  -2.3403  -2.3403  -1.5126  -1.5104
    -1.3824  -1.3024  -1.2206  -1.0278  -1.0271  -0.9789  -0.9176  -0.9167
    -0.8311  -0.8304  -0.8189  -0.7795  -0.7784  -0.6181  -0.6177  -0.5471
    -0.5351  -0.5347  -0.3549  -0.3548  -0.2763  -0.2755  -0.2596  -0.2596
    -0.1757  -0.1757  -0.1458  -0.1449  -0.0544  -0.0537  -0.0381   0.0659
     0.0801   0.0815   0.2699   0.3381   0.3385   0.3622   0.3629   0.5217
     0.5239   0.6186   0.6840   0.6852   0.7981   0.8000   0.8368   0.8887
     0.9351   0.9369   1.0797   1.0806   1.1091   1.2360   1.2365   1.3028
     1.4471   1.5132   1.5143   1.5658   1.5664   1.6385   1.6846   1.6850
     1.8200   1.8492   1.8741   1.8748   1.9021   1.9516   2.0013   2.0020
     2.0028   2.1124   2.1891   2.5240   2.5252   2.6736   3.1037   3.6092
     4.1847   4.1857   4.2326   5.0040   6.2168   6.2360   6.4958   6.5066
     6.6015   6.8811   7.4616   8.3517   8.7049   8.7998   8.8115   8.9690
     9.2330   9.8355  10.6055  10.6594  10.6595  11.0252  11.0264  11.4496
    11.4521  11.5605  11.5626  11.7496  11.7503  11.8928  11.8933  11.9972
    12.0831  12.0834

          k = 0.4444-0.6415 0.0000 ( 32050 PWs)   bands (ev):

   -87.1816 -87.1791 -87.1774 -87.1708 -87.1690 -87.1678 -86.9955 -86.9934
   -86.9920 -86.9166 -86.9144 -86.9130 -50.6962 -50.6876 -50.6805 -50.6755
   -50.6745 -50.6584 -50.6398 -50.6394 -50.6305 -50.6093 -50.6071 -50.6038
   -50.6002 -50.5992 -50.5968 -50.5866 -50.5855 -50.5777 -50.5080 -50.4919
   -50.4723 -50.4307 -50.4278 -50.4258 -50.4181 -50.4159 -50.4144 -50.4139
   -50.4133 -50.3942 -50.3490 -50.3475 -50.3394 -50.3314 -50.3294 -50.3283
   -13.3307 -12.9872 -12.8405 -12.6997 -12.3557 -12.2131 -12.0764 -11.7317
   -11.5931  -8.6679  -8.3173  -8.2084  -7.4187  -7.0639  -6.9703  -5.3189
    -4.9626  -4.8734  -4.2217  -3.8661  -3.7757  -3.5062  -3.1510  -3.0586
    -2.4736  -2.2164  -2.1163  -2.0305  -1.8596  -1.7731  -1.6751  -1.4614
    -1.2746  -1.2296  -1.1946  -1.1248  -1.1172  -1.1039  -1.0807  -1.0734
    -1.0186  -1.0059  -0.9805  -0.9139  -0.8891  -0.8343  -0.8132  -0.7215
    -0.7208  -0.6460  -0.5372  -0.4889  -0.4761  -0.4663  -0.3963  -0.3929
    -0.3108  -0.3056  -0.2369  -0.2203   0.0249   0.0387   0.0626   0.1597
     0.2151   0.2726   0.3114   0.3487   0.3692   0.3727   0.3871   0.4334
     0.4354   0.6875   0.7132   0.7529   0.8334   0.8773   0.9660   0.9880
     1.0272   1.0340   1.1067   1.1123   1.1520   1.2287   1.2535   1.2895
     1.3528   1.4062   1.4386   1.4560   1.4840   1.5811   1.6068   1.6640
     1.6842   1.7159   1.7409   1.7681   1.7894   1.8665   1.9240   1.9395
     1.9500   2.0418   2.1670   2.4010   3.0771   3.1097   3.5762   3.8950
     3.9302   3.9757   4.3300   4.7857   5.3933   5.5210   5.7448   6.0040
     6.2768   7.1002   7.7027   8.5293   9.4612   9.5707   9.8197   9.8801
    10.0805  10.4573  10.4722  10.5253  10.8346  10.8575  11.1344  11.1952
    11.3371  11.3585  11.5739  11.6552  11.8704  11.8951  12.1854  12.2090
    12.2109  12.4172

          k = 0.4444-0.5132 0.0000 ( 32050 PWs)   bands (ev):

   -87.1816 -87.1791 -87.1774 -87.1708 -87.1690 -87.1678 -86.9955 -86.9934
   -86.9920 -86.9166 -86.9144 -86.9130 -50.6960 -50.6875 -50.6806 -50.6755
   -50.6745 -50.6584 -50.6401 -50.6391 -50.6305 -50.6094 -50.6070 -50.6039
   -50.6001 -50.5992 -50.5968 -50.5868 -50.5852 -50.5777 -50.5079 -50.4920
   -50.4723 -50.4304 -50.4278 -50.4258 -50.4181 -50.4159 -50.4145 -50.4142
   -50.4133 -50.3942 -50.3494 -50.3471 -50.3393 -50.3314 -50.3295 -50.3282
   -13.3307 -12.9872 -12.8405 -12.6997 -12.3557 -12.2131 -12.0764 -11.7317
   -11.5931  -8.6679  -8.3173  -8.2084  -7.4187  -7.0639  -6.9703  -5.3189
    -4.9626  -4.8734  -4.2217  -3.8661  -3.7757  -3.5062  -3.1510  -3.0586
    -2.4736  -2.2164  -2.1163  -2.0305  -1.8596  -1.7731  -1.6751  -1.4614
    -1.2756  -1.2302  -1.1947  -1.1241  -1.1158  -1.1039  -1.0796  -1.0734
    -1.0186  -1.0058  -0.9814  -0.9146  -0.8901  -0.8344  -0.8133  -0.7237
    -0.7196  -0.6459  -0.5351  -0.4898  -0.4761  -0.4664  -0.3967  -0.3929
    -0.3108  -0.3050  -0.2371  -0.2202   0.0303   0.0333   0.0610   0.1653
     0.2156   0.2719   0.3098   0.3513   0.3716   0.3732   0.3876   0.4293
     0.4350   0.6902   0.7067   0.7562   0.8299   0.8791   0.9657   0.9878
     1.0301   1.0335   1.1061   1.1122   1.1545   1.2297   1.2543   1.2862
     1.3511   1.4073   1.4409   1.4530   1.4834   1.5803   1.6069   1.6650
     1.6846   1.7146   1.7405   1.7691   1.7878   1.8684   1.9215   1.9397
     1.9466   2.0434   2.1678   2.4015   3.0767   3.1086   3.5761   3.8957
     3.9309   3.9759   4.3300   4.7847   5.3933   5.5251   5.7448   6.0040
     6.2773   7.1026   7.7034   8.5297   9.4616   9.5764   9.8197   9.8725
    10.0805  10.4524  10.4722  10.5247  10.8345  10.8575  11.1343  11.1941
    11.3372  11.3584  11.5737  11.6552  11.8703  11.8975  12.1849  12.2088
    12.2113  12.4154

          k = 0.4444-0.3849 0.0000 ( 32048 PWs)   bands (ev):

   -87.1811 -87.1808 -87.1762 -87.1704 -87.1703 -87.1670 -86.9951 -86.9949
   -86.9910 -86.9161 -86.9159 -86.9120 -50.7073 -50.6968 -50.6737 -50.6736
   -50.6595 -50.6593 -50.6363 -50.6346 -50.6345 -50.6106 -50.6077 -50.6023
   -50.6020 -50.5977 -50.5975 -50.5884 -50.5835 -50.5834 -50.5185 -50.4747
   -50.4743 -50.4414 -50.4296 -50.4235 -50.4232 -50.4155 -50.4154 -50.4126
   -50.3966 -50.3964 -50.3512 -50.3447 -50.3444 -50.3310 -50.3307 -50.3273
   -13.1902 -13.1893 -12.8462 -12.8462 -12.7004 -12.7004 -11.3265 -10.9810
   -10.8473  -9.5727  -9.2246  -9.1037  -6.6298  -6.2745  -6.1833  -5.0182
    -4.8995  -4.6621  -4.5737  -4.5423  -4.4559  -3.4110  -3.0535  -2.9683
    -2.7886  -2.7871  -2.4325  -2.4325  -2.3403  -2.3403  -1.5127  -1.5104
    -1.3833  -1.3029  -1.2194  -1.0280  -1.0273  -0.9798  -0.9181  -0.9163
    -0.8305  -0.8295  -0.8212  -0.7801  -0.7791  -0.6180  -0.6177  -0.5490
    -0.5338  -0.5332  -0.3562  -0.3545  -0.2764  -0.2752  -0.2596  -0.2596
    -0.1757  -0.1757  -0.1456  -0.1451  -0.0527  -0.0514  -0.0354   0.0759
     0.0776   0.0780   0.2678   0.3379   0.3385   0.3607   0.3650   0.5209
     0.5229   0.6177   0.6835   0.6845   0.7996   0.8028   0.8329   0.8832
     0.9401   0.9405   1.0769   1.0801   1.1137   1.2358   1.2375   1.3040
     1.4482   1.5110   1.5135   1.5630   1.5640   1.6324   1.6855   1.6869
     1.8208   1.8507   1.8700   1.8704   1.9026   1.9524   2.0019   2.0025
     2.0045   2.1125   2.1885   2.5239   2.5255   2.6736   3.1037   3.6092
     4.1855   4.1871   4.2297   5.0039   6.2170   6.2461   6.4978   6.5084
     6.6017   6.8811   7.4709   8.3517   8.7050   8.8022   8.8142   8.9690
     9.2191   9.8284  10.6043  10.6595  10.6595  11.0251  11.0263  11.4495
    11.4522  11.5607  11.5623  11.7497  11.7503  11.8926  11.8937  11.9638
    12.0831  12.0835

     the Fermi energy is     5.0626 ev

!    total energy              =   -3891.08963898 Ry
     estimated scf accuracy    <          5.5E-09 Ry
     smearing contrib. (-TS)   =      -0.00171219 Ry
     internal energy E=F+TS    =   -3891.08792679 Ry

     The total energy is F=E-TS. E is the sum of the following terms:
     one-electron contribution =  -47685.20368881 Ry
     hartree contribution      =   23890.30137266 Ry
     xc contribution           =    -436.03348912 Ry
     ewald contribution        =   20488.51852081 Ry
     DFT-D3 Dispersion         =      -0.68861525 Ry
     electric field correction =       0.00000139 Ry
     one-center paw contrib.   =    -147.98202847 Ry

     convergence has been achieved in  42 iterations

     negative rho (up, down):  2.756E-04 0.000E+00

     Forces acting on atoms (cartesian axes, Ry/au):

     atom    1 type  1   force =    -0.00006296    0.00038581    0.00241659
     atom    2 type  1   force =    -0.00009898    0.00038511    0.00241461
     atom    3 type  1   force =     0.00032718   -0.00012591   -0.00096290
     atom    4 type  1   force =     0.00001177   -0.00033529   -0.00310256
     atom    5 type  1   force =    -0.00010112    0.00038909    0.00240510
     atom    6 type  1   force =     0.00009402   -0.00003332   -0.00090124
     atom    7 type  1   force =    -0.00015426    0.00005659    0.00149196
     atom    8 type  1   force =     0.00000704   -0.00031836   -0.00312021
     atom    9 type  1   force =    -0.00015013   -0.00014847    0.00024311
     atom   10 type  1   force =     0.00027554    0.00007633   -0.00079348
     atom   11 type  1   force =     0.00000652   -0.00034457   -0.00310643
     atom   12 type  1   force =    -0.00013304    0.00011939    0.00125243
     atom   13 type  2   force =    -0.00000097    0.00007647    0.00004583
     atom   14 type  2   force =     0.00057580    0.00057745    0.00070501
     atom   15 type  2   force =     0.00032939   -0.00055909    0.00066143
     atom   16 type  2   force =    -0.00000015   -0.00064117    0.00046673
     atom   17 type  2   force =    -0.00000285    0.00104344    0.00047812
     atom   18 type  2   force =    -0.00057533    0.00057996    0.00069840
     atom   19 type  2   force =    -0.00033374   -0.00056179    0.00065814
     atom   20 type  2   force =     0.00000082   -0.00054528    0.00007312
     atom   21 type  2   force =     0.00001169    0.00000830   -0.00018059
     atom   22 type  2   force =     0.00000044   -0.00000951   -0.00025592
     atom   23 type  2   force =    -0.00000192   -0.00001309   -0.00017815
     atom   24 type  2   force =     0.00000235   -0.00001437   -0.00025027
     atom   25 type  2   force =    -0.00001447    0.00000915   -0.00018156
     atom   26 type  2   force =    -0.00000122    0.00001241   -0.00025262
     atom   27 type  2   force =    -0.00000205   -0.00001488   -0.00017128
     atom   28 type  2   force =    -0.00000177   -0.00001423   -0.00025103
     atom   29 type  2   force =    -0.00000194   -0.00000373   -0.00012982
     atom   30 type  2   force =     0.00000025   -0.00000675    0.00005623
     atom   31 type  2   force =    -0.00000240   -0.00000267   -0.00013157
     atom   32 type  2   force =    -0.00000006   -0.00000686    0.00005540
     atom   33 type  2   force =    -0.00000184   -0.00000350   -0.00013100
     atom   34 type  2   force =    -0.00000028   -0.00000671    0.00005613
     atom   35 type  2   force =    -0.00000131   -0.00000275   -0.00013156
     atom   36 type  2   force =    -0.00000001   -0.00000720    0.00005386

     Total force =     0.007783     Total SCF correction =     0.000632

     Writing all to output data dir ./tmp/AGC_N3_s01_K9_bound.save/ :
     XML data file, charge density, pseudopotentials, collected wavefunctions
 
     init_run     :     63.74s CPU     65.56s WALL (       1 calls)
     electrons    :   7501.76s CPU   7589.43s WALL (       1 calls)
     forces       :     33.72s CPU     34.27s WALL (       1 calls)
     force_dftd3  :      0.01s CPU      0.01s WALL (       1 calls)

     Called by init_run:
     wfcinit      :     53.85s CPU     55.50s WALL (       1 calls)
     potinit      :      8.86s CPU      8.91s WALL (       1 calls)
     hinit0       :      0.41s CPU      0.44s WALL (       1 calls)

     Called by electrons:
     c_bands      :   5905.77s CPU   5966.17s WALL (      42 calls)
     sum_band     :   1169.98s CPU   1194.78s WALL (      42 calls)
     v_of_rho     :      7.88s CPU      8.55s WALL (      43 calls)
     newd         :      9.42s CPU      9.49s WALL (      43 calls)
                                        9.49s GPU  (      43 calls)
     PAW_pot      :    299.66s CPU    299.82s WALL (      43 calls)
     mix_rho      :    113.86s CPU    115.11s WALL (      42 calls)
     energy_dftd3 :      0.01s CPU      0.01s WALL (       1 calls)

     Called by c_bands:
     init_us_2    :    322.44s CPU    323.04s WALL (    3526 calls)
     cegterg      :   5498.82s CPU   5502.27s WALL (    1722 calls)

     Called by *egterg:
     cdiaghg      :    316.81s CPU    317.51s WALL (   11409 calls)
                                      304.41s GPU  (   11409 calls)
     h_psi        :   2787.84s CPU   2804.97s WALL (   11450 calls)
                                     2794.82s GPU  (   11450 calls)
     s_psi        :    515.12s CPU    515.39s WALL (   11450 calls)
     g_psi        :      0.04s CPU     12.80s WALL (    9687 calls)
                                        2.65s GPU  (    9687 calls)

     Called by h_psi:
     h_psi:calbec :      0.70s CPU    444.18s WALL (   11450 calls)
                                      434.10s GPU  (   11450 calls)
     vloc_psi     :   1533.37s CPU   1544.39s WALL (   11450 calls)
                                     1534.94s GPU  (   11450 calls)
     add_vuspsi   :    443.74s CPU    764.44s WALL (   11450 calls)
                                      752.63s GPU  (   11450 calls)

     General routines
     calbec       :      0.77s CPU      0.77s WALL (   13336 calls)
     fft          :      2.26s CPU      3.39s WALL (     568 calls)
                                        0.55s GPU  (     525 calls)
     ffts         :      0.79s CPU      6.80s WALL (    4944 calls)
                                        1.62s GPU  (    4901 calls)
     fftw         :      2.32s CPU    818.27s WALL (  130434 calls)
                                      683.35s GPU  (  130434 calls)
     interpolate  :      3.17s CPU      3.54s WALL (      43 calls)
     davcio       :      4.03s CPU     84.39s WALL (    6035 calls)
 
     Parallel routines
 
     PWSCF        :      2h 6m CPU      2h 8m WALL

 
   This run was terminated on:   8:58:22   6Oct2026            

=------------------------------------------------------------------------------=
   JOB DONE.
=------------------------------------------------------------------------------=
