332
Lattice="10.055095635733188 0.0 0.0 0.0 20.110191271466377 0.0 0.0 0.0 48.138382209668734" Properties=species:S:1:pos:R:3 source=db/raw/wad_sese_4L_2026_09_25/s_outer_relaxed_final_coords.txt source_sha256=504e0b081aa2d05a71b55ee97c6ae0129250bd1a820e41a00c55446ee89b86c8 pbc="T T F"
P        4.66149300       2.33600800       3.10503600
P       -0.36611200       7.36358000       3.10492800
P       -0.15381200       2.34483700       8.09159000
P        4.87356200       7.37246200       8.09170400
S        5.88041700       3.48769500       4.28211100
S        0.85293400       8.51532000       4.28186200
S        3.35766900       1.17496600       4.20088900
S        8.38518100       6.20250900       4.20078600
S        3.64705100       3.56575400       1.79941200
S        8.67455300       8.59322900       1.79918200
S        8.66814300       3.52275500       6.90754900
S        3.64071900       8.55019000       6.90710200
S        5.71989200       0.97894500       1.89980100
S        0.69220300       6.00645500       1.89976600
S        0.90032700       1.03766500       6.88919800
S        5.92778700       6.06495200       6.88975000
Li       3.54918400       1.50267500       0.50011500
Li       8.57670000       6.53013300       0.50000000
Li       7.81484800       2.09662400       5.16474100
Li       2.78707600       7.12420300       5.16473300
Li       2.59844900       5.16866400       3.29565500
Li       7.62604500       0.14106900       3.29560200
Li       6.81383100      10.45238400       7.92990400
Li       1.78548500       5.42555800       7.93016200
Li       3.73542500       9.35715500       2.41796100
Li       8.76299500       4.32960100       2.41793200
Li       4.34524200       4.09971200       6.21129900
Li       9.37316700       9.12720500       6.21112500
Li       6.98179500       2.57201100       0.67776200
Li       1.95425600       7.59975900       0.67777200
Li       0.68376400       0.14648500       2.22429200
Li       5.71135500       5.17405700       2.22443400
Li       4.90721000       0.37908300       5.86215700
Li      -0.12053000       5.40705700       5.86245800
Li       1.44704700       2.61547900       5.05529600
Li       6.47450400       7.64287900       5.05552100
Cl       9.66153100       7.21527500       8.00165400
Cl       4.39140200       7.11114500       3.26705900
Cl       9.41896800       2.08364600       3.26701900
S        2.29217500       9.74547800       0.61720500
S        7.31969600       4.71803100       0.61721900
S        7.17402200       9.89571000       5.60511100
S        2.14628900       4.86827200       5.60514400
P        4.87356200       2.68259500      12.99650000
P       -0.15381200       7.71020000      12.99660500
P       -0.36611200       2.69145700      17.98326700
P        4.66149300       7.71905000      17.98316800
S        5.92781300       3.99009900      14.19843600
S        0.90029500       9.01739700      14.19900100
S        0.96032200       3.55168300       9.29272200
S        5.98770400       8.57960400       9.29261600
S        3.64072600       1.50487900      14.18111900
S        8.66815500       6.53226100      14.18063500
S        8.70860000       1.14654400       9.32327800
S        3.68066400       6.17464100       9.32351800
S        3.68065700       3.88042800      11.76470300
S        8.70858800       8.90847200      11.76490600
S        8.38516800       3.85250700      16.88739900
S        3.35766200       8.88010300      16.88733200
S        5.98767800       1.47544700      11.79557100
S        0.96035400       6.50337900      11.79547800
S        0.85296600       1.53974200      16.80633800
S        5.88039100       6.56735700      16.80607500
Li       2.75221100       2.21974300      10.28008800
Li       7.77722300       7.24780100      10.28266300
Li       9.37318400       0.92781500      14.87703300
Li       4.34517200       5.95536800      14.87696200
Li       7.89275500       5.34625200       8.31295200
Li       2.86435600       0.31772500       8.31259600
Li       1.78551500       4.62953600      13.15807100
Li       6.81378400      -0.39737900      13.15826700
Li       7.62609200       9.91393500      17.79257000
Li       2.59841900       4.88643000      17.79257700
Li       2.86432600       9.73736900      12.77563600
Li       7.89280400       4.70875200      12.77521800
Li       2.78714700       2.93087800      15.92352900
Li       7.81483000       7.95839600      15.92341700
Li       7.77720300       2.80721800      10.80549200
Li       2.75227900       7.83533700      10.80817300
Li       0.13958400       0.96698600      11.51939700
Li       5.16658500       5.99259300      11.52096400
Li       6.47453200       2.41216400      16.03270700
Li       1.44701100       7.43951300      16.03291300
Li      -0.12049400       4.64793500      15.22575000
Li       4.90718200       9.67596000      15.22607100
Li       5.16655600       4.06245100       9.56726400
Li       0.13962000       9.08800700       9.56881100
Cl       9.41896800       7.97138000      17.82117100
Cl       4.63278700       2.18843600       8.00286400
Cl       4.63278700       7.86662300      13.08534200
Cl       9.66153100       2.83975000      13.08653500
S        2.10769900      10.05507800      10.54411200
S        7.13484200       5.02751300      10.54409100
S        7.17402200      10.21441200      15.48307200
S        2.14628900       5.18678900      15.48307900
S        0.69217200       4.04860600      19.18843400
S        5.71991800       9.07610600      19.18838600
S        8.67456500       1.46178700      19.28900200
S        3.64705700       6.48931500      19.28880900
Li       1.95418800       2.45532100      20.41048900
Li       6.98181500       7.48300800      20.41039400
Li       8.76294600       5.72540300      18.67023800
Li       3.73545500       0.69793900      18.67027100
Li       8.57668000       3.52488600      20.58815600
Li       3.54925200       8.55240500      20.58814700
Li       5.71132600       4.88098700      18.86379400
Li       0.68380000       9.90850800      18.86391600
Cl       4.39140200       2.94391400      17.82114700
S        2.29217500      10.36467800      20.47101800
S        7.31969600       5.33699500      20.47096400
P        4.66149300      12.39110364       3.10503600
P       -0.36611200      17.41867564       3.10492800
P       -0.15381200      12.39993264       8.09159000
P        4.87356200      17.42755764       8.09170400
S        5.88041700      13.54279064       4.28211100
S        0.85293400      18.57041564       4.28186200
S        3.35766900      11.23006164       4.20088900
S        8.38518100      16.25760464       4.20078600
S        3.64705100      13.62084964       1.79941200
S        8.67455300      18.64832464       1.79918200
S        8.66814300      13.57785064       6.90754900
S        3.64071900      18.60528564       6.90710200
S        5.71989200      11.03404064       1.89980100
S        0.69220300      16.06155064       1.89976600
S        0.90032700      11.09276064       6.88919800
S        5.92778700      16.12004764       6.88975000
Li       3.54918400      11.55777064       0.50011500
Li       8.57670000      16.58522864       0.50000000
Li       7.81484800      12.15171964       5.16474100
Li       2.78707600      17.17929864       5.16473300
Li       2.59844900      15.22375964       3.29565500
Li       7.62604500      10.19616464       3.29560200
Li       6.81383100      20.50747964       7.92990400
Li       1.78548500      15.48065364       7.93016200
Li       3.73542500      19.41225064       2.41796100
Li       8.76299500      14.38469664       2.41793200
Li       4.34524200      14.15480764       6.21129900
Li       9.37316700      19.18230064       6.21112500
Li       6.98179500      12.62710664       0.67776200
Li       1.95425600      17.65485464       0.67777200
Li       0.68376400      10.20158064       2.22429200
Li       5.71135500      15.22915264       2.22443400
Li       4.90721000      10.43417864       5.86215700
Li      -0.12053000      15.46215264       5.86245800
Li       1.44704700      12.67057464       5.05529600
Li       6.47450400      17.69797464       5.05552100
Cl       9.66153100      17.27037064       8.00165400
Cl       4.39140200      17.16624064       3.26705900
Cl       9.41896800      12.13874164       3.26701900
S        2.29217500      19.80057364       0.61720500
S        7.31969600      14.77312664       0.61721900
S        7.17402200      19.95080564       5.60511100
S        2.14628900      14.92336764       5.60514400
P        4.87356200      12.73769064      12.99650000
P       -0.15381200      17.76529564      12.99660500
P       -0.36611200      12.74655264      17.98326700
P        4.66149300      17.77414564      17.98316800
S        5.92781300      14.04519464      14.19843600
S        0.90029500      19.07249264      14.19900100
S        0.96032200      13.60677864       9.29272200
S        5.98770400      18.63469964       9.29261600
S        3.64072600      11.55997464      14.18111900
S        8.66815500      16.58735664      14.18063500
S        8.70860000      11.20163964       9.32327800
S        3.68066400      16.22973664       9.32351800
S        3.68065700      13.93552364      11.76470300
S        8.70858800      18.96356764      11.76490600
S        8.38516800      13.90760264      16.88739900
S        3.35766200      18.93519864      16.88733200
S        5.98767800      11.53054264      11.79557100
S        0.96035400      16.55847464      11.79547800
S        0.85296600      11.59483764      16.80633800
S        5.88039100      16.62245264      16.80607500
Li       2.75221100      12.27483864      10.28008800
Li       7.77722300      17.30289664      10.28266300
Li       9.37318400      10.98291064      14.87703300
Li       4.34517200      16.01046364      14.87696200
Li       7.89275500      15.40134764       8.31295200
Li       2.86435600      10.37282064       8.31259600
Li       1.78551500      14.68463164      13.15807100
Li       6.81378400       9.65771664      13.15826700
Li       7.62609200      19.96903064      17.79257000
Li       2.59841900      14.94152564      17.79257700
Li       2.86432600      19.79246464      12.77563600
Li       7.89280400      14.76384764      12.77521800
Li       2.78714700      12.98597364      15.92352900
Li       7.81483000      18.01349164      15.92341700
Li       7.77720300      12.86231364      10.80549200
Li       2.75227900      17.89043264      10.80817300
Li       0.13958400      11.02208164      11.51939700
Li       5.16658500      16.04768864      11.52096400
Li       6.47453200      12.46725964      16.03270700
Li       1.44701100      17.49460864      16.03291300
Li      -0.12049400      14.70303064      15.22575000
Li       4.90718200      19.73105564      15.22607100
Li       5.16655600      14.11754664       9.56726400
Li       0.13962000      19.14310264       9.56881100
Cl       9.41896800      18.02647564      17.82117100
Cl       4.63278700      12.24353164       8.00286400
Cl       4.63278700      17.92171864      13.08534200
Cl       9.66153100      12.89484564      13.08653500
S        2.10769900      20.11017364      10.54411200
S        7.13484200      15.08260864      10.54409100
S        7.17402200      20.26950764      15.48307200
S        2.14628900      15.24188464      15.48307900
S        0.69217200      14.10370164      19.18843400
S        5.71991800      19.13120164      19.18838600
S        8.67456500      11.51688264      19.28900200
S        3.64705700      16.54441064      19.28880900
Li       1.95418800      12.51041664      20.41048900
Li       6.98181500      17.53810364      20.41039400
Li       8.76294600      15.78049864      18.67023800
Li       3.73545500      10.75303464      18.67027100
Li       8.57668000      13.57998164      20.58815600
Li       3.54925200      18.60750064      20.58814700
Li       5.71132600      14.93608264      18.86379400
Li       0.68380000      19.96360364      18.86391600
Cl       4.39140200      12.99900964      17.82114700
S        2.29217500      20.41977364      20.47101800
S        7.31969600      15.39209064      20.47096400
Ag       9.83350000       7.85080000      23.38815600
Ag       9.83350000      10.72368447      23.38815600
Ag       9.83350000      13.59656893      23.38815600
Ag       9.83350000      16.46945340      23.38815600
Ag       9.83350000      19.34233787      23.38815600
Ag       9.83350000      22.21522234      23.38815600
Ag       9.83350000      25.08810680      23.38815600
Ag      12.34727391       9.28724223      23.38815600
Ag      12.34727391      12.16012670      23.38815600
Ag      12.34727391      15.03301117      23.38815600
Ag      12.34727391      17.90589564      23.38815600
Ag      12.34727391      20.77878010      23.38815600
Ag      12.34727391      23.65166457      23.38815600
Ag      12.34727391      26.52454904      23.38815600
Ag      14.86104782       7.85080000      23.38815600
Ag      14.86104782      10.72368447      23.38815600
Ag      14.86104782      13.59656893      23.38815600
Ag      14.86104782      16.46945340      23.38815600
Ag      14.86104782      19.34233787      23.38815600
Ag      14.86104782      22.21522234      23.38815600
Ag      14.86104782      25.08810680      23.38815600
Ag      17.37482173       9.28724223      23.38815600
Ag      17.37482173      12.16012670      23.38815600
Ag      17.37482173      15.03301117      23.38815600
Ag      17.37482173      17.90589564      23.38815600
Ag      17.37482173      20.77878010      23.38815600
Ag      17.37482173      23.65166457      23.38815600
Ag      17.37482173      26.52454904      23.38815600
Ag      10.67142464       9.28724223      25.73823140
Ag      10.67142464      12.16012670      25.73823140
Ag      10.67142464      15.03301117      25.73823140
Ag      10.67142464      17.90589564      25.73823140
Ag      10.67142464      20.77878010      25.73823140
Ag      10.67142464      23.65166457      25.73823140
Ag      10.67142464      26.52454904      25.73823140
Ag      13.18519855       7.85080000      25.73823140
Ag      13.18519855      10.72368447      25.73823140
Ag      13.18519855      13.59656893      25.73823140
Ag      13.18519855      16.46945340      25.73823140
Ag      13.18519855      19.34233787      25.73823140
Ag      13.18519855      22.21522234      25.73823140
Ag      13.18519855      25.08810680      25.73823140
Ag      15.69897245       9.28724223      25.73823140
Ag      15.69897245      12.16012670      25.73823140
Ag      15.69897245      15.03301117      25.73823140
Ag      15.69897245      17.90589564      25.73823140
Ag      15.69897245      20.77878010      25.73823140
Ag      15.69897245      23.65166457      25.73823140
Ag      15.69897245      26.52454904      25.73823140
Ag      18.21274636       7.85080000      25.73823140
Ag      18.21274636      10.72368447      25.73823140
Ag      18.21274636      13.59656893      25.73823140
Ag      18.21274636      16.46945340      25.73823140
Ag      18.21274636      19.34233787      25.73823140
Ag      18.21274636      22.21522234      25.73823140
Ag      18.21274636      25.08810680      25.73823140
Ag      11.50934927       7.85080000      28.08830681
Ag      11.50934927      10.72368447      28.08830681
Ag      11.50934927      13.59656893      28.08830681
Ag      11.50934927      16.46945340      28.08830681
Ag      11.50934927      19.34233787      28.08830681
Ag      11.50934927      22.21522234      28.08830681
Ag      11.50934927      25.08810680      28.08830681
Ag      14.02312318       9.28724223      28.08830681
Ag      14.02312318      12.16012670      28.08830681
Ag      14.02312318      15.03301117      28.08830681
Ag      14.02312318      17.90589564      28.08830681
Ag      14.02312318      20.77878010      28.08830681
Ag      14.02312318      23.65166457      28.08830681
Ag      14.02312318      26.52454904      28.08830681
Ag      16.53689709       7.85080000      28.08830681
Ag      16.53689709      10.72368447      28.08830681
Ag      16.53689709      13.59656893      28.08830681
Ag      16.53689709      16.46945340      28.08830681
Ag      16.53689709      19.34233787      28.08830681
Ag      16.53689709      22.21522234      28.08830681
Ag      16.53689709      25.08810680      28.08830681
Ag      19.05067100       9.28724223      28.08830681
Ag      19.05067100      12.16012670      28.08830681
Ag      19.05067100      15.03301117      28.08830681
Ag      19.05067100      17.90589564      28.08830681
Ag      19.05067100      20.77878010      28.08830681
Ag      19.05067100      23.65166457      28.08830681
Ag      19.05067100      26.52454904      28.08830681
Ag       9.83350000       7.85080000      30.43838221
Ag       9.83350000      10.72368447      30.43838221
Ag       9.83350000      13.59656893      30.43838221
Ag       9.83350000      16.46945340      30.43838221
Ag       9.83350000      19.34233787      30.43838221
Ag       9.83350000      22.21522234      30.43838221
Ag       9.83350000      25.08810680      30.43838221
Ag      12.34727391       9.28724223      30.43838221
Ag      12.34727391      12.16012670      30.43838221
Ag      12.34727391      15.03301117      30.43838221
Ag      12.34727391      17.90589564      30.43838221
Ag      12.34727391      20.77878010      30.43838221
Ag      12.34727391      23.65166457      30.43838221
Ag      12.34727391      26.52454904      30.43838221
Ag      14.86104782       7.85080000      30.43838221
Ag      14.86104782      10.72368447      30.43838221
Ag      14.86104782      13.59656893      30.43838221
Ag      14.86104782      16.46945340      30.43838221
Ag      14.86104782      19.34233787      30.43838221
Ag      14.86104782      22.21522234      30.43838221
Ag      14.86104782      25.08810680      30.43838221
Ag      17.37482173       9.28724223      30.43838221
Ag      17.37482173      12.16012670      30.43838221
Ag      17.37482173      15.03301117      30.43838221
Ag      17.37482173      17.90589564      30.43838221
Ag      17.37482173      20.77878010      30.43838221
Ag      17.37482173      23.65166457      30.43838221
Ag      17.37482173      26.52454904      30.43838221
