
     Program PWSCF v.7.4.1 starts on  5Oct2026 at 10:22:38 

     This program is part of the open-source Quantum ESPRESSO suite
     for quantum simulation of materials; please cite
         "P. Giannozzi et al., J. Phys.:Condens. Matter 21 395502 (2009);
         "P. Giannozzi et al., J. Phys.:Condens. Matter 29 465901 (2017);
         "P. Giannozzi et al., J. Chem. Phys. 152 154105 (2020);
          URL http://www.quantum-espresso.org", 
     in publications or presentations arising from this work. More details at
     http://www.quantum-espresso.org/quote

     Parallel version (MPI & OpenMP), running on       1 processor cores
     Number of MPI processes:                 1
     Threads/MPI process:                     1

     MPI processes distributed on     1 nodes
     9073 MiB available memory on the printing compute node when the environment starts
 
     Reading input from pw.in

     Current dimensions of program PWSCF are:
     Max number of different atomic species (ntypx) = 10
     Max number of k-points (npk) =  40000
     Max angular momentum in pseudopotentials (lmaxx) =  4
     Presently no symmetry can be used with electric field

     file C.pbe-n-kjpaw_psl.1.0.0.UPF: wavefunction(s)  2S 2P renormalized
 
     Subspace diagonalization in iterative solution of the eigenvalue problem:
     a serial algorithm will be used

 
     G-vector sticks info
     --------------------
     sticks:   dense  smooth     PW     G-vecs:    dense   smooth      PW
     Sum        3193    1273    367              1013735   256635   40105
 
     Using Slab Decomposition
 


     bravais-lattice index     =            0
     lattice parameter (alat)  =       9.4208  a.u.
     unit-cell volume          =    5061.5970 (a.u.)^3
     number of atoms/cell      =           36
     number of atomic types    =            2
     number of electrons       =       324.00
     number of Kohn-Sham states=          194
     kinetic-energy cutoff     =      52.0000  Ry
     charge density cutoff     =     520.0000  Ry
     scf convergence threshold =      1.0E-08
     mixing beta               =       0.3000
     number of iterations used =            8  local-TF  mixing
     Exchange-correlation= SLA  PW   PBX  PBC
                           (   1   4   3   4   0   0   0)

     GPU acceleration is ACTIVE.  1 visible GPUs per MPI rank


     celldm(1)=   9.420781  celldm(2)=   0.000000  celldm(3)=   0.000000
     celldm(4)=   0.000000  celldm(5)=   0.000000  celldm(6)=   0.000000

     crystal axes: (cart. coord. in units of alat)
               a(1) = (   1.000000  -0.000000   0.000000 )  
               a(2) = (   0.500000   0.866025   0.000000 )  
               a(3) = (   0.000000   0.000000   6.990306 )  

     reciprocal axes: (cart. coord. in units 2 pi/alat)
               b(1) = (  1.000000 -0.577350  0.000000 )  
               b(2) = (  0.000000  1.154701 -0.000000 )  
               b(3) = ( -0.000000  0.000000  0.143055 )  


     PseudoPot. # 1 for Ag read from file:
     /home/kgy/work/pseudo/Ag_ONCV_PBE-1.0.oncvpsp.upf
     MD5 check sum: 94f47bd0669c641108e45594df92fabc
     Pseudo is Norm-conserving, Zval = 19.0
     Generated using ONCVPSP code by D. R. Hamann
     Using radial grid of 1398 points,  6 beta functions with: 
                l(1) =   0
                l(2) =   0
                l(3) =   1
                l(4) =   1
                l(5) =   2
                l(6) =   2

     PseudoPot. # 2 for C  read from file:
     /home/kgy/work/pseudo/C.pbe-n-kjpaw_psl.1.0.0.UPF
     MD5 check sum: 5d2aebdfa2cae82b50a7e79e9516da0f
     Pseudo is Projector augmented-wave + core cor, Zval =  4.0
     Generated using "atomic" code by A. Dal Corso  v.5.1
     Shape of augmentation charge: PSQ
     Using radial grid of 1073 points,  4 beta functions with: 
                l(1) =   0
                l(2) =   0
                l(3) =   1
                l(4) =   1
     Q(r) pseudized with 0 coefficients 


     atomic species   valence    mass     pseudopotential
     Ag               19.00   107.86820     Ag( 1.00)
     C                 4.00    12.01100     C ( 1.00)

     No symmetry found



   Cartesian axes

     site n.     atom                  positions (alat units)
         1        Ag     tau(   1) = (   0.3337695   0.5765948   0.5717001  )
         2        Ag     tau(   2) = (   0.8337695   0.8652699   0.5717001  )
         3        Ag     tau(   3) = (   0.1663116   0.2882288   1.0405207  )
         4        Ag     tau(   4) = (   0.5004501   0.2909658   0.1002956  )
         5        Ag     tau(   5) = (   0.8337695   0.2879196   0.5717001  )
         6        Ag     tau(   6) = (   0.6665315   0.5768011   1.0405139  )
         7        Ag     tau(   7) = (   0.5010389   0.2880917   1.5114705  )
         8        Ag     tau(   8) = (   1.0004501   0.5796409   0.1002956  )
         9        Ag     tau(   9) = (   1.0010564   0.5767426   1.5120106  )
        10        Ag     tau(  10) = (   0.6663668  -0.0006351   1.0404133  )
        11        Ag     tau(  11) = (   1.0004501   0.0022906   0.1002956  )
        12        Ag     tau(  12) = (   1.0010299  -0.0005160   1.5115225  )
        13        C      tau(  13) = (   0.5004501   0.3871908   3.5179230  )
        14        C      tau(  14) = (   0.7504501   0.5315284   3.5185288  )
        15        C      tau(  15) = (   0.7504501   0.8202035   3.5184350  )
        16        C      tau(  16) = (   1.0004501   0.9645411   3.5183666  )
        17        C      tau(  17) = (   1.0004501   0.3871908   3.5182299  )
        18        C      tau(  18) = (   1.2504501   0.5315284   3.5185253  )
        19        C      tau(  19) = (   1.2504501   0.8202035   3.5184447  )
        20        C      tau(  20) = (   1.5004501   0.9645411   3.5180481  )
        21        C      tau(  21) = (   0.7504501   0.5315284   4.2027719  )
        22        C      tau(  22) = (   1.0004501   0.6758659   4.2027142  )
        23        C      tau(  23) = (   1.0004501   0.9645411   4.2027716  )
        24        C      tau(  24) = (   1.2504501   1.1088786   4.2027027  )
        25        C      tau(  25) = (   1.2504501   0.5315284   4.2027730  )
        26        C      tau(  26) = (   1.5004501   0.6758659   4.2027069  )
        27        C      tau(  27) = (   1.5004501   0.9645411   4.2027688  )
        28        C      tau(  28) = (   1.7504501   1.1088786   4.2027033  )
        29        C      tau(  29) = (   0.5004501   0.3871908   4.8840964  )
        30        C      tau(  30) = (   0.7504501   0.5315284   4.8839750  )
        31        C      tau(  31) = (   0.7504501   0.8202035   4.8840977  )
        32        C      tau(  32) = (   1.0004501   0.9645411   4.8839757  )
        33        C      tau(  33) = (   1.0004501   0.3871908   4.8840972  )
        34        C      tau(  34) = (   1.2504501   0.5315284   4.8839751  )
        35        C      tau(  35) = (   1.2504501   0.8202035   4.8840978  )
        36        C      tau(  36) = (   1.5004501   0.9645411   4.8839768  )

     --------------------------------------------
     DFT-D3 Dispersion Correction (no 3-body):
     --------------------------------------------
       Reference C6 values for interpolation: 

         atom   Coordination number   C6
         C          0.000            98.23
         C          0.987            86.49
         C          1.998            58.72
         C          2.999            51.56
         C          3.984            36.41
         Ag         0.000           853.49
         Ag         0.968           537.23

       Values used:

         atom   Coordination number  R0_AB[au]  C6      C8
         Ag         9.096            3.147    537.23  47741.54
         Ag         9.096            3.147    537.23  47741.54
         Ag         9.099            3.147    537.23  47741.54
         Ag         6.766            3.147    537.23  47741.54
         Ag         9.096            3.147    537.23  47741.54
         Ag         9.099            3.147    537.23  47741.54
         Ag         6.772            3.147    537.23  47741.54
         Ag         6.766            3.147    537.23  47741.54
         Ag         6.766            3.147    537.23  47741.54
         Ag         9.099            3.147    537.23  47741.54
         Ag         6.766            3.147    537.23  47741.54
         Ag         6.772            3.147    537.23  47741.54
         C          3.274            2.750     49.03   1418.01
         C          3.274            2.750     49.03   1417.91
         C          3.274            2.750     49.03   1417.99
         C          3.274            2.750     49.03   1417.92
         C          3.274            2.750     49.03   1418.00
         C          3.274            2.750     49.03   1417.91
         C          3.274            2.750     49.03   1418.00
         C          3.274            2.750     49.03   1417.92
         C          3.280            2.750     48.93   1415.02
         C          3.280            2.750     48.93   1415.19
         C          3.280            2.750     48.93   1415.02
         C          3.280            2.750     48.93   1415.19
         C          3.280            2.750     48.93   1415.02
         C          3.280            2.750     48.93   1415.19
         C          3.280            2.750     48.93   1415.02
         C          3.280            2.750     48.93   1415.19
         C          3.274            2.750     49.03   1417.96
         C          3.274            2.750     49.02   1417.87
         C          3.274            2.750     49.03   1417.96
         C          3.274            2.750     49.02   1417.87
         C          3.274            2.750     49.03   1417.96
         C          3.274            2.750     49.02   1417.87
         C          3.274            2.750     49.03   1417.96
         C          3.274            2.750     49.02   1417.87

         Molecular C6 ( Ry / a.u.^6 ) =    198712.46


     number of k points=    20  Marzari-Vanderbilt smearing, width (Ry)=  0.0100
                       cart. coord. in units 2pi/alat
        k(    1) = (   0.0000000   0.0000000   0.0000000), wk =   0.0555556
        k(    2) = (   0.0000000   0.1924501   0.0000000), wk =   0.1111111
        k(    3) = (   0.0000000   0.3849002   0.0000000), wk =   0.1111111
        k(    4) = (   0.0000000  -0.5773503   0.0000000), wk =   0.0555556
        k(    5) = (   0.1666667  -0.0962250   0.0000000), wk =   0.1111111
        k(    6) = (   0.1666667   0.0962250   0.0000000), wk =   0.1111111
        k(    7) = (   0.1666667   0.2886751   0.0000000), wk =   0.1111111
        k(    8) = (   0.1666667  -0.6735753   0.0000000), wk =   0.1111111
        k(    9) = (   0.1666667  -0.4811252   0.0000000), wk =   0.1111111
        k(   10) = (   0.1666667  -0.2886751   0.0000000), wk =   0.1111111
        k(   11) = (   0.3333333  -0.1924501   0.0000000), wk =   0.1111111
        k(   12) = (   0.3333333  -0.0000000   0.0000000), wk =   0.1111111
        k(   13) = (   0.3333333   0.1924501   0.0000000), wk =   0.1111111
        k(   14) = (   0.3333333  -0.7698004   0.0000000), wk =   0.1111111
        k(   15) = (   0.3333333  -0.5773503   0.0000000), wk =   0.1111111
        k(   16) = (   0.3333333  -0.3849002   0.0000000), wk =   0.1111111
        k(   17) = (  -0.5000000   0.2886751   0.0000000), wk =   0.0555556
        k(   18) = (  -0.5000000   0.4811252   0.0000000), wk =   0.1111111
        k(   19) = (  -0.5000000   0.6735753   0.0000000), wk =   0.1111111
        k(   20) = (  -0.5000000  -0.2886751   0.0000000), wk =   0.0555556

     Dense  grid:  1013735 G-vectors     FFT dimensions: (  72,  72, 480)

     Smooth grid:   256635 G-vectors     FFT dimensions: (  45,  45, 320)

     Estimated max dynamical RAM per process >       2.73 GB

     Check: negative core charge=   -0.000002

     Initial potential from superposition of free atoms

     starting charge     323.9955, renormalised to     324.0000

     negative rho (up, down):  4.603E-05 0.000E+00
 
     Adding external electric field

     Computed dipole along edir(3) : 
        Dipole               -0.0107 Ry au,         -0.0271 Debye
        Dipole field         -0.0000 Ry au, 
 
        Potential amp.        0.0034 Ry
        Total length         63.9641 bohr
 
     Starting wfcs are  216 randomized atomic wfcs
     Checking if some PAW data can be deallocated... 

     total cpu time spent up to now is       28.7 secs

     Self-consistent Calculation

     iteration #  1     ecut=    52.00 Ry     beta= 0.30
     Davidson diagonalization with overlap
     ethr =  1.00E-02,  avg # of iterations =  7.5
 
     Adding external electric field

     Computed dipole along edir(3) : 
        Dipole               -0.0226 Ry au,         -0.0573 Debye
        Dipole field         -0.0001 Ry au, 
 
        Potential amp.        0.0072 Ry
        Total length         63.9641 bohr
 

     total cpu time spent up to now is      116.6 secs

     total energy              =   -3891.68934071 Ry
     estimated scf accuracy    <       4.14609339 Ry

     iteration #  2     ecut=    52.00 Ry     beta= 0.30
     Davidson diagonalization with overlap
     ethr =  1.28E-03,  avg # of iterations =  2.9
 
     Adding external electric field

     Computed dipole along edir(3) : 
        Dipole               -0.0382 Ry au,         -0.0971 Debye
        Dipole field         -0.0001 Ry au, 
 
        Potential amp.        0.0121 Ry
        Total length         63.9641 bohr
 

     total cpu time spent up to now is      178.2 secs

     total energy              =   -3891.03076819 Ry
     estimated scf accuracy    <       2.20554180 Ry

     iteration #  3     ecut=    52.00 Ry     beta= 0.30
     Davidson diagonalization with overlap
     c_bands:  4 eigenvalues not converged
     ethr =  6.81E-04,  avg # of iterations = 10.1
 
     Adding external electric field

     Computed dipole along edir(3) : 
        Dipole               -0.0512 Ry au,         -0.1302 Debye
        Dipole field         -0.0001 Ry au, 
 
        Potential amp.        0.0163 Ry
        Total length         63.9641 bohr
 

     total cpu time spent up to now is      261.1 secs

     total energy              =   -3891.04035285 Ry
     estimated scf accuracy    <       0.56659602 Ry

     iteration #  4     ecut=    52.00 Ry     beta= 0.30
     Davidson diagonalization with overlap
     ethr =  1.75E-04,  avg # of iterations =  9.8
 
     Adding external electric field

     Computed dipole along edir(3) : 
        Dipole               -0.0691 Ry au,         -0.1756 Debye
        Dipole field         -0.0002 Ry au, 
 
        Potential amp.        0.0219 Ry
        Total length         63.9641 bohr
 

     total cpu time spent up to now is      347.1 secs

     total energy              =   -3891.04886573 Ry
     estimated scf accuracy    <       0.23328717 Ry

     iteration #  5     ecut=    52.00 Ry     beta= 0.30
     Davidson diagonalization with overlap
     ethr =  7.20E-05,  avg # of iterations =  4.5
 
     Adding external electric field

     Computed dipole along edir(3) : 
        Dipole               -0.0761 Ry au,         -0.1935 Debye
        Dipole field         -0.0002 Ry au, 
 
        Potential amp.        0.0242 Ry
        Total length         63.9641 bohr
 

     total cpu time spent up to now is      413.6 secs

     total energy              =   -3891.04464956 Ry
     estimated scf accuracy    <       0.05277671 Ry

     iteration #  6     ecut=    52.00 Ry     beta= 0.30
     Davidson diagonalization with overlap
     c_bands:  3 eigenvalues not converged
     c_bands:  1 eigenvalues not converged
     ethr =  1.63E-05,  avg # of iterations = 13.2
 
     Adding external electric field

     Computed dipole along edir(3) : 
        Dipole               -0.0249 Ry au,         -0.0633 Debye
        Dipole field         -0.0001 Ry au, 
 
        Potential amp.        0.0079 Ry
        Total length         63.9641 bohr
 

     total cpu time spent up to now is      507.0 secs

     total energy              =   -3891.04081025 Ry
     estimated scf accuracy    <       0.07602194 Ry

     iteration #  7     ecut=    52.00 Ry     beta= 0.30
     Davidson diagonalization with overlap
     ethr =  1.63E-05,  avg # of iterations =  5.5
 
     Adding external electric field

     Computed dipole along edir(3) : 
        Dipole               -0.0204 Ry au,         -0.0519 Debye
        Dipole field         -0.0001 Ry au, 
 
        Potential amp.        0.0065 Ry
        Total length         63.9641 bohr
 

     total cpu time spent up to now is      580.0 secs

     total energy              =   -3891.04002876 Ry
     estimated scf accuracy    <       0.16448071 Ry

     iteration #  8     ecut=    52.00 Ry     beta= 0.30
     Davidson diagonalization with overlap
     ethr =  1.63E-05,  avg # of iterations =  4.3
 
     Adding external electric field

     Computed dipole along edir(3) : 
        Dipole                0.0190 Ry au,          0.0482 Debye
        Dipole field          0.0000 Ry au, 
 
        Potential amp.       -0.0060 Ry
        Total length         63.9641 bohr
 

     total cpu time spent up to now is      647.0 secs

     total energy              =   -3891.04022747 Ry
     estimated scf accuracy    <       0.08165900 Ry

     iteration #  9     ecut=    52.00 Ry     beta= 0.30
     Davidson diagonalization with overlap
     c_bands:  2 eigenvalues not converged
     ethr =  1.63E-05,  avg # of iterations =  3.5
 
     Adding external electric field

     Computed dipole along edir(3) : 
        Dipole                0.0293 Ry au,          0.0744 Debye
        Dipole field          0.0001 Ry au, 
 
        Potential amp.       -0.0093 Ry
        Total length         63.9641 bohr
 

     total cpu time spent up to now is      711.3 secs

     total energy              =   -3891.04063708 Ry
     estimated scf accuracy    <       0.08393445 Ry

     iteration # 10     ecut=    52.00 Ry     beta= 0.30
     Davidson diagonalization with overlap
     ethr =  1.63E-05,  avg # of iterations =  1.3

     negative rho (up, down):  7.757E-04 0.000E+00
 
     Adding external electric field

     Computed dipole along edir(3) : 
        Dipole                0.0279 Ry au,          0.0708 Debye
        Dipole field          0.0001 Ry au, 
 
        Potential amp.       -0.0088 Ry
        Total length         63.9641 bohr
 

     total cpu time spent up to now is      767.5 secs

     total energy              =   -3891.03971879 Ry
     estimated scf accuracy    <       0.09738866 Ry

     iteration # 11     ecut=    52.00 Ry     beta= 0.30
     Davidson diagonalization with overlap
     ethr =  1.63E-05,  avg # of iterations =  6.0

     negative rho (up, down):  1.388E-03 0.000E+00
 
     Adding external electric field

     Computed dipole along edir(3) : 
        Dipole                0.0277 Ry au,          0.0703 Debye
        Dipole field          0.0001 Ry au, 
 
        Potential amp.       -0.0088 Ry
        Total length         63.9641 bohr
 

     total cpu time spent up to now is      837.8 secs

     total energy              =   -3891.04019939 Ry
     estimated scf accuracy    <       0.00101148 Ry

     iteration # 12     ecut=    52.00 Ry     beta= 0.30
     Davidson diagonalization with overlap
     c_bands:  1 eigenvalues not converged
     c_bands:  1 eigenvalues not converged
     ethr =  3.12E-07,  avg # of iterations =  7.1

     negative rho (up, down):  5.652E-05 0.000E+00
 
     Adding external electric field

     Computed dipole along edir(3) : 
        Dipole                0.0194 Ry au,          0.0494 Debye
        Dipole field          0.0000 Ry au, 
 
        Potential amp.       -0.0062 Ry
        Total length         63.9641 bohr
 

     total cpu time spent up to now is      912.1 secs

     total energy              =   -3891.04017094 Ry
     estimated scf accuracy    <       0.00036214 Ry

     iteration # 13     ecut=    52.00 Ry     beta= 0.30
     Davidson diagonalization with overlap
     ethr =  1.12E-07,  avg # of iterations =  4.6

     negative rho (up, down):  2.476E-04 0.000E+00
 
     Adding external electric field

     Computed dipole along edir(3) : 
        Dipole                0.0172 Ry au,          0.0437 Debye
        Dipole field          0.0000 Ry au, 
 
        Potential amp.       -0.0055 Ry
        Total length         63.9641 bohr
 

     total cpu time spent up to now is      979.9 secs

     total energy              =   -3891.04021070 Ry
     estimated scf accuracy    <       0.00069488 Ry

     iteration # 14     ecut=    52.00 Ry     beta= 0.30
     Davidson diagonalization with overlap
     ethr =  1.12E-07,  avg # of iterations =  2.8

     negative rho (up, down):  4.318E-04 0.000E+00
 
     Adding external electric field

     Computed dipole along edir(3) : 
        Dipole                0.0182 Ry au,          0.0463 Debye
        Dipole field          0.0000 Ry au, 
 
        Potential amp.       -0.0058 Ry
        Total length         63.9641 bohr
 

     total cpu time spent up to now is     1042.7 secs

     total energy              =   -3891.04022791 Ry
     estimated scf accuracy    <       0.00046616 Ry

     iteration # 15     ecut=    52.00 Ry     beta= 0.30
     Davidson diagonalization with overlap
     ethr =  1.12E-07,  avg # of iterations =  4.2

     negative rho (up, down):  3.530E-04 0.000E+00
 
     Adding external electric field

     Computed dipole along edir(3) : 
        Dipole                0.0176 Ry au,          0.0446 Debye
        Dipole field          0.0000 Ry au, 
 
        Potential amp.       -0.0056 Ry
        Total length         63.9641 bohr
 

     total cpu time spent up to now is     1110.1 secs

     total energy              =   -3891.04025461 Ry
     estimated scf accuracy    <       0.00008931 Ry

     iteration # 16     ecut=    52.00 Ry     beta= 0.30
     Davidson diagonalization with overlap
     ethr =  2.76E-08,  avg # of iterations =  5.6

     negative rho (up, down):  4.726E-04 0.000E+00
 
     Adding external electric field

     Computed dipole along edir(3) : 
        Dipole                0.0187 Ry au,          0.0475 Debye
        Dipole field          0.0000 Ry au, 
 
        Potential amp.       -0.0059 Ry
        Total length         63.9641 bohr
 

     total cpu time spent up to now is     1179.4 secs

     total energy              =   -3891.04025556 Ry
     estimated scf accuracy    <       0.00008517 Ry

     iteration # 17     ecut=    52.00 Ry     beta= 0.30
     Davidson diagonalization with overlap
     ethr =  2.63E-08,  avg # of iterations =  1.0

     negative rho (up, down):  1.083E-04 0.000E+00
 
     Adding external electric field

     Computed dipole along edir(3) : 
        Dipole                0.0186 Ry au,          0.0474 Debye
        Dipole field          0.0000 Ry au, 
 
        Potential amp.       -0.0059 Ry
        Total length         63.9641 bohr
 

     total cpu time spent up to now is     1234.1 secs

     total energy              =   -3891.04025642 Ry
     estimated scf accuracy    <       0.00000457 Ry

     iteration # 18     ecut=    52.00 Ry     beta= 0.30
     Davidson diagonalization with overlap
     ethr =  1.41E-09,  avg # of iterations =  2.5

     negative rho (up, down):  7.529E-05 0.000E+00
 
     Adding external electric field

     Computed dipole along edir(3) : 
        Dipole                0.0191 Ry au,          0.0485 Debye
        Dipole field          0.0000 Ry au, 
 
        Potential amp.       -0.0061 Ry
        Total length         63.9641 bohr
 

     total cpu time spent up to now is     1295.7 secs

     total energy              =   -3891.04025642 Ry
     estimated scf accuracy    <       0.00000237 Ry

     iteration # 19     ecut=    52.00 Ry     beta= 0.30
     Davidson diagonalization with overlap
     ethr =  7.31E-10,  avg # of iterations =  2.0

     negative rho (up, down):  1.333E-04 0.000E+00
 
     Adding external electric field

     Computed dipole along edir(3) : 
        Dipole                0.0191 Ry au,          0.0487 Debye
        Dipole field          0.0000 Ry au, 
 
        Potential amp.       -0.0061 Ry
        Total length         63.9641 bohr
 

     total cpu time spent up to now is     1357.0 secs

     total energy              =   -3891.04025616 Ry
     estimated scf accuracy    <       0.00000149 Ry

     iteration # 20     ecut=    52.00 Ry     beta= 0.30
     Davidson diagonalization with overlap
     ethr =  4.59E-10,  avg # of iterations =  1.4

     negative rho (up, down):  8.484E-05 0.000E+00
 
     Adding external electric field

     Computed dipole along edir(3) : 
        Dipole                0.0191 Ry au,          0.0485 Debye
        Dipole field          0.0000 Ry au, 
 
        Potential amp.       -0.0061 Ry
        Total length         63.9641 bohr
 

     total cpu time spent up to now is     1413.9 secs

     total energy              =   -3891.04025647 Ry
     estimated scf accuracy    <       0.00000279 Ry

     iteration # 21     ecut=    52.00 Ry     beta= 0.30
     Davidson diagonalization with overlap
     ethr =  4.59E-10,  avg # of iterations =  1.4

     negative rho (up, down):  9.228E-05 0.000E+00
 
     Adding external electric field

     Computed dipole along edir(3) : 
        Dipole                0.0190 Ry au,          0.0484 Debye
        Dipole field          0.0000 Ry au, 
 
        Potential amp.       -0.0060 Ry
        Total length         63.9641 bohr
 

     total cpu time spent up to now is     1470.6 secs

     total energy              =   -3891.04025658 Ry
     estimated scf accuracy    <       0.00000019 Ry

     iteration # 22     ecut=    52.00 Ry     beta= 0.30
     Davidson diagonalization with overlap
     ethr =  5.86E-11,  avg # of iterations =  2.0

     negative rho (up, down):  7.367E-05 0.000E+00
 
     Adding external electric field

     Computed dipole along edir(3) : 
        Dipole                0.0190 Ry au,          0.0484 Debye
        Dipole field          0.0000 Ry au, 
 
        Potential amp.       -0.0060 Ry
        Total length         63.9641 bohr
 

     total cpu time spent up to now is     1532.3 secs

     total energy              =   -3891.04025665 Ry
     estimated scf accuracy    <       0.00000006 Ry

     iteration # 23     ecut=    52.00 Ry     beta= 0.30
     Davidson diagonalization with overlap
     ethr =  1.72E-11,  avg # of iterations =  2.0

     negative rho (up, down):  7.833E-05 0.000E+00
 
     Adding external electric field

     Computed dipole along edir(3) : 
        Dipole                0.0191 Ry au,          0.0484 Debye
        Dipole field          0.0000 Ry au, 
 
        Potential amp.       -0.0061 Ry
        Total length         63.9641 bohr
 

     total cpu time spent up to now is     1594.0 secs

     total energy              =   -3891.04025665 Ry
     estimated scf accuracy    <       0.00000005 Ry

     iteration # 24     ecut=    52.00 Ry     beta= 0.30
     Davidson diagonalization with overlap
     ethr =  1.56E-11,  avg # of iterations =  1.1

     negative rho (up, down):  8.904E-05 0.000E+00
 
     Adding external electric field

     Computed dipole along edir(3) : 
        Dipole                0.0203 Ry au,          0.0515 Debye
        Dipole field          0.0001 Ry au, 
 
        Potential amp.       -0.0064 Ry
        Total length         63.9641 bohr
 

     total cpu time spent up to now is     1647.9 secs

     End of self-consistent calculation

          k = 0.0000 0.0000 0.0000 ( 32011 PWs)   bands (ev):

   -87.1338 -87.1242 -87.1156 -87.1155 -87.1151 -87.1151 -86.9206 -86.9198
   -86.9074 -86.9067 -86.9063 -86.9063 -50.6444 -50.6176 -50.6175 -50.6173
   -50.6173 -50.6152 -50.6150 -50.5898 -50.5896 -50.5640 -50.5640 -50.5636
   -50.5635 -50.5587 -50.5164 -50.5162 -50.5028 -50.5026 -50.4035 -50.4035
   -50.4027 -50.4027 -50.4011 -50.4010 -50.4003 -50.4003 -50.3416 -50.3389
   -50.3292 -50.3284 -50.3279 -50.3278 -50.3133 -50.3132 -50.3127 -50.3123
   -14.4107 -14.3192 -14.2180  -9.2570  -9.2570  -9.2570  -9.2227  -9.2227
    -9.2227  -9.1844  -9.1844  -9.1844  -8.1123  -8.1123  -8.1123  -8.0922
    -8.0922  -8.0922  -8.0568  -8.0568  -8.0568  -3.0760  -2.4806  -2.4661
    -1.7789  -1.5851  -1.4012  -1.4012  -1.4012  -1.3881  -1.3881  -1.3881
    -1.3638  -1.3638  -1.3638  -1.3113  -1.1438  -0.6799  -0.6786  -0.6598
    -0.6594  -0.6566  -0.6564  -0.3084  -0.3081  -0.3064  -0.3063  -0.1155
    -0.1152  -0.1006  -0.1004   0.1312   0.1833   0.1838   0.2296   0.2306
     0.3033   0.3041   0.3060   0.3070   0.3150   0.4549   0.4554   0.5075
     0.5096   0.6290   0.6294   0.6302   0.6303   0.6524   0.6526   0.6530
     0.6530   1.0785   1.0795   1.1954   1.2000   1.2320   1.2323   1.2330
     1.2335   1.3441   1.3565   1.5875   1.6446   1.6449   1.6897   1.6950
     1.8184   1.8187   1.8688   1.8697   1.8703   1.8713   1.8897   1.8897
     1.8923   1.8923   1.9064   1.9064   1.9352   1.9419   2.3807   2.3808
     2.3812   2.6450   2.6451   2.6451   2.8469   2.8471   2.8472   3.9859
     5.2005   6.4462   6.4463   6.4463   6.5961   6.5961   6.5961   6.8982
     6.8986   6.8987   8.4011   8.4034   8.4776   8.5749   8.5944   8.5947
     8.5959   8.5964   9.2243   9.3818   9.3818   9.3827   9.3836   9.4467
     9.7857   9.7866  10.5328  10.7868  11.0493  11.0505  11.0520  11.0529
    11.2825  11.2829

          k = 0.0000 0.1925 0.0000 ( 32019 PWs)   bands (ev):

   -87.1325 -87.1233 -87.1170 -87.1166 -87.1149 -87.1149 -86.9195 -86.9187
   -86.9080 -86.9072 -86.9069 -86.9067 -50.6412 -50.6349 -50.6293 -50.6282
   -50.6233 -50.5991 -50.5924 -50.5818 -50.5768 -50.5672 -50.5611 -50.5606
   -50.5587 -50.5561 -50.5255 -50.5204 -50.5137 -50.5054 -50.4211 -50.4203
   -50.4158 -50.4150 -50.3803 -50.3795 -50.3778 -50.3769 -50.3403 -50.3381
   -50.3297 -50.3289 -50.3285 -50.3283 -50.3245 -50.3237 -50.3161 -50.3154
   -14.2488 -14.1583 -14.0581 -10.4905 -10.4230 -10.3460  -9.6426  -9.6426
    -9.5843  -9.5843  -9.5173  -9.5173  -7.5147  -7.5147  -7.4692  -7.4692
    -7.4132  -7.4132  -6.7005  -6.6533  -6.5962  -2.8815  -2.2753  -2.2300
    -1.8827  -1.8827  -1.8653  -1.8653  -1.8370  -1.8370  -1.5931  -1.3644
    -1.2430  -1.2300  -1.2059  -1.1327  -0.9583  -0.9557  -0.8304  -0.7724
    -0.7646  -0.6889  -0.5541  -0.4535  -0.3795  -0.3547  -0.3261  -0.2613
    -0.1648  -0.1447  -0.1420   0.0128   0.0960   0.1264   0.2034   0.2515
     0.3149   0.3294   0.3418   0.3744   0.3992   0.4246   0.4321   0.4625
     0.5063   0.5714   0.5728   0.6346   0.6541   0.7477   0.8370   0.9028
     0.9673   1.0129   1.0205   1.1233   1.1295   1.1991   1.2395   1.2420
     1.2486   1.2666   1.3027   1.3125   1.3321   1.3874   1.4729   1.5017
     1.5313   1.5601   1.5651   1.5816   1.6219   1.6731   1.6898   1.8285
     1.8335   1.8342   1.8938   1.9337   1.9578   2.0129   2.0787   2.1945
     2.1950   2.2858   2.3065   2.5432   2.5432   2.8643   2.8647   4.3491
     5.7279   5.8562   6.6536   6.6538   6.7336   6.8593   6.8594   7.0001
     7.1707   7.1711   7.3438   7.3667   7.6555   7.9167   8.0178   8.1492
     8.3919   8.6953   8.7890   9.4131   9.6663   9.6886   9.8609  10.2210
    10.2895  10.4605  10.7362  10.9678  11.2552  11.2906  11.3340  11.4868
    11.9930  12.1101

          k = 0.0000 0.3849 0.0000 ( 32055 PWs)   bands (ev):

   -87.1291 -87.1210 -87.1202 -87.1179 -87.1159 -87.1151 -86.9167 -86.9159
   -86.9099 -86.9090 -86.9081 -86.9074 -50.6480 -50.6408 -50.6331 -50.6267
   -50.6193 -50.5933 -50.5836 -50.5724 -50.5708 -50.5598 -50.5576 -50.5551
   -50.5463 -50.5449 -50.5420 -50.5415 -50.5268 -50.5143 -50.4337 -50.4330
   -50.4103 -50.4094 -50.3585 -50.3577 -50.3550 -50.3541 -50.3532 -50.3524
   -50.3373 -50.3358 -50.3313 -50.3302 -50.3298 -50.3290 -50.3250 -50.3243
   -13.7652 -13.6775 -13.5801 -11.8629 -11.7863 -11.7002 -10.0462 -10.0461
    -9.9814  -9.9814  -9.9073  -9.9073  -6.3850  -6.3849  -6.3430  -6.3430
    -6.2911  -6.2911  -4.6353  -4.5971  -4.5488  -3.0097  -3.0096  -2.9857
    -2.9856  -2.9510  -2.9509  -2.3023  -1.7082  -1.5733  -1.2056  -1.1060
    -1.1002  -1.0416  -0.8745  -0.8238  -0.8031  -0.7821  -0.7726  -0.7698
    -0.7464  -0.7212  -0.6352  -0.6107  -0.5711  -0.4664  -0.3911  -0.3834
    -0.3674  -0.3404  -0.2658  -0.2436  -0.2334  -0.1269  -0.0826  -0.0819
    -0.0714   0.0273   0.1435   0.1592   0.2055   0.2386   0.3115   0.3527
     0.3685   0.4485   0.4527   0.5586   0.5690   0.6128   0.6918   0.7047
     0.7157   0.7503   0.7886   0.7889   0.7974   0.8174   0.9041   0.9197
     0.9655   0.9845   1.0313   1.1572   1.1755   1.2311   1.3069   1.3593
     1.3996   1.4030   1.4428   1.6049   1.6222   1.7099   1.7458   1.7808
     1.8682   1.8936   1.9062   1.9300   1.9306   1.9789   1.9921   2.0271
     2.0899   2.1217   2.3634   2.3634   2.8134   2.8141   3.0437   3.6287
     4.3458   5.2022   5.7038   5.8469   6.3364   6.8555   6.9716   7.1668
     7.1672   7.1865   7.3975   7.3975   7.6580   7.6584   7.9828   9.1930
     9.3471   9.4283   9.4442   9.7194   9.7856   9.9796  10.0331  10.3309
    10.3595  10.5880  11.3434  11.5339  11.8177  11.9047  11.9564  12.2467
    12.2685  12.3892

          k = 0.0000-0.5774 0.0000 ( 32112 PWs)   bands (ev):

   -87.1246 -87.1246 -87.1184 -87.1182 -87.1182 -87.1153 -86.9134 -86.9128
   -86.9123 -86.9122 -86.9085 -86.9078 -50.6527 -50.6455 -50.6247 -50.6247
   -50.5984 -50.5984 -50.5854 -50.5790 -50.5789 -50.5631 -50.5529 -50.5507
   -50.5506 -50.5410 -50.5409 -50.5321 -50.5287 -50.5287 -50.4382 -50.4375
   -50.3867 -50.3862 -50.3856 -50.3855 -50.3457 -50.3449 -50.3398 -50.3391
   -50.3388 -50.3387 -50.3343 -50.3336 -50.3330 -50.3329 -50.3303 -50.3294
   -12.9656 -12.9656 -12.8826 -12.8826 -12.7900 -12.7899 -10.1901 -10.1900
   -10.1239 -10.1239 -10.0482 -10.0482  -5.5363  -5.5363  -5.5155  -5.5155
    -5.4863  -5.4863  -3.8623  -3.8623  -3.8496  -3.8496  -3.8250  -3.8250
    -2.4600  -2.4600  -2.4329  -2.4328  -2.3952  -2.3952  -1.3590  -1.3553
    -1.3549  -1.2679  -1.2026  -0.9449  -0.9092  -0.9087  -0.8013  -0.7837
    -0.7836  -0.6937  -0.6933  -0.5170  -0.5128  -0.5119  -0.4741  -0.4737
    -0.3814  -0.3808  -0.2387  -0.2384  -0.1469  -0.1465  -0.0677  -0.0676
    -0.0568  -0.0567  -0.0346  -0.0346   0.0405   0.0407   0.0423   0.0826
     0.1162   0.1166   0.2922   0.2929   0.3039   0.3366   0.3369   0.3902
     0.3911   0.6350   0.6354   0.6951   0.6953   0.8739   0.9376   0.9380
     0.9396   1.1287   1.1292   1.2446   1.2588   1.2589   1.4990   1.5309
     1.5311   1.6243   1.6245   1.7192   1.7262   1.7266   1.8231   1.8239
     1.8874   1.8925   1.8929   1.9930   2.0150   2.0755   2.0760   2.1025
     2.2473   2.2622   2.2827   2.2828   2.5389   2.5392   2.7735   2.7743
     4.1279   4.1284   5.0854   5.9024   6.3785   6.3794   6.4354   6.6387
     7.4787   7.4790   7.6800   7.6801   7.8747   7.8750   8.5699   8.5710
     9.0754   9.6292  10.3534  10.4267  10.4271  10.4846  10.4848  10.9432
    10.9436  11.4356  11.4358  11.5852  11.7762  11.7767  11.9024  11.9042
    12.1656  12.1676

          k = 0.1667-0.0962 0.0000 ( 32019 PWs)   bands (ev):

   -87.1325 -87.1233 -87.1170 -87.1166 -87.1149 -87.1149 -86.9195 -86.9187
   -86.9080 -86.9072 -86.9069 -86.9067 -50.6412 -50.6346 -50.6294 -50.6283
   -50.6236 -50.5987 -50.5925 -50.5820 -50.5768 -50.5673 -50.5612 -50.5606
   -50.5586 -50.5561 -50.5256 -50.5203 -50.5137 -50.5054 -50.4211 -50.4202
   -50.4157 -50.4151 -50.3804 -50.3794 -50.3777 -50.3770 -50.3403 -50.3381
   -50.3297 -50.3289 -50.3285 -50.3283 -50.3244 -50.3238 -50.3162 -50.3153
   -14.2488 -14.1583 -14.0581 -10.4905 -10.4230 -10.3460  -9.6426  -9.6426
    -9.5843  -9.5843  -9.5173  -9.5173  -7.5147  -7.5147  -7.4692  -7.4692
    -7.4132  -7.4132  -6.7005  -6.6533  -6.5962  -2.8815  -2.2753  -2.2299
    -1.8827  -1.8827  -1.8653  -1.8653  -1.8370  -1.8370  -1.5931  -1.3642
    -1.2430  -1.2300  -1.2059  -1.1327  -0.9577  -0.9557  -0.8311  -0.7734
    -0.7642  -0.6892  -0.5534  -0.4537  -0.3802  -0.3550  -0.3245  -0.2616
    -0.1642  -0.1442  -0.1431   0.0127   0.0959   0.1257   0.2037   0.2513
     0.3146   0.3297   0.3428   0.3743   0.3997   0.4234   0.4322   0.4628
     0.5061   0.5719   0.5730   0.6346   0.6538   0.7477   0.8371   0.9029
     0.9688   1.0124   1.0207   1.1234   1.1276   1.2012   1.2399   1.2420
     1.2486   1.2666   1.3029   1.3124   1.3324   1.3874   1.4720   1.5018
     1.5305   1.5601   1.5651   1.5816   1.6219   1.6729   1.6900   1.8285
     1.8331   1.8342   1.8943   1.9319   1.9586   2.0131   2.0774   2.1946
     2.1949   2.2858   2.3078   2.5432   2.5432   2.8644   2.8646   4.3493
     5.7281   5.8561   6.6537   6.6537   6.7333   6.8593   6.8594   6.9987
     7.1708   7.1710   7.3455   7.3667   7.6555   7.9177   8.0178   8.1491
     8.3961   8.6953   8.7890   9.4131   9.6663   9.6831   9.8589  10.2224
    10.2892  10.4616  10.7362  10.9677  11.2557  11.2877  11.3338  11.4869
    11.9930  12.1101

          k = 0.1667 0.0962 0.0000 ( 32019 PWs)   bands (ev):

   -87.1325 -87.1233 -87.1170 -87.1166 -87.1149 -87.1148 -86.9195 -86.9187
   -86.9080 -86.9072 -86.9069 -86.9067 -50.6412 -50.6349 -50.6293 -50.6282
   -50.6234 -50.5989 -50.5923 -50.5824 -50.5767 -50.5671 -50.5610 -50.5606
   -50.5584 -50.5565 -50.5255 -50.5204 -50.5135 -50.5056 -50.4211 -50.4204
   -50.4157 -50.4149 -50.3804 -50.3797 -50.3776 -50.3767 -50.3403 -50.3381
   -50.3297 -50.3289 -50.3284 -50.3283 -50.3244 -50.3235 -50.3163 -50.3156
   -14.2488 -14.1583 -14.0581 -10.4905 -10.4230 -10.3460  -9.6426  -9.6426
    -9.5843  -9.5843  -9.5173  -9.5173  -7.5147  -7.5147  -7.4692  -7.4692
    -7.4132  -7.4132  -6.7005  -6.6533  -6.5962  -2.8815  -2.2753  -2.2300
    -1.8827  -1.8827  -1.8653  -1.8653  -1.8370  -1.8370  -1.5931  -1.3643
    -1.2430  -1.2300  -1.2059  -1.1331  -0.9590  -0.9562  -0.8310  -0.7708
    -0.7636  -0.6888  -0.5533  -0.4530  -0.3820  -0.3562  -0.3252  -0.2613
    -0.1650  -0.1432  -0.1419   0.0140   0.0956   0.1267   0.2017   0.2537
     0.3142   0.3285   0.3429   0.3751   0.4005   0.4279   0.4314   0.4607
     0.5063   0.5656   0.5738   0.6350   0.6561   0.7456   0.8353   0.9084
     0.9671   1.0119   1.0204   1.1262   1.1282   1.1979   1.2414   1.2420
     1.2486   1.2666   1.3025   1.3085   1.3300   1.3874   1.4725   1.5008
     1.5310   1.5601   1.5651   1.5816   1.6166   1.6776   1.6917   1.8285
     1.8332   1.8350   1.8927   1.9371   1.9577   2.0125   2.0801   2.1946
     2.1949   2.2858   2.3065   2.5432   2.5432   2.8644   2.8646   4.3486
     5.7274   5.8565   6.6537   6.6537   6.7334   6.8593   6.8594   6.9990
     7.1708   7.1710   7.3481   7.3667   7.6555   7.9114   8.0178   8.1506
     8.3860   8.6953   8.7890   9.4131   9.6663   9.6927   9.8629  10.2228
    10.2934  10.4557  10.7362  10.9678  11.2567  11.2897  11.3317  11.4865
    11.9930  12.1101

          k = 0.1667 0.2887 0.0000 ( 32043 PWs)   bands (ev):

   -87.1302 -87.1217 -87.1185 -87.1184 -87.1153 -87.1152 -86.9176 -86.9168
   -86.9089 -86.9082 -86.9078 -86.9078 -50.6368 -50.6366 -50.6356 -50.6311
   -50.6310 -50.5888 -50.5884 -50.5714 -50.5712 -50.5679 -50.5559 -50.5558
   -50.5480 -50.5476 -50.5401 -50.5344 -50.5257 -50.5100 -50.4230 -50.4228
   -50.4222 -50.4221 -50.3617 -50.3616 -50.3609 -50.3607 -50.3453 -50.3443
   -50.3381 -50.3364 -50.3306 -50.3298 -50.3293 -50.3292 -50.3213 -50.3208
   -13.9261 -13.8375 -13.7392 -11.0918 -11.0917 -11.0199 -11.0199 -10.9386
   -10.9386  -8.8380  -8.8053  -8.7682  -7.7313  -7.7146  -7.6829  -5.6217
    -5.6216  -5.5797  -5.5797  -5.5278  -5.5278  -3.1939  -3.1684  -3.1322
    -2.4945  -1.8963  -1.7835  -1.5611  -1.5611  -1.5446  -1.5446  -1.5172
    -1.5172  -1.2243  -1.0444  -1.0186  -1.0176  -0.9085  -0.9083  -0.8729
    -0.8727  -0.8499  -0.6736  -0.5640  -0.5620  -0.3699  -0.3686  -0.3565
    -0.3559  -0.1911  -0.1422  -0.1395  -0.0150   0.0249   0.2186   0.2252
     0.2352   0.2382   0.2425   0.3127   0.3799   0.4028   0.4092   0.4579
     0.4871   0.4917   0.5370   0.5582   0.6187   0.6438   0.6451   0.7706
     0.7818   0.7820   0.8555   0.9058   0.9095   0.9249   1.0058   1.0253
     1.0260   1.1161   1.1171   1.1179   1.2381   1.2750   1.2750   1.2900
     1.2914   1.3638   1.3900   1.3912   1.5070   1.5078   1.5746   1.5768
     1.6044   1.6882   1.8072   1.8074   1.8689   1.8694   1.9621   2.0069
     2.0078   2.1350   2.1363   2.8102   2.9644   3.2271   3.4221   4.7138
     4.7146   4.9371   5.4980   5.4985   6.3175   6.3659   6.5301   6.5906
     6.9001   6.9036   8.2881   8.2883   8.5677   8.5678   8.6728   8.6759
     8.8852   8.8854   9.1303   9.2157   9.7598   9.7651   9.7897  10.1088
    10.5370  10.5410  11.1432  11.3419  11.3487  11.3514  12.4604  12.4740
    12.6051  12.7838

          k = 0.1667-0.6736 0.0000 ( 32075 PWs)   bands (ev):

   -87.1263 -87.1220 -87.1195 -87.1192 -87.1167 -87.1156 -86.9145 -86.9136
   -86.9111 -86.9103 -86.9092 -86.9085 -50.6435 -50.6378 -50.6275 -50.6265
   -50.6192 -50.5918 -50.5888 -50.5879 -50.5674 -50.5615 -50.5568 -50.5513
   -50.5490 -50.5475 -50.5356 -50.5325 -50.5324 -50.5191 -50.4293 -50.4284
   -50.4074 -50.4065 -50.3776 -50.3765 -50.3458 -50.3450 -50.3448 -50.3440
   -50.3353 -50.3341 -50.3324 -50.3313 -50.3309 -50.3308 -50.3303 -50.3299
   -13.2845 -13.1996 -13.1051 -12.3330 -12.2537 -12.1648 -11.3990 -11.3253
   -11.2419  -8.7948  -8.7418  -8.6799  -6.9293  -6.8961  -6.8532  -4.5703
    -4.5461  -4.5108  -4.5065  -4.4779  -4.4396  -3.5288  -3.4981  -3.4573
    -2.4343  -2.4165  -2.3875  -1.7306  -1.4786  -1.4610  -1.4334  -1.2460
    -1.1973  -1.1820  -1.1490  -1.1080  -0.9707  -0.9390  -0.9310  -0.9248
    -0.8995  -0.8781  -0.8735  -0.8455  -0.7097  -0.6903  -0.6152  -0.5907
    -0.5125  -0.4995  -0.4501  -0.3907  -0.3436  -0.3166  -0.1686  -0.0699
    -0.0646  -0.0602  -0.0394  -0.0226   0.0251   0.0275   0.1684   0.2469
     0.2809   0.3450   0.3502   0.3980   0.4175   0.4635   0.4816   0.5454
     0.6168   0.7112   0.7851   0.7921   0.8485   0.8988   0.9368   0.9458
     0.9791   1.0525   1.1068   1.1101   1.1245   1.1585   1.2419   1.3205
     1.4143   1.4575   1.4602   1.5436   1.5619   1.5723   1.5953   1.6718
     1.7683   1.8241   1.8339   1.8528   1.8868   1.9181   1.9629   1.9985
     2.0188   2.0424   2.1377   2.7264   3.2786   3.3624   3.6265   3.6345
     3.8307   3.9522   4.5861   4.9673   5.8987   6.0311   6.0455   6.2065
     6.4039   7.2122   7.8831   7.9595   9.0409   9.2464   9.4521   9.4912
     9.5890   9.9973  10.0635  10.1699  10.4769  10.5524  10.6968  10.8821
    10.9365  10.9958  11.2845  11.3245  11.6981  11.9438  11.9692  12.0901
    12.1213  12.3556

          k = 0.1667-0.4811 0.0000 ( 32075 PWs)   bands (ev):

   -87.1263 -87.1220 -87.1195 -87.1192 -87.1167 -87.1156 -86.9145 -86.9136
   -86.9111 -86.9103 -86.9092 -86.9085 -50.6435 -50.6379 -50.6275 -50.6265
   -50.6191 -50.5920 -50.5886 -50.5878 -50.5675 -50.5615 -50.5568 -50.5513
   -50.5490 -50.5477 -50.5355 -50.5326 -50.5324 -50.5190 -50.4293 -50.4284
   -50.4074 -50.4064 -50.3776 -50.3768 -50.3458 -50.3450 -50.3448 -50.3442
   -50.3353 -50.3341 -50.3324 -50.3313 -50.3309 -50.3308 -50.3301 -50.3299
   -13.2845 -13.1996 -13.1051 -12.3330 -12.2537 -12.1648 -11.3990 -11.3253
   -11.2419  -8.7948  -8.7418  -8.6799  -6.9293  -6.8961  -6.8532  -4.5703
    -4.5461  -4.5108  -4.5065  -4.4779  -4.4396  -3.5288  -3.4981  -3.4573
    -2.4343  -2.4165  -2.3875  -1.7306  -1.4786  -1.4610  -1.4334  -1.2459
    -1.1965  -1.1822  -1.1490  -1.1081  -0.9716  -0.9390  -0.9315  -0.9248
    -0.8995  -0.8771  -0.8727  -0.8452  -0.7083  -0.6905  -0.6152  -0.5909
    -0.5120  -0.4995  -0.4504  -0.3937  -0.3424  -0.3173  -0.1696  -0.0699
    -0.0646  -0.0602  -0.0394  -0.0238   0.0212   0.0282   0.1720   0.2470
     0.2825   0.3468   0.3490   0.3915   0.4157   0.4635   0.4840   0.5454
     0.6172   0.7178   0.7921   0.7933   0.8456   0.8944   0.9371   0.9471
     0.9791   1.0511   1.1047   1.1102   1.1251   1.1568   1.2426   1.3215
     1.4156   1.4586   1.4609   1.5436   1.5635   1.5727   1.5916   1.6715
     1.7650   1.8235   1.8338   1.8539   1.8920   1.9192   1.9619   1.9975
     2.0176   2.0416   2.1345   2.7265   3.2786   3.3627   3.6265   3.6340
     3.8308   3.9522   4.5861   4.9690   5.9005   6.0314   6.0455   6.2065
     6.4039   7.2111   7.8834   7.9624   9.0409   9.2464   9.4521   9.4912
     9.5848   9.9973  10.0635  10.1698  10.4769  10.5524  10.6968  10.8821
    10.9365  10.9960  11.2844  11.3243  11.6977  11.9439  11.9682  12.0904
    12.1214  12.3540

          k = 0.1667-0.2887 0.0000 ( 32043 PWs)   bands (ev):

   -87.1302 -87.1217 -87.1185 -87.1184 -87.1153 -87.1152 -86.9176 -86.9168
   -86.9089 -86.9082 -86.9078 -86.9078 -50.6368 -50.6365 -50.6356 -50.6312
   -50.6311 -50.5886 -50.5883 -50.5713 -50.5713 -50.5680 -50.5562 -50.5561
   -50.5477 -50.5476 -50.5400 -50.5347 -50.5256 -50.5098 -50.4230 -50.4228
   -50.4221 -50.4220 -50.3617 -50.3616 -50.3610 -50.3608 -50.3453 -50.3446
   -50.3381 -50.3364 -50.3306 -50.3298 -50.3293 -50.3292 -50.3213 -50.3204
   -13.9261 -13.8375 -13.7392 -11.0918 -11.0917 -11.0199 -11.0199 -10.9386
   -10.9386  -8.8380  -8.8053  -8.7682  -7.7313  -7.7146  -7.6829  -5.6217
    -5.6216  -5.5797  -5.5797  -5.5278  -5.5278  -3.1939  -3.1684  -3.1322
    -2.4945  -1.8963  -1.7832  -1.5611  -1.5611  -1.5446  -1.5446  -1.5172
    -1.5172  -1.2243  -1.0442  -1.0182  -1.0173  -0.9093  -0.9091  -0.8731
    -0.8729  -0.8481  -0.6709  -0.5623  -0.5620  -0.3724  -0.3718  -0.3560
    -0.3558  -0.1952  -0.1414  -0.1411  -0.0164   0.0251   0.2186   0.2252
     0.2387   0.2399   0.2425   0.3093   0.3803   0.4011   0.4023   0.4594
     0.4878   0.4884   0.5414   0.5575   0.6162   0.6526   0.6531   0.7709
     0.7818   0.7820   0.8548   0.9058   0.9095   0.9249   1.0007   1.0257
     1.0266   1.1153   1.1165   1.1193   1.2365   1.2750   1.2750   1.2906
     1.2909   1.3699   1.3937   1.3939   1.5065   1.5072   1.5710   1.5720
     1.6085   1.6857   1.8072   1.8074   1.8703   1.8709   1.9581   2.0068
     2.0074   2.1329   2.1341   2.8106   2.9644   3.2271   3.4221   4.7139
     4.7143   4.9387   5.4981   5.4989   6.3175   6.3659   6.5301   6.5925
     6.9035   6.9044   8.2881   8.2883   8.5677   8.5678   8.6764   8.6790
     8.8852   8.8854   9.1303   9.2157   9.7560   9.7598   9.7897  10.1088
    10.5356  10.5369  11.1432  11.3417  11.3484  11.3517  12.4605  12.4621
    12.6051  12.7837

          k = 0.3333-0.1925 0.0000 ( 32055 PWs)   bands (ev):

   -87.1291 -87.1210 -87.1202 -87.1179 -87.1159 -87.1151 -86.9167 -86.9159
   -86.9099 -86.9090 -86.9081 -86.9074 -50.6478 -50.6408 -50.6331 -50.6268
   -50.6195 -50.5930 -50.5839 -50.5726 -50.5708 -50.5599 -50.5576 -50.5550
   -50.5462 -50.5448 -50.5421 -50.5415 -50.5267 -50.5143 -50.4337 -50.4329
   -50.4102 -50.4095 -50.3585 -50.3576 -50.3549 -50.3543 -50.3531 -50.3525
   -50.3373 -50.3358 -50.3313 -50.3303 -50.3299 -50.3290 -50.3251 -50.3241
   -13.7652 -13.6775 -13.5801 -11.8629 -11.7863 -11.7002 -10.0462 -10.0461
    -9.9814  -9.9814  -9.9073  -9.9073  -6.3850  -6.3850  -6.3430  -6.3430
    -6.2911  -6.2911  -4.6353  -4.5971  -4.5487  -3.0097  -3.0097  -2.9856
    -2.9856  -2.9509  -2.9509  -2.3023  -1.7082  -1.5732  -1.2056  -1.1063
    -1.1001  -1.0416  -0.8737  -0.8245  -0.8043  -0.7821  -0.7726  -0.7698
    -0.7464  -0.7216  -0.6343  -0.6108  -0.5709  -0.4666  -0.3911  -0.3834
    -0.3673  -0.3404  -0.2657  -0.2431  -0.2335  -0.1269  -0.0829  -0.0819
    -0.0709   0.0268   0.1442   0.1609   0.2052   0.2393   0.3112   0.3519
     0.3697   0.4485   0.4507   0.5575   0.5717   0.6133   0.6917   0.7042
     0.7152   0.7502   0.7887   0.7889   0.7974   0.8174   0.9046   0.9200
     0.9652   0.9832   1.0313   1.1569   1.1763   1.2306   1.3070   1.3591
     1.4005   1.4032   1.4427   1.6041   1.6222   1.7101   1.7455   1.7805
     1.8686   1.8940   1.9047   1.9302   1.9305   1.9791   1.9926   2.0266
     2.0882   2.1219   2.3634   2.3634   2.8136   2.8139   3.0449   3.6287
     4.3456   5.2026   5.7010   5.8472   6.3387   6.8570   6.9722   7.1669
     7.1671   7.1926   7.3975   7.3975   7.6581   7.6583   7.9832   9.1862
     9.3472   9.4284   9.4441   9.7193   9.7846   9.9796  10.0331  10.3310
    10.3606  10.5843  11.3434  11.5338  11.8140  11.9048  11.9564  12.2463
    12.2685  12.3882

          k = 0.3333-0.0000 0.0000 ( 32043 PWs)   bands (ev):

   -87.1302 -87.1217 -87.1185 -87.1184 -87.1152 -87.1152 -86.9176 -86.9168
   -86.9089 -86.9082 -86.9078 -86.9078 -50.6368 -50.6365 -50.6356 -50.6312
   -50.6311 -50.5885 -50.5884 -50.5715 -50.5714 -50.5680 -50.5559 -50.5558
   -50.5480 -50.5476 -50.5401 -50.5344 -50.5256 -50.5099 -50.4230 -50.4229
   -50.4222 -50.4220 -50.3617 -50.3615 -50.3610 -50.3607 -50.3451 -50.3445
   -50.3381 -50.3364 -50.3306 -50.3298 -50.3293 -50.3292 -50.3214 -50.3206
   -13.9261 -13.8375 -13.7392 -11.0918 -11.0917 -11.0199 -11.0199 -10.9386
   -10.9385  -8.8380  -8.8053  -8.7682  -7.7313  -7.7146  -7.6829  -5.6217
    -5.6216  -5.5797  -5.5797  -5.5278  -5.5278  -3.1939  -3.1684  -3.1322
    -2.4945  -1.8963  -1.7833  -1.5611  -1.5611  -1.5446  -1.5446  -1.5172
    -1.5172  -1.2243  -1.0436  -1.0186  -1.0173  -0.9087  -0.9085  -0.8732
    -0.8728  -0.8499  -0.6735  -0.5642  -0.5624  -0.3698  -0.3689  -0.3564
    -0.3556  -0.1924  -0.1427  -0.1402  -0.0151   0.0251   0.2186   0.2252
     0.2363   0.2404   0.2425   0.3119   0.3799   0.4009   0.4084   0.4586
     0.4869   0.4920   0.5383   0.5581   0.6187   0.6448   0.6463   0.7708
     0.7817   0.7821   0.8555   0.9058   0.9095   0.9249   1.0040   1.0255
     1.0269   1.1165   1.1174   1.1182   1.2379   1.2750   1.2750   1.2903
     1.2914   1.3647   1.3897   1.3911   1.5066   1.5069   1.5747   1.5763
     1.6038   1.6885   1.8071   1.8075   1.8691   1.8701   1.9606   2.0073
     2.0077   2.1335   2.1360   2.8114   2.9644   3.2271   3.4221   4.7139
     4.7143   4.9375   5.4983   5.4988   6.3175   6.3659   6.5301   6.5913
     6.9004   6.9043   8.2880   8.2884   8.5677   8.5678   8.6731   8.6785
     8.8851   8.8855   9.1303   9.2157   9.7560   9.7650   9.7897  10.1088
    10.5361  10.5409  11.1432  11.3418  11.3482  11.3490  12.4590  12.4742
    12.6051  12.7840

          k = 0.3333 0.1925 0.0000 ( 32055 PWs)   bands (ev):

   -87.1291 -87.1210 -87.1202 -87.1179 -87.1159 -87.1151 -86.9167 -86.9159
   -86.9099 -86.9090 -86.9081 -86.9074 -50.6481 -50.6407 -50.6331 -50.6267
   -50.6193 -50.5931 -50.5843 -50.5725 -50.5706 -50.5596 -50.5576 -50.5548
   -50.5461 -50.5453 -50.5420 -50.5413 -50.5268 -50.5145 -50.4338 -50.4331
   -50.4102 -50.4093 -50.3586 -50.3579 -50.3548 -50.3539 -50.3530 -50.3522
   -50.3373 -50.3358 -50.3313 -50.3302 -50.3299 -50.3291 -50.3251 -50.3245
   -13.7652 -13.6775 -13.5801 -11.8629 -11.7863 -11.7002 -10.0462 -10.0461
    -9.9814  -9.9814  -9.9073  -9.9073  -6.3850  -6.3850  -6.3430  -6.3430
    -6.2911  -6.2911  -4.6353  -4.5971  -4.5487  -3.0097  -3.0097  -2.9857
    -2.9856  -2.9509  -2.9509  -2.3023  -1.7082  -1.5734  -1.2054  -1.1059
    -1.1007  -1.0416  -0.8741  -0.8234  -0.8025  -0.7821  -0.7715  -0.7698
    -0.7464  -0.7233  -0.6348  -0.6093  -0.5724  -0.4649  -0.3927  -0.3834
    -0.3673  -0.3404  -0.2650  -0.2431  -0.2312  -0.1271  -0.0876  -0.0819
    -0.0686   0.0263   0.1391   0.1576   0.2057   0.2386   0.3118   0.3511
     0.3717   0.4485   0.4558   0.5612   0.5661   0.6116   0.6921   0.7075
     0.7159   0.7511   0.7889   0.7960   0.7974   0.8174   0.8988   0.9122
     0.9650   0.9883   1.0313   1.1589   1.1704   1.2322   1.3036   1.3590
     1.3991   1.4015   1.4439   1.6117   1.6264   1.7081   1.7426   1.7803
     1.8666   1.8938   1.9085   1.9302   1.9305   1.9776   1.9939   2.0262
     2.0919   2.1227   2.3634   2.3634   2.8136   2.8139   3.0435   3.6289
     4.3458   5.2009   5.7052   5.8472   6.3459   6.8434   6.9704   7.1669
     7.1671   7.1747   7.3975   7.3975   7.6581   7.6583   7.9817   9.2010
     9.3472   9.4284   9.4441   9.7193   9.7915   9.9797  10.0331  10.3309
    10.3574  10.5858  11.3434  11.5340  11.8395  11.9046  11.9562  12.2461
    12.2685  12.3887

          k = 0.3333-0.7698 0.0000 ( 32075 PWs)   bands (ev):

   -87.1263 -87.1219 -87.1195 -87.1192 -87.1168 -87.1156 -86.9145 -86.9136
   -86.9111 -86.9103 -86.9092 -86.9085 -50.6435 -50.6378 -50.6275 -50.6265
   -50.6192 -50.5918 -50.5884 -50.5883 -50.5673 -50.5612 -50.5568 -50.5512
   -50.5490 -50.5476 -50.5356 -50.5327 -50.5323 -50.5192 -50.4294 -50.4285
   -50.4073 -50.4064 -50.3775 -50.3765 -50.3457 -50.3449 -50.3448 -50.3442
   -50.3352 -50.3340 -50.3324 -50.3313 -50.3310 -50.3308 -50.3304 -50.3299
   -13.2845 -13.1996 -13.1051 -12.3330 -12.2537 -12.1648 -11.3990 -11.3253
   -11.2419  -8.7948  -8.7418  -8.6799  -6.9293  -6.8961  -6.8532  -4.5703
    -4.5461  -4.5108  -4.5065  -4.4779  -4.4397  -3.5288  -3.4981  -3.4573
    -2.4343  -2.4165  -2.3875  -1.7306  -1.4786  -1.4610  -1.4334  -1.2453
    -1.1972  -1.1820  -1.1490  -1.1089  -0.9704  -0.9390  -0.9316  -0.9248
    -0.8995  -0.8782  -0.8728  -0.8441  -0.7101  -0.6886  -0.6152  -0.5927
    -0.5123  -0.4995  -0.4487  -0.3917  -0.3436  -0.3162  -0.1686  -0.0699
    -0.0645  -0.0603  -0.0394  -0.0227   0.0181   0.0326   0.1657   0.2479
     0.2768   0.3422   0.3495   0.3981   0.4242   0.4635   0.4829   0.5454
     0.6158   0.7093   0.7930   0.7954   0.8491   0.8917   0.9337   0.9493
     0.9792   1.0520   1.1080   1.1103   1.1226   1.1524   1.2424   1.3231
     1.4139   1.4581   1.4592   1.5436   1.5663   1.5724   1.5952   1.6726
     1.7669   1.8230   1.8347   1.8542   1.8875   1.9206   1.9616   2.0006
     2.0170   2.0421   2.1367   2.7264   3.2786   3.3622   3.6265   3.6339
     3.8312   3.9522   4.5870   4.9685   5.8981   6.0257   6.0455   6.2065
     6.4039   7.2105   7.8803   7.9590   9.0409   9.2463   9.4521   9.4970
     9.5856   9.9973  10.0635  10.1753  10.4770  10.5524  10.6968  10.8794
    10.9365  10.9957  11.2845  11.3243  11.6975  11.9437  11.9693  12.1095
    12.1214  12.3542

          k = 0.3333-0.5774 0.0000 ( 32121 PWs)   bands (ev):

   -87.1227 -87.1226 -87.1226 -87.1171 -87.1171 -87.1171 -86.9120 -86.9119
   -86.9109 -86.9108 -86.9108 -86.9107 -50.6277 -50.6275 -50.6275 -50.6209
   -50.6209 -50.6208 -50.5873 -50.5870 -50.5870 -50.5547 -50.5546 -50.5545
   -50.5440 -50.5439 -50.5438 -50.5247 -50.5246 -50.5245 -50.4081 -50.4078
   -50.4076 -50.4069 -50.4068 -50.4067 -50.3379 -50.3374 -50.3373 -50.3370
   -50.3368 -50.3366 -50.3333 -50.3332 -50.3322 -50.3318 -50.3318 -50.3315
   -12.4909 -12.4908 -12.4908 -12.4106 -12.4106 -12.4106 -12.3208 -12.3208
   -12.3208  -7.6179  -7.5609  -7.5590  -7.5579  -7.5486  -7.4955  -5.3821
    -5.3800  -5.3715  -2.7958  -2.7958  -2.7957  -2.7821  -2.7821  -2.7820
    -2.7588  -2.7588  -2.7588  -1.3898  -1.3898  -1.3898  -1.3818  -1.3818
    -1.3818  -1.3620  -1.3620  -1.3620  -1.1436  -1.1429  -1.1422  -1.1066
    -1.1058  -1.1054  -0.9276  -0.9272  -0.9263  -0.7955  -0.7951  -0.7950
    -0.7453  -0.7450  -0.7440  -0.5775  -0.5771  -0.5750  -0.3101  -0.3096
    -0.3092  -0.2382  -0.2382  -0.2382   0.1118   0.1156   0.1169   0.3098
     0.3157   0.3169   0.3801   0.3802   0.3805   0.4144   0.4163   0.4172
     0.5355   0.5358   0.5401   0.9214   0.9217   0.9250   0.9577   0.9613
     0.9624   1.2908   1.2915   1.2919   1.3590   1.3605   1.3609   1.5465
     1.5467   1.5489   1.6040   1.6044   1.6052   1.6728   1.6730   1.6734
     1.7708   1.7710   1.7713   1.8061   1.8069   1.8071   2.0106   2.0113
     2.0122   2.0453   2.0462   2.0467   2.8125   2.8136   2.8139   4.5099
     4.6010   4.6028   4.6036   4.9314   4.9332   4.9390   4.9479   5.3980
     6.9171   6.9175   6.9193   9.2897   9.2922   9.2961  10.9678  10.9681
    10.9686  11.0621  11.0630  11.0638  11.0950  11.0953  11.0958  11.1284
    11.1293  11.1307  11.2820  11.2826  11.2831  11.4699  11.4708  11.4716
    11.7966  11.7975

          k = 0.3333-0.3849 0.0000 ( 32075 PWs)   bands (ev):

   -87.1263 -87.1219 -87.1195 -87.1192 -87.1168 -87.1156 -86.9145 -86.9136
   -86.9111 -86.9103 -86.9092 -86.9085 -50.6432 -50.6379 -50.6275 -50.6265
   -50.6193 -50.5920 -50.5885 -50.5880 -50.5675 -50.5614 -50.5569 -50.5514
   -50.5490 -50.5476 -50.5355 -50.5325 -50.5325 -50.5189 -50.4293 -50.4283
   -50.4074 -50.4065 -50.3776 -50.3768 -50.3457 -50.3451 -50.3449 -50.3441
   -50.3352 -50.3341 -50.3324 -50.3313 -50.3309 -50.3308 -50.3300 -50.3298
   -13.2845 -13.1996 -13.1051 -12.3330 -12.2537 -12.1648 -11.3990 -11.3253
   -11.2419  -8.7948  -8.7418  -8.6799  -6.9293  -6.8961  -6.8532  -4.5703
    -4.5461  -4.5108  -4.5065  -4.4779  -4.4397  -3.5288  -3.4981  -3.4573
    -2.4343  -2.4165  -2.3875  -1.7306  -1.4786  -1.4610  -1.4334  -1.2462
    -1.1965  -1.1827  -1.1490  -1.1077  -0.9711  -0.9390  -0.9311  -0.9248
    -0.8995  -0.8770  -0.8737  -0.8451  -0.7087  -0.6906  -0.6152  -0.5910
    -0.5120  -0.4995  -0.4507  -0.3935  -0.3421  -0.3167  -0.1693  -0.0699
    -0.0645  -0.0603  -0.0394  -0.0241   0.0224   0.0275   0.1728   0.2458
     0.2834   0.3477   0.3481   0.3930   0.4145   0.4635   0.4846   0.5454
     0.6174   0.7175   0.7922   0.7931   0.8452   0.8947   0.9374   0.9467
     0.9792   1.0504   1.1044   1.1100   1.1246   1.1573   1.2425   1.3217
     1.4155   1.4586   1.4611   1.5436   1.5628   1.5728   1.5915   1.6714
     1.7648   1.8237   1.8343   1.8542   1.8916   1.9184   1.9622   1.9962
     2.0179   2.0415   2.1351   2.7266   3.2786   3.3620   3.6265   3.6345
     3.8299   3.9522   4.5877   4.9695   5.9007   6.0321   6.0455   6.2065
     6.4039   7.2116   7.8859   7.9626   9.0409   9.2463   9.4521   9.4869
     9.5866   9.9973  10.0635  10.1686  10.4770  10.5524  10.6968  10.8785
    10.9365  10.9960  11.2845  11.3244  11.6976  11.9439  11.9690  12.0868
    12.1213  12.3541

          k =-0.5000 0.2887 0.0000 ( 32112 PWs)   bands (ev):

   -87.1246 -87.1246 -87.1184 -87.1182 -87.1182 -87.1152 -86.9134 -86.9128
   -86.9123 -86.9122 -86.9085 -86.9078 -50.6525 -50.6455 -50.6248 -50.6246
   -50.5986 -50.5986 -50.5856 -50.5789 -50.5788 -50.5629 -50.5530 -50.5507
   -50.5506 -50.5409 -50.5409 -50.5322 -50.5287 -50.5286 -50.4382 -50.4373
   -50.3867 -50.3861 -50.3857 -50.3856 -50.3456 -50.3450 -50.3399 -50.3392
   -50.3386 -50.3386 -50.3343 -50.3336 -50.3330 -50.3329 -50.3303 -50.3293
   -12.9656 -12.9656 -12.8826 -12.8826 -12.7900 -12.7899 -10.1900 -10.1900
   -10.1239 -10.1239 -10.0482 -10.0482  -5.5363  -5.5363  -5.5155  -5.5155
    -5.4863  -5.4863  -3.8623  -3.8623  -3.8496  -3.8496  -3.8250  -3.8250
    -2.4600  -2.4600  -2.4328  -2.4328  -2.3952  -2.3952  -1.3593  -1.3552
    -1.3550  -1.2684  -1.2024  -0.9449  -0.9094  -0.9085  -0.8014  -0.7837
    -0.7837  -0.6948  -0.6946  -0.5172  -0.5119  -0.5109  -0.4733  -0.4726
    -0.3820  -0.3815  -0.2383  -0.2382  -0.1468  -0.1466  -0.0677  -0.0676
    -0.0568  -0.0568  -0.0346  -0.0346   0.0411   0.0414   0.0422   0.0853
     0.1162   0.1171   0.2924   0.2926   0.3024   0.3367   0.3370   0.3895
     0.3910   0.6364   0.6366   0.6935   0.6937   0.8736   0.9386   0.9394
     0.9398   1.1280   1.1283   1.2447   1.2579   1.2582   1.4990   1.5311
     1.5313   1.6244   1.6249   1.7177   1.7262   1.7267   1.8233   1.8237
     1.8876   1.8910   1.8915   1.9935   2.0157   2.0754   2.0762   2.1024
     2.2473   2.2621   2.2827   2.2828   2.5385   2.5392   2.7737   2.7741
     4.1287   4.1293   5.0820   5.9046   6.3793   6.3796   6.4366   6.6457
     7.4788   7.4789   7.6801   7.6801   7.8748   7.8750   8.5705   8.5721
     9.0684   9.6280  10.3496  10.4269  10.4270  10.4846  10.4848  10.9431
    10.9436  11.4357  11.4359  11.5807  11.7763  11.7765  11.9028  11.9037
    12.1661  12.1671

          k =-0.5000 0.4811 0.0000 ( 32075 PWs)   bands (ev):

   -87.1263 -87.1220 -87.1195 -87.1192 -87.1167 -87.1156 -86.9145 -86.9136
   -86.9111 -86.9103 -86.9092 -86.9085 -50.6432 -50.6379 -50.6275 -50.6265
   -50.6193 -50.5920 -50.5886 -50.5880 -50.5674 -50.5614 -50.5569 -50.5514
   -50.5490 -50.5474 -50.5355 -50.5325 -50.5324 -50.5191 -50.4293 -50.4283
   -50.4074 -50.4066 -50.3775 -50.3767 -50.3457 -50.3452 -50.3448 -50.3439
   -50.3352 -50.3341 -50.3324 -50.3313 -50.3310 -50.3308 -50.3301 -50.3298
   -13.2845 -13.1996 -13.1051 -12.3330 -12.2537 -12.1648 -11.3990 -11.3253
   -11.2419  -8.7948  -8.7418  -8.6799  -6.9293  -6.8961  -6.8532  -4.5703
    -4.5461  -4.5108  -4.5065  -4.4779  -4.4396  -3.5288  -3.4981  -3.4573
    -2.4343  -2.4165  -2.3875  -1.7306  -1.4786  -1.4610  -1.4334  -1.2463
    -1.1966  -1.1825  -1.1490  -1.1078  -0.9708  -0.9390  -0.9306  -0.9248
    -0.8995  -0.8771  -0.8741  -0.8455  -0.7110  -0.6904  -0.6152  -0.5909
    -0.5130  -0.4995  -0.4503  -0.3908  -0.3423  -0.3162  -0.1686  -0.0699
    -0.0645  -0.0603  -0.0394  -0.0235   0.0246   0.0259   0.1712   0.2461
     0.2826   0.3485   0.3489   0.3987   0.4147   0.4635   0.4831   0.5454
     0.6159   0.7123   0.7856   0.7921   0.8482   0.8985   0.9369   0.9456
     0.9792   1.0519   1.1066   1.1102   1.1244   1.1590   1.2412   1.3206
     1.4141   1.4575   1.4603   1.5436   1.5611   1.5723   1.5952   1.6723
     1.7676   1.8240   1.8343   1.8533   1.8881   1.9167   1.9626   1.9968
     2.0182   2.0424   2.1372   2.7265   3.2786   3.3623   3.6265   3.6356
     3.8299   3.9522   4.5876   4.9678   5.8993   6.0320   6.0455   6.2065
     6.4039   7.2125   7.8857   7.9607   9.0409   9.2464   9.4521   9.4869
     9.5894   9.9973  10.0635  10.1687  10.4770  10.5523  10.6968  10.8785
    10.9365  10.9958  11.2846  11.3245  11.6981  11.9438  11.9690  12.0866
    12.1212  12.3557

          k =-0.5000 0.6736 0.0000 ( 32075 PWs)   bands (ev):

   -87.1263 -87.1220 -87.1195 -87.1192 -87.1168 -87.1156 -86.9145 -86.9136
   -86.9111 -86.9103 -86.9092 -86.9085 -50.6435 -50.6378 -50.6275 -50.6265
   -50.6191 -50.5920 -50.5884 -50.5883 -50.5673 -50.5613 -50.5568 -50.5512
   -50.5490 -50.5476 -50.5355 -50.5327 -50.5323 -50.5191 -50.4294 -50.4285
   -50.4074 -50.4063 -50.3775 -50.3766 -50.3457 -50.3448 -50.3448 -50.3443
   -50.3352 -50.3340 -50.3324 -50.3313 -50.3310 -50.3308 -50.3303 -50.3299
   -13.2845 -13.1996 -13.1051 -12.3330 -12.2537 -12.1648 -11.3990 -11.3253
   -11.2419  -8.7948  -8.7418  -8.6799  -6.9293  -6.8961  -6.8532  -4.5703
    -4.5461  -4.5108  -4.5065  -4.4779  -4.4396  -3.5288  -3.4981  -3.4573
    -2.4343  -2.4165  -2.3875  -1.7306  -1.4786  -1.4610  -1.4334  -1.2452
    -1.1965  -1.1820  -1.1490  -1.1091  -0.9711  -0.9390  -0.9317  -0.9248
    -0.8995  -0.8773  -0.8724  -0.8442  -0.7110  -0.6886  -0.6152  -0.5929
    -0.5127  -0.4995  -0.4487  -0.3921  -0.3426  -0.3163  -0.1688  -0.0699
    -0.0645  -0.0603  -0.0394  -0.0234   0.0165   0.0317   0.1676   0.2483
     0.2775   0.3447   0.3494   0.3974   0.4227   0.4635   0.4838   0.5454
     0.6146   0.7106   0.7931   0.7958   0.8492   0.8911   0.9334   0.9494
     0.9792   1.0522   1.1080   1.1108   1.1230   1.1524   1.2418   1.3231
     1.4137   1.4581   1.4592   1.5436   1.5662   1.5723   1.5951   1.6732
     1.7665   1.8227   1.8346   1.8544   1.8892   1.9201   1.9610   2.0002
     2.0162   2.0422   2.1356   2.7263   3.2786   3.3628   3.6265   3.6346
     3.8312   3.9522   4.5870   4.9685   5.8984   6.0258   6.0455   6.2065
     6.4039   7.2104   7.8804   7.9600   9.0409   9.2464   9.4521   9.4969
     9.5841   9.9973  10.0635  10.1753  10.4770  10.5524  10.6968  10.8794
    10.9365  10.9958  11.2843  11.3244  11.6976  11.9438  11.9684  12.1095
    12.1213  12.3541

          k =-0.5000-0.2887 0.0000 ( 32112 PWs)   bands (ev):

   -87.1246 -87.1246 -87.1185 -87.1182 -87.1182 -87.1152 -86.9134 -86.9128
   -86.9123 -86.9122 -86.9085 -86.9078 -50.6528 -50.6454 -50.6248 -50.6247
   -50.5985 -50.5985 -50.5860 -50.5787 -50.5787 -50.5627 -50.5528 -50.5506
   -50.5505 -50.5410 -50.5409 -50.5320 -50.5290 -50.5289 -50.4383 -50.4375
   -50.3867 -50.3860 -50.3854 -50.3854 -50.3456 -50.3447 -50.3399 -50.3392
   -50.3389 -50.3388 -50.3343 -50.3336 -50.3330 -50.3329 -50.3303 -50.3294
   -12.9656 -12.9656 -12.8826 -12.8826 -12.7900 -12.7899 -10.1900 -10.1900
   -10.1239 -10.1239 -10.0482 -10.0482  -5.5363  -5.5363  -5.5155  -5.5155
    -5.4863  -5.4863  -3.8623  -3.8623  -3.8496  -3.8496  -3.8250  -3.8250
    -2.4600  -2.4600  -2.4328  -2.4328  -2.3952  -2.3952  -1.3584  -1.3552
    -1.3550  -1.2680  -1.2035  -0.9437  -0.9085  -0.9079  -0.7996  -0.7837
    -0.7837  -0.6943  -0.6940  -0.5150  -0.5131  -0.5122  -0.4740  -0.4735
    -0.3833  -0.3827  -0.2390  -0.2388  -0.1468  -0.1466  -0.0677  -0.0676
    -0.0568  -0.0568  -0.0346  -0.0346   0.0335   0.0443   0.0447   0.0799
     0.1153   0.1159   0.2888   0.2895   0.3047   0.3376   0.3379   0.3931
     0.3943   0.6338   0.6339   0.7004   0.7006   0.8774   0.9278   0.9280
     0.9486   1.1295   1.1299   1.2361   1.2585   1.2586   1.4976   1.5341
     1.5345   1.6271   1.6275   1.7238   1.7243   1.7263   1.8233   1.8237
     1.8867   1.8950   1.8955   1.9901   2.0153   2.0751   2.0758   2.1006
     2.2477   2.2626   2.2827   2.2828   2.5386   2.5391   2.7737   2.7741
     4.1274   4.1281   5.0887   5.9140   6.3771   6.3777   6.4201   6.6253
     7.4788   7.4789   7.6801   7.6801   7.8748   7.8750   8.5681   8.5695
     9.0839   9.6357  10.3508  10.4268  10.4270  10.4846  10.4848  10.9431
    10.9437  11.4355  11.4358  11.6104  11.7763  11.7765  11.9028  11.9037
    12.1662  12.1671

     the Fermi energy is     4.9561 ev

!    total energy              =   -3891.04025661 Ry
     estimated scf accuracy    <          8.0E-09 Ry
     smearing contrib. (-TS)   =      -0.00140587 Ry
     internal energy E=F+TS    =   -3891.03885074 Ry

     The total energy is F=E-TS. E is the sum of the following terms:
     one-electron contribution =  -27256.17382031 Ry
     hartree contribution      =   13676.55725661 Ry
     xc contribution           =    -435.96872558 Ry
     ewald contribution        =   10273.15812774 Ry
     DFT-D3 Dispersion         =      -0.63023701 Ry
     electric field correction =       0.00000102 Ry
     one-center paw contrib.   =    -147.98145321 Ry

     convergence has been achieved in  24 iterations

     negative rho (up, down):  8.904E-05 0.000E+00

     Forces acting on atoms (cartesian axes, Ry/au):

     atom    1 type  1   force =    -0.00006416    0.00036725    0.00124117
     atom    2 type  1   force =    -0.00011596    0.00040223    0.00124106
     atom    3 type  1   force =     0.00034325   -0.00011270   -0.00142266
     atom    4 type  1   force =     0.00000687   -0.00033566   -0.00086066
     atom    5 type  1   force =    -0.00009313    0.00038438    0.00122506
     atom    6 type  1   force =     0.00010973   -0.00000333   -0.00139422
     atom    7 type  1   force =    -0.00013936    0.00001714    0.00111519
     atom    8 type  1   force =     0.00000666   -0.00033467   -0.00086405
     atom    9 type  1   force =    -0.00015736    0.00008133    0.00085094
     atom   10 type  1   force =     0.00025951    0.00004411   -0.00129272
     atom   11 type  1   force =     0.00000810   -0.00033895   -0.00086114
     atom   12 type  1   force =    -0.00014378   -0.00006755    0.00109238
     atom   13 type  2   force =    -0.00000168   -0.00000289    0.00127602
     atom   14 type  2   force =    -0.00000216   -0.00000840   -0.00048083
     atom   15 type  2   force =    -0.00000461    0.00000106   -0.00049858
     atom   16 type  2   force =     0.00000001   -0.00000370    0.00013145
     atom   17 type  2   force =    -0.00000163   -0.00000608    0.00018714
     atom   18 type  2   force =     0.00000219   -0.00000841   -0.00046351
     atom   19 type  2   force =     0.00000137    0.00000109   -0.00052773
     atom   20 type  2   force =    -0.00000003   -0.00000632    0.00124489
     atom   21 type  2   force =    -0.00000153   -0.00000255   -0.00025923
     atom   22 type  2   force =    -0.00000001   -0.00000406    0.00010149
     atom   23 type  2   force =    -0.00000177   -0.00000328   -0.00025989
     atom   24 type  2   force =     0.00000262   -0.00000931    0.00012102
     atom   25 type  2   force =    -0.00000199   -0.00000256   -0.00026163
     atom   26 type  2   force =    -0.00000001   -0.00000115    0.00011382
     atom   27 type  2   force =    -0.00000173   -0.00000301   -0.00025678
     atom   28 type  2   force =    -0.00000266   -0.00000931    0.00012017
     atom   29 type  2   force =    -0.00000167   -0.00000262   -0.00006297
     atom   30 type  2   force =     0.00000005   -0.00000595   -0.00002390
     atom   31 type  2   force =    -0.00000170   -0.00000261   -0.00006494
     atom   32 type  2   force =     0.00000001   -0.00000617   -0.00002532
     atom   33 type  2   force =    -0.00000168   -0.00000275   -0.00006420
     atom   34 type  2   force =    -0.00000009   -0.00000592   -0.00002413
     atom   35 type  2   force =    -0.00000162   -0.00000260   -0.00006492
     atom   36 type  2   force =    -0.00000004   -0.00000606   -0.00002779

     Total force =     0.004610     Total SCF correction =     0.000667
     SCF correction compared to forces is large: reduce conv_thr to get better values

     Writing all to output data dir ./tmp/AGC_N3_s01_dft_far.save/ :
     XML data file, charge density, pseudopotentials, collected wavefunctions
 
     init_run     :     27.39s CPU     28.52s WALL (       1 calls)
     electrons    :   1586.90s CPU   1619.24s WALL (       1 calls)
     forces       :     13.56s CPU     14.01s WALL (       1 calls)
     force_dftd3  :      0.02s CPU      0.02s WALL (       1 calls)

     Called by init_run:
     wfcinit      :     19.26s CPU     20.22s WALL (       1 calls)
     potinit      :      7.19s CPU      7.23s WALL (       1 calls)
     hinit0       :      0.39s CPU      0.44s WALL (       1 calls)

     Called by electrons:
     c_bands      :   1198.34s CPU   1221.72s WALL (      24 calls)
     sum_band     :    234.76s CPU    242.36s WALL (      24 calls)
     v_of_rho     :      4.59s CPU      4.98s WALL (      25 calls)
     newd         :      3.55s CPU      3.57s WALL (      25 calls)
                                        3.57s GPU  (      25 calls)
     PAW_pot      :    112.63s CPU    112.62s WALL (      25 calls)
     mix_rho      :     37.14s CPU     37.88s WALL (      24 calls)
     energy_dftd3 :      0.00s CPU      0.00s WALL (       1 calls)

     Called by c_bands:
     init_us_2    :     58.23s CPU     58.41s WALL (    1000 calls)
     cegterg      :   1116.40s CPU   1117.36s WALL (     480 calls)

     Called by *egterg:
     cdiaghg      :     71.24s CPU     71.45s WALL (    2604 calls)
                                       69.03s GPU  (    2604 calls)
     h_psi        :    574.25s CPU    577.92s WALL (    2624 calls)
                                      576.39s GPU  (    2624 calls)
     s_psi        :     65.64s CPU     65.76s WALL (    2624 calls)
     g_psi        :      0.01s CPU      2.40s WALL (    2124 calls)
                                        0.72s GPU  (    2124 calls)

     Called by h_psi:
     h_psi:calbec :      0.17s CPU    111.78s WALL (    2624 calls)
                                      110.45s GPU  (    2624 calls)
     vloc_psi     :    331.96s CPU    333.57s WALL (    2624 calls)
                                      332.23s GPU  (    2624 calls)
     add_vuspsi   :     41.46s CPU    122.87s WALL (    2624 calls)
                                      121.53s GPU  (    2624 calls)

     General routines
     calbec       :      0.19s CPU      0.20s WALL (    3184 calls)
     fft          :      1.84s CPU      2.48s WALL (     334 calls)
                                        0.33s GPU  (     309 calls)
     ffts         :      0.63s CPU      2.83s WALL (    2468 calls)
                                        0.85s GPU  (    2443 calls)
     fftw         :      0.67s CPU    199.76s WALL (   35652 calls)
                                      177.06s GPU  (   35652 calls)
     interpolate  :      2.54s CPU      2.76s WALL (      25 calls)
     davcio       :      1.17s CPU     31.72s WALL (    1886 calls)
 
     Parallel routines
 
     PWSCF        :  27m 8.26s CPU  27m43.21s WALL

 
   This run was terminated on:  10:50:21   5Oct2026            

=------------------------------------------------------------------------------=
   JOB DONE.
=------------------------------------------------------------------------------=
