110
Lattice="10.055095635733188 0.0 0.0 0.0 10.055095635733188 0.0 0.0 0.0 34.686164" Properties=species:S:1:pos:R:3 source=db/raw/wad_sese_4L_2026_09_25/li_outer_relaxed_final_coords.txt source_sha256=7e0b1daea3467b1f25e72d9689ca41f76646907ed74cbad1ad628507f66fcce5 charge=0 spin=0 pbc="T T F"
P        4.93424100       2.06296700       1.74074200
P       -0.09333100       7.09049800       1.74071000
P       -0.05861700       2.33843100       6.89456800
P        4.96889700       7.36598800       6.89456200
S        6.38173700       3.19542700       2.78569800
S        1.35412000       8.22300600       2.78566700
S        3.83039100       1.04514300       3.23778100
S        8.85793400       6.07265700       3.23775200
S        3.84486600       3.45948300       0.75102400
S        8.87236800       8.48697800       0.75097000
S        8.62861300       3.38523600       5.71638800
S        3.60106300       8.41278800       5.71634600
S        5.60408800       0.60552800       0.50001100
S        0.57656300       5.63307200       0.50000000
S        1.03570200       1.05818900       5.72973400
S        6.06321400       6.08567100       5.72979100
Li       8.23494000       1.96179800       3.79093200
Li       3.20730400       6.98939200       3.79092400
Li       1.83837300       4.03990700       1.90374300
Li       6.86586600      -0.98772200       1.90370600
Li       7.75457500       9.72559000       6.55907100
Li       2.72689300       4.69817800       6.55912000
Li       3.65770800       9.31565900       1.47235200
Li       8.68530100       4.28804100       1.47233100
Li       2.72110000       2.53970500       4.76521300
Li       7.74854800       7.56717200       4.76513500
Li      -0.43616800      -0.15905500       2.66847300
Li       4.59146800       4.86851500       2.66852900
Li       5.74171100       1.76388000       4.74593000
Li       0.71410500       6.79142300       4.74589500
Li       0.13204700       4.11372600       4.04707500
Li       5.15955100       9.14132200       4.04705600
Cl       9.40184600       7.51199100       6.73780500
Cl       4.95905700       7.42875800       2.28647400
Cl       9.98661400       2.40119300       2.28648900
S        7.40517200       9.86201100       4.20074200
S        2.37761500       4.83450900       4.20077300
P        4.96538731       2.68453398      11.63799366
P       -0.09350144       7.72234336      11.66103511
P        0.00891936       2.83487905      16.58267217
P        4.91089911       7.95767113      16.54990407
S        6.04761753       3.91360197      12.85836036
S        1.00161245       8.96324071      12.85866520
S        0.99185400       3.69462600       7.99757100
S        6.01939100       8.72221400       7.99750400
S        3.58443567       1.62709185      12.76134641
S        8.58485430       6.67042414      12.80015373
S        8.85032600       1.16298100       8.18404200
S        3.82273400       6.19059600       8.18406300
S        3.84442966       3.89551552      10.38052485
S        8.84642476       8.92798291      10.39539410
S        8.88579259       3.94177983      15.23327411
S        3.81440933       9.01049878      15.09549457
S        6.00570987       1.37132665      10.49304970
S        0.94520199       6.40817844      10.51155130
S        1.37462601       1.72506702      15.43539385
S        6.31068883       6.81681091      15.49815374
Li       2.71711700       2.28922400       9.03005800
Li       7.74449400       7.31678800       9.03015300
Li       7.76687087       2.44904230      13.74803425
Li       2.70924021       7.46160666      13.68410944
Li       8.12815900       5.29686000       7.13461800
Li       3.10049600       0.26926500       7.13458800
Li       2.65626710       5.36032528      11.87993917
Li       7.71009198       0.36798075      11.90423898
Li       6.91631195      10.99589632      16.47167310
Li       1.85322775       5.94678207      16.43696834
Li       3.04144485       9.74543517      11.47795013
Li       8.07451056       4.72154480      11.51271943
Li       3.20677983       3.04528177      14.63635736
Li       8.18727250       8.03453665      14.74046289
Li       7.78518262       2.76702299       9.60109471
Li       2.73309423       7.79354201       9.59073984
Li       0.30991109       0.83313687      10.35609279
Li       5.33709728       5.86874882      10.34732965
Li       5.18310216       0.91186311      14.37190795
Li       0.10289723       5.91290418      14.41423562
Li       0.73112317       3.29254577      13.64516365
Li       5.76806018       8.30762013      13.61412219
Li       5.34231600       4.22634500       8.23440600
Li       0.31469700       9.25359700       8.23472000
Cl       9.98777231       7.54735109      16.17321128
Cl       4.37430000       2.48446500       6.73783600
Cl       4.33810264       7.58526464      11.73444015
Cl       9.38265859       2.55725150      11.77142272
S        2.26286780      10.06742995       9.30059372
S        7.30188200       5.02751300       9.34307300
S        7.41240651      10.20327001      14.21432409
S        2.35079698       5.17940489      14.18921161
S        0.83965724       4.19417474      17.81438887
S        5.60742192       9.39940446      17.79237053
S        8.98600128       1.42394225      17.55728036
S        3.82559118       6.57729003      17.55890622
Li       8.90302089       5.61624938      17.20145946
Li       3.62124439       0.71018841      16.82413645
Li       4.58404447       5.13526436      15.63651632
Li      -0.38043209      10.12277102      15.51035805
Cl       4.95953786       2.59521968      16.12935929
C        8.69719542       7.24017619      19.67192528
C        9.72036768       6.62773139      20.41306823
C        9.57655967       5.30005342      20.84172459
C        8.42098118       4.57487313      20.51908651
C        7.39339481       5.18347715      19.78176497
C        7.52566769       6.52223963      19.36694896
H        8.79388608       8.27979044      19.34539993
H       10.63310213       7.18322287      20.64551269
H       10.38124291       4.81810249      21.40264398
H        8.33393511       3.52679116      20.81687940
H        6.48174635       4.63149735      19.53617591
H        6.70569247       7.02311935      18.84205152
