
     Program PWSCF v.7.4.1 starts on  5Oct2026 at 11:37:13 

     This program is part of the open-source Quantum ESPRESSO suite
     for quantum simulation of materials; please cite
         "P. Giannozzi et al., J. Phys.:Condens. Matter 21 395502 (2009);
         "P. Giannozzi et al., J. Phys.:Condens. Matter 29 465901 (2017);
         "P. Giannozzi et al., J. Chem. Phys. 152 154105 (2020);
          URL http://www.quantum-espresso.org", 
     in publications or presentations arising from this work. More details at
     http://www.quantum-espresso.org/quote

     Parallel version (MPI & OpenMP), running on       1 processor cores
     Number of MPI processes:                 1
     Threads/MPI process:                     1

     MPI processes distributed on     1 nodes
     8964 MiB available memory on the printing compute node when the environment starts
 
     Reading input from pw.in

     Current dimensions of program PWSCF are:
     Max number of different atomic species (ntypx) = 10
     Max number of k-points (npk) =  40000
     Max angular momentum in pseudopotentials (lmaxx) =  4
     Presently no symmetry can be used with electric field

     file C.pbe-n-kjpaw_psl.1.0.0.UPF: wavefunction(s)  2S 2P renormalized
 
     Subspace diagonalization in iterative solution of the eigenvalue problem:
     a serial algorithm will be used

 
     G-vector sticks info
     --------------------
     sticks:   dense  smooth     PW     G-vecs:    dense   smooth      PW
     Sum        3193    1273    367              1111365   281419   44069
 
     Using Slab Decomposition
 


     bravais-lattice index     =            0
     lattice parameter (alat)  =       9.4208  a.u.
     unit-cell volume          =    5549.9755 (a.u.)^3
     number of atoms/cell      =           44
     number of atomic types    =            2
     number of electrons       =       356.00
     number of Kohn-Sham states=          214
     kinetic-energy cutoff     =      52.0000  Ry
     charge density cutoff     =     520.0000  Ry
     scf convergence threshold =      1.0E-08
     mixing beta               =       0.3000
     number of iterations used =            8  local-TF  mixing
     Exchange-correlation= SLA  PW   PBX  PBC
                           (   1   4   3   4   0   0   0)

     GPU acceleration is ACTIVE.  1 visible GPUs per MPI rank


     celldm(1)=   9.420781  celldm(2)=   0.000000  celldm(3)=   0.000000
     celldm(4)=   0.000000  celldm(5)=   0.000000  celldm(6)=   0.000000

     crystal axes: (cart. coord. in units of alat)
               a(1) = (   1.000000  -0.000000   0.000000 )  
               a(2) = (   0.500000   0.866025   0.000000 )  
               a(3) = (   0.000000   0.000000   7.664780 )  

     reciprocal axes: (cart. coord. in units 2 pi/alat)
               b(1) = (  1.000000 -0.577350  0.000000 )  
               b(2) = (  0.000000  1.154701 -0.000000 )  
               b(3) = ( -0.000000  0.000000  0.130467 )  


     PseudoPot. # 1 for Ag read from file:
     /home/kgy/work/pseudo/Ag_ONCV_PBE-1.0.oncvpsp.upf
     MD5 check sum: 94f47bd0669c641108e45594df92fabc
     Pseudo is Norm-conserving, Zval = 19.0
     Generated using ONCVPSP code by D. R. Hamann
     Using radial grid of 1398 points,  6 beta functions with: 
                l(1) =   0
                l(2) =   0
                l(3) =   1
                l(4) =   1
                l(5) =   2
                l(6) =   2

     PseudoPot. # 2 for C  read from file:
     /home/kgy/work/pseudo/C.pbe-n-kjpaw_psl.1.0.0.UPF
     MD5 check sum: 5d2aebdfa2cae82b50a7e79e9516da0f
     Pseudo is Projector augmented-wave + core cor, Zval =  4.0
     Generated using "atomic" code by A. Dal Corso  v.5.1
     Shape of augmentation charge: PSQ
     Using radial grid of 1073 points,  4 beta functions with: 
                l(1) =   0
                l(2) =   0
                l(3) =   1
                l(4) =   1
     Q(r) pseudized with 0 coefficients 


     atomic species   valence    mass     pseudopotential
     Ag               19.00   107.86820     Ag( 1.00)
     C                 4.00    12.01100     C ( 1.00)

     No symmetry found



   Cartesian axes

     site n.     atom                  positions (alat units)
         1        Ag     tau(   1) = (   0.3337695   0.5765948   0.5717001  )
         2        Ag     tau(   2) = (   0.8337695   0.8652699   0.5717001  )
         3        Ag     tau(   3) = (   0.1676791   0.2875118   1.0403854  )
         4        Ag     tau(   4) = (   0.5004501   0.2909658   0.1002956  )
         5        Ag     tau(   5) = (   0.8337695   0.2879196   0.5717001  )
         6        Ag     tau(   6) = (   0.6673140   0.5763055   1.0400354  )
         7        Ag     tau(   7) = (   0.4999935   0.2876126   1.5121047  )
         8        Ag     tau(   8) = (   1.0004501   0.5796409   0.1002956  )
         9        Ag     tau(   9) = (   1.0000391   0.5762299   1.5088216  )
        10        Ag     tau(  10) = (   0.6676830  -0.0008807   1.0403239  )
        11        Ag     tau(  11) = (   1.0004501   0.0022906   0.1002956  )
        12        Ag     tau(  12) = (   0.9999999  -0.0011128   1.5120230  )
        13        C      tau(  13) = (   0.5004501   0.2909658   2.1580612  )
        14        C      tau(  14) = (   0.7504501   0.4353033   2.1590864  )
        15        C      tau(  15) = (   0.7504501   0.7239785   2.1588808  )
        16        C      tau(  16) = (   1.0004501   0.8683160   2.1590873  )
        17        C      tau(  17) = (   1.0004501   0.2909658   2.1588827  )
        18        C      tau(  18) = (   1.2504501   0.4353033   2.1590884  )
        19        C      tau(  19) = (   1.2504501   0.7239785   2.1588838  )
        20        C      tau(  20) = (   1.5004501   0.8683160   2.1582385  )
        21        C      tau(  21) = (   0.7504501   0.4353033   2.8398382  )
        22        C      tau(  22) = (   1.0004501   0.5796409   2.8398330  )
        23        C      tau(  23) = (   1.0004501   0.8683160   2.8398383  )
        24        C      tau(  24) = (   1.2504501   1.0126536   2.8398424  )
        25        C      tau(  25) = (   1.2504501   0.4353033   2.8398383  )
        26        C      tau(  26) = (   1.5004501   0.5796409   2.8398424  )
        27        C      tau(  27) = (   1.5004501   0.8683160   2.8398440  )
        28        C      tau(  28) = (   1.7504501   1.0126536   2.8398424  )
        29        C      tau(  29) = (   0.5004501   0.2909658   3.5195391  )
        30        C      tau(  30) = (   0.7504501   0.4353033   3.5195878  )
        31        C      tau(  31) = (   0.7504501   0.7239785   3.5195375  )
        32        C      tau(  32) = (   1.0004501   0.8683160   3.5195878  )
        33        C      tau(  33) = (   1.0004501   0.2909658   3.5195375  )
        34        C      tau(  34) = (   1.2504501   0.4353033   3.5195878  )
        35        C      tau(  35) = (   1.2504501   0.7239785   3.5195375  )
        36        C      tau(  36) = (   1.5004501   0.8683160   3.5195868  )
        37        C      tau(  37) = (   0.7504501   0.4353033   4.1984578  )
        38        C      tau(  38) = (   1.0004501   0.5796409   4.1986159  )
        39        C      tau(  39) = (   1.0004501   0.8683160   4.1984578  )
        40        C      tau(  40) = (   1.2504501   1.0126536   4.1986157  )
        41        C      tau(  41) = (   1.2504501   0.4353033   4.1984578  )
        42        C      tau(  42) = (   1.5004501   0.5796409   4.1986157  )
        43        C      tau(  43) = (   1.5004501   0.8683160   4.1984576  )
        44        C      tau(  44) = (   1.7504501   1.0126536   4.1986157  )

     --------------------------------------------
     DFT-D3 Dispersion Correction (no 3-body):
     --------------------------------------------
       Reference C6 values for interpolation: 

         atom   Coordination number   C6
         C          0.000            98.23
         C          0.987            86.49
         C          1.998            58.72
         C          2.999            51.56
         C          3.984            36.41
         Ag         0.000           853.49
         Ag         0.968           537.23

       Values used:

         atom   Coordination number  R0_AB[au]  C6      C8
         Ag         9.101            3.147    537.23  47741.54
         Ag         9.100            3.147    537.23  47741.54
         Ag         9.113            3.147    537.23  47741.54
         Ag         6.767            3.147    537.23  47741.54
         Ag         9.100            3.147    537.23  47741.54
         Ag         9.112            3.147    537.23  47741.54
         Ag         6.851            3.147    537.23  47741.54
         Ag         6.767            3.147    537.23  47741.54
         Ag         6.884            3.147    537.23  47741.54
         Ag         9.112            3.147    537.23  47741.54
         Ag         6.767            3.147    537.23  47741.54
         Ag         6.852            3.147    537.23  47741.54
         C          3.317            2.750     48.22   1394.62
         C          3.305            2.750     48.47   1401.87
         C          3.305            2.750     48.47   1401.94
         C          3.305            2.750     48.47   1401.86
         C          3.305            2.750     48.47   1401.94
         C          3.305            2.750     48.47   1401.87
         C          3.305            2.750     48.47   1401.93
         C          3.317            2.750     48.22   1394.61
         C          3.282            2.750     48.89   1414.05
         C          3.282            2.750     48.90   1414.23
         C          3.282            2.750     48.89   1414.05
         C          3.282            2.750     48.90   1414.23
         C          3.282            2.750     48.89   1414.05
         C          3.282            2.750     48.90   1414.23
         C          3.282            2.750     48.89   1414.05
         C          3.282            2.750     48.90   1414.23
         C          3.281            2.750     48.91   1414.57
         C          3.281            2.750     48.90   1414.38
         C          3.281            2.750     48.91   1414.57
         C          3.281            2.750     48.90   1414.38
         C          3.281            2.750     48.91   1414.57
         C          3.281            2.750     48.90   1414.38
         C          3.281            2.750     48.91   1414.57
         C          3.281            2.750     48.90   1414.38
         C          3.275            2.750     49.02   1417.74
         C          3.275            2.750     49.02   1417.84
         C          3.275            2.750     49.02   1417.74
         C          3.275            2.750     49.02   1417.83
         C          3.275            2.750     49.02   1417.74
         C          3.275            2.750     49.02   1417.83
         C          3.275            2.750     49.02   1417.74
         C          3.275            2.750     49.02   1417.83

         Molecular C6 ( Ry / a.u.^6 ) =    251387.11


     number of k points=    20  Marzari-Vanderbilt smearing, width (Ry)=  0.0100
                       cart. coord. in units 2pi/alat
        k(    1) = (   0.0000000   0.0000000   0.0000000), wk =   0.0555556
        k(    2) = (   0.0000000   0.1924501   0.0000000), wk =   0.1111111
        k(    3) = (   0.0000000   0.3849002   0.0000000), wk =   0.1111111
        k(    4) = (   0.0000000  -0.5773503   0.0000000), wk =   0.0555556
        k(    5) = (   0.1666667  -0.0962250   0.0000000), wk =   0.1111111
        k(    6) = (   0.1666667   0.0962250   0.0000000), wk =   0.1111111
        k(    7) = (   0.1666667   0.2886751   0.0000000), wk =   0.1111111
        k(    8) = (   0.1666667  -0.6735753   0.0000000), wk =   0.1111111
        k(    9) = (   0.1666667  -0.4811252   0.0000000), wk =   0.1111111
        k(   10) = (   0.1666667  -0.2886751   0.0000000), wk =   0.1111111
        k(   11) = (   0.3333333  -0.1924501   0.0000000), wk =   0.1111111
        k(   12) = (   0.3333333   0.0000000   0.0000000), wk =   0.1111111
        k(   13) = (   0.3333333   0.1924501   0.0000000), wk =   0.1111111
        k(   14) = (   0.3333333  -0.7698004   0.0000000), wk =   0.1111111
        k(   15) = (   0.3333333  -0.5773503   0.0000000), wk =   0.1111111
        k(   16) = (   0.3333333  -0.3849002   0.0000000), wk =   0.1111111
        k(   17) = (  -0.5000000   0.2886751   0.0000000), wk =   0.0555556
        k(   18) = (  -0.5000000   0.4811252   0.0000000), wk =   0.1111111
        k(   19) = (  -0.5000000   0.6735753   0.0000000), wk =   0.1111111
        k(   20) = (  -0.5000000  -0.2886751   0.0000000), wk =   0.0555556

     Dense  grid:  1111365 G-vectors     FFT dimensions: (  72,  72, 540)

     Smooth grid:   281419 G-vectors     FFT dimensions: (  45,  45, 360)

     Estimated max dynamical RAM per process >       3.44 GB

     Check: negative core charge=   -0.000002

     Initial potential from superposition of free atoms

     starting charge     355.9952, renormalised to     356.0000

     negative rho (up, down):  2.554E-04 0.000E+00
 
     Adding external electric field

     Computed dipole along edir(3) : 
        Dipole               -0.0091 Ry au,         -0.0231 Debye
        Dipole field         -0.0000 Ry au, 
 
        Potential amp.        0.0029 Ry
        Total length         70.3185 bohr
 
     Starting wfcs are  248 randomized atomic wfcs
     Checking if some PAW data can be deallocated... 

     total cpu time spent up to now is       34.4 secs

     Self-consistent Calculation

     iteration #  1     ecut=    52.00 Ry     beta= 0.30
     Davidson diagonalization with overlap
     ethr =  1.00E-02,  avg # of iterations =  7.7

     negative rho (up, down):  2.561E-07 0.000E+00
 
     Adding external electric field

     Computed dipole along edir(3) : 
        Dipole               -0.1763 Ry au,         -0.4481 Debye
        Dipole field         -0.0004 Ry au, 
 
        Potential amp.        0.0561 Ry
        Total length         70.3185 bohr
 

     total cpu time spent up to now is      140.5 secs

     total energy              =   -4039.47879081 Ry
     estimated scf accuracy    <       4.36509814 Ry

     iteration #  2     ecut=    52.00 Ry     beta= 0.30
     Davidson diagonalization with overlap
     ethr =  1.23E-03,  avg # of iterations =  2.1

     negative rho (up, down):  3.052E-07 0.000E+00
 
     Adding external electric field

     Computed dipole along edir(3) : 
        Dipole               -0.6350 Ry au,         -1.6140 Debye
        Dipole field         -0.0014 Ry au, 
 
        Potential amp.        0.2022 Ry
        Total length         70.3185 bohr
 

     total cpu time spent up to now is      211.2 secs

     total energy              =   -4038.58411845 Ry
     estimated scf accuracy    <       2.40083708 Ry

     iteration #  3     ecut=    52.00 Ry     beta= 0.30
     Davidson diagonalization with overlap
     ethr =  6.74E-04,  avg # of iterations = 10.9

     negative rho (up, down):  7.492E-08 0.000E+00
 
     Adding external electric field

     Computed dipole along edir(3) : 
        Dipole               -0.6400 Ry au,         -1.6267 Debye
        Dipole field         -0.0014 Ry au, 
 
        Potential amp.        0.2038 Ry
        Total length         70.3185 bohr
 

     total cpu time spent up to now is      318.2 secs

     total energy              =   -4038.81720144 Ry
     estimated scf accuracy    <       0.81807586 Ry

     iteration #  4     ecut=    52.00 Ry     beta= 0.30
     Davidson diagonalization with overlap
     ethr =  2.30E-04,  avg # of iterations =  3.1

     negative rho (up, down):  3.702E-03 0.000E+00
 
     Adding external electric field

     Computed dipole along edir(3) : 
        Dipole               -0.2793 Ry au,         -0.7098 Debye
        Dipole field         -0.0006 Ry au, 
 
        Potential amp.        0.0889 Ry
        Total length         70.3185 bohr
 

     total cpu time spent up to now is      392.4 secs

     total energy              =   -4038.80137787 Ry
     estimated scf accuracy    <       0.80551537 Ry

     iteration #  5     ecut=    52.00 Ry     beta= 0.30
     Davidson diagonalization with overlap
     ethr =  2.26E-04,  avg # of iterations =  4.0

     negative rho (up, down):  6.814E-04 0.000E+00
 
     Adding external electric field

     Computed dipole along edir(3) : 
        Dipole               -0.5049 Ry au,         -1.2834 Debye
        Dipole field         -0.0011 Ry au, 
 
        Potential amp.        0.1608 Ry
        Total length         70.3185 bohr
 

     total cpu time spent up to now is      469.7 secs

     total energy              =   -4038.81517714 Ry
     estimated scf accuracy    <       1.12338120 Ry

     iteration #  6     ecut=    52.00 Ry     beta= 0.30
     Davidson diagonalization with overlap
     ethr =  2.26E-04,  avg # of iterations =  1.6

     negative rho (up, down):  3.465E-05 0.000E+00
 
     Adding external electric field

     Computed dipole along edir(3) : 
        Dipole               -1.2744 Ry au,         -3.2392 Debye
        Dipole field         -0.0029 Ry au, 
 
        Potential amp.        0.4058 Ry
        Total length         70.3185 bohr
 

     total cpu time spent up to now is      536.1 secs

     total energy              =   -4038.71146200 Ry
     estimated scf accuracy    <       0.98990430 Ry

     iteration #  7     ecut=    52.00 Ry     beta= 0.30
     Davidson diagonalization with overlap
     ethr =  2.26E-04,  avg # of iterations =  5.5

     negative rho (up, down):  2.277E-04 0.000E+00
 
     Adding external electric field

     Computed dipole along edir(3) : 
        Dipole               -1.2750 Ry au,         -3.2407 Debye
        Dipole field         -0.0029 Ry au, 
 
        Potential amp.        0.4060 Ry
        Total length         70.3185 bohr
 

     total cpu time spent up to now is      616.8 secs

     total energy              =   -4038.74649021 Ry
     estimated scf accuracy    <       2.75474956 Ry

     iteration #  8     ecut=    52.00 Ry     beta= 0.30
     Davidson diagonalization with overlap
     ethr =  2.26E-04,  avg # of iterations =  1.1

     negative rho (up, down):  6.528E-05 0.000E+00
 
     Adding external electric field

     Computed dipole along edir(3) : 
        Dipole               -1.2658 Ry au,         -3.2173 Debye
        Dipole field         -0.0029 Ry au, 
 
        Potential amp.        0.4031 Ry
        Total length         70.3185 bohr
 

     total cpu time spent up to now is      683.7 secs

     total energy              =   -4038.74433300 Ry
     estimated scf accuracy    <       1.42652973 Ry

     iteration #  9     ecut=    52.00 Ry     beta= 0.30
     Davidson diagonalization with overlap
     ethr =  2.26E-04,  avg # of iterations =  1.4
 
     Adding external electric field

     Computed dipole along edir(3) : 
        Dipole               -1.1051 Ry au,         -2.8088 Debye
        Dipole field         -0.0025 Ry au, 
 
        Potential amp.        0.3519 Ry
        Total length         70.3185 bohr
 

     total cpu time spent up to now is      749.1 secs

     total energy              =   -4038.73463716 Ry
     estimated scf accuracy    <       1.09927692 Ry

     iteration # 10     ecut=    52.00 Ry     beta= 0.30
     Davidson diagonalization with overlap
     ethr =  2.26E-04,  avg # of iterations =  1.4
 
     Adding external electric field

     Computed dipole along edir(3) : 
        Dipole               -1.0559 Ry au,         -2.6839 Debye
        Dipole field         -0.0024 Ry au, 
 
        Potential amp.        0.3362 Ry
        Total length         70.3185 bohr
 

     total cpu time spent up to now is      816.3 secs

     total energy              =   -4038.73537539 Ry
     estimated scf accuracy    <       0.15973419 Ry

     iteration # 11     ecut=    52.00 Ry     beta= 0.30
     Davidson diagonalization with overlap
     ethr =  4.49E-05,  avg # of iterations =  5.5

     negative rho (up, down):  7.912E-08 0.000E+00
 
     Adding external electric field

     Computed dipole along edir(3) : 
        Dipole               -1.0268 Ry au,         -2.6097 Debye
        Dipole field         -0.0023 Ry au, 
 
        Potential amp.        0.3270 Ry
        Total length         70.3185 bohr
 

     total cpu time spent up to now is      899.5 secs

     total energy              =   -4038.73534865 Ry
     estimated scf accuracy    <       0.09570572 Ry

     iteration # 12     ecut=    52.00 Ry     beta= 0.30
     Davidson diagonalization with overlap
     ethr =  2.69E-05,  avg # of iterations =  3.0

     negative rho (up, down):  1.583E-05 0.000E+00
 
     Adding external electric field

     Computed dipole along edir(3) : 
        Dipole               -0.7944 Ry au,         -2.0191 Debye
        Dipole field         -0.0018 Ry au, 
 
        Potential amp.        0.2530 Ry
        Total length         70.3185 bohr
 

     total cpu time spent up to now is      973.4 secs

     total energy              =   -4038.72946971 Ry
     estimated scf accuracy    <       0.13417191 Ry

     iteration # 13     ecut=    52.00 Ry     beta= 0.30
     Davidson diagonalization with overlap
     ethr =  2.69E-05,  avg # of iterations = 11.1

     negative rho (up, down):  1.084E-03 0.000E+00
 
     Adding external electric field

     Computed dipole along edir(3) : 
        Dipole               -0.6383 Ry au,         -1.6225 Debye
        Dipole field         -0.0014 Ry au, 
 
        Potential amp.        0.2033 Ry
        Total length         70.3185 bohr
 

     total cpu time spent up to now is     1074.0 secs

     total energy              =   -4038.72755705 Ry
     estimated scf accuracy    <       0.09354653 Ry

     iteration # 14     ecut=    52.00 Ry     beta= 0.30
     Davidson diagonalization with overlap
     ethr =  2.63E-05,  avg # of iterations = 10.3

     negative rho (up, down):  7.703E-05 0.000E+00
 
     Adding external electric field

     Computed dipole along edir(3) : 
        Dipole               -0.7220 Ry au,         -1.8352 Debye
        Dipole field         -0.0016 Ry au, 
 
        Potential amp.        0.2299 Ry
        Total length         70.3185 bohr
 

     total cpu time spent up to now is     1170.5 secs

     total energy              =   -4038.72883530 Ry
     estimated scf accuracy    <       0.04898976 Ry

     iteration # 15     ecut=    52.00 Ry     beta= 0.30
     Davidson diagonalization with overlap
     ethr =  1.38E-05,  avg # of iterations =  6.3

     negative rho (up, down):  2.015E-03 0.000E+00
 
     Adding external electric field

     Computed dipole along edir(3) : 
        Dipole               -0.6855 Ry au,         -1.7425 Debye
        Dipole field         -0.0016 Ry au, 
 
        Potential amp.        0.2183 Ry
        Total length         70.3185 bohr
 

     total cpu time spent up to now is     1257.8 secs

     total energy              =   -4038.72856003 Ry
     estimated scf accuracy    <       0.06986035 Ry

     iteration # 16     ecut=    52.00 Ry     beta= 0.30
     Davidson diagonalization with overlap
     ethr =  1.38E-05,  avg # of iterations =  4.6

     negative rho (up, down):  2.035E-03 0.000E+00
 
     Adding external electric field

     Computed dipole along edir(3) : 
        Dipole               -0.6875 Ry au,         -1.7475 Debye
        Dipole field         -0.0016 Ry au, 
 
        Potential amp.        0.2189 Ry
        Total length         70.3185 bohr
 

     total cpu time spent up to now is     1338.3 secs

     total energy              =   -4038.72888447 Ry
     estimated scf accuracy    <       0.06971756 Ry

     iteration # 17     ecut=    52.00 Ry     beta= 0.30
     Davidson diagonalization with overlap
     ethr =  1.38E-05,  avg # of iterations =  1.9

     negative rho (up, down):  4.122E-03 0.000E+00
 
     Adding external electric field

     Computed dipole along edir(3) : 
        Dipole               -0.6192 Ry au,         -1.5738 Debye
        Dipole field         -0.0014 Ry au, 
 
        Potential amp.        0.1972 Ry
        Total length         70.3185 bohr
 

     total cpu time spent up to now is     1409.7 secs

     total energy              =   -4038.72853322 Ry
     estimated scf accuracy    <       0.10027926 Ry

     iteration # 18     ecut=    52.00 Ry     beta= 0.30
     Davidson diagonalization with overlap
     ethr =  1.38E-05,  avg # of iterations =  7.2

     negative rho (up, down):  2.537E-02 0.000E+00
 
     Adding external electric field

     Computed dipole along edir(3) : 
        Dipole               -0.2130 Ry au,         -0.5413 Debye
        Dipole field         -0.0005 Ry au, 
 
        Potential amp.        0.0678 Ry
        Total length         70.3185 bohr
 

     total cpu time spent up to now is     1497.6 secs

     total energy              =   -4038.72335539 Ry
     estimated scf accuracy    <       0.08465667 Ry

     iteration # 19     ecut=    52.00 Ry     beta= 0.30
     Davidson diagonalization with overlap
     ethr =  1.38E-05,  avg # of iterations =  9.2

     negative rho (up, down):  9.258E-06 0.000E+00
 
     Adding external electric field

     Computed dipole along edir(3) : 
        Dipole               -0.7106 Ry au,         -1.8062 Debye
        Dipole field         -0.0016 Ry au, 
 
        Potential amp.        0.2263 Ry
        Total length         70.3185 bohr
 

     total cpu time spent up to now is     1591.8 secs

     total energy              =   -4038.72668546 Ry
     estimated scf accuracy    <       0.03438666 Ry

     iteration # 20     ecut=    52.00 Ry     beta= 0.30
     Davidson diagonalization with overlap
     c_bands:  1 eigenvalues not converged
     c_bands:  1 eigenvalues not converged
     c_bands:  1 eigenvalues not converged
     c_bands:  1 eigenvalues not converged
     c_bands:  1 eigenvalues not converged
     ethr =  9.66E-06,  avg # of iterations = 15.3

     negative rho (up, down):  8.429E-04 0.000E+00
 
     Adding external electric field

     Computed dipole along edir(3) : 
        Dipole               -0.6168 Ry au,         -1.5677 Debye
        Dipole field         -0.0014 Ry au, 
 
        Potential amp.        0.1964 Ry
        Total length         70.3185 bohr
 

     total cpu time spent up to now is     1708.7 secs

     total energy              =   -4038.72770144 Ry
     estimated scf accuracy    <       0.08351661 Ry

     iteration # 21     ecut=    52.00 Ry     beta= 0.30
     Davidson diagonalization with overlap
     ethr =  9.66E-06,  avg # of iterations =  7.1

     negative rho (up, down):  1.959E-02 0.000E+00
 
     Adding external electric field

     Computed dipole along edir(3) : 
        Dipole               -0.3193 Ry au,         -0.8116 Debye
        Dipole field         -0.0007 Ry au, 
 
        Potential amp.        0.1017 Ry
        Total length         70.3185 bohr
 

     total cpu time spent up to now is     1796.4 secs

     total energy              =   -4038.72629665 Ry
     estimated scf accuracy    <       0.04271972 Ry

     iteration # 22     ecut=    52.00 Ry     beta= 0.30
     Davidson diagonalization with overlap
     ethr =  9.66E-06,  avg # of iterations = 10.2

     negative rho (up, down):  1.228E-02 0.000E+00
 
     Adding external electric field

     Computed dipole along edir(3) : 
        Dipole               -0.3848 Ry au,         -0.9781 Debye
        Dipole field         -0.0009 Ry au, 
 
        Potential amp.        0.1225 Ry
        Total length         70.3185 bohr
 

     total cpu time spent up to now is     1896.1 secs

     total energy              =   -4038.72608985 Ry
     estimated scf accuracy    <       0.03647996 Ry

     iteration # 23     ecut=    52.00 Ry     beta= 0.30
     Davidson diagonalization with overlap
     ethr =  9.66E-06,  avg # of iterations =  6.8

     negative rho (up, down):  1.081E-02 0.000E+00
 
     Adding external electric field

     Computed dipole along edir(3) : 
        Dipole               -0.4495 Ry au,         -1.1424 Debye
        Dipole field         -0.0010 Ry au, 
 
        Potential amp.        0.1431 Ry
        Total length         70.3185 bohr
 

     total cpu time spent up to now is     1982.6 secs

     total energy              =   -4038.72642018 Ry
     estimated scf accuracy    <       0.03348694 Ry

     iteration # 24     ecut=    52.00 Ry     beta= 0.30
     Davidson diagonalization with overlap
     ethr =  9.41E-06,  avg # of iterations = 10.1

     negative rho (up, down):  2.967E-02 0.000E+00
 
     Adding external electric field

     Computed dipole along edir(3) : 
        Dipole               -0.3909 Ry au,         -0.9936 Debye
        Dipole field         -0.0009 Ry au, 
 
        Potential amp.        0.1245 Ry
        Total length         70.3185 bohr
 

     total cpu time spent up to now is     2079.5 secs

     total energy              =   -4038.72801283 Ry
     estimated scf accuracy    <       0.03457236 Ry

     iteration # 25     ecut=    52.00 Ry     beta= 0.30
     Davidson diagonalization with overlap
     ethr =  9.41E-06,  avg # of iterations =  8.6

     negative rho (up, down):  3.948E-02 0.000E+00
 
     Adding external electric field

     Computed dipole along edir(3) : 
        Dipole               -0.2104 Ry au,         -0.5349 Debye
        Dipole field         -0.0005 Ry au, 
 
        Potential amp.        0.0670 Ry
        Total length         70.3185 bohr
 

     total cpu time spent up to now is     2172.2 secs

     total energy              =   -4038.72632316 Ry
     estimated scf accuracy    <       0.07846069 Ry

     iteration # 26     ecut=    52.00 Ry     beta= 0.30
     Davidson diagonalization with overlap
     ethr =  9.41E-06,  avg # of iterations =  8.6

     negative rho (up, down):  4.125E-02 0.000E+00
 
     Adding external electric field

     Computed dipole along edir(3) : 
        Dipole               -0.0493 Ry au,         -0.1252 Debye
        Dipole field         -0.0001 Ry au, 
 
        Potential amp.        0.0157 Ry
        Total length         70.3185 bohr
 

     total cpu time spent up to now is     2266.2 secs

     total energy              =   -4038.72409044 Ry
     estimated scf accuracy    <       0.04298149 Ry

     iteration # 27     ecut=    52.00 Ry     beta= 0.30
     Davidson diagonalization with overlap
     ethr =  9.41E-06,  avg # of iterations = 10.3

     negative rho (up, down):  3.198E-02 0.000E+00
 
     Adding external electric field

     Computed dipole along edir(3) : 
        Dipole                0.1955 Ry au,          0.4970 Debye
        Dipole field          0.0004 Ry au, 
 
        Potential amp.       -0.0623 Ry
        Total length         70.3185 bohr
 

     total cpu time spent up to now is     2365.4 secs

     total energy              =   -4038.71828813 Ry
     estimated scf accuracy    <       0.02879960 Ry

     iteration # 28     ecut=    52.00 Ry     beta= 0.30
     Davidson diagonalization with overlap
     c_bands:  1 eigenvalues not converged
     c_bands:  1 eigenvalues not converged
     c_bands:  1 eigenvalues not converged
     ethr =  8.09E-06,  avg # of iterations = 14.1

     negative rho (up, down):  2.321E-02 0.000E+00
 
     Adding external electric field

     Computed dipole along edir(3) : 
        Dipole                0.1424 Ry au,          0.3621 Debye
        Dipole field          0.0003 Ry au, 
 
        Potential amp.       -0.0454 Ry
        Total length         70.3185 bohr
 

     total cpu time spent up to now is     2479.3 secs

     total energy              =   -4038.71628202 Ry
     estimated scf accuracy    <       0.08752018 Ry

     iteration # 29     ecut=    52.00 Ry     beta= 0.30
     Davidson diagonalization with overlap
     ethr =  8.09E-06,  avg # of iterations =  8.5

     negative rho (up, down):  2.010E-02 0.000E+00
 
     Adding external electric field

     Computed dipole along edir(3) : 
        Dipole                0.1454 Ry au,          0.3695 Debye
        Dipole field          0.0003 Ry au, 
 
        Potential amp.       -0.0463 Ry
        Total length         70.3185 bohr
 

     total cpu time spent up to now is     2572.8 secs

     total energy              =   -4038.71873705 Ry
     estimated scf accuracy    <       0.02759180 Ry

     iteration # 30     ecut=    52.00 Ry     beta= 0.30
     Davidson diagonalization with overlap
     ethr =  7.75E-06,  avg # of iterations =  4.0

     negative rho (up, down):  1.783E-02 0.000E+00
 
     Adding external electric field

     Computed dipole along edir(3) : 
        Dipole                0.1376 Ry au,          0.3498 Debye
        Dipole field          0.0003 Ry au, 
 
        Potential amp.       -0.0438 Ry
        Total length         70.3185 bohr
 

     total cpu time spent up to now is     2651.2 secs

     total energy              =   -4038.71836643 Ry
     estimated scf accuracy    <       0.00864253 Ry

     iteration # 31     ecut=    52.00 Ry     beta= 0.30
     Davidson diagonalization with overlap
     c_bands:  1 eigenvalues not converged
     c_bands:  1 eigenvalues not converged
     c_bands:  1 eigenvalues not converged
     c_bands:  1 eigenvalues not converged
     c_bands:  1 eigenvalues not converged
     ethr =  2.43E-06,  avg # of iterations = 11.7

     negative rho (up, down):  1.023E-02 0.000E+00
 
     Adding external electric field

     Computed dipole along edir(3) : 
        Dipole                0.0459 Ry au,          0.1168 Debye
        Dipole field          0.0001 Ry au, 
 
        Potential amp.       -0.0146 Ry
        Total length         70.3185 bohr
 

     total cpu time spent up to now is     2752.2 secs

     total energy              =   -4038.71823157 Ry
     estimated scf accuracy    <       0.00139861 Ry

     iteration # 32     ecut=    52.00 Ry     beta= 0.30
     Davidson diagonalization with overlap
     c_bands:  1 eigenvalues not converged
     c_bands:  1 eigenvalues not converged
     c_bands:  1 eigenvalues not converged
     ethr =  3.93E-07,  avg # of iterations = 11.8

     negative rho (up, down):  6.751E-03 0.000E+00
 
     Adding external electric field

     Computed dipole along edir(3) : 
        Dipole                0.0595 Ry au,          0.1513 Debye
        Dipole field          0.0001 Ry au, 
 
        Potential amp.       -0.0190 Ry
        Total length         70.3185 bohr
 

     total cpu time spent up to now is     2855.3 secs

     total energy              =   -4038.71817269 Ry
     estimated scf accuracy    <       0.00189323 Ry

     iteration # 33     ecut=    52.00 Ry     beta= 0.30
     Davidson diagonalization with overlap
     ethr =  3.93E-07,  avg # of iterations =  7.8

     negative rho (up, down):  7.547E-03 0.000E+00
 
     Adding external electric field

     Computed dipole along edir(3) : 
        Dipole                0.0544 Ry au,          0.1382 Debye
        Dipole field          0.0001 Ry au, 
 
        Potential amp.       -0.0173 Ry
        Total length         70.3185 bohr
 

     total cpu time spent up to now is     2946.3 secs

     total energy              =   -4038.71822673 Ry
     estimated scf accuracy    <       0.00071467 Ry

     iteration # 34     ecut=    52.00 Ry     beta= 0.30
     Davidson diagonalization with overlap
     ethr =  2.01E-07,  avg # of iterations =  5.3

     negative rho (up, down):  6.098E-03 0.000E+00
 
     Adding external electric field

     Computed dipole along edir(3) : 
        Dipole                0.0665 Ry au,          0.1691 Debye
        Dipole field          0.0002 Ry au, 
 
        Potential amp.       -0.0212 Ry
        Total length         70.3185 bohr
 

     total cpu time spent up to now is     3028.3 secs

     total energy              =   -4038.71795646 Ry
     estimated scf accuracy    <       0.00320766 Ry

     iteration # 35     ecut=    52.00 Ry     beta= 0.30
     Davidson diagonalization with overlap
     ethr =  2.01E-07,  avg # of iterations =  8.1

     negative rho (up, down):  6.921E-03 0.000E+00
 
     Adding external electric field

     Computed dipole along edir(3) : 
        Dipole                0.0832 Ry au,          0.2114 Debye
        Dipole field          0.0002 Ry au, 
 
        Potential amp.       -0.0265 Ry
        Total length         70.3185 bohr
 

     total cpu time spent up to now is     3120.8 secs

     total energy              =   -4038.71824619 Ry
     estimated scf accuracy    <       0.01377831 Ry

     iteration # 36     ecut=    52.00 Ry     beta= 0.30
     Davidson diagonalization with overlap
     ethr =  2.01E-07,  avg # of iterations =  4.8

     negative rho (up, down):  4.249E-03 0.000E+00
 
     Adding external electric field

     Computed dipole along edir(3) : 
        Dipole                0.0579 Ry au,          0.1471 Debye
        Dipole field          0.0001 Ry au, 
 
        Potential amp.       -0.0184 Ry
        Total length         70.3185 bohr
 

     total cpu time spent up to now is     3200.9 secs

     total energy              =   -4038.71808701 Ry
     estimated scf accuracy    <       0.00540995 Ry

     iteration # 37     ecut=    52.00 Ry     beta= 0.30
     Davidson diagonalization with overlap
     ethr =  2.01E-07,  avg # of iterations =  8.0

     negative rho (up, down):  4.464E-03 0.000E+00
 
     Adding external electric field

     Computed dipole along edir(3) : 
        Dipole                0.0611 Ry au,          0.1553 Debye
        Dipole field          0.0001 Ry au, 
 
        Potential amp.       -0.0195 Ry
        Total length         70.3185 bohr
 

     total cpu time spent up to now is     3290.4 secs

     total energy              =   -4038.71812371 Ry
     estimated scf accuracy    <       0.00120890 Ry

     iteration # 38     ecut=    52.00 Ry     beta= 0.30
     Davidson diagonalization with overlap
     ethr =  2.01E-07,  avg # of iterations =  2.8

     negative rho (up, down):  4.212E-03 0.000E+00
 
     Adding external electric field

     Computed dipole along edir(3) : 
        Dipole                0.0590 Ry au,          0.1498 Debye
        Dipole field          0.0001 Ry au, 
 
        Potential amp.       -0.0188 Ry
        Total length         70.3185 bohr
 

     total cpu time spent up to now is     3366.0 secs

     total energy              =   -4038.71812062 Ry
     estimated scf accuracy    <       0.00024427 Ry

     iteration # 39     ecut=    52.00 Ry     beta= 0.30
     Davidson diagonalization with overlap
     ethr =  6.86E-08,  avg # of iterations =  1.0

     negative rho (up, down):  3.533E-03 0.000E+00
 
     Adding external electric field

     Computed dipole along edir(3) : 
        Dipole                0.0538 Ry au,          0.1367 Debye
        Dipole field          0.0001 Ry au, 
 
        Potential amp.       -0.0171 Ry
        Total length         70.3185 bohr
 

     total cpu time spent up to now is     3431.2 secs

     total energy              =   -4038.71810100 Ry
     estimated scf accuracy    <       0.00020948 Ry

     iteration # 40     ecut=    52.00 Ry     beta= 0.30
     Davidson diagonalization with overlap
     ethr =  5.88E-08,  avg # of iterations =  4.5

     negative rho (up, down):  3.156E-03 0.000E+00
 
     Adding external electric field

     Computed dipole along edir(3) : 
        Dipole                0.0481 Ry au,          0.1222 Debye
        Dipole field          0.0001 Ry au, 
 
        Potential amp.       -0.0153 Ry
        Total length         70.3185 bohr
 

     total cpu time spent up to now is     3510.5 secs

     total energy              =   -4038.71808810 Ry
     estimated scf accuracy    <       0.00011673 Ry

     iteration # 41     ecut=    52.00 Ry     beta= 0.30
     Davidson diagonalization with overlap
     ethr =  3.28E-08,  avg # of iterations =  3.5

     negative rho (up, down):  3.337E-03 0.000E+00
 
     Adding external electric field

     Computed dipole along edir(3) : 
        Dipole                0.0491 Ry au,          0.1247 Debye
        Dipole field          0.0001 Ry au, 
 
        Potential amp.       -0.0156 Ry
        Total length         70.3185 bohr
 

     total cpu time spent up to now is     3587.1 secs

     total energy              =   -4038.71809589 Ry
     estimated scf accuracy    <       0.00047033 Ry

     iteration # 42     ecut=    52.00 Ry     beta= 0.30
     Davidson diagonalization with overlap
     ethr =  3.28E-08,  avg # of iterations =  1.9

     negative rho (up, down):  2.825E-03 0.000E+00
 
     Adding external electric field

     Computed dipole along edir(3) : 
        Dipole                0.0457 Ry au,          0.1161 Debye
        Dipole field          0.0001 Ry au, 
 
        Potential amp.       -0.0145 Ry
        Total length         70.3185 bohr
 

     total cpu time spent up to now is     3658.6 secs

     total energy              =   -4038.71808095 Ry
     estimated scf accuracy    <       0.00045812 Ry

     iteration # 43     ecut=    52.00 Ry     beta= 0.30
     Davidson diagonalization with overlap
     ethr =  3.28E-08,  avg # of iterations =  1.7

     negative rho (up, down):  2.802E-03 0.000E+00
 
     Adding external electric field

     Computed dipole along edir(3) : 
        Dipole                0.0459 Ry au,          0.1166 Debye
        Dipole field          0.0001 Ry au, 
 
        Potential amp.       -0.0146 Ry
        Total length         70.3185 bohr
 

     total cpu time spent up to now is     3726.5 secs

     total energy              =   -4038.71808152 Ry
     estimated scf accuracy    <       0.00027762 Ry

     iteration # 44     ecut=    52.00 Ry     beta= 0.30
     Davidson diagonalization with overlap
     ethr =  3.28E-08,  avg # of iterations =  1.0

     negative rho (up, down):  2.793E-03 0.000E+00
 
     Adding external electric field

     Computed dipole along edir(3) : 
        Dipole                0.0467 Ry au,          0.1187 Debye
        Dipole field          0.0001 Ry au, 
 
        Potential amp.       -0.0149 Ry
        Total length         70.3185 bohr
 

     total cpu time spent up to now is     3791.6 secs

     total energy              =   -4038.71808087 Ry
     estimated scf accuracy    <       0.00025065 Ry

     iteration # 45     ecut=    52.00 Ry     beta= 0.30
     Davidson diagonalization with overlap
     ethr =  3.28E-08,  avg # of iterations =  1.0

     negative rho (up, down):  2.825E-03 0.000E+00
 
     Adding external electric field

     Computed dipole along edir(3) : 
        Dipole                0.0475 Ry au,          0.1207 Debye
        Dipole field          0.0001 Ry au, 
 
        Potential amp.       -0.0151 Ry
        Total length         70.3185 bohr
 

     total cpu time spent up to now is     3856.2 secs

     total energy              =   -4038.71807991 Ry
     estimated scf accuracy    <       0.00029347 Ry

     iteration # 46     ecut=    52.00 Ry     beta= 0.30
     Davidson diagonalization with overlap
     ethr =  3.28E-08,  avg # of iterations =  1.0

     negative rho (up, down):  2.427E-03 0.000E+00
 
     Adding external electric field

     Computed dipole along edir(3) : 
        Dipole                0.0440 Ry au,          0.1117 Debye
        Dipole field          0.0001 Ry au, 
 
        Potential amp.       -0.0140 Ry
        Total length         70.3185 bohr
 

     total cpu time spent up to now is     3921.5 secs

     total energy              =   -4038.71806924 Ry
     estimated scf accuracy    <       0.00023602 Ry

     iteration # 47     ecut=    52.00 Ry     beta= 0.30
     Davidson diagonalization with overlap
     ethr =  3.28E-08,  avg # of iterations =  5.0

     negative rho (up, down):  1.110E-03 0.000E+00
 
     Adding external electric field

     Computed dipole along edir(3) : 
        Dipole                0.0291 Ry au,          0.0740 Debye
        Dipole field          0.0001 Ry au, 
 
        Potential amp.       -0.0093 Ry
        Total length         70.3185 bohr
 

     total cpu time spent up to now is     4003.0 secs

     total energy              =   -4038.71804557 Ry
     estimated scf accuracy    <       0.00011056 Ry

     iteration # 48     ecut=    52.00 Ry     beta= 0.30
     Davidson diagonalization with overlap
     c_bands:  2 eigenvalues not converged
     c_bands:  2 eigenvalues not converged
     c_bands:  2 eigenvalues not converged
     ethr =  3.11E-08,  avg # of iterations =  9.0

     negative rho (up, down):  5.752E-04 0.000E+00
 
     Adding external electric field

     Computed dipole along edir(3) : 
        Dipole                0.0173 Ry au,          0.0440 Debye
        Dipole field          0.0000 Ry au, 
 
        Potential amp.       -0.0055 Ry
        Total length         70.3185 bohr
 

     total cpu time spent up to now is     4096.8 secs

     total energy              =   -4038.71803598 Ry
     estimated scf accuracy    <       0.00003417 Ry

     iteration # 49     ecut=    52.00 Ry     beta= 0.30
     Davidson diagonalization with overlap
     ethr =  9.60E-09,  avg # of iterations =  4.5

     negative rho (up, down):  8.179E-04 0.000E+00
 
     Adding external electric field

     Computed dipole along edir(3) : 
        Dipole                0.0188 Ry au,          0.0478 Debye
        Dipole field          0.0000 Ry au, 
 
        Potential amp.       -0.0060 Ry
        Total length         70.3185 bohr
 

     total cpu time spent up to now is     4177.4 secs

     total energy              =   -4038.71803662 Ry
     estimated scf accuracy    <       0.00005053 Ry

     iteration # 50     ecut=    52.00 Ry     beta= 0.30
     Davidson diagonalization with overlap
     ethr =  9.60E-09,  avg # of iterations =  1.0

     negative rho (up, down):  5.327E-04 0.000E+00
 
     Adding external electric field

     Computed dipole along edir(3) : 
        Dipole                0.0158 Ry au,          0.0403 Debye
        Dipole field          0.0000 Ry au, 
 
        Potential amp.       -0.0050 Ry
        Total length         70.3185 bohr
 

     total cpu time spent up to now is     4243.2 secs

     total energy              =   -4038.71803461 Ry
     estimated scf accuracy    <       0.00000612 Ry

     iteration # 51     ecut=    52.00 Ry     beta= 0.30
     Davidson diagonalization with overlap
     ethr =  1.72E-09,  avg # of iterations =  2.0

     negative rho (up, down):  2.749E-04 0.000E+00
 
     Adding external electric field

     Computed dipole along edir(3) : 
        Dipole                0.0140 Ry au,          0.0356 Debye
        Dipole field          0.0000 Ry au, 
 
        Potential amp.       -0.0045 Ry
        Total length         70.3185 bohr
 

     total cpu time spent up to now is     4315.4 secs

     total energy              =   -4038.71803541 Ry
     estimated scf accuracy    <       0.00000245 Ry

     iteration # 52     ecut=    52.00 Ry     beta= 0.30
     Davidson diagonalization with overlap
     ethr =  6.87E-10,  avg # of iterations =  1.6

     negative rho (up, down):  2.124E-04 0.000E+00
 
     Adding external electric field

     Computed dipole along edir(3) : 
        Dipole                0.0134 Ry au,          0.0341 Debye
        Dipole field          0.0000 Ry au, 
 
        Potential amp.       -0.0043 Ry
        Total length         70.3185 bohr
 

     total cpu time spent up to now is     4383.7 secs

     total energy              =   -4038.71803566 Ry
     estimated scf accuracy    <       0.00000050 Ry

     iteration # 53     ecut=    52.00 Ry     beta= 0.30
     Davidson diagonalization with overlap
     ethr =  1.39E-10,  avg # of iterations =  2.0

     negative rho (up, down):  2.770E-04 0.000E+00
 
     Adding external electric field

     Computed dipole along edir(3) : 
        Dipole                0.0148 Ry au,          0.0376 Debye
        Dipole field          0.0000 Ry au, 
 
        Potential amp.       -0.0047 Ry
        Total length         70.3185 bohr
 

     total cpu time spent up to now is     4457.6 secs

     total energy              =   -4038.71803549 Ry
     estimated scf accuracy    <       0.00000078 Ry

     iteration # 54     ecut=    52.00 Ry     beta= 0.30
     Davidson diagonalization with overlap
     ethr =  1.39E-10,  avg # of iterations =  1.1

     negative rho (up, down):  2.590E-04 0.000E+00
 
     Adding external electric field

     Computed dipole along edir(3) : 
        Dipole                0.0145 Ry au,          0.0367 Debye
        Dipole field          0.0000 Ry au, 
 
        Potential amp.       -0.0046 Ry
        Total length         70.3185 bohr
 

     total cpu time spent up to now is     4524.2 secs

     total energy              =   -4038.71803555 Ry
     estimated scf accuracy    <       0.00000052 Ry

     iteration # 55     ecut=    52.00 Ry     beta= 0.30
     Davidson diagonalization with overlap
     ethr =  1.39E-10,  avg # of iterations =  1.0

     negative rho (up, down):  2.907E-04 0.000E+00
 
     Adding external electric field

     Computed dipole along edir(3) : 
        Dipole                0.0152 Ry au,          0.0387 Debye
        Dipole field          0.0000 Ry au, 
 
        Potential amp.       -0.0048 Ry
        Total length         70.3185 bohr
 

     total cpu time spent up to now is     4589.7 secs

     total energy              =   -4038.71803548 Ry
     estimated scf accuracy    <       0.00000009 Ry

     iteration # 56     ecut=    52.00 Ry     beta= 0.30
     Davidson diagonalization with overlap
     ethr =  2.62E-11,  avg # of iterations =  2.0

     negative rho (up, down):  2.889E-04 0.000E+00
 
     Adding external electric field

     Computed dipole along edir(3) : 
        Dipole                0.0152 Ry au,          0.0386 Debye
        Dipole field          0.0000 Ry au, 
 
        Potential amp.       -0.0048 Ry
        Total length         70.3185 bohr
 

     total cpu time spent up to now is     4659.9 secs

     total energy              =   -4038.71803548 Ry
     estimated scf accuracy    <       0.00000016 Ry

     iteration # 57     ecut=    52.00 Ry     beta= 0.30
     Davidson diagonalization with overlap
     ethr =  2.62E-11,  avg # of iterations =  1.0

     negative rho (up, down):  2.851E-04 0.000E+00
 
     Adding external electric field

     Computed dipole along edir(3) : 
        Dipole                0.0151 Ry au,          0.0384 Debye
        Dipole field          0.0000 Ry au, 
 
        Potential amp.       -0.0048 Ry
        Total length         70.3185 bohr
 

     total cpu time spent up to now is     4724.8 secs

     total energy              =   -4038.71803549 Ry
     estimated scf accuracy    <       0.00000003 Ry

     iteration # 58     ecut=    52.00 Ry     beta= 0.30
     Davidson diagonalization with overlap
     ethr =  7.37E-12,  avg # of iterations =  1.0

     negative rho (up, down):  2.872E-04 0.000E+00
 
     Adding external electric field

     Computed dipole along edir(3) : 
        Dipole                0.0145 Ry au,          0.0368 Debye
        Dipole field          0.0000 Ry au, 
 
        Potential amp.       -0.0046 Ry
        Total length         70.3185 bohr
 

     total cpu time spent up to now is     4787.5 secs

     End of self-consistent calculation

          k = 0.0000 0.0000 0.0000 ( 35157 PWs)   bands (ev):

   -86.9686 -86.9574 -86.9521 -86.9521 -86.9465 -86.9465 -86.8123 -86.7990
   -86.7946 -86.7435 -86.7301 -86.7300 -50.4789 -50.4527 -50.4526 -50.4512
   -50.4510 -50.4499 -50.4499 -50.4238 -50.4238 -50.4002 -50.4001 -50.3955
   -50.3954 -50.3933 -50.3511 -50.3509 -50.3365 -50.3362 -50.2953 -50.2952
   -50.2889 -50.2889 -50.2363 -50.2261 -50.2261 -50.2252 -50.2239 -50.2239
   -50.2208 -50.2037 -50.2036 -50.1637 -50.1518 -50.1516 -50.1361 -50.1357
   -14.3954 -14.2072 -14.1202 -14.0096  -9.2881  -9.2754  -9.2754  -9.0616
    -9.0616  -9.0616  -9.0297  -9.0297  -9.0297  -8.9786  -8.9786  -8.9786
    -8.1484  -8.1425  -8.1425  -7.9177  -7.9176  -7.9176  -7.8968  -7.8967
    -7.8967  -7.8500  -7.8500  -7.8500  -3.0936  -2.7253  -2.3159  -2.1047
    -1.5226  -1.4376  -1.4376  -1.4306  -1.3899  -1.2084  -1.2084  -1.2084
    -1.1906  -1.1906  -1.1906  -1.1554  -1.1554  -1.1554  -1.1492  -0.9865
    -0.5170  -0.5159  -0.5038  -0.5021  -0.4986  -0.4974  -0.1615  -0.1611
    -0.1469  -0.1467   0.0311   0.0362   0.0630   0.0634   0.2925   0.3459
     0.3462   0.3931   0.3935   0.4421   0.4431   0.4691   0.4701   0.4866
     0.5847   0.5852   0.6668   0.6687   0.6901   0.6905   0.7431   0.7437
     0.8086   0.8087   0.8284   0.8284   1.2406   1.2454   1.3552   1.3588
     1.3598   1.3617   1.4043   1.4044   1.4940   1.5053   1.6886   1.7698
     1.8086   1.8327   1.8361   1.8470   1.8470   1.9394   1.9646   2.0221
     2.0223   2.0365   2.0367   2.0765   2.0765   2.0915   2.0935   2.0935
     2.1006   2.1175   2.1175   2.4533   2.4533   2.4804   2.6408   2.6408
     2.6514   2.8696   2.8696   2.8710   3.0535   3.0535   3.0535   4.3020
     5.5644   6.3836   6.4416   6.4417   6.6553   6.6575   6.6575   6.8204
     6.8275   6.8276   7.1244   7.1274   7.1274   8.5631   8.5686   8.7526
     8.7573   8.7581   8.7716   8.7721   9.1583   9.5418   9.5428   9.5627
     9.5629   9.6577   9.9529   9.9655  10.0314  10.6540  11.0681  11.2227
    11.2246  11.2279  11.2295  11.5001  11.5204  11.9236

          k = 0.0000 0.1925 0.0000 ( 35107 PWs)   bands (ev):

   -86.9673 -86.9565 -86.9530 -86.9527 -86.9470 -86.9468 -86.8114 -86.7993
   -86.7951 -86.7425 -86.7307 -86.7304 -50.4758 -50.4697 -50.4641 -50.4622
   -50.4577 -50.4333 -50.4271 -50.4167 -50.4116 -50.4010 -50.3955 -50.3951
   -50.3921 -50.3901 -50.3603 -50.3549 -50.3474 -50.3392 -50.3104 -50.3053
   -50.2704 -50.2677 -50.2439 -50.2385 -50.2357 -50.2253 -50.2212 -50.2146
   -50.2066 -50.2030 -50.2004 -50.1627 -50.1523 -50.1520 -50.1471 -50.1389
   -14.2340 -14.0455 -13.9594 -13.8497 -10.4880 -10.2896 -10.2269 -10.1387
    -9.6499  -9.6425  -9.4428  -9.4427  -9.3894  -9.3893  -9.3105  -9.3105
    -7.5289  -7.5241  -7.3159  -7.3158  -7.2748  -7.2747  -7.2065  -7.2065
    -6.7106  -6.5014  -6.4587  -6.3894  -2.8978  -2.5301  -2.0737  -1.9162
    -1.9112  -1.9094  -1.6884  -1.6883  -1.6689  -1.6689  -1.6292  -1.6292
    -1.3328  -1.2772  -1.1783  -1.0502  -1.0325  -0.9975  -0.9697  -0.8008
    -0.7988  -0.6696  -0.6146  -0.6045  -0.5285  -0.3955  -0.3056  -0.2260
    -0.2091  -0.1637  -0.1166  -0.0191   0.0070   0.0101   0.1786   0.2578
     0.2827   0.3464   0.3907   0.4763   0.4910   0.4957   0.5154   0.5571
     0.5640   0.5767   0.6211   0.6307   0.7086   0.7157   0.7911   0.7926
     0.8444   0.9822   1.0799   1.1113   1.1332   1.1651   1.2036   1.2686
     1.2844   1.3567   1.3587   1.4109   1.4314   1.4483   1.4603   1.4636
     1.4680   1.4763   1.5205   1.6092   1.6325   1.6434   1.7486   1.7623
     1.7654   1.7798   1.7918   1.8011   1.8289   1.9614   1.9868   2.0348
     2.0930   2.1023   2.1682   2.1910   2.2416   2.2740   2.3110   2.4987
     2.5171   2.5239   2.5392   2.8109   2.8149   3.0882   3.0882   4.6522
     6.0159   6.0758   6.6417   6.6579   6.8666   6.8728   6.8832   7.0928
     7.0940   7.1685   7.3939   7.3971   7.4102   7.5294   7.6109   7.9084
     8.0953   8.2459   8.3738   8.5619   8.9702   9.3738   9.8693   9.8714
    10.0607  10.2205  10.3876  10.5115  10.6533  10.8595  11.2489  11.4351
    11.5230  11.5401  11.6521  12.0198  12.2664  12.4268

          k = 0.0000 0.3849 0.0000 ( 35145 PWs)   bands (ev):

   -86.9640 -86.9556 -86.9541 -86.9536 -86.9485 -86.9473 -86.8094 -86.8001
   -86.7964 -86.7396 -86.7328 -86.7312 -50.4829 -50.4746 -50.4675 -50.4611
   -50.4541 -50.4273 -50.4192 -50.4073 -50.4049 -50.3953 -50.3907 -50.3892
   -50.3807 -50.3790 -50.3758 -50.3754 -50.3615 -50.3481 -50.3223 -50.2998
   -50.2566 -50.2490 -50.2469 -50.2417 -50.2341 -50.2330 -50.2253 -50.2222
   -50.2153 -50.1812 -50.1775 -50.1758 -50.1600 -50.1541 -50.1529 -50.1477
   -13.7517 -13.5622 -13.4790 -13.3719 -11.8552 -11.6611 -11.5892 -11.4925
   -10.0488 -10.0419  -9.8456  -9.8455  -9.7857  -9.7856  -9.7001  -9.7000
    -6.4012  -6.3964  -6.1865  -6.1865  -6.1486  -6.1485  -6.0844  -6.0844
    -4.6513  -4.4371  -4.4025  -4.3419  -3.0390  -3.0334  -2.8137  -2.8137
    -2.7904  -2.7904  -2.7437  -2.7437  -2.3166  -1.9534  -1.4360  -1.3358
    -1.0463  -0.9461  -0.9401  -0.8169  -0.7829  -0.7031  -0.6651  -0.6446
    -0.6297  -0.5896  -0.5721  -0.5504  -0.5379  -0.4791  -0.4653  -0.4185
    -0.4149  -0.3237  -0.2462  -0.1895  -0.1775  -0.1706  -0.1325  -0.1107
    -0.0744  -0.0365   0.0306   0.0596   0.0833   0.1879   0.2188   0.3126
     0.3239   0.3501   0.3929   0.4594   0.4991   0.5358   0.6112   0.6749
     0.7247   0.7462   0.7544   0.7806   0.8504   0.8688   0.8705   0.9120
     0.9273   0.9795   0.9964   1.0266   1.0623   1.0705   1.1201   1.1486
     1.2813   1.3028   1.3118   1.3977   1.4556   1.5118   1.5197   1.5645
     1.6327   1.6829   1.7693   1.8472   1.8840   1.9234   1.9549   2.0230
     2.0467   2.0763   2.0771   2.1315   2.1477   2.1743   2.2502   2.2628
     2.2860   2.3522   2.6780   2.6905   3.0601   3.0609   3.2660   3.7906
     4.5188   5.4816   5.8671   6.0449   6.5037   6.9848   7.1731   7.2231
     7.3155   7.3586   7.3958   7.4160   7.6249   7.6324   7.8765   7.8784
     8.2192   9.3698   9.4990   9.6220   9.6905   9.9600  10.0143  10.0175
    10.2602  10.5111  10.7058  10.7941  10.8331  11.4720  11.8141  12.0367
    12.1861  12.2666  12.4289  12.4715  12.5527  12.5793

          k = 0.0000-0.5774 0.0000 ( 35212 PWs)   bands (ev):

   -86.9597 -86.9597 -86.9541 -86.9512 -86.9511 -86.9476 -86.8081 -86.8006
   -86.7972 -86.7361 -86.7360 -86.7315 -50.4877 -50.4793 -50.4591 -50.4589
   -50.4338 -50.4333 -50.4210 -50.4129 -50.4127 -50.3969 -50.3876 -50.3848
   -50.3843 -50.3759 -50.3756 -50.3659 -50.3627 -50.3624 -50.3265 -50.2791
   -50.2737 -50.2611 -50.2357 -50.2339 -50.2323 -50.2273 -50.2251 -50.2230
   -50.2091 -50.2090 -50.1683 -50.1622 -50.1621 -50.1570 -50.1567 -50.1532
   -12.9559 -12.9532 -12.7632 -12.7631 -12.6848 -12.6846 -12.5820 -12.5819
   -10.1917 -10.1849  -9.9893  -9.9892  -9.9280  -9.9279  -9.8410  -9.8409
    -5.5696  -5.5652  -5.3425  -5.3424  -5.3203  -5.3203  -5.2793  -5.2793
    -3.9028  -3.8964  -3.6707  -3.6707  -3.6522  -3.6522  -3.6172  -3.6172
    -2.4857  -2.4822  -2.2633  -2.2633  -2.2379  -2.2378  -2.1881  -2.1881
    -1.3744  -1.3700  -1.1989  -1.1076  -1.0431  -1.0226  -1.0189  -0.8050
    -0.7484  -0.7470  -0.6527  -0.5419  -0.5395  -0.4579  -0.4554  -0.3761
    -0.3518  -0.3502  -0.3128  -0.3116  -0.2136  -0.2119  -0.1041  -0.1031
    -0.0833  -0.0784   0.1097   0.1104   0.1242   0.1242   0.1414   0.1414
     0.1608   0.1742   0.1742   0.1960   0.1973   0.2457   0.2655   0.2677
     0.4342   0.4353   0.4635   0.4965   0.4999   0.5491   0.5538   0.7872
     0.7901   0.8581   0.8616   1.0231   1.0513   1.0934   1.0979   1.3021
     1.3086   1.3336   1.4114   1.4134   1.6412   1.6872   1.6887   1.7316
     1.7775   1.7787   1.8713   1.8855   1.8862   1.9554   2.0451   2.0526
     2.0535   2.0788   2.1803   2.1950   2.2318   2.2333   2.2624   2.2739
     2.3665   2.4328   2.6085   2.6256   2.7247   2.7252   3.0266   3.0286
     4.3433   4.3433   5.2549   6.0798   6.5950   6.6298   6.6311   6.8007
     7.5118   7.5202   7.7006   7.7032   7.8924   7.8949   8.0858   8.0866
     8.9087   8.9183   9.2511   9.8400  10.5862  10.6999  10.6999  11.0809
    11.0837  11.5673  11.5698  11.6976  11.7049  11.8026  11.8394  11.8446
    12.0075  12.0094  12.1512  12.1533  12.3822  12.3823

          k = 0.1667-0.0962 0.0000 ( 35107 PWs)   bands (ev):

   -86.9673 -86.9565 -86.9530 -86.9527 -86.9470 -86.9468 -86.8114 -86.7993
   -86.7951 -86.7425 -86.7307 -86.7304 -50.4758 -50.4695 -50.4642 -50.4623
   -50.4578 -50.4332 -50.4273 -50.4164 -50.4117 -50.4011 -50.3956 -50.3951
   -50.3923 -50.3898 -50.3603 -50.3549 -50.3476 -50.3390 -50.3104 -50.3053
   -50.2703 -50.2678 -50.2437 -50.2386 -50.2357 -50.2253 -50.2212 -50.2147
   -50.2065 -50.2029 -50.2005 -50.1627 -50.1524 -50.1520 -50.1473 -50.1387
   -14.2340 -14.0455 -13.9594 -13.8497 -10.4880 -10.2896 -10.2269 -10.1387
    -9.6499  -9.6425  -9.4428  -9.4427  -9.3894  -9.3893  -9.3105  -9.3105
    -7.5289  -7.5241  -7.3159  -7.3158  -7.2748  -7.2747  -7.2065  -7.2065
    -6.7106  -6.5014  -6.4587  -6.3894  -2.8977  -2.5301  -2.0737  -1.9162
    -1.9112  -1.9094  -1.6884  -1.6883  -1.6689  -1.6689  -1.6292  -1.6292
    -1.3328  -1.2772  -1.1783  -1.0502  -1.0325  -0.9975  -0.9693  -0.8003
    -0.7979  -0.6695  -0.6165  -0.6049  -0.5288  -0.3958  -0.3060  -0.2245
    -0.2083  -0.1632  -0.1167  -0.0187   0.0062   0.0093   0.1778   0.2579
     0.2819   0.3480   0.3891   0.4767   0.4918   0.4953   0.5156   0.5561
     0.5632   0.5744   0.6222   0.6307   0.7081   0.7205   0.7909   0.7917
     0.8449   0.9840   1.0755   1.1120   1.1338   1.1655   1.2036   1.2663
     1.2839   1.3564   1.3605   1.4103   1.4314   1.4483   1.4607   1.4669
     1.4703   1.4763   1.5205   1.6090   1.6323   1.6438   1.7486   1.7613
     1.7654   1.7830   1.7918   1.8008   1.8266   1.9606   1.9869   2.0354
     2.0891   2.1032   2.1686   2.1910   2.2398   2.2741   2.3109   2.4987
     2.5174   2.5245   2.5392   2.8109   2.8149   3.0882   3.0882   4.6527
     6.0155   6.0763   6.6417   6.6578   6.8665   6.8728   6.8832   7.0926
     7.0941   7.1687   7.3940   7.3970   7.4101   7.5272   7.6109   7.9083
     8.1000   8.2459   8.3727   8.5690   8.9702   9.3738   9.8626   9.8714
    10.0579  10.2205  10.3871  10.5080  10.6580  10.8595  11.2488  11.4338
    11.5252  11.5391  11.6523  12.0198  12.2663  12.4268

          k = 0.1667 0.0962 0.0000 ( 35107 PWs)   bands (ev):

   -86.9674 -86.9565 -86.9530 -86.9527 -86.9470 -86.9468 -86.8114 -86.7993
   -86.7951 -86.7425 -86.7307 -86.7304 -50.4758 -50.4699 -50.4640 -50.4622
   -50.4574 -50.4337 -50.4270 -50.4166 -50.4117 -50.4009 -50.3954 -50.3951
   -50.3922 -50.3902 -50.3602 -50.3550 -50.3473 -50.3393 -50.3104 -50.3053
   -50.2704 -50.2677 -50.2440 -50.2384 -50.2357 -50.2253 -50.2212 -50.2147
   -50.2066 -50.2032 -50.2002 -50.1627 -50.1523 -50.1521 -50.1469 -50.1391
   -14.2340 -14.0455 -13.9594 -13.8497 -10.4880 -10.2896 -10.2269 -10.1387
    -9.6499  -9.6425  -9.4428  -9.4427  -9.3894  -9.3893  -9.3105  -9.3105
    -7.5289  -7.5241  -7.3159  -7.3158  -7.2748  -7.2747  -7.2065  -7.2065
    -6.7106  -6.5014  -6.4587  -6.3894  -2.8977  -2.5301  -2.0738  -1.9162
    -1.9112  -1.9094  -1.6884  -1.6883  -1.6689  -1.6689  -1.6292  -1.6292
    -1.3328  -1.2772  -1.1785  -1.0502  -1.0325  -0.9975  -0.9697  -0.8010
    -0.7996  -0.6688  -0.6134  -0.6047  -0.5281  -0.3963  -0.3051  -0.2255
    -0.2089  -0.1655  -0.1165  -0.0199   0.0068   0.0117   0.1791   0.2579
     0.2834   0.3456   0.3908   0.4766   0.4902   0.4950   0.5155   0.5576
     0.5665   0.5774   0.6201   0.6302   0.7085   0.7136   0.7911   0.7919
     0.8468   0.9810   1.0799   1.1109   1.1309   1.1656   1.2035   1.2696
     1.2871   1.3560   1.3574   1.4107   1.4314   1.4483   1.4601   1.4622
     1.4672   1.4763   1.5205   1.6093   1.6338   1.6445   1.7486   1.7624
     1.7654   1.7784   1.7918   1.8013   1.8287   1.9625   1.9867   2.0344
     2.0961   2.1009   2.1677   2.1916   2.2432   2.2740   2.3110   2.4987
     2.5169   2.5227   2.5392   2.8110   2.8149   3.0882   3.0882   4.6518
     6.0160   6.0755   6.6417   6.6578   6.8666   6.8728   6.8834   7.0929
     7.0939   7.1703   7.3940   7.3971   7.4101   7.5279   7.6109   7.9084
     8.0935   8.2459   8.3742   8.5563   8.9702   9.3738   9.8715   9.8765
    10.0634  10.2205  10.3863  10.5116  10.6510  10.8596  11.2489  11.4363
    11.5221  11.5440  11.6518  12.0198  12.2664  12.4268

          k = 0.1667 0.2887 0.0000 ( 35119 PWs)   bands (ev):

   -86.9651 -86.9549 -86.9541 -86.9541 -86.9476 -86.9476 -86.8099 -86.7998
   -86.7961 -86.7405 -86.7316 -86.7315 -50.4718 -50.4716 -50.4700 -50.4652
   -50.4649 -50.4233 -50.4230 -50.4060 -50.4060 -50.4025 -50.3899 -50.3896
   -50.3820 -50.3817 -50.3748 -50.3679 -50.3604 -50.3438 -50.3125 -50.3115
   -50.2528 -50.2515 -50.2458 -50.2456 -50.2363 -50.2333 -50.2253 -50.2219
   -50.2117 -50.1844 -50.1842 -50.1677 -50.1607 -50.1532 -50.1530 -50.1442
   -13.9122 -13.7230 -13.6388 -13.5309 -11.0884 -11.0850 -10.8905 -10.8904
   -10.8235 -10.8233 -10.7311 -10.7310  -8.8616  -8.6427  -8.6121  -8.5623
    -7.7662  -7.5378  -7.5183  -7.4759  -5.6357  -5.6347  -5.4231  -5.4231
    -5.3852  -5.3852  -5.3210  -5.3210  -3.2192  -2.9976  -2.9733  -2.9251
    -2.5092  -2.1444  -1.6406  -1.5948  -1.5908  -1.5252  -1.3670  -1.3670
    -1.3480  -1.3480  -1.3092  -1.3092  -0.9648  -0.8698  -0.8599  -0.8579
    -0.7497  -0.7485  -0.7132  -0.7129  -0.6823  -0.5200  -0.4145  -0.4120
    -0.2426  -0.2409  -0.1998  -0.1988  -0.0311   0.0035   0.0036   0.1439
     0.1782   0.1860   0.3708   0.3828   0.4074   0.4249   0.4521   0.4680
     0.5238   0.5249   0.5282   0.6179   0.6308   0.6367   0.6955   0.7203
     0.7232   0.7468   0.7813   0.8499   0.8577   0.8649   0.9178   1.0051
     1.0792   1.0814   1.0932   1.1103   1.1354   1.1594   1.1894   1.1951
     1.2580   1.2682   1.2700   1.4002   1.4360   1.4386   1.5112   1.5120
     1.5142   1.5943   1.6170   1.6733   1.6777   1.7695   1.7751   1.7976
     1.8331   2.0133   2.0160   2.1065   2.1088   2.1213   2.1666   2.1714
     2.2977   2.3017   3.0257   3.0333   3.2170   3.4458   3.6268   4.8752
     4.8787   5.2227   5.6600   5.6670   6.2669   6.5221   6.5691   6.7417
     6.9316   7.0766   7.0853   8.3073   8.3397   8.5258   8.5373   8.7969
     8.8148   8.8859   8.9253   9.1128   9.1142   9.4051   9.8030   9.9469
     9.9547  10.2980  10.6028  10.7404  10.7423  11.2690  11.6209  11.6264
    11.6336  12.6436  12.6886  12.7027  12.8270  12.8383

          k = 0.1667-0.6736 0.0000 ( 35185 PWs)   bands (ev):

   -86.9613 -86.9572 -86.9550 -86.9522 -86.9495 -86.9481 -86.8082 -86.8002
   -86.7975 -86.7374 -86.7340 -86.7322 -50.4784 -50.4717 -50.4619 -50.4608
   -50.4540 -50.4267 -50.4230 -50.4228 -50.4014 -50.3956 -50.3911 -50.3859
   -50.3830 -50.3819 -50.3703 -50.3664 -50.3663 -50.3530 -50.3181 -50.2970
   -50.2677 -50.2520 -50.2363 -50.2352 -50.2337 -50.2302 -50.2251 -50.2231
   -50.2210 -50.2000 -50.1684 -50.1674 -50.1580 -50.1552 -50.1538 -50.1538
   -13.2724 -13.0818 -13.0015 -12.8970 -12.3239 -12.1310 -12.0563 -11.9570
   -11.3929 -11.1975 -11.1285 -11.0343  -8.8017  -8.5955  -8.5472  -8.4732
    -6.9504  -6.7323  -6.7019  -6.6467  -4.5980  -4.5302  -4.3747  -4.3511
    -4.3100  -4.3038  -4.2833  -4.2328  -3.5503  -3.3316  -3.3034  -3.2503
    -2.4660  -2.2401  -2.2203  -2.1800  -1.7460  -1.5105  -1.3907  -1.2843
    -1.2644  -1.2256  -1.0858  -1.0336  -1.0224  -0.9729  -0.9493  -0.8225
    -0.8203  -0.7717  -0.7459  -0.7277  -0.7230  -0.7151  -0.7046  -0.6913
    -0.6291  -0.5442  -0.5425  -0.4437  -0.3621  -0.3151  -0.3118  -0.2459
    -0.2316  -0.1684  -0.1454  -0.1066  -0.0094   0.1211   0.1352   0.1383
     0.1394   0.1653   0.1695   0.2769   0.3138   0.4012   0.4380   0.4599
     0.5035   0.5268   0.5576   0.5931   0.6407   0.7619   0.7656   0.8019
     0.8660   0.9411   0.9691   0.9994   1.0485   1.0869   1.1099   1.2276
     1.2393   1.2530   1.2795   1.2835   1.3991   1.4122   1.4715   1.5712
     1.6016   1.6081   1.7122   1.7261   1.7580   1.8049   1.8237   1.9407
     1.9824   1.9959   2.0156   2.0562   2.0821   2.1206   2.1598   2.1904
     2.2126   2.2962   2.8856   3.3315   3.5381   3.5652   3.8546   3.8790
     4.0098   4.1765   4.7628   5.1750   6.0444   6.1806   6.2204   6.2603
     6.4196   6.6182   7.4559   8.0810   8.2984   9.0790   9.2648   9.4628
     9.6642   9.6758   9.9167  10.2723  10.3770  10.5412  10.6543  10.7075
    10.9242  11.1443  11.1479  11.1584  11.3792  11.5731  11.8424  12.0768
    12.1681  12.3398  12.3992  12.4294  12.5732  12.8440

          k = 0.1667-0.4811 0.0000 ( 35185 PWs)   bands (ev):

   -86.9613 -86.9572 -86.9550 -86.9522 -86.9495 -86.9481 -86.8082 -86.8002
   -86.7975 -86.7374 -86.7340 -86.7322 -50.4784 -50.4718 -50.4618 -50.4608
   -50.4539 -50.4270 -50.4229 -50.4226 -50.4016 -50.3956 -50.3911 -50.3858
   -50.3830 -50.3821 -50.3701 -50.3666 -50.3663 -50.3528 -50.3181 -50.2970
   -50.2677 -50.2520 -50.2363 -50.2352 -50.2337 -50.2299 -50.2251 -50.2230
   -50.2210 -50.2003 -50.1684 -50.1677 -50.1581 -50.1552 -50.1538 -50.1535
   -13.2724 -13.0818 -13.0015 -12.8970 -12.3239 -12.1310 -12.0563 -11.9570
   -11.3929 -11.1975 -11.1285 -11.0343  -8.8017  -8.5955  -8.5472  -8.4732
    -6.9504  -6.7323  -6.7019  -6.6467  -4.5980  -4.5302  -4.3747  -4.3511
    -4.3100  -4.3038  -4.2833  -4.2328  -3.5503  -3.3316  -3.3034  -3.2503
    -2.4660  -2.2401  -2.2203  -2.1800  -1.7460  -1.5105  -1.3907  -1.2843
    -1.2644  -1.2256  -1.0856  -1.0324  -1.0226  -0.9729  -0.9496  -0.8227
    -0.8213  -0.7721  -0.7459  -0.7277  -0.7224  -0.7134  -0.7044  -0.6913
    -0.6290  -0.5440  -0.5426  -0.4440  -0.3620  -0.3156  -0.3122  -0.2454
    -0.2334  -0.1669  -0.1467  -0.1067  -0.0105   0.1211   0.1324   0.1377
     0.1383   0.1652   0.1695   0.2762   0.3145   0.4017   0.4400   0.4625
     0.5078   0.5253   0.5522   0.5900   0.6430   0.7609   0.7659   0.8028
     0.8723   0.9432   0.9723   0.9995   1.0437   1.0869   1.1109   1.2263
     1.2391   1.2524   1.2793   1.2847   1.3975   1.4118   1.4720   1.5725
     1.6022   1.6088   1.7139   1.7262   1.7547   1.8052   1.8243   1.9375
     1.9811   1.9960   2.0172   2.0618   2.0826   2.1189   2.1586   2.1906
     2.2111   2.2915   2.8856   3.3315   3.5389   3.5653   3.8548   3.8790
     4.0099   4.1765   4.7627   5.1765   6.0447   6.1823   6.2208   6.2604
     6.4197   6.6182   7.4546   8.0814   8.3018   9.0789   9.2648   9.4628
     9.6641   9.6758   9.9113  10.2723  10.3768  10.5412  10.6544  10.7075
    10.9243  11.1443  11.1479  11.1585  11.3793  11.5731  11.8425  12.0767
    12.1658  12.3401  12.3995  12.4292  12.5723  12.8440

          k = 0.1667-0.2887 0.0000 ( 35119 PWs)   bands (ev):

   -86.9651 -86.9549 -86.9541 -86.9541 -86.9476 -86.9476 -86.8099 -86.7998
   -86.7961 -86.7405 -86.7316 -86.7315 -50.4717 -50.4715 -50.4699 -50.4653
   -50.4650 -50.4231 -50.4228 -50.4062 -50.4061 -50.4027 -50.3901 -50.3898
   -50.3819 -50.3816 -50.3747 -50.3683 -50.3602 -50.3435 -50.3125 -50.3115
   -50.2528 -50.2515 -50.2457 -50.2456 -50.2364 -50.2333 -50.2253 -50.2219
   -50.2116 -50.1845 -50.1843 -50.1681 -50.1607 -50.1532 -50.1529 -50.1438
   -13.9122 -13.7230 -13.6388 -13.5309 -11.0884 -11.0850 -10.8905 -10.8904
   -10.8235 -10.8233 -10.7311 -10.7310  -8.8616  -8.6427  -8.6121  -8.5623
    -7.7662  -7.5378  -7.5183  -7.4759  -5.6357  -5.6347  -5.4231  -5.4231
    -5.3852  -5.3852  -5.3210  -5.3210  -3.2192  -2.9976  -2.9733  -2.9251
    -2.5092  -2.1444  -1.6403  -1.5948  -1.5908  -1.5251  -1.3671  -1.3670
    -1.3480  -1.3480  -1.3092  -1.3092  -0.9647  -0.8690  -0.8595  -0.8574
    -0.7506  -0.7494  -0.7136  -0.7133  -0.6814  -0.5171  -0.4142  -0.4113
    -0.2430  -0.2413  -0.2015  -0.2003  -0.0358   0.0015   0.0035   0.1427
     0.1782   0.1861   0.3744   0.3868   0.4074   0.4249   0.4521   0.4648
     0.5173   0.5220   0.5252   0.6198   0.6292   0.6362   0.7015   0.7198
     0.7301   0.7529   0.7787   0.8518   0.8603   0.8654   0.9181   1.0048
     1.0785   1.0810   1.0932   1.1103   1.1354   1.1539   1.1920   1.1965
     1.2572   1.2689   1.2695   1.3980   1.4360   1.4388   1.5125   1.5136
     1.5205   1.5956   1.6179   1.6713   1.6751   1.7673   1.7727   1.8008
     1.8322   2.0142   2.0169   2.1068   2.1092   2.1159   2.1668   2.1717
     2.2947   2.2987   3.0257   3.0346   3.2170   3.4458   3.6268   4.8751
     4.8784   5.2246   5.6604   5.6675   6.2670   6.5221   6.5691   6.7417
     6.9337   7.0786   7.0879   8.3076   8.3398   8.5259   8.5373   8.7974
     8.8150   8.8900   8.9289   9.1128   9.1142   9.4051   9.8030   9.9402
     9.9490  10.2979  10.6028  10.7367  10.7407  11.2689  11.6200  11.6260
    11.6310  12.6435  12.6814  12.6994  12.8271  12.8383

          k = 0.3333-0.1925 0.0000 ( 35145 PWs)   bands (ev):

   -86.9640 -86.9556 -86.9541 -86.9536 -86.9485 -86.9474 -86.8094 -86.8001
   -86.7964 -86.7396 -86.7328 -86.7312 -50.4828 -50.4747 -50.4675 -50.4612
   -50.4541 -50.4274 -50.4189 -50.4073 -50.4050 -50.3954 -50.3908 -50.3893
   -50.3808 -50.3786 -50.3759 -50.3755 -50.3614 -50.3479 -50.3223 -50.2998
   -50.2564 -50.2490 -50.2470 -50.2418 -50.2341 -50.2331 -50.2254 -50.2222
   -50.2152 -50.1810 -50.1777 -50.1760 -50.1600 -50.1541 -50.1528 -50.1475
   -13.7517 -13.5622 -13.4790 -13.3719 -11.8552 -11.6611 -11.5892 -11.4925
   -10.0488 -10.0419  -9.8456  -9.8455  -9.7857  -9.7856  -9.7001  -9.7000
    -6.4012  -6.3964  -6.1865  -6.1865  -6.1486  -6.1485  -6.0844  -6.0844
    -4.6513  -4.4371  -4.4025  -4.3419  -3.0390  -3.0334  -2.8137  -2.8137
    -2.7904  -2.7904  -2.7437  -2.7437  -2.3166  -1.9534  -1.4359  -1.3358
    -1.0464  -0.9463  -0.9397  -0.8169  -0.7829  -0.7029  -0.6659  -0.6458
    -0.6305  -0.5896  -0.5721  -0.5491  -0.5379  -0.4789  -0.4664  -0.4172
    -0.4149  -0.3250  -0.2448  -0.1895  -0.1782  -0.1706  -0.1325  -0.1111
    -0.0761  -0.0363   0.0308   0.0634   0.0817   0.1884   0.2193   0.3150
     0.3268   0.3499   0.3935   0.4590   0.4997   0.5339   0.6074   0.6734
     0.7286   0.7473   0.7548   0.7800   0.8499   0.8664   0.8697   0.9108
     0.9221   0.9795   0.9964   1.0266   1.0673   1.0749   1.1201   1.1459
     1.2813   1.3058   1.3113   1.3967   1.4582   1.5118   1.5210   1.5656
     1.6319   1.6784   1.7663   1.8483   1.8842   1.9249   1.9547   2.0230
     2.0480   2.0742   2.0770   2.1323   2.1468   2.1749   2.2477   2.2617
     2.2859   2.3523   2.6780   2.6905   3.0601   3.0609   3.2669   3.7904
     4.5187   5.4829   5.8645   6.0449   6.4978   6.9935   7.1733   7.2268
     7.3166   7.3667   7.3958   7.4187   7.6249   7.6324   7.8765   7.8784
     8.2203   9.3593   9.4988   9.6220   9.6904   9.9592  10.0097  10.0173
    10.2602  10.5111  10.7082  10.7940  10.8326  11.4719  11.8141  12.0181
    12.1861  12.2667  12.4290  12.4714  12.5526  12.5794

          k = 0.3333 0.0000 0.0000 ( 35119 PWs)   bands (ev):

   -86.9651 -86.9549 -86.9541 -86.9541 -86.9476 -86.9476 -86.8099 -86.7999
   -86.7961 -86.7405 -86.7316 -86.7315 -50.4718 -50.4715 -50.4700 -50.4653
   -50.4649 -50.4232 -50.4230 -50.4061 -50.4059 -50.4026 -50.3901 -50.3898
   -50.3820 -50.3815 -50.3747 -50.3682 -50.3603 -50.3436 -50.3124 -50.3116
   -50.2528 -50.2515 -50.2458 -50.2455 -50.2364 -50.2333 -50.2253 -50.2219
   -50.2116 -50.1845 -50.1841 -50.1679 -50.1607 -50.1532 -50.1529 -50.1440
   -13.9122 -13.7230 -13.6388 -13.5309 -11.0884 -11.0851 -10.8905 -10.8904
   -10.8235 -10.8233 -10.7311 -10.7310  -8.8616  -8.6427  -8.6121  -8.5623
    -7.7662  -7.5378  -7.5183  -7.4759  -5.6357  -5.6347  -5.4231  -5.4231
    -5.3852  -5.3852  -5.3210  -5.3210  -3.2192  -2.9976  -2.9733  -2.9251
    -2.5092  -2.1444  -1.6405  -1.5948  -1.5908  -1.5252  -1.3671  -1.3670
    -1.3480  -1.3480  -1.3092  -1.3092  -0.9648  -0.8698  -0.8598  -0.8575
    -0.7505  -0.7488  -0.7136  -0.7129  -0.6812  -0.5178  -0.4138  -0.4112
    -0.2431  -0.2420  -0.2010  -0.1997  -0.0339   0.0021   0.0043   0.1428
     0.1782   0.1861   0.3718   0.3852   0.4074   0.4249   0.4521   0.4658
     0.5191   0.5240   0.5273   0.6190   0.6297   0.6359   0.6990   0.7199
     0.7277   0.7514   0.7790   0.8514   0.8596   0.8652   0.9181   1.0048
     1.0789   1.0815   1.0932   1.1103   1.1354   1.1560   1.1902   1.1950
     1.2576   1.2690   1.2694   1.3987   1.4362   1.4384   1.5127   1.5135
     1.5189   1.5950   1.6173   1.6725   1.6773   1.7678   1.7725   1.8007
     1.8315   2.0138   2.0166   2.1065   2.1091   2.1183   2.1665   2.1714
     2.2955   2.3007   3.0257   3.0334   3.2170   3.4458   3.6268   4.8749
     4.8789   5.2239   5.6601   5.6672   6.2670   6.5221   6.5691   6.7417
     6.9329   7.0775   7.0876   8.3074   8.3398   8.5258   8.5373   8.7971
     8.8149   8.8882   8.9273   9.1128   9.1142   9.4051   9.8030   9.9408
     9.9540  10.2980  10.6028  10.7370  10.7415  11.2690  11.6211  11.6263
    11.6338  12.6436  12.6818  12.7012  12.8282  12.8382

          k = 0.3333 0.1925 0.0000 ( 35145 PWs)   bands (ev):

   -86.9640 -86.9556 -86.9541 -86.9536 -86.9485 -86.9474 -86.8094 -86.8001
   -86.7964 -86.7396 -86.7328 -86.7312 -50.4832 -50.4747 -50.4676 -50.4610
   -50.4538 -50.4276 -50.4191 -50.4071 -50.4049 -50.3954 -50.3905 -50.3892
   -50.3808 -50.3792 -50.3757 -50.3752 -50.3616 -50.3482 -50.3223 -50.2998
   -50.2567 -50.2490 -50.2469 -50.2417 -50.2341 -50.2328 -50.2254 -50.2222
   -50.2153 -50.1814 -50.1773 -50.1757 -50.1600 -50.1541 -50.1529 -50.1479
   -13.7517 -13.5622 -13.4790 -13.3719 -11.8552 -11.6611 -11.5892 -11.4925
   -10.0488 -10.0419  -9.8456  -9.8455  -9.7857  -9.7856  -9.7001  -9.7000
    -6.4012  -6.3964  -6.1865  -6.1865  -6.1486  -6.1485  -6.0844  -6.0844
    -4.6513  -4.4371  -4.4025  -4.3419  -3.0390  -3.0334  -2.8137  -2.8137
    -2.7904  -2.7904  -2.7437  -2.7437  -2.3166  -1.9534  -1.4361  -1.3359
    -1.0462  -0.9458  -0.9403  -0.8169  -0.7830  -0.7038  -0.6642  -0.6432
    -0.6296  -0.5896  -0.5721  -0.5500  -0.5379  -0.4801  -0.4650  -0.4191
    -0.4149  -0.3233  -0.2463  -0.1895  -0.1775  -0.1706  -0.1325  -0.1113
    -0.0739  -0.0362   0.0306   0.0599   0.0828   0.1886   0.2184   0.3107
     0.3231   0.3501   0.3923   0.4595   0.4994   0.5344   0.6147   0.6757
     0.7212   0.7451   0.7539   0.7815   0.8509   0.8699   0.8705   0.9130
     0.9275   0.9795   0.9964   1.0266   1.0609   1.0691   1.1199   1.1506
     1.2814   1.3017   1.3125   1.3981   1.4557   1.5123   1.5197   1.5627
     1.6329   1.6835   1.7686   1.8477   1.8840   1.9243   1.9552   2.0227
     2.0463   2.0767   2.0785   2.1310   2.1467   2.1748   2.2529   2.2626
     2.2859   2.3522   2.6780   2.6905   3.0600   3.0609   3.2646   3.7906
     4.5192   5.4808   5.8705   6.0445   6.5023   6.9836   7.1730   7.2183
     7.3149   7.3537   7.3958   7.4154   7.6249   7.6324   7.8765   7.8784
     8.2186   9.3786   9.4993   9.6220   9.6905   9.9602  10.0149  10.0176
    10.2602  10.5111  10.7041  10.7941  10.8383  11.4721  11.8142  12.0431
    12.1861  12.2666  12.4303  12.4718  12.5529  12.5768

          k = 0.3333-0.7698 0.0000 ( 35185 PWs)   bands (ev):

   -86.9613 -86.9572 -86.9550 -86.9522 -86.9495 -86.9481 -86.8082 -86.8002
   -86.7975 -86.7374 -86.7340 -86.7322 -50.4786 -50.4718 -50.4619 -50.4607
   -50.4539 -50.4266 -50.4229 -50.4228 -50.4014 -50.3956 -50.3911 -50.3858
   -50.3829 -50.3820 -50.3703 -50.3665 -50.3662 -50.3530 -50.3181 -50.2970
   -50.2677 -50.2522 -50.2363 -50.2352 -50.2337 -50.2300 -50.2251 -50.2230
   -50.2210 -50.2000 -50.1682 -50.1676 -50.1580 -50.1552 -50.1539 -50.1538
   -13.2724 -13.0818 -13.0015 -12.8970 -12.3239 -12.1310 -12.0563 -11.9570
   -11.3929 -11.1975 -11.1285 -11.0343  -8.8017  -8.5955  -8.5472  -8.4732
    -6.9504  -6.7323  -6.7019  -6.6467  -4.5980  -4.5302  -4.3747  -4.3511
    -4.3100  -4.3038  -4.2833  -4.2328  -3.5503  -3.3316  -3.3034  -3.2503
    -2.4660  -2.2401  -2.2203  -2.1800  -1.7460  -1.5105  -1.3907  -1.2843
    -1.2644  -1.2256  -1.0854  -1.0336  -1.0219  -0.9729  -0.9499  -0.8225
    -0.8207  -0.7721  -0.7459  -0.7277  -0.7223  -0.7152  -0.7046  -0.6913
    -0.6288  -0.5436  -0.5423  -0.4438  -0.3619  -0.3151  -0.3116  -0.2459
    -0.2319  -0.1687  -0.1459  -0.1066  -0.0098   0.1211   0.1352   0.1383
     0.1398   0.1659   0.1695   0.2772   0.3104   0.4022   0.4376   0.4612
     0.5016   0.5267   0.5568   0.5951   0.6395   0.7617   0.7654   0.8020
     0.8661   0.9415   0.9697   1.0001   1.0470   1.0864   1.1106   1.2287
     1.2388   1.2525   1.2804   1.2839   1.3988   1.4124   1.4713   1.5713
     1.6019   1.6081   1.7135   1.7259   1.7578   1.8048   1.8234   1.9409
     1.9822   1.9955   2.0151   2.0569   2.0842   2.1199   2.1620   2.1906
     2.2119   2.2951   2.8854   3.3315   3.5389   3.5653   3.8540   3.8790
     4.0109   4.1766   4.7610   5.1746   6.0443   6.1803   6.2190   6.2603
     6.4196   6.6182   7.4550   8.0778   8.2981   9.0789   9.2648   9.4628
     9.6643   9.6818   9.9140  10.2723  10.3782  10.5412  10.6543  10.7075
    10.9243  11.1473  11.1481  11.1603  11.3792  11.5731  11.8429  12.0768
    12.1669  12.3463  12.3993  12.4295  12.5727  12.8440

          k = 0.3333-0.5774 0.0000 ( 35157 PWs)   bands (ev):

   -86.9579 -86.9578 -86.9578 -86.9500 -86.9499 -86.9499 -86.8076 -86.7995
   -86.7988 -86.7347 -86.7345 -86.7344 -50.4621 -50.4620 -50.4616 -50.4560
   -50.4555 -50.4553 -50.4216 -50.4213 -50.4211 -50.3888 -50.3887 -50.3885
   -50.3787 -50.3786 -50.3784 -50.3586 -50.3584 -50.3583 -50.2988 -50.2985
   -50.2947 -50.2337 -50.2306 -50.2304 -50.2303 -50.2293 -50.2290 -50.2253
   -50.2246 -50.2238 -50.1604 -50.1602 -50.1600 -50.1559 -50.1557 -50.1555
   -12.4827 -12.4826 -12.4784 -12.2888 -12.2887 -12.2885 -12.2132 -12.2132
   -12.2129 -12.1130 -12.1129 -12.1129  -7.6222  -7.6086  -7.4191  -7.3751
    -7.3674  -7.3559  -7.3369  -7.2891  -5.4324  -5.1996  -5.1790  -5.1596
    -2.8347  -2.8301  -2.8301  -2.6040  -2.6040  -2.6039  -2.5849  -2.5849
    -2.5849  -2.5509  -2.5509  -2.5509  -1.4309  -1.4308  -1.4283  -1.2002
    -1.2002  -1.2001  -1.1826  -1.1826  -1.1826  -1.1531  -1.1531  -1.1531
    -0.9918  -0.9908  -0.9899  -0.9496  -0.9489  -0.9480  -0.8316  -0.8311
    -0.8251  -0.7587  -0.7563  -0.7556  -0.6038  -0.6034  -0.6020  -0.4820
    -0.4813  -0.4785  -0.4040  -0.4032  -0.3974  -0.1542  -0.1536  -0.1505
     0.0763   0.0765   0.0826   0.2799   0.2822   0.2869   0.4763   0.4780
     0.4836   0.5731   0.5753   0.5788   0.6318   0.6322   0.6354   0.7082
     0.7110   0.7120   1.0691   1.0715   1.0756   1.1365   1.1456   1.1479
     1.4450   1.4456   1.4519   1.5126   1.5129   1.5142   1.7081   1.7113
     1.7125   1.7628   1.7635   1.7638   1.8185   1.8195   1.8201   1.9097
     1.9101   1.9111   1.9653   1.9661   1.9667   2.1676   2.1697   2.1709
     2.2081   2.2090   2.2117   3.0007   3.0022   3.0026   4.5562   4.7952
     4.8027   4.8136   4.8458   4.8747   5.1010   5.1408   5.1445   5.2421
     5.6449   7.1547   7.1698   7.1713   9.6158   9.6243   9.6283  10.9940
    10.9945  10.9989  11.1792  11.1793  11.1801  11.3263  11.3263  11.3270
    11.3537  11.3540  11.3540  11.4919  11.4924  11.4924  11.6147  11.6151
    11.6158  11.9877  12.0058  12.0074  12.2128  12.2195

          k = 0.3333-0.3849 0.0000 ( 35185 PWs)   bands (ev):

   -86.9613 -86.9572 -86.9550 -86.9522 -86.9495 -86.9481 -86.8082 -86.8002
   -86.7975 -86.7374 -86.7340 -86.7322 -50.4783 -50.4718 -50.4618 -50.4608
   -50.4540 -50.4270 -50.4228 -50.4226 -50.4017 -50.3958 -50.3912 -50.3859
   -50.3830 -50.3820 -50.3701 -50.3665 -50.3663 -50.3527 -50.3180 -50.2971
   -50.2677 -50.2519 -50.2363 -50.2352 -50.2337 -50.2301 -50.2251 -50.2230
   -50.2209 -50.2004 -50.1686 -50.1675 -50.1581 -50.1552 -50.1537 -50.1534
   -13.2724 -13.0818 -13.0015 -12.8970 -12.3239 -12.1310 -12.0563 -11.9570
   -11.3929 -11.1975 -11.1285 -11.0343  -8.8017  -8.5955  -8.5472  -8.4732
    -6.9504  -6.7323  -6.7019  -6.6467  -4.5980  -4.5302  -4.3747  -4.3511
    -4.3100  -4.3038  -4.2833  -4.2328  -3.5503  -3.3316  -3.3034  -3.2503
    -2.4660  -2.2401  -2.2203  -2.1800  -1.7460  -1.5105  -1.3907  -1.2843
    -1.2644  -1.2256  -1.0864  -1.0325  -1.0229  -0.9729  -0.9487  -0.8226
    -0.8212  -0.7715  -0.7459  -0.7277  -0.7234  -0.7133  -0.7053  -0.6913
    -0.6291  -0.5446  -0.5433  -0.4426  -0.3622  -0.3159  -0.3129  -0.2454
    -0.2328  -0.1666  -0.1466  -0.1067  -0.0104   0.1211   0.1361   0.1383
     0.1388   0.1623   0.1695   0.2752   0.3186   0.4005   0.4421   0.4615
     0.5108   0.5258   0.5523   0.5849   0.6427   0.7616   0.7655   0.8028
     0.8735   0.9425   0.9675   0.9973   1.0488   1.0897   1.1082   1.2265
     1.2410   1.2523   1.2780   1.2858   1.3998   1.4117   1.4701   1.5726
     1.6026   1.6087   1.7107   1.7261   1.7548   1.8055   1.8239   1.9380
     1.9813   1.9959   2.0172   2.0608   2.0799   2.1199   2.1561   2.1910
     2.2127   2.2927   2.8856   3.3315   3.5387   3.5653   3.8555   3.8790
     4.0091   4.1765   4.7629   5.1759   6.0448   6.1829   6.2255   6.2604
     6.4197   6.6182   7.4563   8.0851   8.3023   9.0790   9.2648   9.4628
     9.6635   9.6690   9.9153  10.2723  10.3720  10.5411  10.6543  10.7075
    10.9242  11.1442  11.1479  11.1584  11.3793  11.5731  11.8429  12.0767
    12.1668  12.3229  12.3994  12.4287  12.5731  12.8440

          k =-0.5000 0.2887 0.0000 ( 35212 PWs)   bands (ev):

   -86.9597 -86.9596 -86.9541 -86.9512 -86.9511 -86.9476 -86.8081 -86.8006
   -86.7972 -86.7361 -86.7360 -86.7315 -50.4875 -50.4794 -50.4591 -50.4588
   -50.4338 -50.4333 -50.4207 -50.4131 -50.4129 -50.3971 -50.3877 -50.3848
   -50.3844 -50.3758 -50.3755 -50.3661 -50.3624 -50.3622 -50.3265 -50.2792
   -50.2737 -50.2609 -50.2358 -50.2339 -50.2323 -50.2273 -50.2251 -50.2229
   -50.2093 -50.2091 -50.1685 -50.1621 -50.1620 -50.1570 -50.1567 -50.1532
   -12.9559 -12.9532 -12.7632 -12.7631 -12.6848 -12.6846 -12.5820 -12.5819
   -10.1917 -10.1849  -9.9893  -9.9892  -9.9280  -9.9279  -9.8410  -9.8409
    -5.5696  -5.5652  -5.3425  -5.3425  -5.3203  -5.3203  -5.2793  -5.2793
    -3.9028  -3.8964  -3.6707  -3.6707  -3.6522  -3.6522  -3.6172  -3.6172
    -2.4857  -2.4822  -2.2633  -2.2633  -2.2379  -2.2378  -2.1881  -2.1881
    -1.3744  -1.3700  -1.1995  -1.1079  -1.0424  -1.0226  -1.0189  -0.8059
    -0.7493  -0.7473  -0.6541  -0.5419  -0.5398  -0.4581  -0.4554  -0.3778
    -0.3511  -0.3494  -0.3124  -0.3109  -0.2124  -0.2105  -0.1041  -0.1031
    -0.0825  -0.0782   0.1097   0.1103   0.1242   0.1242   0.1414   0.1414
     0.1661   0.1742   0.1742   0.1937   0.1954   0.2512   0.2653   0.2684
     0.4357   0.4377   0.4616   0.4965   0.4997   0.5464   0.5515   0.7888
     0.7917   0.8536   0.8568   1.0210   1.0442   1.1007   1.1065   1.3015
     1.3077   1.3392   1.4114   1.4127   1.6422   1.6852   1.6860   1.7282
     1.7752   1.7767   1.8720   1.8871   1.8878   1.9534   2.0456   2.0501
     2.0506   2.0797   2.1805   2.1945   2.2319   2.2336   2.2639   2.2747
     2.3663   2.4324   2.6084   2.6256   2.7248   2.7252   3.0266   3.0286
     4.3439   4.3445   5.2504   6.0720   6.6073   6.6310   6.6330   6.8158
     7.5118   7.5202   7.7006   7.7032   7.8924   7.8949   8.0858   8.0866
     8.9110   8.9197   9.2399   9.8339  10.5859  10.6999  10.6999  11.0811
    11.0834  11.5674  11.5696  11.6973  11.7049  11.7818  11.8394  11.8440
    12.0075  12.0093  12.1512  12.1534  12.3823  12.3824

          k =-0.5000 0.4811 0.0000 ( 35185 PWs)   bands (ev):

   -86.9613 -86.9572 -86.9550 -86.9522 -86.9495 -86.9481 -86.8082 -86.8002
   -86.7975 -86.7374 -86.7340 -86.7322 -50.4783 -50.4718 -50.4619 -50.4608
   -50.4541 -50.4268 -50.4229 -50.4227 -50.4016 -50.3957 -50.3911 -50.3860
   -50.3830 -50.3819 -50.3702 -50.3665 -50.3662 -50.3528 -50.3180 -50.2971
   -50.2677 -50.2519 -50.2363 -50.2352 -50.2337 -50.2302 -50.2251 -50.2230
   -50.2209 -50.2002 -50.1686 -50.1674 -50.1581 -50.1552 -50.1537 -50.1536
   -13.2724 -13.0818 -13.0015 -12.8970 -12.3239 -12.1310 -12.0563 -11.9570
   -11.3929 -11.1975 -11.1285 -11.0343  -8.8017  -8.5955  -8.5472  -8.4732
    -6.9504  -6.7323  -6.7019  -6.6467  -4.5980  -4.5302  -4.3747  -4.3511
    -4.3100  -4.3038  -4.2833  -4.2328  -3.5503  -3.3316  -3.3034  -3.2503
    -2.4660  -2.2401  -2.2203  -2.1800  -1.7460  -1.5105  -1.3907  -1.2843
    -1.2644  -1.2256  -1.0864  -1.0333  -1.0229  -0.9729  -0.9485  -0.8226
    -0.8206  -0.7714  -0.7459  -0.7277  -0.7236  -0.7143  -0.7053  -0.6913
    -0.6292  -0.5446  -0.5423  -0.4424  -0.3618  -0.3158  -0.3128  -0.2457
    -0.2326  -0.1676  -0.1460  -0.1067  -0.0100   0.1211   0.1372   0.1383
     0.1396   0.1629   0.1695   0.2760   0.3184   0.3998   0.4413   0.4600
     0.5077   0.5266   0.5529   0.5868   0.6421   0.7628   0.7663   0.8024
     0.8712   0.9414   0.9667   0.9970   1.0505   1.0897   1.1081   1.2264
     1.2409   1.2527   1.2771   1.2851   1.4001   1.4126   1.4702   1.5726
     1.6026   1.6086   1.7105   1.7262   1.7553   1.8054   1.8230   1.9389
     1.9819   1.9959   2.0166   2.0583   2.0801   2.1211   2.1566   2.1902
     2.2139   2.2949   2.8857   3.3315   3.5380   3.5652   3.8549   3.8789
     4.0091   4.1765   4.7630   5.1758   6.0447   6.1822   6.2253   6.2604
     6.4197   6.6182   7.4566   8.0850   8.3010   9.0790   9.2648   9.4628
     9.6635   9.6691   9.9175  10.2723  10.3720  10.5412  10.6543  10.7075
    10.9242  11.1442  11.1479  11.1584  11.3792  11.5731  11.8425  12.0767
    12.1677  12.3229  12.3993  12.4299  12.5728  12.8440

          k =-0.5000 0.6736 0.0000 ( 35185 PWs)   bands (ev):

   -86.9613 -86.9572 -86.9550 -86.9522 -86.9495 -86.9481 -86.8082 -86.8002
   -86.7975 -86.7374 -86.7340 -86.7322 -50.4786 -50.4718 -50.4619 -50.4607
   -50.4538 -50.4267 -50.4229 -50.4227 -50.4015 -50.3956 -50.3911 -50.3858
   -50.3830 -50.3821 -50.3703 -50.3666 -50.3662 -50.3529 -50.3181 -50.2970
   -50.2677 -50.2522 -50.2363 -50.2352 -50.2337 -50.2299 -50.2251 -50.2230
   -50.2209 -50.2001 -50.1682 -50.1677 -50.1580 -50.1552 -50.1538 -50.1537
   -13.2724 -13.0818 -13.0015 -12.8970 -12.3239 -12.1310 -12.0563 -11.9570
   -11.3929 -11.1975 -11.1285 -11.0343  -8.8017  -8.5955  -8.5472  -8.4732
    -6.9504  -6.7323  -6.7019  -6.6467  -4.5980  -4.5302  -4.3747  -4.3511
    -4.3100  -4.3038  -4.2833  -4.2328  -3.5503  -3.3316  -3.3034  -3.2503
    -2.4660  -2.2401  -2.2203  -2.1800  -1.7460  -1.5105  -1.3907  -1.2843
    -1.2644  -1.2256  -1.0853  -1.0332  -1.0220  -0.9729  -0.9500  -0.8227
    -0.8212  -0.7725  -0.7459  -0.7277  -0.7219  -0.7145  -0.7044  -0.6913
    -0.6289  -0.5429  -0.5419  -0.4439  -0.3614  -0.3154  -0.3119  -0.2458
    -0.2336  -0.1682  -0.1466  -0.1066  -0.0105   0.1211   0.1334   0.1383
     0.1389   0.1664   0.1695   0.2773   0.3109   0.4020   0.4390   0.4622
     0.5026   0.5261   0.5519   0.5939   0.6413   0.7622   0.7662   0.8026
     0.8703   0.9425   0.9719   0.9999   1.0440   1.0864   1.1114   1.2274
     1.2384   1.2523   1.2795   1.2844   1.3976   1.4128   1.4720   1.5726
     1.6026   1.6086   1.7149   1.7262   1.7550   1.8050   1.8230   1.9385
     1.9814   1.9956   2.0160   2.0601   2.0849   2.1194   2.1613   2.1901
     2.2116   2.2926   2.8855   3.3315   3.5390   3.5653   3.8536   3.8790
     4.0109   4.1766   4.7610   5.1759   6.0445   6.1815   6.2192   6.2603
     6.4196   6.6182   7.4542   8.0780   8.3002   9.0789   9.2648   9.4628
     9.6643   9.6817   9.9108  10.2723  10.3781  10.5411  10.6544  10.7075
    10.9243  11.1473  11.1482  11.1603  11.3793  11.5731  11.8424  12.0769
    12.1662  12.3466  12.3993  12.4288  12.5726  12.8440

          k =-0.5000-0.2887 0.0000 ( 35212 PWs)   bands (ev):

   -86.9597 -86.9597 -86.9541 -86.9512 -86.9511 -86.9476 -86.8081 -86.8006
   -86.7972 -86.7361 -86.7359 -86.7315 -50.4879 -50.4794 -50.4592 -50.4588
   -50.4335 -50.4331 -50.4208 -50.4129 -50.4127 -50.3970 -50.3875 -50.3847
   -50.3844 -50.3759 -50.3756 -50.3658 -50.3628 -50.3626 -50.3265 -50.2792
   -50.2737 -50.2612 -50.2357 -50.2339 -50.2323 -50.2273 -50.2251 -50.2229
   -50.2090 -50.2088 -50.1681 -50.1624 -50.1623 -50.1570 -50.1567 -50.1533
   -12.9559 -12.9532 -12.7632 -12.7631 -12.6848 -12.6846 -12.5820 -12.5819
   -10.1917 -10.1849  -9.9893  -9.9892  -9.9280  -9.9279  -9.8410  -9.8409
    -5.5696  -5.5652  -5.3425  -5.3425  -5.3203  -5.3203  -5.2793  -5.2793
    -3.9028  -3.8964  -3.6707  -3.6707  -3.6522  -3.6522  -3.6172  -3.6172
    -2.4857  -2.4822  -2.2633  -2.2633  -2.2379  -2.2378  -2.1881  -2.1881
    -1.3744  -1.3700  -1.1985  -1.1071  -1.0435  -1.0226  -1.0189  -0.8051
    -0.7486  -0.7467  -0.6521  -0.5405  -0.5385  -0.4577  -0.4551  -0.3757
    -0.3530  -0.3513  -0.3140  -0.3123  -0.2131  -0.2111  -0.1041  -0.1031
    -0.0833  -0.0790   0.1097   0.1103   0.1242   0.1242   0.1414   0.1414
     0.1627   0.1742   0.1742   0.1947   0.1962   0.2403   0.2659   0.2691
     0.4336   0.4351   0.4645   0.4951   0.4991   0.5503   0.5548   0.7863
     0.7889   0.8605   0.8640   1.0238   1.0515   1.0899   1.0963   1.3033
     1.3093   1.3323   1.4128   1.4139   1.6414   1.6872   1.6878   1.7342
     1.7771   1.7792   1.8710   1.8857   1.8862   1.9559   2.0449   2.0551
     2.0559   2.0780   2.1795   2.1949   2.2314   2.2332   2.2624   2.2738
     2.3662   2.4332   2.6085   2.6256   2.7250   2.7253   3.0266   3.0287
     4.3420   4.3425   5.2593   6.0784   6.5918   6.6286   6.6305   6.7909
     7.5118   7.5202   7.7005   7.7032   7.8924   7.8949   8.0858   8.0866
     8.9080   8.9167   9.2603   9.8414  10.5915  10.6999  10.6999  11.0813
    11.0835  11.5676  11.5697  11.6976  11.7049  11.8099  11.8395  11.8450
    12.0076  12.0093  12.1512  12.1534  12.3822  12.3824

     the Fermi energy is     5.1673 ev

!    total energy              =   -4038.71803548 Ry
     estimated scf accuracy    <          4.3E-09 Ry
     smearing contrib. (-TS)   =      -0.00154940 Ry
     internal energy E=F+TS    =   -4038.71648608 Ry

     The total energy is F=E-TS. E is the sum of the following terms:
     one-electron contribution =  -52049.09847988 Ry
     hartree contribution      =   26089.31104770 Ry
     xc contribution           =    -472.97914371 Ry
     ewald contribution        =   22592.13923603 Ry
     DFT-D3 Dispersion         =      -0.77998927 Ry
     electric field correction =       0.00000048 Ry
     one-center paw contrib.   =    -197.30915743 Ry

     convergence has been achieved in  58 iterations

     negative rho (up, down):  2.872E-04 0.000E+00

     Forces acting on atoms (cartesian axes, Ry/au):

     atom    1 type  1   force =    -0.00000429    0.00031675    0.00159043
     atom    2 type  1   force =     0.00008044    0.00037840    0.00162474
     atom    3 type  1   force =    -0.00003671   -0.00026494   -0.00032320
     atom    4 type  1   force =     0.00000708   -0.00033533   -0.00098583
     atom    5 type  1   force =     0.00008655    0.00029160    0.00161693
     atom    6 type  1   force =    -0.00035225    0.00004011    0.00005405
     atom    7 type  1   force =     0.00015752   -0.00000282   -0.00011416
     atom    8 type  1   force =     0.00000553   -0.00033099   -0.00100563
     atom    9 type  1   force =     0.00000973    0.00004803    0.00035837
     atom   10 type  1   force =    -0.00007569    0.00031531   -0.00024253
     atom   11 type  1   force =     0.00000704   -0.00033096   -0.00098421
     atom   12 type  1   force =     0.00013971    0.00000158   -0.00010672
     atom   13 type  2   force =    -0.00000290   -0.00001045   -0.00009098
     atom   14 type  2   force =     0.00111475    0.00062713    0.00004797
     atom   15 type  2   force =     0.00107247   -0.00062038    0.00031162
     atom   16 type  2   force =    -0.00000379   -0.00127280    0.00004565
     atom   17 type  2   force =    -0.00000784    0.00125087    0.00030987
     atom   18 type  2   force =    -0.00110795    0.00063411    0.00004455
     atom   19 type  2   force =    -0.00107050   -0.00062824    0.00030794
     atom   20 type  2   force =    -0.00000059   -0.00001276   -0.00019643
     atom   21 type  2   force =     0.00002109    0.00000948   -0.00018642
     atom   22 type  2   force =     0.00000007   -0.00000662   -0.00017052
     atom   23 type  2   force =    -0.00000288   -0.00002695   -0.00018652
     atom   24 type  2   force =     0.00001735   -0.00001451   -0.00023064
     atom   25 type  2   force =    -0.00002316    0.00001160   -0.00018641
     atom   26 type  2   force =    -0.00000147    0.00001343   -0.00023062
     atom   27 type  2   force =    -0.00000174   -0.00000221   -0.00018257
     atom   28 type  2   force =    -0.00001580   -0.00001683   -0.00023064
     atom   29 type  2   force =    -0.00000164   -0.00000212   -0.00003471
     atom   30 type  2   force =     0.00000050   -0.00000586   -0.00009094
     atom   31 type  2   force =    -0.00000241   -0.00000165   -0.00002998
     atom   32 type  2   force =     0.00000006   -0.00000660   -0.00009089
     atom   33 type  2   force =    -0.00000165   -0.00000302   -0.00002993
     atom   34 type  2   force =    -0.00000034   -0.00000580   -0.00009101
     atom   35 type  2   force =    -0.00000084   -0.00000171   -0.00002994
     atom   36 type  2   force =     0.00000005   -0.00000617   -0.00008693
     atom   37 type  2   force =    -0.00000147   -0.00000173    0.00006218
     atom   38 type  2   force =     0.00000020   -0.00000564   -0.00010588
     atom   39 type  2   force =    -0.00000158   -0.00000157    0.00006223
     atom   40 type  2   force =     0.00000021   -0.00000549   -0.00010564
     atom   41 type  2   force =    -0.00000165   -0.00000176    0.00006218
     atom   42 type  2   force =     0.00000018   -0.00000561   -0.00010559
     atom   43 type  2   force =    -0.00000156   -0.00000143    0.00006234
     atom   44 type  2   force =     0.00000017   -0.00000546   -0.00010555

     Total force =     0.004730     Total SCF correction =     0.000664
     SCF correction compared to forces is large: reduce conv_thr to get better values

     Writing all to output data dir ./tmp/AGC_N4_top_fcc_dft_bound.save/ :
     XML data file, charge density, pseudopotentials, collected wavefunctions
 
     init_run     :     32.82s CPU     34.21s WALL (       1 calls)
     electrons    :   4660.76s CPU   4753.15s WALL (       1 calls)
     forces       :     14.35s CPU     14.75s WALL (       1 calls)
     force_dftd3  :      0.02s CPU      0.02s WALL (       1 calls)

     Called by init_run:
     wfcinit      :     23.48s CPU     24.59s WALL (       1 calls)
     potinit      :      8.35s CPU      8.46s WALL (       1 calls)
     hinit0       :      0.41s CPU      0.47s WALL (       1 calls)

     Called by electrons:
     c_bands      :   3495.28s CPU   3558.58s WALL (      58 calls)
     sum_band     :    713.07s CPU    739.31s WALL (      58 calls)
     v_of_rho     :     11.00s CPU     12.03s WALL (      59 calls)
     newd         :      8.82s CPU      8.88s WALL (      59 calls)
                                        8.88s GPU  (      59 calls)
     PAW_pot      :    320.20s CPU    320.13s WALL (      59 calls)
     mix_rho      :    114.86s CPU    116.18s WALL (      58 calls)
     energy_dftd3 :      0.01s CPU      0.01s WALL (       1 calls)

     Called by c_bands:
     init_us_2    :    173.26s CPU    173.59s WALL (    2360 calls)
     cegterg      :   3278.49s CPU   3280.43s WALL (    1160 calls)

     Called by *egterg:
     cdiaghg      :    225.48s CPU    225.94s WALL (    7323 calls)
                                      218.27s GPU  (    7323 calls)
     h_psi        :   1675.75s CPU   1681.70s WALL (    7343 calls)
                                     1676.60s GPU  (    7343 calls)
     s_psi        :    191.45s CPU    191.56s WALL (    7343 calls)
     g_psi        :      0.03s CPU      7.41s WALL (    6163 calls)
                                        2.06s GPU  (    6163 calls)

     Called by h_psi:
     h_psi:calbec :      0.41s CPU    317.29s WALL (    7343 calls)
                                      313.83s GPU  (    7343 calls)
     vloc_psi     :    931.24s CPU    935.57s WALL (    7343 calls)
                                      931.09s GPU  (    7343 calls)
     add_vuspsi   :    165.33s CPU    408.58s WALL (    7343 calls)
                                      403.38s GPU  (    7343 calls)

     General routines
     calbec       :      0.46s CPU      0.47s WALL (    8583 calls)
     fft          :      2.99s CPU      4.82s WALL (     776 calls)
                                        1.06s GPU  (     717 calls)
     ffts         :      1.19s CPU      8.22s WALL (    7034 calls)
                                        2.78s GPU  (    6975 calls)
     fftw         :      1.68s CPU    613.86s WALL (   92568 calls)
                                      552.74s GPU  (   92568 calls)
     interpolate  :      4.35s CPU      4.93s WALL (      59 calls)
     davcio       :      3.02s CPU     90.06s WALL (    4606 calls)
 
     Parallel routines
 
     PWSCF        :      1h18m CPU      1h20m WALL

 
   This run was terminated on:  12:57:16   5Oct2026            

=------------------------------------------------------------------------------=
   JOB DONE.
=------------------------------------------------------------------------------=
