
     Program PWSCF v.7.4.1 starts on 26Sep2026 at 20:58:15 

     This program is part of the open-source Quantum ESPRESSO suite
     for quantum simulation of materials; please cite
         "P. Giannozzi et al., J. Phys.:Condens. Matter 21 395502 (2009);
         "P. Giannozzi et al., J. Phys.:Condens. Matter 29 465901 (2017);
         "P. Giannozzi et al., J. Chem. Phys. 152 154105 (2020);
          URL http://www.quantum-espresso.org", 
     in publications or presentations arising from this work. More details at
     http://www.quantum-espresso.org/quote

     Parallel version (MPI & OpenMP), running on      16 processor cores
     Number of MPI processes:                 1
     Threads/MPI process:                    16

     MPI processes distributed on     1 nodes
     83571 MiB available memory on the printing compute node when the environment starts
 
     Reading input from pw.in

     Current dimensions of program PWSCF are:
     Max number of different atomic species (ntypx) = 10
     Max number of k-points (npk) =  40000
     Max angular momentum in pseudopotentials (lmaxx) =  4
     Presently no symmetry can be used with electric field

     file C.pbe-n-kjpaw_psl.1.0.0.UPF: wavefunction(s)  2S 2P renormalized
 
     Subspace diagonalization in iterative solution of the eigenvalue problem:
     a serial algorithm will be used

 
     G-vector sticks info
     --------------------
     sticks:   dense  smooth     PW     G-vecs:    dense   smooth      PW
     Sum        3193    1273    367               699545   177041   27695
 
     Using Slab Decomposition
 


     bravais-lattice index     =            0
     lattice parameter (alat)  =       9.4208  a.u.
     unit-cell volume          =    3493.5493 (a.u.)^3
     number of atoms/cell      =           20
     number of atomic types    =            2
     number of electrons       =       260.00
     number of Kohn-Sham states=          156
     kinetic-energy cutoff     =      52.0000  Ry
     charge density cutoff     =     520.0000  Ry
     scf convergence threshold =      1.0E-08
     mixing beta               =       0.3000
     number of iterations used =            8  local-TF  mixing
     Exchange-correlation= SLA  PW   PBX  PBC
                           (   1   4   3   4   0   0   0)

     GPU acceleration is ACTIVE.  1 visible GPUs per MPI rank


     celldm(1)=   9.420781  celldm(2)=   0.000000  celldm(3)=   0.000000
     celldm(4)=   0.000000  celldm(5)=   0.000000  celldm(6)=   0.000000

     crystal axes: (cart. coord. in units of alat)
               a(1) = (   1.000000  -0.000000   0.000000 )  
               a(2) = (   0.500000   0.866025   0.000000 )  
               a(3) = (   0.000000   0.000000   4.824757 )  

     reciprocal axes: (cart. coord. in units 2 pi/alat)
               b(1) = (  1.000000 -0.577350  0.000000 )  
               b(2) = (  0.000000  1.154701 -0.000000 )  
               b(3) = ( -0.000000  0.000000  0.207264 )  


     PseudoPot. # 1 for Ag read from file:
     /home/ubuntu/wad4l/pseudo_kgy/Ag_ONCV_PBE-1.0.oncvpsp.upf
     MD5 check sum: 94f47bd0669c641108e45594df92fabc
     Pseudo is Norm-conserving, Zval = 19.0
     Generated using ONCVPSP code by D. R. Hamann
     Using radial grid of 1398 points,  6 beta functions with: 
                l(1) =   0
                l(2) =   0
                l(3) =   1
                l(4) =   1
                l(5) =   2
                l(6) =   2

     PseudoPot. # 2 for C  read from file:
     /home/ubuntu/wad4l/pseudo_kgy/C.pbe-n-kjpaw_psl.1.0.0.UPF
     MD5 check sum: 5d2aebdfa2cae82b50a7e79e9516da0f
     Pseudo is Projector augmented-wave + core cor, Zval =  4.0
     Generated using "atomic" code by A. Dal Corso  v.5.1
     Shape of augmentation charge: PSQ
     Using radial grid of 1073 points,  4 beta functions with: 
                l(1) =   0
                l(2) =   0
                l(3) =   1
                l(4) =   1
     Q(r) pseudized with 0 coefficients 


     atomic species   valence    mass     pseudopotential
     Ag               19.00   107.86820     Ag( 1.00)
     C                 4.00    12.01100     C ( 1.00)

     No symmetry found



   Cartesian axes

     site n.     atom                  positions (alat units)
         1        Ag     tau(   1) = (   0.3337695   0.5765948   0.5717001  )
         2        Ag     tau(   2) = (   0.8337695   0.8652699   0.5717001  )
         3        Ag     tau(   3) = (   0.1682532   0.2893926   1.0411950  )
         4        Ag     tau(   4) = (   0.5004501   0.2909658   0.1002956  )
         5        Ag     tau(   5) = (   0.8337695   0.2879196   0.5717001  )
         6        Ag     tau(   6) = (   0.6686160   0.5782733   1.0411961  )
         7        Ag     tau(   7) = (   0.5010597   0.2905654   1.5110489  )
         8        Ag     tau(   8) = (   1.0004501   0.5796409   0.1002956  )
         9        Ag     tau(   9) = (   1.0010502   0.5792472   1.5138803  )
        10        Ag     tau(  10) = (   0.6686118   0.0005128   1.0412001  )
        11        Ag     tau(  11) = (   1.0004501   0.0022906   0.1002956  )
        12        Ag     tau(  12) = (   1.0010511   0.0018985   1.5138552  )
        13        C      tau(  13) = (   0.7504501   0.4353033   3.1197317  )
        14        C      tau(  14) = (   1.0004501   0.5796409   3.1186207  )
        15        C      tau(  15) = (   1.0004501   0.8683160   3.1197319  )
        16        C      tau(  16) = (   1.2504501   1.0126536   3.1197284  )
        17        C      tau(  17) = (   1.2504501   0.4353033   3.1197312  )
        18        C      tau(  18) = (   1.5004501   0.5796409   3.1197278  )
        19        C      tau(  19) = (   1.5004501   0.8683160   3.1186101  )
        20        C      tau(  20) = (   1.7504501   1.0126536   3.1197280  )

     --------------------------------------------
     DFT-D3 Dispersion Correction (no 3-body):
     --------------------------------------------
       Reference C6 values for interpolation: 

         atom   Coordination number   C6
         C          0.000            98.23
         C          0.987            86.49
         C          1.998            58.72
         C          2.999            51.56
         C          3.984            36.41
         Ag         0.000           853.49
         Ag         0.968           537.23

       Values used:

         atom   Coordination number  R0_AB[au]  C6      C8
         Ag         9.085            3.147    537.23  47741.54
         Ag         9.085            3.147    537.23  47741.54
         Ag         9.081            3.147    537.23  47741.54
         Ag         6.766            3.147    537.23  47741.54
         Ag         9.085            3.147    537.23  47741.54
         Ag         9.081            3.147    537.23  47741.54
         Ag         6.787            3.147    537.23  47741.54
         Ag         6.766            3.147    537.23  47741.54
         Ag         6.749            3.147    537.23  47741.54
         Ag         9.081            3.147    537.23  47741.54
         Ag         6.766            3.147    537.23  47741.54
         Ag         6.750            3.147    537.23  47741.54
         C          3.268            2.750     49.13   1420.95
         C          3.268            2.750     49.13   1420.95
         C          3.268            2.750     49.13   1420.95
         C          3.268            2.750     49.13   1420.95
         C          3.268            2.750     49.13   1420.95
         C          3.268            2.750     49.13   1420.95
         C          3.268            2.750     49.13   1420.95
         C          3.268            2.750     49.13   1420.95

         Molecular C6 ( Ry / a.u.^6 ) =    111572.13


     number of k points=    20  Marzari-Vanderbilt smearing, width (Ry)=  0.0100
                       cart. coord. in units 2pi/alat
        k(    1) = (   0.0000000   0.0000000   0.0000000), wk =   0.0555556
        k(    2) = (   0.0000000   0.1924501   0.0000000), wk =   0.1111111
        k(    3) = (   0.0000000   0.3849002   0.0000000), wk =   0.1111111
        k(    4) = (   0.0000000  -0.5773503   0.0000000), wk =   0.0555556
        k(    5) = (   0.1666667  -0.0962250   0.0000000), wk =   0.1111111
        k(    6) = (   0.1666667   0.0962250   0.0000000), wk =   0.1111111
        k(    7) = (   0.1666667   0.2886751   0.0000000), wk =   0.1111111
        k(    8) = (   0.1666667  -0.6735753   0.0000000), wk =   0.1111111
        k(    9) = (   0.1666667  -0.4811252   0.0000000), wk =   0.1111111
        k(   10) = (   0.1666667  -0.2886751   0.0000000), wk =   0.1111111
        k(   11) = (   0.3333333  -0.1924501   0.0000000), wk =   0.1111111
        k(   12) = (   0.3333333  -0.0000000   0.0000000), wk =   0.1111111
        k(   13) = (   0.3333333   0.1924501   0.0000000), wk =   0.1111111
        k(   14) = (   0.3333333  -0.7698004   0.0000000), wk =   0.1111111
        k(   15) = (   0.3333333  -0.5773503   0.0000000), wk =   0.1111111
        k(   16) = (   0.3333333  -0.3849002   0.0000000), wk =   0.1111111
        k(   17) = (  -0.5000000   0.2886751   0.0000000), wk =   0.0555556
        k(   18) = (  -0.5000000   0.4811252   0.0000000), wk =   0.1111111
        k(   19) = (  -0.5000000   0.6735753   0.0000000), wk =   0.1111111
        k(   20) = (  -0.5000000  -0.2886751   0.0000000), wk =   0.0555556

     Dense  grid:   699545 G-vectors     FFT dimensions: (  72,  72, 360)

     Smooth grid:   177041 G-vectors     FFT dimensions: (  45,  45, 216)

     Estimated max dynamical RAM per process >       1.34 GB

     Check: negative core charge=   -0.000001

     Initial potential from superposition of free atoms

     starting charge     259.9962, renormalised to     260.0000
 
     Adding external electric field

     Computed dipole along edir(3) : 
        Dipole               -0.0083 Ry au,         -0.0211 Debye
        Dipole field         -0.0000 Ry au, 
 
        Potential amp.        0.0026 Ry
        Total length         43.5630 bohr
 
     Starting wfcs are  152 randomized atomic wfcs +    4 random wfcs
     Checking if some PAW data can be deallocated... 

     total cpu time spent up to now is        4.1 secs

     Self-consistent Calculation

     iteration #  1     ecut=    52.00 Ry     beta= 0.30
     Davidson diagonalization with overlap
     ethr =  1.00E-02,  avg # of iterations =  4.5

     Threshold (ethr) on eigenvalues was too large:
     Diagonalizing with lowered threshold

     Davidson diagonalization with overlap
     ethr =  5.93E-04,  avg # of iterations =  2.2
 
     Adding external electric field

     Computed dipole along edir(3) : 
        Dipole               -0.0121 Ry au,         -0.0307 Debye
        Dipole field         -0.0000 Ry au, 
 
        Potential amp.        0.0038 Ry
        Total length         43.5630 bohr
 

     total cpu time spent up to now is       13.9 secs

     total energy              =   -3596.11403454 Ry
     estimated scf accuracy    <       1.56340253 Ry

     iteration #  2     ecut=    52.00 Ry     beta= 0.30
     Davidson diagonalization with overlap
     ethr =  6.01E-04,  avg # of iterations =  1.6
 
     Adding external electric field

     Computed dipole along edir(3) : 
        Dipole               -0.0225 Ry au,         -0.0573 Debye
        Dipole field         -0.0001 Ry au, 
 
        Potential amp.        0.0071 Ry
        Total length         43.5630 bohr
 

     total cpu time spent up to now is       18.8 secs

     total energy              =   -3595.76410171 Ry
     estimated scf accuracy    <       0.94763868 Ry

     iteration #  3     ecut=    52.00 Ry     beta= 0.30
     Davidson diagonalization with overlap
     ethr =  3.64E-04,  avg # of iterations =  8.0
 
     Adding external electric field

     Computed dipole along edir(3) : 
        Dipole               -0.0331 Ry au,         -0.0842 Debye
        Dipole field         -0.0001 Ry au, 
 
        Potential amp.        0.0104 Ry
        Total length         43.5630 bohr
 

     total cpu time spent up to now is       24.9 secs

     total energy              =   -3595.81272456 Ry
     estimated scf accuracy    <       0.17365584 Ry

     iteration #  4     ecut=    52.00 Ry     beta= 0.30
     Davidson diagonalization with overlap
     ethr =  6.68E-05,  avg # of iterations =  3.4
 
     Adding external electric field

     Computed dipole along edir(3) : 
        Dipole               -0.0631 Ry au,         -0.1604 Debye
        Dipole field         -0.0002 Ry au, 
 
        Potential amp.        0.0198 Ry
        Total length         43.5630 bohr
 

     total cpu time spent up to now is       30.3 secs

     total energy              =   -3595.78818311 Ry
     estimated scf accuracy    <       0.08983726 Ry

     iteration #  5     ecut=    52.00 Ry     beta= 0.30
     Davidson diagonalization with overlap
     c_bands:  2 eigenvalues not converged
     c_bands:  2 eigenvalues not converged
     c_bands:  1 eigenvalues not converged
     c_bands:  2 eigenvalues not converged
     c_bands:  1 eigenvalues not converged
     ethr =  3.46E-05,  avg # of iterations = 11.3
 
     Adding external electric field

     Computed dipole along edir(3) : 
        Dipole               -0.0621 Ry au,         -0.1578 Debye
        Dipole field         -0.0002 Ry au, 
 
        Potential amp.        0.0195 Ry
        Total length         43.5630 bohr
 

     total cpu time spent up to now is       36.7 secs

     total energy              =   -3595.79472634 Ry
     estimated scf accuracy    <       0.07282732 Ry

     iteration #  6     ecut=    52.00 Ry     beta= 0.30
     Davidson diagonalization with overlap
     ethr =  2.80E-05,  avg # of iterations =  1.4
 
     Adding external electric field

     Computed dipole along edir(3) : 
        Dipole               -0.0347 Ry au,         -0.0881 Debye
        Dipole field         -0.0001 Ry au, 
 
        Potential amp.        0.0109 Ry
        Total length         43.5630 bohr
 

     total cpu time spent up to now is       41.7 secs

     total energy              =   -3595.79052752 Ry
     estimated scf accuracy    <       0.06287919 Ry

     iteration #  7     ecut=    52.00 Ry     beta= 0.30
     Davidson diagonalization with overlap
     ethr =  2.42E-05,  avg # of iterations =  6.8
 
     Adding external electric field

     Computed dipole along edir(3) : 
        Dipole               -0.0310 Ry au,         -0.0789 Debye
        Dipole field         -0.0001 Ry au, 
 
        Potential amp.        0.0097 Ry
        Total length         43.5630 bohr
 

     total cpu time spent up to now is       47.4 secs

     total energy              =   -3595.79150484 Ry
     estimated scf accuracy    <       0.03051267 Ry

     iteration #  8     ecut=    52.00 Ry     beta= 0.30
     Davidson diagonalization with overlap
     ethr =  1.17E-05,  avg # of iterations =  1.1
 
     Adding external electric field

     Computed dipole along edir(3) : 
        Dipole               -0.0128 Ry au,         -0.0325 Debye
        Dipole field         -0.0000 Ry au, 
 
        Potential amp.        0.0040 Ry
        Total length         43.5630 bohr
 

     total cpu time spent up to now is       52.3 secs

     total energy              =   -3595.79164996 Ry
     estimated scf accuracy    <       0.02930181 Ry

     iteration #  9     ecut=    52.00 Ry     beta= 0.30
     Davidson diagonalization with overlap
     ethr =  1.13E-05,  avg # of iterations =  3.3
 
     Adding external electric field

     Computed dipole along edir(3) : 
        Dipole                0.0154 Ry au,          0.0391 Debye
        Dipole field          0.0001 Ry au, 
 
        Potential amp.       -0.0048 Ry
        Total length         43.5630 bohr
 

     total cpu time spent up to now is       57.6 secs

     total energy              =   -3595.79155620 Ry
     estimated scf accuracy    <       0.01835954 Ry

     iteration # 10     ecut=    52.00 Ry     beta= 0.30
     Davidson diagonalization with overlap
     ethr =  7.06E-06,  avg # of iterations =  9.3
 
     Adding external electric field

     Computed dipole along edir(3) : 
        Dipole                0.0312 Ry au,          0.0793 Debye
        Dipole field          0.0001 Ry au, 
 
        Potential amp.       -0.0098 Ry
        Total length         43.5630 bohr
 

     total cpu time spent up to now is       63.3 secs

     total energy              =   -3595.79152558 Ry
     estimated scf accuracy    <       0.00287600 Ry

     iteration # 11     ecut=    52.00 Ry     beta= 0.30
     Davidson diagonalization with overlap
     ethr =  1.11E-06,  avg # of iterations =  6.4

     negative rho (up, down):  3.658E-04 0.000E+00
 
     Adding external electric field

     Computed dipole along edir(3) : 
        Dipole                0.0404 Ry au,          0.1027 Debye
        Dipole field          0.0001 Ry au, 
 
        Potential amp.       -0.0127 Ry
        Total length         43.5630 bohr
 

     total cpu time spent up to now is       69.1 secs

     total energy              =   -3595.79179549 Ry
     estimated scf accuracy    <       0.00202231 Ry

     iteration # 12     ecut=    52.00 Ry     beta= 0.30
     Davidson diagonalization with overlap
     ethr =  7.78E-07,  avg # of iterations =  6.0

     negative rho (up, down):  5.966E-07 0.000E+00
 
     Adding external electric field

     Computed dipole along edir(3) : 
        Dipole                0.0194 Ry au,          0.0494 Debye
        Dipole field          0.0001 Ry au, 
 
        Potential amp.       -0.0061 Ry
        Total length         43.5630 bohr
 

     total cpu time spent up to now is       74.8 secs

     total energy              =   -3595.79150606 Ry
     estimated scf accuracy    <       0.00759660 Ry

     iteration # 13     ecut=    52.00 Ry     beta= 0.30
     Davidson diagonalization with overlap
     ethr =  7.78E-07,  avg # of iterations =  4.6

     negative rho (up, down):  6.756E-06 0.000E+00
 
     Adding external electric field

     Computed dipole along edir(3) : 
        Dipole                0.0264 Ry au,          0.0672 Debye
        Dipole field          0.0001 Ry au, 
 
        Potential amp.       -0.0083 Ry
        Total length         43.5630 bohr
 

     total cpu time spent up to now is       80.3 secs

     total energy              =   -3595.79169327 Ry
     estimated scf accuracy    <       0.00185919 Ry

     iteration # 14     ecut=    52.00 Ry     beta= 0.30
     Davidson diagonalization with overlap
     ethr =  7.15E-07,  avg # of iterations =  2.0

     negative rho (up, down):  4.901E-08 0.000E+00
 
     Adding external electric field

     Computed dipole along edir(3) : 
        Dipole                0.0208 Ry au,          0.0530 Debye
        Dipole field          0.0001 Ry au, 
 
        Potential amp.       -0.0065 Ry
        Total length         43.5630 bohr
 

     total cpu time spent up to now is       85.4 secs

     total energy              =   -3595.79173766 Ry
     estimated scf accuracy    <       0.00004203 Ry

     iteration # 15     ecut=    52.00 Ry     beta= 0.30
     Davidson diagonalization with overlap
     ethr =  1.62E-08,  avg # of iterations =  4.8

     negative rho (up, down):  1.690E-06 0.000E+00
 
     Adding external electric field

     Computed dipole along edir(3) : 
        Dipole                0.0226 Ry au,          0.0573 Debye
        Dipole field          0.0001 Ry au, 
 
        Potential amp.       -0.0071 Ry
        Total length         43.5630 bohr
 

     total cpu time spent up to now is       90.3 secs

     total energy              =   -3595.79174320 Ry
     estimated scf accuracy    <       0.00030358 Ry

     iteration # 16     ecut=    52.00 Ry     beta= 0.30
     Davidson diagonalization with overlap
     ethr =  1.62E-08,  avg # of iterations =  2.0

     negative rho (up, down):  8.809E-05 0.000E+00
 
     Adding external electric field

     Computed dipole along edir(3) : 
        Dipole                0.0267 Ry au,          0.0679 Debye
        Dipole field          0.0001 Ry au, 
 
        Potential amp.       -0.0084 Ry
        Total length         43.5630 bohr
 

     total cpu time spent up to now is       95.4 secs

     total energy              =   -3595.79173719 Ry
     estimated scf accuracy    <       0.00005652 Ry

     iteration # 17     ecut=    52.00 Ry     beta= 0.30
     Davidson diagonalization with overlap
     ethr =  1.62E-08,  avg # of iterations =  2.0

     negative rho (up, down):  1.746E-06 0.000E+00
 
     Adding external electric field

     Computed dipole along edir(3) : 
        Dipole                0.0245 Ry au,          0.0624 Debye
        Dipole field          0.0001 Ry au, 
 
        Potential amp.       -0.0077 Ry
        Total length         43.5630 bohr
 

     total cpu time spent up to now is      100.5 secs

     total energy              =   -3595.79173946 Ry
     estimated scf accuracy    <       0.00028490 Ry

     iteration # 18     ecut=    52.00 Ry     beta= 0.30
     Davidson diagonalization with overlap
     ethr =  1.62E-08,  avg # of iterations =  1.4

     negative rho (up, down):  1.607E-06 0.000E+00
 
     Adding external electric field

     Computed dipole along edir(3) : 
        Dipole                0.0250 Ry au,          0.0635 Debye
        Dipole field          0.0001 Ry au, 
 
        Potential amp.       -0.0078 Ry
        Total length         43.5630 bohr
 

     total cpu time spent up to now is      105.5 secs

     total energy              =   -3595.79174360 Ry
     estimated scf accuracy    <       0.00000025 Ry

     iteration # 19     ecut=    52.00 Ry     beta= 0.30
     Davidson diagonalization with overlap
     ethr =  9.65E-11,  avg # of iterations =  2.4

     negative rho (up, down):  1.001E-06 0.000E+00
 
     Adding external electric field

     Computed dipole along edir(3) : 
        Dipole                0.0249 Ry au,          0.0632 Debye
        Dipole field          0.0001 Ry au, 
 
        Potential amp.       -0.0078 Ry
        Total length         43.5630 bohr
 

     total cpu time spent up to now is      110.6 secs

     total energy              =   -3595.79174369 Ry
     estimated scf accuracy    <       0.00000333 Ry

     iteration # 20     ecut=    52.00 Ry     beta= 0.30
     Davidson diagonalization with overlap
     ethr =  9.65E-11,  avg # of iterations =  1.4

     negative rho (up, down):  5.028E-07 0.000E+00
 
     Adding external electric field

     Computed dipole along edir(3) : 
        Dipole                0.0251 Ry au,          0.0637 Debye
        Dipole field          0.0001 Ry au, 
 
        Potential amp.       -0.0079 Ry
        Total length         43.5630 bohr
 

     total cpu time spent up to now is      115.3 secs

     total energy              =   -3595.79174376 Ry
     estimated scf accuracy    <       0.00000057 Ry

     iteration # 21     ecut=    52.00 Ry     beta= 0.30
     Davidson diagonalization with overlap
     ethr =  9.65E-11,  avg # of iterations =  1.4

     negative rho (up, down):  1.236E-06 0.000E+00
 
     Adding external electric field

     Computed dipole along edir(3) : 
        Dipole                0.0248 Ry au,          0.0629 Debye
        Dipole field          0.0001 Ry au, 
 
        Potential amp.       -0.0078 Ry
        Total length         43.5630 bohr
 

     total cpu time spent up to now is      120.3 secs

     total energy              =   -3595.79174366 Ry
     estimated scf accuracy    <       0.00000207 Ry

     iteration # 22     ecut=    52.00 Ry     beta= 0.30
     Davidson diagonalization with overlap
     ethr =  9.65E-11,  avg # of iterations =  1.7

     negative rho (up, down):  9.397E-07 0.000E+00
 
     Adding external electric field

     Computed dipole along edir(3) : 
        Dipole                0.0250 Ry au,          0.0635 Debye
        Dipole field          0.0001 Ry au, 
 
        Potential amp.       -0.0078 Ry
        Total length         43.5630 bohr
 

     total cpu time spent up to now is      125.4 secs

     total energy              =   -3595.79174370 Ry
     estimated scf accuracy    <       0.00000024 Ry

     iteration # 23     ecut=    52.00 Ry     beta= 0.30
     Davidson diagonalization with overlap
     ethr =  9.32E-11,  avg # of iterations =  2.0

     negative rho (up, down):  6.949E-07 0.000E+00
 
     Adding external electric field

     Computed dipole along edir(3) : 
        Dipole                0.0250 Ry au,          0.0634 Debye
        Dipole field          0.0001 Ry au, 
 
        Potential amp.       -0.0078 Ry
        Total length         43.5630 bohr
 

     total cpu time spent up to now is      130.5 secs

     total energy              =   -3595.79174373 Ry
     estimated scf accuracy    <       0.00000002 Ry

     iteration # 24     ecut=    52.00 Ry     beta= 0.30
     Davidson diagonalization with overlap
     ethr =  6.25E-12,  avg # of iterations =  2.0

     negative rho (up, down):  6.457E-07 0.000E+00
 
     Adding external electric field

     Computed dipole along edir(3) : 
        Dipole                0.0259 Ry au,          0.0658 Debye
        Dipole field          0.0001 Ry au, 
 
        Potential amp.       -0.0081 Ry
        Total length         43.5630 bohr
 

     total cpu time spent up to now is      135.5 secs

     End of self-consistent calculation

          k = 0.0000 0.0000 0.0000 ( 22161 PWs)   bands (ev):

   -86.0435 -86.0340 -86.0255 -86.0255 -86.0247 -86.0247 -85.8331 -85.8331
   -85.8201 -85.8197 -85.8195 -85.8164 -49.5535 -49.5274 -49.5270 -49.5267
   -49.5263 -49.5246 -49.5244 -49.4997 -49.4994 -49.4742 -49.4740 -49.4734
   -49.4731 -49.4688 -49.4261 -49.4256 -49.4125 -49.4124 -49.3165 -49.3164
   -49.3160 -49.3160 -49.3136 -49.3136 -49.3115 -49.3114 -49.2544 -49.2519
   -49.2416 -49.2413 -49.2411 -49.2376 -49.2260 -49.2256 -49.2249 -49.2247
   -13.2495  -8.1551  -8.1551  -8.1550  -7.0246  -7.0246  -7.0246  -1.3869
    -1.3835  -0.4944  -0.3230  -0.3229  -0.3229  -0.2209  -0.0550   0.4150
     0.4164   0.4337   0.4352   0.4358   0.4374   0.7822   0.7832   0.7851
     0.7861   0.9757   0.9780   0.9875   0.9929   1.2179   1.2748   1.2759
     1.3213   1.3236   1.3917   1.3930   1.3963   1.3977   1.4034   1.5431
     1.5441   1.5960   1.5973   1.7145   1.7148   1.7174   1.7174   1.7398
     1.7399   1.7432   1.7434   2.1649   2.1671   2.2840   2.2908   2.3179
     2.3199   2.3205   2.3225   2.4335   2.4451   2.6741   2.7318   2.7329
     2.7780   2.7825   2.9043   2.9057   2.9552   2.9556   2.9569   2.9569
     2.9587   2.9591   3.0245   3.0262   3.7248   3.7248   3.7248   5.0692
     6.2826   7.6884   7.6888   7.6888   9.3095   9.4911   9.4952   9.6831
     9.6836   9.6876   9.6881   9.8175  10.4670  10.4696  10.4706  10.4732
    10.8710  10.8732  11.0173  11.3198  12.1306  12.1348  12.1376  12.1418
    12.3675  12.3683  13.0937  13.0937

          k = 0.0000 0.1925 0.0000 ( 22089 PWs)   bands (ev):

   -86.0422 -86.0332 -86.0268 -86.0265 -86.0247 -86.0246 -85.8322 -85.8320
   -85.8206 -85.8203 -85.8200 -85.8169 -49.5504 -49.5440 -49.5389 -49.5377
   -49.5332 -49.5079 -49.5020 -49.4922 -49.4865 -49.4770 -49.4711 -49.4706
   -49.4682 -49.4663 -49.4353 -49.4298 -49.4233 -49.4153 -49.3336 -49.3328
   -49.3283 -49.3275 -49.2929 -49.2919 -49.2902 -49.2892 -49.2532 -49.2513
   -49.2419 -49.2418 -49.2415 -49.2381 -49.2370 -49.2359 -49.2287 -49.2278
   -13.0887  -9.3548  -8.5165  -8.5164  -6.4018  -6.4018  -5.5862  -1.1926
    -1.1361  -0.8000  -0.7999  -0.2729  -0.1649  -0.0428   0.1329   0.1362
     0.2623   0.3206   0.3302   0.4039   0.5407   0.6367   0.7106   0.7351
     0.7693   0.8276   0.9258   0.9463   0.9478   1.1053   1.1872   1.2133
     1.2922   1.3417   1.4057   1.4221   1.4337   1.4631   1.4890   1.5151
     1.5219   1.5497   1.5942   1.6560   1.6622   1.7228   1.7437   1.8339
     1.9235   1.9954   2.0577   2.0984   2.1088   2.2128   2.2155   2.2904
     2.3134   2.3288   2.3908   2.3979   2.4190   2.5590   2.5887   2.6178
     2.6298   2.7063   2.7640   2.7794   2.9103   2.9196   2.9208   2.9808
     3.0200   3.0461   3.1002   3.1651   3.3944   3.6237   3.6238   5.4320
     6.8095   6.9466   7.8204   7.9492   7.9495   8.0880   8.4388   8.7453
     9.0024   9.2359   9.4807   9.5308  10.0194  10.7687  10.9454  11.2211
    11.3142  11.3768  11.5065  11.5453  12.3435  12.3685  12.4182  12.5773
    13.1784  13.3032  13.3673  13.8233

          k = 0.0000 0.3849 0.0000 ( 22135 PWs)   bands (ev):

   -86.0388 -86.0309 -86.0300 -86.0277 -86.0257 -86.0248 -85.8299 -85.8292
   -85.8223 -85.8216 -85.8208 -85.8182 -49.5572 -49.5502 -49.5423 -49.5361
   -49.5291 -49.5023 -49.4942 -49.4823 -49.4803 -49.4697 -49.4673 -49.4646
   -49.4559 -49.4550 -49.4520 -49.4512 -49.4363 -49.4242 -49.3462 -49.3455
   -49.3228 -49.3219 -49.2711 -49.2702 -49.2678 -49.2674 -49.2657 -49.2633
   -49.2507 -49.2492 -49.2436 -49.2425 -49.2423 -49.2393 -49.2376 -49.2365
   -12.6080 -10.7176  -8.9134  -8.9134  -5.2760  -5.2760  -3.5306  -1.9197
    -1.9197  -0.6252  -0.4792  -0.1120  -0.0131  -0.0070   0.2194   0.2692
     0.2892   0.2952   0.3170   0.3674   0.4591   0.4787   0.5183   0.6239
     0.6979   0.6991   0.8258   0.8472   0.8596   0.9639   1.0050   1.0218
     1.1154   1.2325   1.2479   1.2935   1.3292   1.3995   1.4418   1.4621
     1.5316   1.5405   1.6465   1.6618   1.7004   1.7804   1.7968   1.8044
     1.8387   1.8623   1.8845   1.9887   2.0043   2.0534   2.0734   2.2454
     2.2626   2.3186   2.3929   2.4474   2.4879   2.4913   2.5314   2.6953
     2.7130   2.7978   2.8308   2.8676   2.9545   2.9826   2.9920   3.0661
     3.0817   3.1129   3.1766   3.2101   3.4452   3.4452   4.1306   4.7187
     5.4328   6.2840   6.7913   6.9332   7.4349   7.9380   8.0515   8.2741
     8.4817   8.4820   9.0639  10.1942  10.2739  10.6221  10.8054  10.8734
    11.4335  11.6640  11.8160  12.1086  12.8095  12.9084  13.0558  13.4446
    13.4837  13.5472  13.9884  14.1032

          k = 0.0000-0.5774 0.0000 ( 22116 PWs)   bands (ev):

   -86.0343 -86.0343 -86.0283 -86.0280 -86.0280 -86.0250 -85.8284 -85.8257
   -85.8255 -85.8224 -85.8211 -85.8189 -49.5619 -49.5549 -49.5340 -49.5338
   -49.5084 -49.5081 -49.4959 -49.4885 -49.4883 -49.4725 -49.4626 -49.4608
   -49.4605 -49.4506 -49.4504 -49.4419 -49.4387 -49.4385 -49.3507 -49.3499
   -49.3003 -49.2990 -49.2988 -49.2958 -49.2582 -49.2570 -49.2533 -49.2521
   -49.2519 -49.2495 -49.2490 -49.2464 -49.2461 -49.2428 -49.2427 -49.2400
   -11.8135 -11.8134  -9.0558  -9.0558  -4.4490  -4.4490  -2.7832  -2.7831
    -1.3669  -1.3668  -0.2659  -0.1755  -0.1091   0.1446   0.1847   0.1865
     0.2881   0.2994   0.2994   0.3967   0.3989   0.5734   0.5810   0.5827
     0.6191   0.6208   0.7071   0.7075   0.8501   0.8528   1.0081   1.0082
     1.1251   1.1328   1.1335   1.1709   1.2032   1.2060   1.3775   1.3793
     1.3968   1.4278   1.4296   1.4769   1.4834   1.7233   1.7242   1.7829
     1.7860   1.9652   2.0197   2.0236   2.0362   2.2148   2.2186   2.3282
     2.3473   2.3484   2.5862   2.6213   2.6217   2.7147   2.7152   2.8083
     2.8119   2.8132   2.9740   2.9784   2.9799   3.0790   3.1072   3.1634
     3.1652   3.1903   3.3350   3.3498   3.3650   3.3651   3.6252   3.6265
     5.2136   5.2150   6.1733   7.0018   7.4580   7.4616   7.5160   7.7263
     8.7608   8.7611   9.6443   9.6497  10.1564  10.7172  11.2971  11.2977
    11.4289  11.6286  11.6315  12.6772  12.7448  12.7483  13.1089  13.1180
    13.1779  13.1864  13.8029  13.8030

          k = 0.1667-0.0962 0.0000 ( 22089 PWs)   bands (ev):

   -86.0422 -86.0332 -86.0269 -86.0264 -86.0247 -86.0246 -85.8322 -85.8320
   -85.8206 -85.8203 -85.8200 -85.8169 -49.5504 -49.5446 -49.5386 -49.5376
   -49.5326 -49.5090 -49.5018 -49.4912 -49.4867 -49.4771 -49.4710 -49.4705
   -49.4689 -49.4658 -49.4350 -49.4301 -49.4235 -49.4152 -49.3336 -49.3329
   -49.3283 -49.3275 -49.2928 -49.2919 -49.2904 -49.2892 -49.2532 -49.2513
   -49.2419 -49.2418 -49.2415 -49.2381 -49.2371 -49.2359 -49.2286 -49.2278
   -13.0887  -9.3548  -8.5165  -8.5164  -6.4019  -6.4018  -5.5862  -1.1926
    -1.1362  -0.8000  -0.7999  -0.2734  -0.1650  -0.0424   0.1331   0.1354
     0.2646   0.3216   0.3285   0.4046   0.5381   0.6369   0.7149   0.7374
     0.7644   0.8282   0.9245   0.9440   0.9501   1.1048   1.1879   1.2145
     1.2933   1.3402   1.4071   1.4220   1.4302   1.4628   1.4873   1.5160
     1.5210   1.5500   1.5945   1.6602   1.6616   1.7228   1.7421   1.8364
     1.9249   1.9894   2.0537   2.1008   2.1087   2.2099   2.2214   2.2863
     2.3134   2.3260   2.3907   2.4023   2.4204   2.5619   2.5891   2.6199
     2.6298   2.7119   2.7595   2.7769   2.9103   2.9194   2.9217   2.9806
     3.0211   3.0443   3.0998   3.1670   3.3914   3.6237   3.6238   5.4322
     6.8094   6.9466   7.8214   7.9492   7.9495   8.0927   8.4304   8.7453
     9.0053   9.2348   9.4767   9.5308  10.0194  10.7778  10.9483  11.2211
    11.3090  11.3737  11.5065  11.5474  12.3406  12.3768  12.4212  12.5769
    13.1784  13.2976  13.3673  13.8232

          k = 0.1667 0.0962 0.0000 ( 22089 PWs)   bands (ev):

   -86.0422 -86.0332 -86.0268 -86.0265 -86.0247 -86.0246 -85.8322 -85.8320
   -85.8206 -85.8203 -85.8200 -85.8169 -49.5504 -49.5442 -49.5388 -49.5377
   -49.5330 -49.5082 -49.5019 -49.4920 -49.4865 -49.4770 -49.4711 -49.4706
   -49.4683 -49.4663 -49.4352 -49.4299 -49.4233 -49.4153 -49.3337 -49.3328
   -49.3282 -49.3276 -49.2930 -49.2918 -49.2901 -49.2893 -49.2532 -49.2513
   -49.2419 -49.2418 -49.2416 -49.2381 -49.2368 -49.2360 -49.2289 -49.2276
   -13.0887  -9.3548  -8.5165  -8.5164  -6.4019  -6.4018  -5.5862  -1.1926
    -1.1362  -0.8000  -0.7999  -0.2730  -0.1650  -0.0428   0.1328   0.1357
     0.2630   0.3215   0.3299   0.4042   0.5400   0.6369   0.7113   0.7354
     0.7679   0.8279   0.9253   0.9461   0.9486   1.1055   1.1873   1.2139
     1.2920   1.3419   1.4059   1.4216   1.4329   1.4633   1.4888   1.5171
     1.5205   1.5493   1.5943   1.6560   1.6621   1.7230   1.7436   1.8341
     1.9235   1.9950   2.0560   2.0989   2.1088   2.2127   2.2172   2.2886
     2.3134   2.3284   2.3907   2.3982   2.4189   2.5599   2.5885   2.6185
     2.6298   2.7067   2.7638   2.7791   2.9103   2.9202   2.9207   2.9804
     3.0215   3.0454   3.1000   3.1663   3.3933   3.6237   3.6238   5.4318
     6.8093   6.9467   7.8207   7.9492   7.9495   8.0893   8.4372   8.7453
     9.0017   9.2359   9.4775   9.5308  10.0194  10.7731  10.9471  11.2211
    11.3129  11.3769  11.5064  11.5445  12.3426  12.3711  12.4188  12.5771
    13.1784  13.3010  13.3673  13.8233

          k = 0.1667 0.2887 0.0000 ( 22093 PWs)   bands (ev):

   -86.0399 -86.0316 -86.0282 -86.0282 -86.0250 -86.0250 -85.8305 -85.8301
   -85.8212 -85.8212 -85.8210 -85.8179 -49.5462 -49.5458 -49.5447 -49.5408
   -49.5406 -49.4981 -49.4978 -49.4814 -49.4813 -49.4779 -49.4657 -49.4654
   -49.4579 -49.4576 -49.4500 -49.4442 -49.4350 -49.4197 -49.3355 -49.3354
   -49.3350 -49.3342 -49.2742 -49.2741 -49.2739 -49.2729 -49.2576 -49.2566
   -49.2513 -49.2497 -49.2427 -49.2424 -49.2423 -49.2390 -49.2341 -49.2328
   -12.7679  -9.9515  -9.9515  -7.7378  -6.6471  -4.5130  -4.5129  -2.1024
    -0.8134  -0.6893  -0.4793  -0.4792   0.0494   0.0751   0.0769   0.1842
     0.1857   0.2195   0.2199   0.2395   0.4151   0.5249   0.5265   0.7203
     0.7210   0.7328   0.7339   0.8992   0.9495   0.9499   1.0765   1.1147
     1.2903   1.3276   1.3309   1.3999   1.4678   1.4916   1.4943   1.5526
     1.5807   1.5817   1.6264   1.6499   1.7076   1.7331   1.7335   1.8598
     1.9437   1.9743   2.0913   2.1139   2.1175   2.2016   2.2077   2.2084
     2.3254   2.3576   2.3577   2.3781   2.3797   2.4519   2.4772   2.4773
     2.5936   2.5943   2.6629   2.6655   2.6901   2.7776   2.9561   2.9567
     3.0463   3.0948   3.0959   3.2212   3.2224   3.8983   4.3070   5.8042
     5.8043   6.0197   6.5858   6.5870   7.4528   7.6719   7.9868   7.9900
     9.6536   9.6544   9.7598   9.7632   9.9738  10.4211  10.8442  10.8482
    11.6187  11.6222  11.6269  11.9018  12.4229  12.4279  13.5243  13.5259
    13.7818  13.8691  13.8694  14.0620

          k = 0.1667-0.6736 0.0000 ( 22151 PWs)   bands (ev):

   -86.0360 -86.0317 -86.0293 -86.0290 -86.0266 -86.0254 -85.8285 -85.8269
   -85.8236 -85.8219 -85.8218 -85.8192 -49.5526 -49.5473 -49.5366 -49.5358
   -49.5288 -49.5018 -49.4982 -49.4981 -49.4772 -49.4712 -49.4668 -49.4609
   -49.4590 -49.4571 -49.4449 -49.4424 -49.4423 -49.4289 -49.3418 -49.3409
   -49.3200 -49.3190 -49.2900 -49.2891 -49.2583 -49.2574 -49.2573 -49.2564
   -49.2497 -49.2474 -49.2447 -49.2436 -49.2433 -49.2425 -49.2423 -49.2402
   -12.1303 -11.1848 -10.2567  -7.6743  -5.8290  -3.4795  -3.4116  -2.4320
    -1.3506  -0.3955  -0.1528  -0.1021  -0.0894  -0.0662  -0.0148   0.1225
     0.1405   0.1622   0.2162   0.2197   0.2440   0.3793   0.3991   0.4968
     0.5761   0.6402   0.6977   0.7483   0.7744   0.9222   1.0044   1.0189
     1.0667   1.1086   1.1177   1.2584   1.3354   1.3720   1.4401   1.4422
     1.4892   1.5062   1.5775   1.7020   1.7998   1.8795   1.8818   1.9395
     1.9835   2.0228   2.0378   2.0621   2.1396   2.1964   2.1987   2.2129
     2.2447   2.3283   2.4104   2.5018   2.5441   2.5489   2.6503   2.6602
     2.6841   2.7617   2.8552   2.9113   2.9248   2.9422   2.9759   3.0040
     3.0497   3.0844   3.1030   3.1302   3.2235   3.8158   4.4500   4.7074
     4.7217   4.9199   5.6766   6.0536   6.9803   7.1149   7.2882   8.2929
     8.9693   9.0388  10.3281  10.5757  10.6625  10.8569  11.2229  11.2571
    11.7766  11.9542  12.1646  12.3967  12.4249  12.7445  13.0524  13.1529
    13.4887  13.5849  13.8620  13.8757

          k = 0.1667-0.4811 0.0000 ( 22151 PWs)   bands (ev):

   -86.0360 -86.0317 -86.0293 -86.0290 -86.0266 -86.0253 -85.8285 -85.8269
   -85.8236 -85.8219 -85.8218 -85.8192 -49.5526 -49.5473 -49.5367 -49.5358
   -49.5288 -49.5015 -49.4982 -49.4980 -49.4772 -49.4711 -49.4667 -49.4610
   -49.4590 -49.4572 -49.4451 -49.4424 -49.4422 -49.4288 -49.3418 -49.3409
   -49.3199 -49.3190 -49.2902 -49.2891 -49.2583 -49.2575 -49.2574 -49.2563
   -49.2497 -49.2474 -49.2446 -49.2434 -49.2433 -49.2426 -49.2423 -49.2402
   -12.1303 -11.1848 -10.2567  -7.6743  -5.8290  -3.4795  -3.4116  -2.4320
    -1.3506  -0.3955  -0.1529  -0.1030  -0.0896  -0.0662  -0.0144   0.1234
     0.1405   0.1618   0.2149   0.2193   0.2444   0.3830   0.3990   0.4969
     0.5779   0.6398   0.6958   0.7467   0.7741   0.9219   1.0044   1.0189
     1.0672   1.1091   1.1206   1.2570   1.3343   1.3718   1.4362   1.4407
     1.4845   1.5085   1.5778   1.7054   1.8025   1.8810   1.8872   1.9361
     1.9809   2.0237   2.0389   2.0621   2.1379   2.1941   2.1979   2.2123
     2.2432   2.3305   2.4115   2.5034   2.5452   2.5497   2.6521   2.6608
     2.6807   2.7599   2.8532   2.9115   2.9249   2.9425   2.9764   3.0062
     3.0503   3.0843   3.1040   3.1293   3.2233   3.8161   4.4487   4.7074
     4.7195   4.9199   5.6767   6.0554   6.9811   7.1149   7.2882   8.2921
     8.9693   9.0391  10.3281  10.5758  10.6623  10.8569  11.2230  11.2571
    11.7766  11.9542  12.1645  12.3966  12.4248  12.7448  13.0526  13.1530
    13.4887  13.5851  13.8620  13.8758

          k = 0.1667-0.2887 0.0000 ( 22093 PWs)   bands (ev):

   -86.0399 -86.0316 -86.0283 -86.0282 -86.0251 -86.0250 -85.8305 -85.8301
   -85.8212 -85.8212 -85.8210 -85.8179 -49.5465 -49.5458 -49.5447 -49.5407
   -49.5404 -49.4987 -49.4976 -49.4811 -49.4808 -49.4776 -49.4661 -49.4657
   -49.4578 -49.4574 -49.4499 -49.4444 -49.4352 -49.4196 -49.3355 -49.3354
   -49.3350 -49.3342 -49.2743 -49.2742 -49.2739 -49.2728 -49.2579 -49.2565
   -49.2513 -49.2497 -49.2427 -49.2424 -49.2423 -49.2390 -49.2337 -49.2329
   -12.7679  -9.9515  -9.9515  -7.7378  -6.6471  -4.5130  -4.5129  -2.1024
    -0.8134  -0.6895  -0.4793  -0.4792   0.0477   0.0750   0.0769   0.1840
     0.1854   0.2198   0.2202   0.2413   0.4174   0.5260   0.5285   0.7172
     0.7193   0.7327   0.7336   0.8987   0.9494   0.9524   1.0755   1.1144
     1.2903   1.3259   1.3290   1.3984   1.4680   1.4903   1.4946   1.5525
     1.5781   1.5815   1.6274   1.6497   1.7050   1.7381   1.7387   1.8598
     1.9433   1.9743   2.0909   2.1128   2.1167   2.2005   2.2069   2.2081
     2.3244   2.3576   2.3577   2.3775   2.3798   2.4554   2.4804   2.4812
     2.5939   2.5961   2.6587   2.6628   2.6952   2.7746   2.9561   2.9571
     3.0463   3.0934   3.0960   3.2211   3.2230   3.8958   4.3070   5.8041
     5.8047   6.0204   6.5847   6.5872   7.4528   7.6722   7.9873   7.9912
     9.6536   9.6544   9.7590   9.7630   9.9738  10.4211  10.8444  10.8492
    11.6185  11.6207  11.6258  11.9020  12.4234  12.4347  13.5172  13.5258
    13.7818  13.8678  13.8691  14.0618

          k = 0.3333-0.1925 0.0000 ( 22135 PWs)   bands (ev):

   -86.0388 -86.0308 -86.0300 -86.0276 -86.0257 -86.0249 -85.8299 -85.8292
   -85.8223 -85.8216 -85.8208 -85.8182 -49.5577 -49.5502 -49.5423 -49.5359
   -49.5285 -49.5034 -49.4930 -49.4819 -49.4805 -49.4698 -49.4673 -49.4650
   -49.4561 -49.4547 -49.4520 -49.4512 -49.4366 -49.4241 -49.3462 -49.3455
   -49.3228 -49.3219 -49.2710 -49.2703 -49.2677 -49.2675 -49.2658 -49.2633
   -49.2507 -49.2492 -49.2436 -49.2425 -49.2423 -49.2393 -49.2375 -49.2366
   -12.6080 -10.7176  -8.9134  -8.9134  -5.2760  -5.2760  -3.5306  -1.9197
    -1.9197  -0.6252  -0.4795  -0.1120  -0.0125  -0.0070   0.2172   0.2707
     0.2917   0.2952   0.3159   0.3704   0.4565   0.4774   0.5193   0.6229
     0.6979   0.7005   0.8248   0.8456   0.8580   0.9641   1.0108   1.0181
     1.1177   1.2352   1.2462   1.2941   1.3273   1.4000   1.4450   1.4553
     1.5316   1.5429   1.6465   1.6575   1.7006   1.7799   1.7956   1.8053
     1.8380   1.8623   1.8764   1.9926   2.0110   2.0548   2.0730   2.2445
     2.2658   2.3192   2.3957   2.4482   2.4863   2.4921   2.5302   2.6906
     2.7088   2.7991   2.8349   2.8690   2.9550   2.9816   2.9934   3.0669
     3.0785   3.1151   3.1788   3.2085   3.4452   3.4452   4.1280   4.7187
     5.4335   6.2843   6.7967   6.9320   7.4201   7.9455   8.0512   8.2722
     8.4817   8.4820   9.0641  10.1942  10.2821  10.6221  10.8054  10.8698
    11.4327  11.6754  11.8160  12.1087  12.8094  12.8955  13.0560  13.4443
    13.4886  13.5424  13.9886  14.1032

          k = 0.3333-0.0000 0.0000 ( 22093 PWs)   bands (ev):

   -86.0399 -86.0316 -86.0283 -86.0282 -86.0251 -86.0250 -85.8305 -85.8301
   -85.8212 -85.8212 -85.8210 -85.8179 -49.5464 -49.5460 -49.5448 -49.5406
   -49.5403 -49.4987 -49.4979 -49.4809 -49.4807 -49.4775 -49.4662 -49.4658
   -49.4577 -49.4574 -49.4499 -49.4443 -49.4353 -49.4197 -49.3355 -49.3353
   -49.3350 -49.3342 -49.2743 -49.2740 -49.2739 -49.2729 -49.2578 -49.2566
   -49.2513 -49.2497 -49.2427 -49.2424 -49.2423 -49.2390 -49.2339 -49.2328
   -12.7679  -9.9515  -9.9515  -7.7378  -6.6471  -4.5130  -4.5129  -2.1024
    -0.8134  -0.6896  -0.4793  -0.4792   0.0471   0.0750   0.0767   0.1841
     0.1856   0.2200   0.2204   0.2414   0.4174   0.5264   0.5287   0.7174
     0.7193   0.7324   0.7335   0.8999   0.9501   0.9528   1.0756   1.1142
     1.2903   1.3243   1.3277   1.3988   1.4680   1.4911   1.4962   1.5517
     1.5779   1.5815   1.6264   1.6497   1.7050   1.7372   1.7380   1.8598
     1.9434   1.9743   2.0922   2.1124   2.1160   2.2003   2.2067   2.2079
     2.3243   2.3576   2.3576   2.3774   2.3795   2.4550   2.4808   2.4816
     2.5948   2.5965   2.6588   2.6625   2.6957   2.7743   2.9559   2.9565
     3.0475   3.0935   3.0956   3.2223   3.2233   3.8947   4.3070   5.8043
     5.8047   6.0202   6.5847   6.5866   7.4528   7.6717   7.9869   7.9909
     9.6536   9.6544   9.7584   9.7612   9.9738  10.4211  10.8470  10.8498
    11.6187  11.6210  11.6262  11.9019  12.4260  12.4347  13.5170  13.5264
    13.7820  13.8678  13.8695  14.0615

          k = 0.3333 0.1925 0.0000 ( 22135 PWs)   bands (ev):

   -86.0388 -86.0309 -86.0300 -86.0277 -86.0257 -86.0248 -85.8299 -85.8292
   -85.8223 -85.8216 -85.8208 -85.8182 -49.5574 -49.5502 -49.5423 -49.5361
   -49.5289 -49.5026 -49.4939 -49.4822 -49.4803 -49.4697 -49.4673 -49.4647
   -49.4559 -49.4550 -49.4520 -49.4512 -49.4364 -49.4242 -49.3463 -49.3454
   -49.3227 -49.3220 -49.2712 -49.2701 -49.2679 -49.2672 -49.2655 -49.2634
   -49.2507 -49.2492 -49.2435 -49.2425 -49.2424 -49.2393 -49.2378 -49.2364
   -12.6080 -10.7176  -8.9134  -8.9134  -5.2760  -5.2760  -3.5306  -1.9197
    -1.9197  -0.6252  -0.4793  -0.1119  -0.0129  -0.0071   0.2187   0.2698
     0.2903   0.2952   0.3169   0.3678   0.4582   0.4787   0.5183   0.6239
     0.6979   0.6991   0.8257   0.8469   0.8597   0.9639   1.0055   1.0214
     1.1159   1.2320   1.2469   1.2938   1.3286   1.3997   1.4425   1.4607
     1.5316   1.5424   1.6471   1.6593   1.7002   1.7802   1.7973   1.8046
     1.8387   1.8623   1.8840   1.9884   2.0045   2.0538   2.0744   2.2456
     2.2621   2.3191   2.3928   2.4476   2.4872   2.4912   2.5313   2.6957
     2.7127   2.7977   2.8314   2.8680   2.9542   2.9823   2.9932   3.0660
     3.0811   3.1134   3.1781   3.2099   3.4452   3.4452   4.1296   4.7187
     5.4330   6.2837   6.7936   6.9328   7.4327   7.9366   8.0510   8.2701
     8.4817   8.4820   9.0636  10.1942  10.2792  10.6221  10.8054  10.8741
    11.4326  11.6673  11.8161  12.1085  12.8093  12.9105  13.0558  13.4445
    13.4851  13.5462  13.9890  14.1935

          k = 0.3333-0.7698 0.0000 ( 22151 PWs)   bands (ev):

   -86.0360 -86.0317 -86.0293 -86.0290 -86.0265 -86.0254 -85.8285 -85.8269
   -85.8236 -85.8219 -85.8218 -85.8192 -49.5528 -49.5473 -49.5366 -49.5357
   -49.5286 -49.5017 -49.4983 -49.4979 -49.4772 -49.4713 -49.4668 -49.4609
   -49.4590 -49.4572 -49.4450 -49.4424 -49.4422 -49.4289 -49.3419 -49.3408
   -49.3199 -49.3190 -49.2899 -49.2892 -49.2581 -49.2575 -49.2575 -49.2564
   -49.2497 -49.2474 -49.2446 -49.2437 -49.2433 -49.2426 -49.2421 -49.2402
   -12.1303 -11.1848 -10.2567  -7.6743  -5.8290  -3.4795  -3.4116  -2.4320
    -1.3506  -0.3955  -0.1525  -0.1021  -0.0890  -0.0662  -0.0151   0.1220
     0.1404   0.1618   0.2161   0.2206   0.2439   0.3796   0.3991   0.4970
     0.5761   0.6403   0.6976   0.7481   0.7740   0.9219   1.0044   1.0189
     1.0669   1.1079   1.1180   1.2582   1.3363   1.3711   1.4396   1.4427
     1.4881   1.5071   1.5767   1.7019   1.8002   1.8794   1.8815   1.9396
     1.9834   2.0227   2.0378   2.0621   2.1404   2.1973   2.1983   2.2134
     2.2445   2.3285   2.4101   2.5019   2.5441   2.5489   2.6508   2.6601
     2.6840   2.7617   2.8554   2.9110   2.9243   2.9418   2.9763   3.0047
     3.0496   3.0855   3.1029   3.1302   3.2230   3.8157   4.4506   4.7074
     4.7213   4.9206   5.6752   6.0531   6.9801   7.1146   7.2882   8.2926
     8.9673   9.0386  10.3281  10.5791  10.6610  10.8569  11.2230  11.2580
    11.7766  11.9574  12.1644  12.3968  12.4249  12.7444  13.0523  13.1548
    13.4895  13.5841  13.8619  13.8742

          k = 0.3333-0.5774 0.0000 ( 22161 PWs)   bands (ev):

   -86.0324 -86.0324 -86.0324 -86.0270 -86.0269 -86.0269 -85.8279 -85.8243
   -85.8240 -85.8240 -85.8209 -85.8209 -49.5370 -49.5369 -49.5365 -49.5306
   -49.5303 -49.5301 -49.4971 -49.4970 -49.4967 -49.4648 -49.4646 -49.4644
   -49.4536 -49.4534 -49.4533 -49.4344 -49.4344 -49.4344 -49.3208 -49.3208
   -49.3202 -49.3200 -49.3199 -49.3172 -49.2503 -49.2502 -49.2501 -49.2501
   -49.2499 -49.2493 -49.2470 -49.2454 -49.2450 -49.2450 -49.2416 -49.2415
   -11.3417 -11.3417 -11.3417  -6.4924  -6.4924  -4.3150  -1.7162  -1.7162
    -1.7161  -0.3163  -0.3162  -0.3162  -0.0501  -0.0495  -0.0486  -0.0141
    -0.0135  -0.0125   0.1654   0.1667   0.1676   0.3432   0.3440   0.3451
     0.5110   0.5122   0.5124   0.7794   0.7796   0.7816   0.8450   0.8450
     0.8450   1.2016   1.2026   1.2042   1.4001   1.4011   1.4051   1.5084
     1.5096   1.5125   1.6253   1.6296   1.6301   2.0092   2.0122   2.0155
     2.0458   2.0507   2.0513   2.3774   2.3780   2.3811   2.4498   2.4500
     2.4512   2.6339   2.6354   2.6361   2.6931   2.6944   2.6949   2.7609
     2.7617   2.7623   2.8584   2.8585   2.8593   2.8941   2.8942   2.8951
     3.0959   3.0980   3.0985   3.1338   3.1346   3.1366   3.8982   3.9011
     3.9024   5.6856   5.6871   5.6908   6.0238   6.0239   7.9976   7.9995
     8.0001  10.3658  10.3668  10.3740  11.9425  11.9427  11.9434  12.1862
    12.1863  12.1929  12.2093  12.2108  12.2108  12.8881  12.8883  12.8906
    13.3520  13.3528  13.3603  13.7560

          k = 0.3333-0.3849 0.0000 ( 22151 PWs)   bands (ev):

   -86.0360 -86.0317 -86.0292 -86.0290 -86.0265 -86.0255 -85.8285 -85.8269
   -85.8236 -85.8219 -85.8218 -85.8192 -49.5532 -49.5473 -49.5367 -49.5357
   -49.5284 -49.5013 -49.4986 -49.4973 -49.4773 -49.4716 -49.4667 -49.4608
   -49.4590 -49.4573 -49.4452 -49.4424 -49.4422 -49.4288 -49.3418 -49.3409
   -49.3199 -49.3190 -49.2902 -49.2890 -49.2584 -49.2574 -49.2574 -49.2564
   -49.2497 -49.2475 -49.2447 -49.2433 -49.2432 -49.2426 -49.2423 -49.2402
   -12.1303 -11.1848 -10.2567  -7.6743  -5.8290  -3.4795  -3.4116  -2.4320
    -1.3506  -0.3955  -0.1527  -0.1031  -0.0884  -0.0662  -0.0146   0.1219
     0.1404   0.1615   0.2147   0.2212   0.2429   0.3842   0.3975   0.4993
     0.5777   0.6390   0.6962   0.7461   0.7724   0.9211   1.0044   1.0189
     1.0680   1.1131   1.1172   1.2588   1.3361   1.3731   1.4362   1.4437
     1.4809   1.5050   1.5748   1.7058   1.8052   1.8766   1.8807   1.9359
     1.9868   2.0261   2.0364   2.0621   2.1405   2.1940   2.1979   2.2153
     2.2480   2.3303   2.4085   2.5040   2.5448   2.5503   2.6495   2.6604
     2.6808   2.7592   2.8551   2.9118   2.9230   2.9404   2.9770   3.0059
     3.0510   3.0856   3.1052   3.1298   3.2227   3.8158   4.4505   4.7074
     4.7189   4.9215   5.6720   6.0530   6.9811   7.1186   7.2882   8.2928
     8.9661   9.0390  10.3281  10.5803  10.6611  10.8569  11.2230  11.2546
    11.7766  11.9657  12.1644  12.3966  12.4249  12.7448  13.0524  13.1440
    13.4867  13.5841  13.8619  13.8742

          k =-0.5000 0.2887 0.0000 ( 22116 PWs)   bands (ev):

   -86.0344 -86.0343 -86.0281 -86.0280 -86.0280 -86.0251 -85.8284 -85.8257
   -85.8255 -85.8224 -85.8211 -85.8189 -49.5624 -49.5549 -49.5341 -49.5338
   -49.5077 -49.5075 -49.4947 -49.4889 -49.4888 -49.4734 -49.4623 -49.4608
   -49.4605 -49.4508 -49.4506 -49.4419 -49.4386 -49.4383 -49.3507 -49.3499
   -49.3003 -49.2990 -49.2989 -49.2958 -49.2583 -49.2570 -49.2533 -49.2521
   -49.2519 -49.2495 -49.2490 -49.2464 -49.2461 -49.2428 -49.2427 -49.2400
   -11.8135 -11.8134  -9.0558  -9.0558  -4.4490  -4.4490  -2.7832  -2.7831
    -1.3669  -1.3668  -0.2658  -0.1743  -0.1089   0.1434   0.1840   0.1857
     0.2865   0.2994   0.2994   0.4004   0.4026   0.5717   0.5788   0.5806
     0.6167   0.6184   0.7107   0.7112   0.8500   0.8526   1.0081   1.0082
     1.1276   1.1281   1.1331   1.1695   1.2035   1.2063   1.3812   1.3824
     1.3987   1.4269   1.4278   1.4747   1.4816   1.7212   1.7221   1.7818
     1.7848   1.9627   2.0257   2.0267   2.0305   2.2162   2.2200   2.3364
     2.3495   2.3506   2.5876   2.6175   2.6179   2.7113   2.7118   2.8050
     2.8143   2.8156   2.9744   2.9795   2.9811   3.0808   3.1049   3.1635
     3.1653   3.1923   3.3348   3.3495   3.3650   3.3651   3.6257   3.6271
     5.2119   5.2134   6.1784   6.9849   7.4583   7.4619   7.5259   7.7250
     8.7608   8.7611   9.6439   9.6493  10.1644  10.7134  11.2971  11.2977
    11.4412  11.6287  11.6315  12.6628  12.7448  12.7483  13.1088  13.1179
    13.1780  13.1865  13.8029  13.8030

          k =-0.5000 0.4811 0.0000 ( 22151 PWs)   bands (ev):

   -86.0360 -86.0317 -86.0292 -86.0290 -86.0265 -86.0255 -85.8285 -85.8269
   -85.8236 -85.8219 -85.8218 -85.8192 -49.5532 -49.5472 -49.5368 -49.5357
   -49.5285 -49.5011 -49.4986 -49.4974 -49.4773 -49.4715 -49.4667 -49.4609
   -49.4590 -49.4573 -49.4452 -49.4423 -49.4422 -49.4288 -49.3418 -49.3409
   -49.3200 -49.3189 -49.2901 -49.2891 -49.2584 -49.2574 -49.2573 -49.2564
   -49.2497 -49.2475 -49.2447 -49.2435 -49.2432 -49.2425 -49.2423 -49.2402
   -12.1303 -11.1848 -10.2567  -7.6743  -5.8290  -3.4795  -3.4116  -2.4320
    -1.3506  -0.3955  -0.1528  -0.1037  -0.0884  -0.0662  -0.0144   0.1225
     0.1404   0.1616   0.2140   0.2209   0.2430   0.3852   0.3976   0.4993
     0.5783   0.6389   0.6964   0.7452   0.7724   0.9213   1.0044   1.0189
     1.0685   1.1144   1.1182   1.2573   1.3356   1.3727   1.4340   1.4436
     1.4810   1.5064   1.5742   1.7069   1.8041   1.8765   1.8807   1.9356
     1.9875   2.0262   2.0366   2.0621   2.1402   2.1934   2.1979   2.2150
     2.2480   2.3309   2.4086   2.5043   2.5449   2.5503   2.6497   2.6605
     2.6808   2.7586   2.8554   2.9121   2.9231   2.9402   2.9756   3.0062
     3.0515   3.0858   3.1060   3.1298   3.2236   3.8159   4.4500   4.7074
     4.7183   4.9215   5.6720   6.0531   6.9809   7.1186   7.2882   8.2929
     8.9660   9.0382  10.3281  10.5803  10.6623  10.8569  11.2230  11.2547
    11.7766  11.9656  12.1646  12.3967  12.4249  12.7445  13.0526  13.1440
    13.4867  13.5851  13.8619  13.8742

          k =-0.5000 0.6736 0.0000 ( 22151 PWs)   bands (ev):

   -86.0360 -86.0317 -86.0293 -86.0290 -86.0266 -86.0254 -85.8285 -85.8269
   -85.8236 -85.8219 -85.8218 -85.8192 -49.5528 -49.5472 -49.5368 -49.5358
   -49.5288 -49.5013 -49.4982 -49.4981 -49.4772 -49.4711 -49.4666 -49.4609
   -49.4590 -49.4573 -49.4452 -49.4424 -49.4422 -49.4289 -49.3419 -49.3408
   -49.3198 -49.3190 -49.2900 -49.2892 -49.2581 -49.2576 -49.2575 -49.2563
   -49.2497 -49.2474 -49.2446 -49.2436 -49.2433 -49.2426 -49.2421 -49.2402
   -12.1303 -11.1848 -10.2567  -7.6743  -5.8290  -3.4795  -3.4116  -2.4320
    -1.3506  -0.3955  -0.1527  -0.1036  -0.0892  -0.0662  -0.0146   0.1236
     0.1405   0.1616   0.2140   0.2199   0.2444   0.3843   0.3990   0.4972
     0.5785   0.6399   0.6959   0.7456   0.7737   0.9218   1.0044   1.0189
     1.0680   1.1097   1.1219   1.2554   1.3347   1.3706   1.4331   1.4415
     1.4835   1.5109   1.5765   1.7063   1.8018   1.8810   1.8865   1.9360
     1.9815   2.0238   2.0391   2.0621   2.1385   2.1941   2.1977   2.2125
     2.2429   2.3312   2.4114   2.5038   2.5452   2.5498   2.6527   2.6608
     2.6806   2.7593   2.8537   2.9116   2.9246   2.9419   2.9754   3.0073
     3.0507   3.0857   3.1046   3.1294   3.2236   3.8160   4.4488   4.7074
     4.7185   4.9206   5.6753   6.0551   6.9807   7.1145   7.2882   8.2919
     8.9671   9.0381  10.3281  10.5791  10.6620  10.8569  11.2230  11.2580
    11.7766  11.9573  12.1644  12.3968  12.4248  12.7445  13.0527  13.1549
    13.4895  13.5853  13.8619  13.8743

          k =-0.5000-0.2887 0.0000 ( 22116 PWs)   bands (ev):

   -86.0344 -86.0343 -86.0282 -86.0280 -86.0280 -86.0250 -85.8284 -85.8257
   -85.8255 -85.8224 -85.8211 -85.8189 -49.5621 -49.5549 -49.5340 -49.5338
   -49.5082 -49.5079 -49.4957 -49.4886 -49.4884 -49.4726 -49.4625 -49.4608
   -49.4604 -49.4506 -49.4505 -49.4419 -49.4387 -49.4385 -49.3508 -49.3498
   -49.3004 -49.2988 -49.2987 -49.2959 -49.2580 -49.2571 -49.2532 -49.2523
   -49.2521 -49.2495 -49.2489 -49.2464 -49.2461 -49.2428 -49.2428 -49.2400
   -11.8135 -11.8134  -9.0558  -9.0558  -4.4490  -4.4490  -2.7832  -2.7831
    -1.3669  -1.3668  -0.2656  -0.1751  -0.1093   0.1445   0.1847   0.1864
     0.2881   0.2994   0.2994   0.3979   0.4000   0.5734   0.5801   0.5818
     0.6183   0.6200   0.7078   0.7083   0.8500   0.8526   1.0081   1.0082
     1.1247   1.1322   1.1329   1.1701   1.2030   1.2057   1.3778   1.3795
     1.3977   1.4271   1.4297   1.4775   1.4834   1.7219   1.7229   1.7843
     1.7873   1.9650   2.0191   2.0231   2.0355   2.2155   2.2193   2.3285
     2.3480   2.3490   2.5864   2.6210   2.6213   2.7143   2.7149   2.8094
     2.8120   2.8133   2.9740   2.9796   2.9811   3.0787   3.1064   3.1634
     3.1652   3.1904   3.3351   3.3498   3.3650   3.3651   3.6253   3.6267
     5.2128   5.2143   6.1761   6.9995   7.4577   7.4612   7.5140   7.7223
     8.7608   8.7611   9.6437   9.6491  10.1617  10.7180  11.2971  11.2977
    11.4324  11.6287  11.6315  12.6799  12.7449  12.7484  13.1089  13.1180
    13.1777  13.1862  13.8029  13.8030

     the Fermi energy is     6.0403 ev

!    total energy              =   -3595.79174373 Ry
     estimated scf accuracy    <          8.0E-09 Ry
     smearing contrib. (-TS)   =      -0.00097312 Ry
     internal energy E=F+TS    =   -3595.79077061 Ry

     The total energy is F=E-TS. E is the sum of the following terms:
     one-electron contribution =  -19417.26060363 Ry
     hartree contribution      =    9738.72622844 Ry
     xc contribution           =    -362.10634288 Ry
     ewald contribution        =    6494.63280435 Ry
     DFT-D3 Dispersion         =      -0.45596048 Ry
     electric field correction =       0.00000241 Ry
     one-center paw contrib.   =     -49.32689882 Ry

     convergence has been achieved in  24 iterations

     negative rho (up, down):  6.457E-07 0.000E+00

     Forces acting on atoms (cartesian axes, Ry/au):

     atom    1 type  1   force =     0.00017268    0.00052227    0.00172262
     atom    2 type  1   force =     0.00017413    0.00054825    0.00171863
     atom    3 type  1   force =    -0.00031758   -0.00004579   -0.00149686
     atom    4 type  1   force =     0.00000367   -0.00034247   -0.00084650
     atom    5 type  1   force =     0.00015006    0.00053408    0.00172133
     atom    6 type  1   force =    -0.00022228    0.00000778   -0.00149556
     atom    7 type  1   force =     0.00008398   -0.00012250    0.00186603
     atom    8 type  1   force =     0.00000415   -0.00034272   -0.00084165
     atom    9 type  1   force =     0.00009282   -0.00012528    0.00018707
     atom   10 type  1   force =    -0.00022601   -0.00010240   -0.00148507
     atom   11 type  1   force =     0.00000388   -0.00034288   -0.00084171
     atom   12 type  1   force =     0.00009228   -0.00012726    0.00020228
     atom   13 type  2   force =     0.00000313   -0.00000229   -0.00104006
     atom   14 type  2   force =    -0.00000049   -0.00000954    0.00289305
     atom   15 type  2   force =    -0.00000242   -0.00001233   -0.00104054
     atom   16 type  2   force =     0.00000522   -0.00001298   -0.00103298
     atom   17 type  2   force =    -0.00000800   -0.00000228   -0.00103899
     atom   18 type  2   force =    -0.00000058   -0.00000309   -0.00103210
     atom   19 type  2   force =    -0.00000240   -0.00000557    0.00291348
     atom   20 type  2   force =    -0.00000625   -0.00001301   -0.00103247

     Total force =     0.006792     Total SCF correction =     0.000652

     Writing all to output data dir ./tmp/V2_bridge_dft_far.save/ :
     XML data file, charge density, pseudopotentials, collected wavefunctions
 
     init_run     :      3.58s CPU      3.81s WALL (       1 calls)
     electrons    :    120.02s CPU    131.50s WALL (       1 calls)
     forces       :      0.70s CPU      0.85s WALL (       1 calls)
     force_dftd3  :      0.04s CPU      0.03s WALL (       1 calls)

     Called by init_run:
     wfcinit      :      1.04s CPU      1.60s WALL (       1 calls)
     potinit      :      1.62s CPU      1.27s WALL (       1 calls)
     hinit0       :      0.62s CPU      0.53s WALL (       1 calls)

     Called by electrons:
     c_bands      :     64.58s CPU     80.64s WALL (      25 calls)
     sum_band     :     13.75s CPU     20.29s WALL (      25 calls)
     v_of_rho     :      6.33s CPU      5.32s WALL (      25 calls)
     newd         :      0.37s CPU      0.38s WALL (      25 calls)
                                        0.38s GPU  (      25 calls)
     PAW_pot      :     29.80s CPU     18.59s WALL (      25 calls)
     mix_rho      :      4.06s CPU      4.38s WALL (      25 calls)
     energy_dftd3 :      0.00s CPU      0.00s WALL (       1 calls)

     Called by c_bands:
     init_us_2    :      0.96s CPU      1.22s WALL (    1040 calls)
     cegterg      :     56.49s CPU     56.81s WALL (     500 calls)

     Called by *egterg:
     cdiaghg      :      9.28s CPU      9.51s WALL (    2333 calls)
                                        9.49s GPU  (    2333 calls)
     h_psi        :     37.49s CPU     37.77s WALL (    2373 calls)
                                       37.67s GPU  (    2373 calls)
     s_psi        :      0.99s CPU      0.97s WALL (    2373 calls)
     g_psi        :      0.01s CPU      0.28s WALL (    1853 calls)
                                        0.27s GPU  (    1853 calls)

     Called by h_psi:
     h_psi:calbec :      0.09s CPU      1.58s WALL (    2373 calls)
                                        1.57s GPU  (    2373 calls)
     vloc_psi     :     33.04s CPU     33.25s WALL (    2373 calls)
                                       33.24s GPU  (    2373 calls)
     add_vuspsi   :      1.00s CPU      2.53s WALL (    2373 calls)
                                        2.51s GPU  (    2373 calls)

     General routines
     calbec       :      0.12s CPU      0.12s WALL (    2953 calls)
     fft          :      1.16s CPU      1.27s WALL (     335 calls)
                                        0.10s GPU  (     310 calls)
     ffts         :      0.24s CPU      0.39s WALL (    2189 calls)
                                        0.17s GPU  (    2164 calls)
     fftw         :      0.38s CPU     28.29s WALL (   28400 calls)
                                       28.12s GPU  (   28400 calls)
     interpolate  :      1.49s CPU      1.86s WALL (      25 calls)
     davcio       :      1.77s CPU     23.15s WALL (    1946 calls)
 
     Parallel routines
 
     PWSCF        :   2m 6.60s CPU   2m18.65s WALL

 
   This run was terminated on:  21: 0:34  26Sep2026            

=------------------------------------------------------------------------------=
   JOB DONE.
=------------------------------------------------------------------------------=
