120
Lattice="13.98784317 0.00000000 0.00000000 0.00000000 13.98784317 0.00000000 0.00000000 0.00000000 13.98784317" Properties=species:S:1:pos:R:3 pbc="T T T" t_ps=24.0
P 1.29334146 10.29449633 -14.43549769
S -0.29876528 10.81392384 -15.59210224
S 1.07316928 8.42308254 -13.60294028
S 1.10361480 11.65864813 -12.79941069
S 3.08212933 10.59286513 -15.32441950
P 17.34252325 22.71143536 -10.07067490
S 15.35649689 23.05333686 -9.95534279
S 18.45328784 23.42304552 -11.57026729
S 17.41597311 20.66409077 -10.44032499
S 18.46800047 22.94593210 -8.34788504
P -9.91195961 14.67435065 13.41182321
S -9.02828606 14.00822095 11.63512965
S -9.31298978 13.53976354 15.08090141
S -11.90775445 14.73623459 12.92305411
S -9.26610097 16.57961015 13.90629637
P 0.16278548 2.77643861 3.80350079
S 0.88251154 1.33012273 2.45615830
S 0.19732734 4.66345512 2.99693669
S 1.36048657 2.70075029 5.54415392
S -1.78084515 2.18564465 3.96697123
P 20.94238801 24.98536489 9.20128746
S 19.41368823 26.36107898 8.93779432
S 20.40082314 23.84790760 10.96047449
S 22.83794864 25.63515105 9.51601108
S 20.92341867 23.70279195 7.51318009
P 5.50308118 14.65259345 19.31728551
S 4.97022017 16.04275051 17.91045729
S 7.42031910 14.76540357 19.88848381
S 4.86756612 12.94725566 18.37088366
S 4.36431218 15.05074433 21.04677631
P -15.63962191 3.88018943 -5.34582340
S -15.85594955 4.93632941 -7.04852285
S -16.46861732 1.98960981 -5.75100920
S -16.79738724 4.57486484 -3.82037014
S -13.66385142 3.97975196 -4.75413344
P -4.12276230 -6.45609851 -14.56220882
S -5.56405610 -5.47258192 -13.48917411
S -5.15910225 -8.12729408 -15.16518009
S -2.39355706 -6.90614044 -13.63852011
S -3.69093711 -5.26534453 -16.20791671
P 11.67872731 29.61428262 13.00983598
S 13.09820815 29.55957853 11.54640425
S 11.80290631 27.93715565 14.22424325
S 9.76820350 29.80138728 12.27593029
S 12.09403132 31.38550319 14.08407415
P 28.66318665 -1.63541517 22.26003434
S 29.78063542 -3.38696446 22.52382427
S 26.72322532 -1.90362631 22.69028329
S 28.68946098 -1.46177829 20.20510033
S 29.41747205 0.03232428 23.11704066
P 10.56220691 -2.88474118 31.99609501
S 8.51717672 -2.95680915 31.53935265
S 11.06629933 -0.93257388 32.40273886
S 11.49150178 -3.63333063 30.32673109
S 11.13529251 -4.06557886 33.55070028
P -5.49338650 -8.28127353 4.39578365
S -6.79723231 -8.75666295 2.95115840
S -5.39876702 -9.86899374 5.63007240
S -6.24270822 -6.53633107 5.27127533
S -3.54555142 -7.72736411 3.86504651
Cl 22.41682062 -1.93582749 -0.47188682
Cl 1.49281911 -21.20557565 6.92636611
Cl 7.30854679 33.96206317 -4.51537309
Cl -12.76828196 18.60923929 13.16079272
Cl 17.68136940 -24.20425345 24.28232193
Cl 21.15736224 -11.47882045 9.33759899
Cl 19.13677196 6.83856418 13.23631209
Cl -10.68449431 -6.56764270 -32.29761135
Cl 41.57596322 -6.35797191 -3.39492229
Cl -3.76421319 7.84477874 22.24465816
Cl 18.85315983 -9.08813497 -7.14298750
Cl 22.46111303 15.29526403 58.27963749
Li -19.73025246 41.51629824 -38.11401463
Li 36.78587030 -31.30582669 39.70715518
Li -38.54415282 49.66421007 56.75769868
Li -15.06441004 -5.45641561 -15.23851439
Li 0.00682093 -28.63473071 -126.20910196
Li 44.45546912 12.97696358 24.92480579
Li 4.90856304 5.52747922 -32.69689760
Li -49.51313706 68.05048994 54.20942292
Li 24.33379853 8.07693936 16.11287402
Li 1.01507182 38.11589480 6.14600003
Li 1.04696708 6.47840163 -4.68300125
Li 47.50276752 72.50422547 -58.99286248
Li -8.46826549 34.51302436 4.76014172
Li -2.14588834 -9.84979555 16.32834798
Li 9.44777308 -59.88851783 -48.52172836
Li -27.88500646 24.02478624 52.02031439
Li -7.38840999 65.53812459 4.23635420
Li -3.48255178 21.62216624 89.77277387
Li 97.15374297 46.53989776 12.07358666
Li 46.74389553 25.34407352 6.51880375
Li -0.04075075 37.68874329 2.04423545
Li 17.39295423 -22.98580949 96.51512397
Li -7.58359494 28.48513915 -19.61699368
Li 60.40512675 22.59504698 -2.47856722
Li 19.95320436 43.23752229 -26.30906410
Li 7.17156981 20.48003360 -13.43567718
Li -10.19927141 59.06767192 -22.12551617
Li -27.37014492 -9.34969754 6.93013808
Li 0.92935243 -25.23541075 0.56578656
Li 66.40747473 4.17141662 40.70620530
Li -40.06468569 0.40783086 6.67239363
Li 35.18088344 17.12647863 -10.10642434
Li 23.39291050 10.62027207 29.22620596
Li -46.46160334 -69.50113780 -13.65113717
Li 49.91122890 21.67536461 -20.15427931
Li 26.68659290 0.15192407 58.75969138
Li -4.28322190 -39.39483442 -32.01864927
Li -2.62486403 -20.83582730 38.21629844
Li 24.82737086 -10.84028145 -50.12603790
Li -10.53731758 -16.62215549 -12.81497168
Li 40.95788544 14.44752742 -4.55799553
Li -12.49558579 30.64120179 11.06107567
Li -6.79677068 46.33644214 35.74794147
Li -12.83642794 34.61778043 -51.64206290
Li 36.00659139 21.75811880 24.87546302
Li 87.43455530 -48.46536446 21.38210502
Li -66.51344265 -41.33648791 -10.97893687
Li 26.15899405 11.99361561 -21.53652770
