120
Lattice="13.98529913 0.00000000 0.00000000 0.00000000 13.98529913 0.00000000 0.00000000 0.00000000 13.98529913" Properties=species:S:1:pos:R:3 pbc="T T T" t_ps=43.0
P 0.82553514 10.35626135 -14.63692815
S -0.88103813 10.86141151 -15.66550446
S 0.76772588 8.41197208 -14.11512887
S 0.82901840 11.70825761 -13.08090796
S 2.67883524 10.68611544 -15.62404515
P 17.75085505 22.57839632 -10.68269146
S 15.76102356 23.10829443 -10.21359871
S 18.56472684 23.57762532 -12.37290272
S 17.93457007 20.56575781 -10.74101371
S 18.73508934 23.26069074 -8.98351782
P -9.91946319 15.00697979 13.48139077
S -8.94521979 14.07898405 11.81724659
S -9.68447992 13.89417542 15.22935450
S -11.87187776 15.07133633 12.89006610
S -9.04934259 16.93479664 13.79681400
P 0.30979648 2.80219483 4.09799710
S 0.91507457 1.38037819 2.63454649
S 0.33276085 4.65183931 3.16483961
S 1.50507466 2.69238769 5.77840676
S -1.65025221 2.21971639 4.36702141
P 20.45791840 25.17441325 9.15253662
S 19.16946113 26.58817188 8.53903523
S 19.84046381 24.32324191 10.95208312
S 22.47306469 25.50759763 9.57952794
S 20.26052392 23.73546607 7.74752410
P 5.54407530 15.22722439 19.43777086
S 5.45372286 16.56633506 17.91710169
S 7.49759229 14.65384938 19.96977929
S 4.40388753 13.66728589 19.01034037
S 4.87392989 16.10353490 21.09864507
P -15.78446542 3.80167162 -4.93324765
S -15.58861310 5.01469966 -6.49804701
S -16.77302636 2.08929114 -5.52764374
S -16.65652666 4.73019101 -3.39389095
S -13.77620243 3.04996662 -4.49483959
P -4.34968041 -6.62186400 -14.71349436
S -5.56435152 -5.76464364 -13.29825046
S -5.39320387 -8.21978228 -15.48648741
S -2.69984284 -7.35503026 -13.88637675
S -3.95611462 -5.44441825 -16.35100436
P 11.50202353 29.35078785 13.45331279
S 12.82215667 28.88919304 11.91738696
S 11.44305154 27.92623322 14.92669663
S 9.65112850 29.77976926 12.82566735
S 12.36833453 31.15669975 14.24378174
P 28.77602923 -1.80631094 22.04712992
S 29.47773850 -3.75257496 22.52096924
S 26.84457785 -1.68368997 22.54402085
S 28.99426880 -1.61887746 19.97609256
S 29.77455638 -0.29753051 22.91303131
P 10.39804254 -2.95667532 32.02846073
S 8.46354349 -2.59578358 31.29787895
S 11.11968907 -0.98448777 32.41924491
S 11.50910292 -3.88709676 30.65244911
S 10.64965033 -3.97375190 33.82834482
P -5.04105759 -8.32193558 4.09520725
S -5.65998955 -9.39716629 2.40490548
S -5.36136870 -9.56424231 5.80974390
S -6.09675855 -6.57588050 4.64439520
S -3.04345998 -7.89201324 3.86492564
Cl 22.29439340 -2.22247273 -0.60510449
Cl 1.75125629 -21.54492760 6.66001889
Cl 6.75361833 34.03784782 -4.44800775
Cl -12.69135822 18.50919020 13.00983586
Cl 18.18920026 -24.27723490 24.17249231
Cl 21.53582756 -11.79897522 9.98040745
Cl 18.98280473 6.62365957 13.36777316
Cl -10.56059737 -6.58780092 -32.37963796
Cl 41.54177528 -6.14955264 -3.76143169
Cl -4.07909901 7.74287741 22.24128919
Cl 19.32110794 -8.18648340 -7.27822456
Cl 22.08729943 14.79295407 58.18163874
Li -19.35986269 41.51389566 -37.88424717
Li 36.25790738 -31.74677345 39.46006385
Li -38.45432983 50.49753119 55.77056674
Li -15.62121355 -5.91210519 -15.55547162
Li -0.82314488 -29.07218354 -126.20879297
Li 44.50808847 13.09040127 25.46733411
Li 4.78122421 6.03183641 -30.93730345
Li -49.78601022 68.01811119 54.73212688
Li 24.27587907 7.80924503 16.35975043
Li 2.29954218 38.17251317 6.04095224
Li 1.06975715 7.28454464 -5.25654966
Li 47.73987995 72.48654923 -58.33789075
Li -8.43332461 34.82760353 4.88341397
Li -1.96705343 -10.00434711 16.74096208
Li 9.01033295 -59.81545291 -48.15093544
Li -28.19951919 24.25100171 52.16294398
Li -7.23518982 65.64245078 3.50748692
Li -3.43066886 21.44235832 89.79608091
Li 97.30589885 45.49947961 11.92663675
Li 47.21885762 25.75472930 6.40781472
Li 0.10844849 37.60221922 2.06455542
Li 17.38641163 -23.10922892 97.73327254
Li -7.36815883 28.62619424 -19.85747105
Li 59.38100359 23.78430756 -3.71811538
Li 20.00045713 43.71677859 -26.22850475
Li 7.11759429 20.18598588 -12.94889517
Li -9.89946939 60.09641525 -22.45093360
Li -27.35193004 -9.53211439 7.34305888
Li 0.68337390 -25.45553749 0.49417374
Li 65.96439382 4.49167448 41.86724004
Li -39.44101268 0.32110337 6.48427951
Li 35.94134977 16.71486984 -9.85311061
Li 23.48703980 10.65107102 28.93585989
Li -46.76397788 -70.11276012 -13.58923399
Li 49.67441857 20.25024482 -21.14545964
Li 26.69500581 0.20287653 58.93364058
Li -4.12488998 -39.67412452 -31.39876123
Li -2.15263554 -21.41429292 37.04128921
Li 25.21572673 -10.80519534 -49.84310741
Li -10.82726021 -16.38883986 -13.06368675
Li 41.43518574 14.73092964 -5.01237301
Li -11.80802733 31.10757772 11.28493972
Li -8.00729052 45.60875098 36.88222864
Li -12.63952001 34.58317585 -51.72306557
Li 37.02219954 20.95562705 24.20558951
Li 89.21796465 -48.43635794 22.42232930
Li -66.55693853 -41.18738808 -10.88111416
Li 26.67748660 11.78833989 -21.77173881
