120
Lattice="13.98529913 0.00000000 0.00000000 0.00000000 13.98529913 0.00000000 0.00000000 0.00000000 13.98529913" Properties=species:S:1:pos:R:3 pbc="T T T" t_ps=38.0
P 1.09889925 10.43928008 -14.82560454
S -0.49497211 10.68976748 -15.97493403
S 1.07124094 8.46475152 -14.17770004
S 0.89539792 11.68465352 -13.13794614
S 2.89235547 11.04099675 -15.70223365
P 17.60381333 22.75894131 -10.36134703
S 15.60179391 23.00125820 -10.05839741
S 18.58228061 23.84303601 -11.76460203
S 17.71883641 20.74854486 -10.87824057
S 18.58627236 23.17959764 -8.51455972
P -9.81971025 14.91835916 13.54866825
S -8.94330281 14.38497581 11.80083328
S -9.28099234 13.65627763 15.10354585
S -11.92784369 14.81193209 13.19637377
S -9.28147880 16.77676089 14.17113714
P 0.38419982 2.65080624 4.10994991
S 0.72857310 1.16378682 2.76206357
S 0.83187434 4.39162872 3.22976977
S 1.34978991 2.30163821 5.87034748
S -1.61053085 2.57989496 4.45560564
P 20.82453542 25.10291849 9.25564558
S 19.18737137 26.23608231 8.90357986
S 20.41352264 23.99677697 10.98976393
S 22.50461995 26.21912032 9.36151003
S 21.04059273 23.76606063 7.67006847
P 5.31387070 14.72717524 19.57292934
S 4.95860465 16.25006368 18.15621967
S 7.29811652 14.38383576 19.78962862
S 4.24239606 13.11298999 18.94650863
S 4.55237548 15.31993646 21.35887965
P -15.58251873 3.84197683 -4.78416680
S -15.47709478 4.98046874 -6.42736521
S -16.41444725 2.04679612 -5.21462770
S -16.53071998 4.81202866 -3.26995725
S -13.59077043 3.71226616 -4.28393540
P -4.32960543 -6.67369947 -15.00406269
S -5.48771022 -5.59919714 -13.63541786
S -5.47793647 -8.24646530 -15.36166114
S -2.50010443 -7.31482859 -14.28396526
S -3.77338737 -5.51174825 -16.63832711
P 11.64527738 29.49688151 13.44348875
S 13.01741515 28.95304051 12.05170128
S 11.53496487 27.84882685 14.75010384
S 9.76235379 29.89372714 12.66252007
S 12.31805545 31.19519937 14.50280558
P 28.66538189 -2.00239319 22.07222861
S 29.80011763 -3.74634861 22.47161604
S 26.57343971 -2.13464335 22.63083885
S 28.70352508 -1.91932674 19.97825755
S 29.62547121 -0.33998581 22.85695179
P 10.31708417 -2.93037257 31.78298494
S 8.33749718 -2.91100121 31.18862084
S 10.90916515 -0.97356701 32.16189868
S 11.45494287 -3.95720397 30.32966342
S 10.66854422 -3.95233642 33.54768978
P -5.39702259 -8.29443624 4.13794710
S -6.65605307 -8.97812995 2.70775158
S -5.26890883 -9.72798218 5.69568168
S -6.22880934 -6.54569611 5.02213195
S -3.46435078 -7.84319942 3.55816441
Cl 22.39342352 -1.82576259 -0.71936595
Cl 1.77216443 -21.23526243 6.98547403
Cl 6.66377689 34.11372816 -4.79239045
Cl -12.64560281 18.97864487 13.12548464
Cl 18.29345209 -23.93857805 24.63174711
Cl 21.46768922 -11.66713299 9.60550775
Cl 18.82979235 6.47011361 13.36488230
Cl -10.31554165 -6.39140651 -32.22173159
Cl 41.39120617 -6.13017213 -3.79844374
Cl -4.05845698 7.66868897 21.81095185
Cl 19.03951340 -8.89572284 -7.76316352
Cl 22.23966521 15.19078238 58.41180990
Li -19.57506430 41.35236166 -37.97416326
Li 36.77507769 -31.29784236 39.37372781
Li -38.79902938 49.83655039 56.54534620
Li -15.54199667 -5.51990800 -15.55902576
Li -0.90423302 -29.22142400 -126.61101044
Li 44.72489326 13.40106888 24.97300623
Li 5.28222385 6.41876839 -30.96851133
Li -49.55293724 68.36228742 54.17875952
Li 24.49068361 7.74341673 15.77888034
Li 2.17708509 38.13816529 5.96087213
Li 1.28257181 7.70993497 -5.01850213
Li 47.89051179 72.47347086 -58.46417733
Li -8.43681182 34.05201431 4.25324832
Li -1.95868254 -9.60418362 16.99803120
Li 9.20405898 -59.43755411 -48.46595766
Li -28.07527019 24.12003304 51.80801733
Li -7.42048703 65.35157007 3.91701942
Li -3.74307672 21.71914821 89.41752106
Li 97.52082335 47.57227205 11.20878425
Li 47.32079045 25.86633273 6.66347485
Li -0.05067488 37.79927106 2.29646352
Li 17.44871001 -23.38445816 96.51577741
Li -7.12929401 28.20207693 -19.74627288
Li 59.86907999 23.84717400 -3.71327657
Li 19.98821098 43.65627845 -26.11656353
Li 6.99905491 20.43619237 -13.63389791
Li -10.30658182 59.10125988 -22.11295633
Li -27.29399482 -9.73345483 7.27515136
Li 0.84558183 -24.81141011 1.14613729
Li 66.18788554 4.57043986 41.50576425
Li -39.38874832 0.01675872 6.58561256
Li 35.60998574 16.81032125 -9.97558785
Li 23.12908543 10.62547920 29.13076522
Li -46.74961300 -69.92332021 -13.69243142
Li 49.61663560 20.03329867 -20.73168453
Li 26.35786335 0.92146417 58.52557534
Li -4.03521662 -39.34137827 -31.58030611
Li -2.61485570 -21.16240079 37.47239449
Li 25.29635639 -10.63453885 -49.63382591
Li -10.62747145 -16.28988720 -13.10971202
Li 41.26876483 14.30625654 -4.24219336
Li -13.27837318 30.72202057 12.14053214
Li -8.36100801 45.54311835 36.41882378
Li -12.40459032 34.54991203 -51.31576817
Li 36.16217421 22.17713325 23.78048169
Li 87.96365151 -48.73984758 21.10662760
Li -66.47977722 -41.45782639 -10.98204042
Li 26.30111602 12.19345829 -21.79148279
