120
Lattice="13.99099511 0.00000000 0.00000000 0.00000000 13.99099511 0.00000000 0.00000000 0.00000000 13.99099511" Properties=species:S:1:pos:R:3 pbc="T T T" t_ps=16.0
P 1.30117527 10.57763656 -14.63307215
S -0.19681066 11.12930416 -16.03056141
S 1.02615508 8.61261347 -13.98516230
S 0.93281554 11.82811215 -13.03181707
S 3.19617146 10.85782779 -15.42657965
P 17.38937124 22.79595710 -10.36369008
S 15.46228579 23.27613774 -10.01762940
S 18.40059196 23.87083687 -11.88707672
S 17.52053848 20.81568570 -10.90056558
S 18.55991695 23.25571808 -8.66050833
P -9.82920111 14.87470447 13.25280626
S -9.03958918 13.98843095 11.54148861
S -9.32418823 13.83373036 15.08664798
S -11.84249896 14.84905748 12.97470066
S -8.96750088 16.63962424 13.78137058
P 0.16592919 2.57514119 3.89494598
S 0.75219918 1.19457995 2.43298853
S 0.41353439 4.40695107 2.92394392
S 1.44042075 2.46860106 5.47382869
S -1.86527601 2.28950532 4.12851496
P 20.59252080 24.90594449 9.21919140
S 19.30636940 26.40616026 8.67478747
S 20.08085883 24.08199640 10.98193640
S 22.41908204 25.69421174 9.44784869
S 20.44408075 23.54105392 7.68094252
P 5.36720405 14.84325076 19.71397266
S 5.25177215 16.13650581 18.01996795
S 7.40109411 14.66752838 20.05517306
S 4.32800194 13.15638693 19.08106210
S 4.31055310 15.77802192 21.20609776
P -15.41486625 3.91162954 -5.02771695
S -15.29051072 5.24860444 -6.67951518
S -16.38562764 2.16103410 -5.72662585
S -16.56705143 4.80352665 -3.52768252
S -13.49982786 3.59855708 -4.44098570
P -4.14676691 -6.58991499 -14.74869637
S -5.27837711 -5.59200337 -13.38039020
S -5.26777071 -8.33805088 -15.24184053
S -2.27890713 -7.07454281 -13.93454959
S -3.77433198 -5.43576343 -16.36291432
P 11.48452876 29.36104791 13.18886534
S 12.89388395 29.12869526 11.75486867
S 11.42373111 27.69161546 14.49091824
S 9.62650171 29.49422691 12.35442843
S 11.85379078 31.06542117 14.25250041
P 28.69682241 -1.77028109 22.13605158
S 29.79774658 -3.50044548 22.47765825
S 26.73428875 -2.01589958 22.71041721
S 28.77660125 -1.46729496 20.04193533
S 29.39288284 -0.11889792 23.08451072
P 10.66249579 -2.90080519 31.98608127
S 8.60842438 -2.70280610 31.65475154
S 11.44355421 -1.04792726 32.26218607
S 11.54880107 -3.75870843 30.33674623
S 10.92323424 -3.98386220 33.76221146
P -5.38999687 -8.33577286 4.46343643
S -6.33606949 -9.29834554 2.93965136
S -5.11297138 -9.65280452 6.08700751
S -6.48159392 -6.64981647 4.96978147
S -3.47485335 -7.78556028 4.05196400
Cl 22.04878130 -2.14156757 -0.38212907
Cl 1.65740569 -21.60536923 6.53914515
Cl 6.90859762 33.91620376 -4.54786179
Cl -12.73080244 18.62895810 13.29690846
Cl 18.10730787 -24.11678778 24.68062423
Cl 21.56405999 -11.67135465 9.58394348
Cl 18.70702500 6.84448540 13.14301671
Cl -10.81210894 -6.47917712 -32.30138137
Cl 41.76258513 -6.25203083 -3.66329199
Cl -3.95547427 7.88138542 22.23470850
Cl 18.70464167 -8.62462040 -7.31802157
Cl 22.57082420 15.07278494 57.87959911
Li -18.98076386 41.83400304 -37.93679499
Li 36.54405852 -31.57839277 39.62961095
Li -38.69926156 50.07120349 56.70075750
Li -15.15521111 -5.39310601 -15.68468137
Li -0.61776183 -28.90922493 -126.43514503
Li 44.71625978 12.83420308 24.98431770
Li 4.98305540 6.12930797 -31.15504878
Li -50.15566099 68.32054949 54.92399166
Li 24.70222182 7.76151142 16.11100369
Li 2.00810438 38.45978380 6.03341534
Li 1.06486621 6.30710934 -5.07172748
Li 47.80612275 72.18503110 -58.62436608
Li -8.76081331 34.64328541 4.73639619
Li -2.07542326 -9.48843909 16.84693534
Li 9.03536957 -59.88963763 -48.23699957
Li -28.02499326 23.89014603 51.67639410
Li -7.45092915 65.40878679 3.82715567
Li -3.40065123 21.66644363 89.87511133
Li 96.91806067 46.61144356 12.70908536
Li 47.25938980 25.43275628 6.49215113
Li 0.25100166 37.70857995 1.98735870
Li 17.78374652 -23.31562272 96.76211683
Li -6.76536862 27.72959743 -19.44749453
Li 59.49407107 23.89215738 -3.52723646
Li 20.37259321 43.28778561 -26.59816811
Li 6.92993812 20.52718340 -13.77078429
Li -9.88134114 59.43826390 -22.47996851
Li -27.10110645 -9.71984857 6.96604910
Li 0.55149000 -24.85287931 0.95138937
Li 65.75991300 3.60123363 41.53385823
Li -39.59859440 0.44218409 6.76838347
Li 35.64109956 16.80598492 -9.36096259
Li 23.54553671 10.73568769 29.36582749
Li -47.03806924 -70.14360197 -13.97269587
Li 49.21048280 20.52849432 -20.78266953
Li 26.47678631 0.79897400 58.30898182
Li -4.10641810 -39.17831170 -31.87316650
Li -2.04064208 -21.03380812 37.14722477
Li 25.18558621 -10.19843657 -49.91382613
Li -10.84205653 -16.08660696 -12.54172547
Li 40.83496386 14.46967717 -4.66236405
Li -12.91307927 30.49497782 11.66946055
Li -8.37773931 45.71058395 36.69627555
Li -12.50113864 34.27660938 -51.62814942
Li 37.00703257 20.50693457 24.03538656
Li 88.20541448 -48.15295982 21.51795442
Li -66.70542145 -41.15765709 -10.63537179
Li 26.51964170 12.08437325 -21.67309972
