666
Lattice="10.055095635733188 0.0 0.0 0.0 30.165286907199565 0.0 0.0 0.0 47.788156" Properties=species:S:1:pos:R:3 source=db/raw/wad_sese_4L_2026_09_25/s_outer_relaxed_final_coords.txt source_sha256=504e0b081aa2d05a71b55ee97c6ae0129250bd1a820e41a00c55446ee89b86c8 pbc="T T F"
P        4.66149300       2.33600800       3.10503600
P       -0.36611200       7.36358000       3.10492800
P       -0.15381200       2.34483700       8.09159000
P        4.87356200       7.37246200       8.09170400
S        5.88041700       3.48769500       4.28211100
S        0.85293400       8.51532000       4.28186200
S        3.35766900       1.17496600       4.20088900
S        8.38518100       6.20250900       4.20078600
S        3.64705100       3.56575400       1.79941200
S        8.67455300       8.59322900       1.79918200
S        8.66814300       3.52275500       6.90754900
S        3.64071900       8.55019000       6.90710200
S        5.71989200       0.97894500       1.89980100
S        0.69220300       6.00645500       1.89976600
S        0.90032700       1.03766500       6.88919800
S        5.92778700       6.06495200       6.88975000
Li       3.54918400       1.50267500       0.50011500
Li       8.57670000       6.53013300       0.50000000
Li       7.81484800       2.09662400       5.16474100
Li       2.78707600       7.12420300       5.16473300
Li       2.59844900       5.16866400       3.29565500
Li       7.62604500       0.14106900       3.29560200
Li       6.81383100      10.45238400       7.92990400
Li       1.78548500       5.42555800       7.93016200
Li       3.73542500       9.35715500       2.41796100
Li       8.76299500       4.32960100       2.41793200
Li       4.34524200       4.09971200       6.21129900
Li       9.37316700       9.12720500       6.21112500
Li       6.98179500       2.57201100       0.67776200
Li       1.95425600       7.59975900       0.67777200
Li       0.68376400       0.14648500       2.22429200
Li       5.71135500       5.17405700       2.22443400
Li       4.90721000       0.37908300       5.86215700
Li      -0.12053000       5.40705700       5.86245800
Li       1.44704700       2.61547900       5.05529600
Li       6.47450400       7.64287900       5.05552100
Cl       9.66153100       7.21527500       8.00165400
Cl       4.39140200       7.11114500       3.26705900
Cl       9.41896800       2.08364600       3.26701900
S        2.29217500       9.74547800       0.61720500
S        7.31969600       4.71803100       0.61721900
S        7.17402200       9.89571000       5.60511100
S        2.14628900       4.86827200       5.60514400
P        4.87356200       2.68259500      12.99650000
P       -0.15381200       7.71020000      12.99660500
P       -0.36611200       2.69145700      17.98326700
P        4.66149300       7.71905000      17.98316800
S        5.92781300       3.99009900      14.19843600
S        0.90029500       9.01739700      14.19900100
S        0.96032200       3.55168300       9.29272200
S        5.98770400       8.57960400       9.29261600
S        3.64072600       1.50487900      14.18111900
S        8.66815500       6.53226100      14.18063500
S        8.70860000       1.14654400       9.32327800
S        3.68066400       6.17464100       9.32351800
S        3.68065700       3.88042800      11.76470300
S        8.70858800       8.90847200      11.76490600
S        8.38516800       3.85250700      16.88739900
S        3.35766200       8.88010300      16.88733200
S        5.98767800       1.47544700      11.79557100
S        0.96035400       6.50337900      11.79547800
S        0.85296600       1.53974200      16.80633800
S        5.88039100       6.56735700      16.80607500
Li       2.75221100       2.21974300      10.28008800
Li       7.77722300       7.24780100      10.28266300
Li       9.37318400       0.92781500      14.87703300
Li       4.34517200       5.95536800      14.87696200
Li       7.89275500       5.34625200       8.31295200
Li       2.86435600       0.31772500       8.31259600
Li       1.78551500       4.62953600      13.15807100
Li       6.81378400      -0.39737900      13.15826700
Li       7.62609200       9.91393500      17.79257000
Li       2.59841900       4.88643000      17.79257700
Li       2.86432600       9.73736900      12.77563600
Li       7.89280400       4.70875200      12.77521800
Li       2.78714700       2.93087800      15.92352900
Li       7.81483000       7.95839600      15.92341700
Li       7.77720300       2.80721800      10.80549200
Li       2.75227900       7.83533700      10.80817300
Li       0.13958400       0.96698600      11.51939700
Li       5.16658500       5.99259300      11.52096400
Li       6.47453200       2.41216400      16.03270700
Li       1.44701100       7.43951300      16.03291300
Li      -0.12049400       4.64793500      15.22575000
Li       4.90718200       9.67596000      15.22607100
Li       5.16655600       4.06245100       9.56726400
Li       0.13962000       9.08800700       9.56881100
Cl       9.41896800       7.97138000      17.82117100
Cl       4.63278700       2.18843600       8.00286400
Cl       4.63278700       7.86662300      13.08534200
Cl       9.66153100       2.83975000      13.08653500
S        2.10769900      10.05507800      10.54411200
S        7.13484200       5.02751300      10.54409100
S        7.17402200      10.21441200      15.48307200
S        2.14628900       5.18678900      15.48307900
S        0.69217200       4.04860600      19.18843400
S        5.71991800       9.07610600      19.18838600
S        8.67456500       1.46178700      19.28900200
S        3.64705700       6.48931500      19.28880900
Li       1.95418800       2.45532100      20.41048900
Li       6.98181500       7.48300800      20.41039400
Li       8.76294600       5.72540300      18.67023800
Li       3.73545500       0.69793900      18.67027100
Li       8.57668000       3.52488600      20.58815600
Li       3.54925200       8.55240500      20.58814700
Li       5.71132600       4.88098700      18.86379400
Li       0.68380000       9.90850800      18.86391600
Cl       4.39140200       2.94391400      17.82114700
S        2.29217500      10.36467800      20.47101800
S        7.31969600       5.33699500      20.47096400
P        4.66149300      12.39110364       3.10503600
P       -0.36611200      17.41867564       3.10492800
P       -0.15381200      12.39993264       8.09159000
P        4.87356200      17.42755764       8.09170400
S        5.88041700      13.54279064       4.28211100
S        0.85293400      18.57041564       4.28186200
S        3.35766900      11.23006164       4.20088900
S        8.38518100      16.25760464       4.20078600
S        3.64705100      13.62084964       1.79941200
S        8.67455300      18.64832464       1.79918200
S        8.66814300      13.57785064       6.90754900
S        3.64071900      18.60528564       6.90710200
S        5.71989200      11.03404064       1.89980100
S        0.69220300      16.06155064       1.89976600
S        0.90032700      11.09276064       6.88919800
S        5.92778700      16.12004764       6.88975000
Li       3.54918400      11.55777064       0.50011500
Li       8.57670000      16.58522864       0.50000000
Li       7.81484800      12.15171964       5.16474100
Li       2.78707600      17.17929864       5.16473300
Li       2.59844900      15.22375964       3.29565500
Li       7.62604500      10.19616464       3.29560200
Li       6.81383100      20.50747964       7.92990400
Li       1.78548500      15.48065364       7.93016200
Li       3.73542500      19.41225064       2.41796100
Li       8.76299500      14.38469664       2.41793200
Li       4.34524200      14.15480764       6.21129900
Li       9.37316700      19.18230064       6.21112500
Li       6.98179500      12.62710664       0.67776200
Li       1.95425600      17.65485464       0.67777200
Li       0.68376400      10.20158064       2.22429200
Li       5.71135500      15.22915264       2.22443400
Li       4.90721000      10.43417864       5.86215700
Li      -0.12053000      15.46215264       5.86245800
Li       1.44704700      12.67057464       5.05529600
Li       6.47450400      17.69797464       5.05552100
Cl       9.66153100      17.27037064       8.00165400
Cl       4.39140200      17.16624064       3.26705900
Cl       9.41896800      12.13874164       3.26701900
S        2.29217500      19.80057364       0.61720500
S        7.31969600      14.77312664       0.61721900
S        7.17402200      19.95080564       5.60511100
S        2.14628900      14.92336764       5.60514400
P        4.87356200      12.73769064      12.99650000
P       -0.15381200      17.76529564      12.99660500
P       -0.36611200      12.74655264      17.98326700
P        4.66149300      17.77414564      17.98316800
S        5.92781300      14.04519464      14.19843600
S        0.90029500      19.07249264      14.19900100
S        0.96032200      13.60677864       9.29272200
S        5.98770400      18.63469964       9.29261600
S        3.64072600      11.55997464      14.18111900
S        8.66815500      16.58735664      14.18063500
S        8.70860000      11.20163964       9.32327800
S        3.68066400      16.22973664       9.32351800
S        3.68065700      13.93552364      11.76470300
S        8.70858800      18.96356764      11.76490600
S        8.38516800      13.90760264      16.88739900
S        3.35766200      18.93519864      16.88733200
S        5.98767800      11.53054264      11.79557100
S        0.96035400      16.55847464      11.79547800
S        0.85296600      11.59483764      16.80633800
S        5.88039100      16.62245264      16.80607500
Li       2.75221100      12.27483864      10.28008800
Li       7.77722300      17.30289664      10.28266300
Li       9.37318400      10.98291064      14.87703300
Li       4.34517200      16.01046364      14.87696200
Li       7.89275500      15.40134764       8.31295200
Li       2.86435600      10.37282064       8.31259600
Li       1.78551500      14.68463164      13.15807100
Li       6.81378400       9.65771664      13.15826700
Li       7.62609200      19.96903064      17.79257000
Li       2.59841900      14.94152564      17.79257700
Li       2.86432600      19.79246464      12.77563600
Li       7.89280400      14.76384764      12.77521800
Li       2.78714700      12.98597364      15.92352900
Li       7.81483000      18.01349164      15.92341700
Li       7.77720300      12.86231364      10.80549200
Li       2.75227900      17.89043264      10.80817300
Li       0.13958400      11.02208164      11.51939700
Li       5.16658500      16.04768864      11.52096400
Li       6.47453200      12.46725964      16.03270700
Li       1.44701100      17.49460864      16.03291300
Li      -0.12049400      14.70303064      15.22575000
Li       4.90718200      19.73105564      15.22607100
Li       5.16655600      14.11754664       9.56726400
Li       0.13962000      19.14310264       9.56881100
Cl       9.41896800      18.02647564      17.82117100
Cl       4.63278700      12.24353164       8.00286400
Cl       4.63278700      17.92171864      13.08534200
Cl       9.66153100      12.89484564      13.08653500
S        2.10769900      20.11017364      10.54411200
S        7.13484200      15.08260864      10.54409100
S        7.17402200      20.26950764      15.48307200
S        2.14628900      15.24188464      15.48307900
S        0.69217200      14.10370164      19.18843400
S        5.71991800      19.13120164      19.18838600
S        8.67456500      11.51688264      19.28900200
S        3.64705700      16.54441064      19.28880900
Li       1.95418800      12.51041664      20.41048900
Li       6.98181500      17.53810364      20.41039400
Li       8.76294600      15.78049864      18.67023800
Li       3.73545500      10.75303464      18.67027100
Li       8.57668000      13.57998164      20.58815600
Li       3.54925200      18.60750064      20.58814700
Li       5.71132600      14.93608264      18.86379400
Li       0.68380000      19.96360364      18.86391600
Cl       4.39140200      12.99900964      17.82114700
S        2.29217500      20.41977364      20.47101800
S        7.31969600      15.39209064      20.47096400
P        4.66149300      22.44619927       3.10503600
P       -0.36611200      27.47377127       3.10492800
P       -0.15381200      22.45502827       8.09159000
P        4.87356200      27.48265327       8.09170400
S        5.88041700      23.59788627       4.28211100
S        0.85293400      28.62551127       4.28186200
S        3.35766900      21.28515727       4.20088900
S        8.38518100      26.31270027       4.20078600
S        3.64705100      23.67594527       1.79941200
S        8.67455300      28.70342027       1.79918200
S        8.66814300      23.63294627       6.90754900
S        3.64071900      28.66038127       6.90710200
S        5.71989200      21.08913627       1.89980100
S        0.69220300      26.11664627       1.89976600
S        0.90032700      21.14785627       6.88919800
S        5.92778700      26.17514327       6.88975000
Li       3.54918400      21.61286627       0.50011500
Li       8.57670000      26.64032427       0.50000000
Li       7.81484800      22.20681527       5.16474100
Li       2.78707600      27.23439427       5.16473300
Li       2.59844900      25.27885527       3.29565500
Li       7.62604500      20.25126027       3.29560200
Li       6.81383100      30.56257527       7.92990400
Li       1.78548500      25.53574927       7.93016200
Li       3.73542500      29.46734627       2.41796100
Li       8.76299500      24.43979227       2.41793200
Li       4.34524200      24.20990327       6.21129900
Li       9.37316700      29.23739627       6.21112500
Li       6.98179500      22.68220227       0.67776200
Li       1.95425600      27.70995027       0.67777200
Li       0.68376400      20.25667627       2.22429200
Li       5.71135500      25.28424827       2.22443400
Li       4.90721000      20.48927427       5.86215700
Li      -0.12053000      25.51724827       5.86245800
Li       1.44704700      22.72567027       5.05529600
Li       6.47450400      27.75307027       5.05552100
Cl       9.66153100      27.32546627       8.00165400
Cl       4.39140200      27.22133627       3.26705900
Cl       9.41896800      22.19383727       3.26701900
S        2.29217500      29.85566927       0.61720500
S        7.31969600      24.82822227       0.61721900
S        7.17402200      30.00590127       5.60511100
S        2.14628900      24.97846327       5.60514400
P        4.87356200      22.79278627      12.99650000
P       -0.15381200      27.82039127      12.99660500
P       -0.36611200      22.80164827      17.98326700
P        4.66149300      27.82924127      17.98316800
S        5.92781300      24.10029027      14.19843600
S        0.90029500      29.12758827      14.19900100
S        0.96032200      23.66187427       9.29272200
S        5.98770400      28.68979527       9.29261600
S        3.64072600      21.61507027      14.18111900
S        8.66815500      26.64245227      14.18063500
S        8.70860000      21.25673527       9.32327800
S        3.68066400      26.28483227       9.32351800
S        3.68065700      23.99061927      11.76470300
S        8.70858800      29.01866327      11.76490600
S        8.38516800      23.96269827      16.88739900
S        3.35766200      28.99029427      16.88733200
S        5.98767800      21.58563827      11.79557100
S        0.96035400      26.61357027      11.79547800
S        0.85296600      21.64993327      16.80633800
S        5.88039100      26.67754827      16.80607500
Li       2.75221100      22.32993427      10.28008800
Li       7.77722300      27.35799227      10.28266300
Li       9.37318400      21.03800627      14.87703300
Li       4.34517200      26.06555927      14.87696200
Li       7.89275500      25.45644327       8.31295200
Li       2.86435600      20.42791627       8.31259600
Li       1.78551500      24.73972727      13.15807100
Li       6.81378400      19.71281227      13.15826700
Li       7.62609200      30.02412627      17.79257000
Li       2.59841900      24.99662127      17.79257700
Li       2.86432600      29.84756027      12.77563600
Li       7.89280400      24.81894327      12.77521800
Li       2.78714700      23.04106927      15.92352900
Li       7.81483000      28.06858727      15.92341700
Li       7.77720300      22.91740927      10.80549200
Li       2.75227900      27.94552827      10.80817300
Li       0.13958400      21.07717727      11.51939700
Li       5.16658500      26.10278427      11.52096400
Li       6.47453200      22.52235527      16.03270700
Li       1.44701100      27.54970427      16.03291300
Li      -0.12049400      24.75812627      15.22575000
Li       4.90718200      29.78615127      15.22607100
Li       5.16655600      24.17264227       9.56726400
Li       0.13962000      29.19819827       9.56881100
Cl       9.41896800      28.08157127      17.82117100
Cl       4.63278700      22.29862727       8.00286400
Cl       4.63278700      27.97681427      13.08534200
Cl       9.66153100      22.94994127      13.08653500
S        2.10769900      30.16526927      10.54411200
S        7.13484200      25.13770427      10.54409100
S        7.17402200      30.32460327      15.48307200
S        2.14628900      25.29698027      15.48307900
S        0.69217200      24.15879727      19.18843400
S        5.71991800      29.18629727      19.18838600
S        8.67456500      21.57197827      19.28900200
S        3.64705700      26.59950627      19.28880900
Li       1.95418800      22.56551227      20.41048900
Li       6.98181500      27.59319927      20.41039400
Li       8.76294600      25.83559427      18.67023800
Li       3.73545500      20.80813027      18.67027100
Li       8.57668000      23.63507727      20.58815600
Li       3.54925200      28.66259627      20.58814700
Li       5.71132600      24.99117827      18.86379400
Li       0.68380000      30.01869927      18.86391600
Cl       4.39140200      23.05410527      17.82114700
S        2.29217500      30.47486927      20.47101800
S        7.31969600      25.44718627      20.47096400
C        2.29220000      10.36470000      30.58815600
C        3.54908695      11.08292112      30.58815600
C        3.54908695      12.51936335      30.58815600
C        2.29220000      13.23758447      30.58815600
C        2.29220000      14.67402670      30.58815600
C        3.54908695      15.39224782      30.58815600
C        3.54908695      16.82869005      30.58815600
C        2.29220000      17.54691117      30.58815600
C        2.29220000      18.98335340      30.58815600
C        3.54908695      19.70157452      30.58815600
C        3.54908695      21.13801675      30.58815600
C        2.29220000      21.85623787      30.58815600
C        2.29220000      23.29268010      30.58815600
C        3.54908695      24.01090122      30.58815600
C        3.54908695      25.44734345      30.58815600
C        2.29220000      26.16556457      30.58815600
C        2.29220000      27.60200680      30.58815600
C        3.54908695      28.32022792      30.58815600
C        3.54908695      29.75667015      30.58815600
C        2.29220000      30.47489127      30.58815600
C        2.29220000      31.91133351      30.58815600
C        3.54908695      32.62955462      30.58815600
C        3.54908695      34.06599686      30.58815600
C        2.29220000      34.78421797      30.58815600
C        2.29220000      36.22066021      30.58815600
C        3.54908695      36.93888132      30.58815600
C        3.54908695      38.37532356      30.58815600
C        2.29220000      39.09354467      30.58815600
C        4.80597391      10.36470000      30.58815600
C        6.06286086      11.08292112      30.58815600
C        6.06286086      12.51936335      30.58815600
C        4.80597391      13.23758447      30.58815600
C        4.80597391      14.67402670      30.58815600
C        6.06286086      15.39224782      30.58815600
C        6.06286086      16.82869005      30.58815600
C        4.80597391      17.54691117      30.58815600
C        4.80597391      18.98335340      30.58815600
C        6.06286086      19.70157452      30.58815600
C        6.06286086      21.13801675      30.58815600
C        4.80597391      21.85623787      30.58815600
C        4.80597391      23.29268010      30.58815600
C        6.06286086      24.01090122      30.58815600
C        6.06286086      25.44734345      30.58815600
C        4.80597391      26.16556457      30.58815600
C        4.80597391      27.60200680      30.58815600
C        6.06286086      28.32022792      30.58815600
C        6.06286086      29.75667015      30.58815600
C        4.80597391      30.47489127      30.58815600
C        4.80597391      31.91133351      30.58815600
C        6.06286086      32.62955462      30.58815600
C        6.06286086      34.06599686      30.58815600
C        4.80597391      34.78421797      30.58815600
C        4.80597391      36.22066021      30.58815600
C        6.06286086      36.93888132      30.58815600
C        6.06286086      38.37532356      30.58815600
C        4.80597391      39.09354467      30.58815600
C        7.31974782      10.36470000      30.58815600
C        8.57663477      11.08292112      30.58815600
C        8.57663477      12.51936335      30.58815600
C        7.31974782      13.23758447      30.58815600
C        7.31974782      14.67402670      30.58815600
C        8.57663477      15.39224782      30.58815600
C        8.57663477      16.82869005      30.58815600
C        7.31974782      17.54691117      30.58815600
C        7.31974782      18.98335340      30.58815600
C        8.57663477      19.70157452      30.58815600
C        8.57663477      21.13801675      30.58815600
C        7.31974782      21.85623787      30.58815600
C        7.31974782      23.29268010      30.58815600
C        8.57663477      24.01090122      30.58815600
C        8.57663477      25.44734345      30.58815600
C        7.31974782      26.16556457      30.58815600
C        7.31974782      27.60200680      30.58815600
C        8.57663477      28.32022792      30.58815600
C        8.57663477      29.75667015      30.58815600
C        7.31974782      30.47489127      30.58815600
C        7.31974782      31.91133351      30.58815600
C        8.57663477      32.62955462      30.58815600
C        8.57663477      34.06599686      30.58815600
C        7.31974782      34.78421797      30.58815600
C        7.31974782      36.22066021      30.58815600
C        8.57663477      36.93888132      30.58815600
C        8.57663477      38.37532356      30.58815600
C        7.31974782      39.09354467      30.58815600
C        9.83352173      10.36470000      30.58815600
C       11.09040868      11.08292112      30.58815600
C       11.09040868      12.51936335      30.58815600
C        9.83352173      13.23758447      30.58815600
C        9.83352173      14.67402670      30.58815600
C       11.09040868      15.39224782      30.58815600
C       11.09040868      16.82869005      30.58815600
C        9.83352173      17.54691117      30.58815600
C        9.83352173      18.98335340      30.58815600
C       11.09040868      19.70157452      30.58815600
C       11.09040868      21.13801675      30.58815600
C        9.83352173      21.85623787      30.58815600
C        9.83352173      23.29268010      30.58815600
C       11.09040868      24.01090122      30.58815600
C       11.09040868      25.44734345      30.58815600
C        9.83352173      26.16556457      30.58815600
C        9.83352173      27.60200680      30.58815600
C       11.09040868      28.32022792      30.58815600
C       11.09040868      29.75667015      30.58815600
C        9.83352173      30.47489127      30.58815600
C        9.83352173      31.91133351      30.58815600
C       11.09040868      32.62955462      30.58815600
C       11.09040868      34.06599686      30.58815600
C        9.83352173      34.78421797      30.58815600
C        9.83352173      36.22066021      30.58815600
C       11.09040868      36.93888132      30.58815600
C       11.09040868      38.37532356      30.58815600
C        9.83352173      39.09354467      30.58815600
C        3.54908695      11.08292112      33.93815600
C        2.29220000      11.80114223      33.93815600
C        2.29220000      13.23758447      33.93815600
C        3.54908695      13.95580558      33.93815600
C        3.54908695      15.39224782      33.93815600
C        2.29220000      16.11046893      33.93815600
C        2.29220000      17.54691117      33.93815600
C        3.54908695      18.26513229      33.93815600
C        3.54908695      19.70157452      33.93815600
C        2.29220000      20.41979564      33.93815600
C        2.29220000      21.85623787      33.93815600
C        3.54908695      22.57445899      33.93815600
C        3.54908695      24.01090122      33.93815600
C        2.29220000      24.72912234      33.93815600
C        2.29220000      26.16556457      33.93815600
C        3.54908695      26.88378569      33.93815600
C        3.54908695      28.32022792      33.93815600
C        2.29220000      29.03844904      33.93815600
C        2.29220000      30.47489127      33.93815600
C        3.54908695      31.19311239      33.93815600
C        3.54908695      32.62955462      33.93815600
C        2.29220000      33.34777574      33.93815600
C        2.29220000      34.78421797      33.93815600
C        3.54908695      35.50243909      33.93815600
C        3.54908695      36.93888132      33.93815600
C        2.29220000      37.65710244      33.93815600
C        2.29220000      39.09354467      33.93815600
C        3.54908695      39.81176579      33.93815600
C        6.06286086      11.08292112      33.93815600
C        4.80597391      11.80114223      33.93815600
C        4.80597391      13.23758447      33.93815600
C        6.06286086      13.95580558      33.93815600
C        6.06286086      15.39224782      33.93815600
C        4.80597391      16.11046893      33.93815600
C        4.80597391      17.54691117      33.93815600
C        6.06286086      18.26513229      33.93815600
C        6.06286086      19.70157452      33.93815600
C        4.80597391      20.41979564      33.93815600
C        4.80597391      21.85623787      33.93815600
C        6.06286086      22.57445899      33.93815600
C        6.06286086      24.01090122      33.93815600
C        4.80597391      24.72912234      33.93815600
C        4.80597391      26.16556457      33.93815600
C        6.06286086      26.88378569      33.93815600
C        6.06286086      28.32022792      33.93815600
C        4.80597391      29.03844904      33.93815600
C        4.80597391      30.47489127      33.93815600
C        6.06286086      31.19311239      33.93815600
C        6.06286086      32.62955462      33.93815600
C        4.80597391      33.34777574      33.93815600
C        4.80597391      34.78421797      33.93815600
C        6.06286086      35.50243909      33.93815600
C        6.06286086      36.93888132      33.93815600
C        4.80597391      37.65710244      33.93815600
C        4.80597391      39.09354467      33.93815600
C        6.06286086      39.81176579      33.93815600
C        8.57663477      11.08292112      33.93815600
C        7.31974782      11.80114223      33.93815600
C        7.31974782      13.23758447      33.93815600
C        8.57663477      13.95580558      33.93815600
C        8.57663477      15.39224782      33.93815600
C        7.31974782      16.11046893      33.93815600
C        7.31974782      17.54691117      33.93815600
C        8.57663477      18.26513229      33.93815600
C        8.57663477      19.70157452      33.93815600
C        7.31974782      20.41979564      33.93815600
C        7.31974782      21.85623787      33.93815600
C        8.57663477      22.57445899      33.93815600
C        8.57663477      24.01090122      33.93815600
C        7.31974782      24.72912234      33.93815600
C        7.31974782      26.16556457      33.93815600
C        8.57663477      26.88378569      33.93815600
C        8.57663477      28.32022792      33.93815600
C        7.31974782      29.03844904      33.93815600
C        7.31974782      30.47489127      33.93815600
C        8.57663477      31.19311239      33.93815600
C        8.57663477      32.62955462      33.93815600
C        7.31974782      33.34777574      33.93815600
C        7.31974782      34.78421797      33.93815600
C        8.57663477      35.50243909      33.93815600
C        8.57663477      36.93888132      33.93815600
C        7.31974782      37.65710244      33.93815600
C        7.31974782      39.09354467      33.93815600
C        8.57663477      39.81176579      33.93815600
C       11.09040868      11.08292112      33.93815600
C        9.83352173      11.80114223      33.93815600
C        9.83352173      13.23758447      33.93815600
C       11.09040868      13.95580558      33.93815600
C       11.09040868      15.39224782      33.93815600
C        9.83352173      16.11046893      33.93815600
C        9.83352173      17.54691117      33.93815600
C       11.09040868      18.26513229      33.93815600
C       11.09040868      19.70157452      33.93815600
C        9.83352173      20.41979564      33.93815600
C        9.83352173      21.85623787      33.93815600
C       11.09040868      22.57445899      33.93815600
C       11.09040868      24.01090122      33.93815600
C        9.83352173      24.72912234      33.93815600
C        9.83352173      26.16556457      33.93815600
C       11.09040868      26.88378569      33.93815600
C       11.09040868      28.32022792      33.93815600
C        9.83352173      29.03844904      33.93815600
C        9.83352173      30.47489127      33.93815600
C       11.09040868      31.19311239      33.93815600
C       11.09040868      32.62955462      33.93815600
C        9.83352173      33.34777574      33.93815600
C        9.83352173      34.78421797      33.93815600
C       11.09040868      35.50243909      33.93815600
C       11.09040868      36.93888132      33.93815600
C        9.83352173      37.65710244      33.93815600
C        9.83352173      39.09354467      33.93815600
C       11.09040868      39.81176579      33.93815600
C        2.29220000      10.36470000      37.28815600
C        3.54908695      11.08292112      37.28815600
C        3.54908695      12.51936335      37.28815600
C        2.29220000      13.23758447      37.28815600
C        2.29220000      14.67402670      37.28815600
C        3.54908695      15.39224782      37.28815600
C        3.54908695      16.82869005      37.28815600
C        2.29220000      17.54691117      37.28815600
C        2.29220000      18.98335340      37.28815600
C        3.54908695      19.70157452      37.28815600
C        3.54908695      21.13801675      37.28815600
C        2.29220000      21.85623787      37.28815600
C        2.29220000      23.29268010      37.28815600
C        3.54908695      24.01090122      37.28815600
C        3.54908695      25.44734345      37.28815600
C        2.29220000      26.16556457      37.28815600
C        2.29220000      27.60200680      37.28815600
C        3.54908695      28.32022792      37.28815600
C        3.54908695      29.75667015      37.28815600
C        2.29220000      30.47489127      37.28815600
C        2.29220000      31.91133351      37.28815600
C        3.54908695      32.62955462      37.28815600
C        3.54908695      34.06599686      37.28815600
C        2.29220000      34.78421797      37.28815600
C        2.29220000      36.22066021      37.28815600
C        3.54908695      36.93888132      37.28815600
C        3.54908695      38.37532356      37.28815600
C        2.29220000      39.09354467      37.28815600
C        4.80597391      10.36470000      37.28815600
C        6.06286086      11.08292112      37.28815600
C        6.06286086      12.51936335      37.28815600
C        4.80597391      13.23758447      37.28815600
C        4.80597391      14.67402670      37.28815600
C        6.06286086      15.39224782      37.28815600
C        6.06286086      16.82869005      37.28815600
C        4.80597391      17.54691117      37.28815600
C        4.80597391      18.98335340      37.28815600
C        6.06286086      19.70157452      37.28815600
C        6.06286086      21.13801675      37.28815600
C        4.80597391      21.85623787      37.28815600
C        4.80597391      23.29268010      37.28815600
C        6.06286086      24.01090122      37.28815600
C        6.06286086      25.44734345      37.28815600
C        4.80597391      26.16556457      37.28815600
C        4.80597391      27.60200680      37.28815600
C        6.06286086      28.32022792      37.28815600
C        6.06286086      29.75667015      37.28815600
C        4.80597391      30.47489127      37.28815600
C        4.80597391      31.91133351      37.28815600
C        6.06286086      32.62955462      37.28815600
C        6.06286086      34.06599686      37.28815600
C        4.80597391      34.78421797      37.28815600
C        4.80597391      36.22066021      37.28815600
C        6.06286086      36.93888132      37.28815600
C        6.06286086      38.37532356      37.28815600
C        4.80597391      39.09354467      37.28815600
C        7.31974782      10.36470000      37.28815600
C        8.57663477      11.08292112      37.28815600
C        8.57663477      12.51936335      37.28815600
C        7.31974782      13.23758447      37.28815600
C        7.31974782      14.67402670      37.28815600
C        8.57663477      15.39224782      37.28815600
C        8.57663477      16.82869005      37.28815600
C        7.31974782      17.54691117      37.28815600
C        7.31974782      18.98335340      37.28815600
C        8.57663477      19.70157452      37.28815600
C        8.57663477      21.13801675      37.28815600
C        7.31974782      21.85623787      37.28815600
C        7.31974782      23.29268010      37.28815600
C        8.57663477      24.01090122      37.28815600
C        8.57663477      25.44734345      37.28815600
C        7.31974782      26.16556457      37.28815600
C        7.31974782      27.60200680      37.28815600
C        8.57663477      28.32022792      37.28815600
C        8.57663477      29.75667015      37.28815600
C        7.31974782      30.47489127      37.28815600
C        7.31974782      31.91133351      37.28815600
C        8.57663477      32.62955462      37.28815600
C        8.57663477      34.06599686      37.28815600
C        7.31974782      34.78421797      37.28815600
C        7.31974782      36.22066021      37.28815600
C        8.57663477      36.93888132      37.28815600
C        8.57663477      38.37532356      37.28815600
C        7.31974782      39.09354467      37.28815600
C        9.83352173      10.36470000      37.28815600
C       11.09040868      11.08292112      37.28815600
C       11.09040868      12.51936335      37.28815600
C        9.83352173      13.23758447      37.28815600
C        9.83352173      14.67402670      37.28815600
C       11.09040868      15.39224782      37.28815600
C       11.09040868      16.82869005      37.28815600
C        9.83352173      17.54691117      37.28815600
C        9.83352173      18.98335340      37.28815600
C       11.09040868      19.70157452      37.28815600
C       11.09040868      21.13801675      37.28815600
C        9.83352173      21.85623787      37.28815600
C        9.83352173      23.29268010      37.28815600
C       11.09040868      24.01090122      37.28815600
C       11.09040868      25.44734345      37.28815600
C        9.83352173      26.16556457      37.28815600
C        9.83352173      27.60200680      37.28815600
C       11.09040868      28.32022792      37.28815600
C       11.09040868      29.75667015      37.28815600
C        9.83352173      30.47489127      37.28815600
C        9.83352173      31.91133351      37.28815600
C       11.09040868      32.62955462      37.28815600
C       11.09040868      34.06599686      37.28815600
C        9.83352173      34.78421797      37.28815600
C        9.83352173      36.22066021      37.28815600
C       11.09040868      36.93888132      37.28815600
C       11.09040868      38.37532356      37.28815600
C        9.83352173      39.09354467      37.28815600
