103
Lattice="20.110191271466377 0.0 0.0 0.0 10.055095635733188 0.0 0.0 0.0 10.055095635733188" Properties=species:S:1:pos:R:3:spacegroup_kinds:I:1:forces:R:3 spacegroup="P 1" unit_cell=conventional occupancy="_JSON {\"0\": {\"P\": 1.0}, \"1\": {\"P\": 1.0}, \"2\": {\"P\": 1.0}, \"3\": {\"P\": 1.0}, \"4\": {\"S\": 1.0}, \"5\": {\"S\": 1.0}, \"6\": {\"S\": 1.0}, \"7\": {\"S\": 1.0}, \"8\": {\"S\": 1.0}, \"9\": {\"S\": 1.0}, \"10\": {\"S\": 1.0}, \"11\": {\"S\": 1.0}, \"12\": {\"S\": 1.0}, \"13\": {\"S\": 1.0}, \"14\": {\"S\": 1.0}, \"15\": {\"S\": 1.0}, \"16\": {\"S\": 1.0}, \"17\": {\"S\": 1.0}, \"18\": {\"S\": 1.0}, \"19\": {\"S\": 1.0}, \"20\": {\"Li\": 1.0}, \"21\": {\"Li\": 1.0}, \"22\": {\"Li\": 1.0}, \"23\": {\"Li\": 1.0}, \"24\": {\"Li\": 1.0}, \"25\": {\"Li\": 1.0}, \"26\": {\"Li\": 1.0}, \"27\": {\"Li\": 1.0}, \"28\": {\"Li\": 1.0}, \"29\": {\"Li\": 1.0}, \"30\": {\"Li\": 1.0}, \"31\": {\"Li\": 1.0}, \"32\": {\"Li\": 1.0}, \"33\": {\"Li\": 1.0}, \"34\": {\"Li\": 1.0}, \"35\": {\"Li\": 1.0}, \"36\": {\"Li\": 1.0}, \"37\": {\"Li\": 1.0}, \"38\": {\"Li\": 1.0}, \"39\": {\"Li\": 1.0}, \"40\": {\"Li\": 1.0}, \"41\": {\"Li\": 1.0}, \"42\": {\"Li\": 1.0}, \"43\": {\"Li\": 1.0}, \"44\": {\"Cl\": 1.0}, \"45\": {\"Cl\": 1.0}, \"46\": {\"Cl\": 1.0}, \"47\": {\"Cl\": 1.0}, \"48\": {\"S\": 1.0}, \"49\": {\"S\": 1.0}, \"50\": {\"S\": 1.0}, \"51\": {\"S\": 1.0}}" charge=0 spin=0 energy=-429.6512128929984 free_energy=-429.6512128929984 stress="-0.0008267859282918914 -0.00013337770879601272 -0.0005385995900996456 -0.00013337770879601272 0.0026492898211900894 -0.0012467963302720073 -0.0005385995900996456 -0.0012467963302720073 0.0018582043676448603" pbc="T T T"
P        4.83951031       4.94935532       5.09955920        0      -0.00109372       0.00575925      -0.00668667
P       -0.12115234      10.02255629       5.01976357        1       0.01212461      -0.01002515      -0.01333224
P       -0.17217556       5.00523811      10.10859259        2       0.01263579       0.01655605       0.01691505
P        4.80393753      -0.04216031      10.11478192        3       0.00014910      -0.00214885       0.00572618
S        6.07153114       5.98125151       6.38576101        4       0.00087245       0.00017332       0.00183638
S        1.06187497       1.20762350       6.16258936        5       0.00033980       0.00353500       0.00307877
S        0.92221179       6.20947786       1.26367252        6      -0.01328147      -0.01055120      -0.00848395
S        6.03786440       0.95556399       1.34381206        7       0.00237315       0.00085420       0.00054376
S        3.61352861       3.77426929       6.27974260        8      -0.00095693      -0.00276420      -0.00143948
S        8.64471643       8.80462360       6.19732879        9      -0.00028702       0.00179444       0.00113785
S        8.52485732       3.82238776       1.11311363       10       0.00085225      -0.00017829       0.00056902
S        3.50627332       8.83467071       1.14112772       11       0.00469808       0.00237682      -0.00090449
S        3.71320770       6.29566850       3.99853816       12       0.00676020      -0.00101910      -0.00009953
S        8.66902007       0.97933005       3.67352649       13       0.00019801       0.00124274       0.00252627
S        8.80311043       6.08792085       8.63464858       14       0.00201327       0.00020751       0.00205012
S        3.76679765       1.31768106       8.95312827       15      -0.00046989       0.00372978       0.00025203
S        5.85351323       3.79326885       3.77558515       16       0.00267586      -0.00027977      -0.00067061
S        1.02966090       8.81254140       3.87214022       17      -0.00990214       0.01204925       0.00705320
S        0.99165992       3.73071925       8.98281820       18       0.00219902      -0.00028011      -0.00378867
S        5.81766080       8.78005875       8.81776581       19      -0.00066645       0.00129440      -0.00196594
Li       8.09087001       9.49164868       1.76598447       21       0.00103575       0.00039215       0.00161439
Li       8.09769280       4.46845753       6.72323843       22      -0.00276370       0.00190195       0.00413462
Li       2.08445267       9.93631856       7.90353157       23       0.00299984       0.00013558       0.00269060
Li       6.97867715       6.99459762       0.06213247       24       0.00377897      -0.00028547       0.00270649
Li       2.98213879       3.17048070       0.46506828       25      -0.00384445      -0.00189620       0.00114192
Li       2.96387660       8.17861579       5.45488629       26       0.00205259       0.00287559      -0.00781740
Li       6.81164507       1.92267511       5.06619333       27      -0.00015780       0.00254432       0.00137236
Li       7.34661885       2.21566267       9.75129366       28       0.00050777      -0.00003835       0.00075161
Li       3.86793853       7.29724009       9.24144528       29      -0.00011765       0.00195869      -0.00101330
Li       3.08683616       1.95063930       4.66020507       30      -0.00459734       0.00374851      -0.00118581
Li       7.10460080       7.51873326       4.77642670       31       0.00162739       0.00043194       0.00184534
Li       2.35207262       5.28466834       7.67524464       32       0.00437215      -0.00385198      -0.01034479
Li       8.97841779       0.79535688       7.66216766       33      -0.00095467       0.00206330       0.00060138
Li       8.77870941       5.82686437       2.70995998       34       0.00035741       0.00087455      -0.00043835
Li       1.98298494       0.31846413       2.22663823       35      -0.00401766       0.00229679      -0.00148469
Li       1.97860844       4.82793029       3.08366040       36      -0.00121218       0.00289601      -0.00033724
Li       5.30626349       9.04495992       2.84391737       37       0.00248903       0.00186466       0.00203673
Li       5.44782756       3.92870386       7.91532188       38       0.00032238       0.00192670       0.00118328
Li       0.58476072       7.82842474       9.49569937       39       0.01820406      -0.02335626      -0.00123704
Li       0.10054343       6.95878977       6.62328223       40       0.00679171      -0.00095983      -0.00079278
Li       5.51951744       0.64564719       7.29289129       41       0.00120706       0.00027605      -0.00057154
Li       5.39534717       5.69288342       2.25201347       42       0.00543620       0.00289983       0.00138721
Li      -0.04915844       2.58786893       2.58431926       43      -0.00543376       0.00488599      -0.00198507
Cl       9.59299622      10.10496867       9.92789389       44       0.00147628      -0.00118994       0.00018041
Cl       4.73181291       5.13026275      -0.09469066       45       0.00274873       0.00301116      -0.00082206
Cl       4.76745018       0.02955171       5.04332771       46       0.00160475       0.00160660       0.00114883
Cl       9.74072094       5.01176844       4.86573264       47       0.00099108       0.00126120      -0.00013300
S        2.21255012       2.57793817       2.57925492       48      -0.00344367       0.00297854      -0.00034418
S        7.05935588       7.43334618       2.41366235       49       0.00379453       0.00066412       0.00172674
S        7.19785756       2.35353026       7.40665942       50      -0.00015695       0.00194555       0.00122177
S        2.14119401       7.61124346       7.64746125       51       0.00549689      -0.00374167      -0.00638413
P       14.94981810       5.12288727       5.01408716        0      -0.00294533      -0.00431392      -0.00220581
P        9.84963648       9.87197824       4.91252928        1      -0.00470783       0.00358696       0.00316207
P        9.82652021       4.91121045      10.00380961        2      -0.00196232      -0.00075896       0.00125360
P       14.91050351       0.10134479      10.01391759        3      -0.00400864       0.00179190       0.00128808
S       15.95559321       6.37926205       6.26605365        4      -0.00009945       0.00298112       0.00039856
S       10.93612525       1.15220872       6.08602439        5       0.00035717      -0.00010496       0.00119754
S       10.78730562       6.22495474       1.20474662        6       0.00344028      -0.00263350       0.00041535
S       16.06534743       1.15410666       1.25731175        7      -0.00338231      -0.00098257      -0.00167150
S       13.77179666       3.87094991       6.16415033        8       0.00336106      -0.00350826       0.00078403
S       18.77090528       8.86832026       6.22830922        9      -0.00086931      -0.00273585       0.00359501
S       18.60652307       3.94756204       1.23117803       10      -0.00534002      -0.00078730      -0.00193432
S       13.59246754       8.89342164       0.93531450       11      -0.00159317      -0.00128683      -0.00147669
S       13.76657949       6.26135505       3.73903059       12      -0.00183507      -0.00413107       0.00189953
S       18.69529759       1.10392279       3.86352862       13      -0.00529642       0.00348298       0.00163579
S       18.85505297       6.21143501       8.80611259       14      -0.00277285       0.00488701      -0.00348960
S       13.76622721       1.41628479       8.90095550       15      -0.00313182      -0.00163623      -0.00044714
S       16.15175259       3.97763726       3.81190638       16       0.00054022       0.00070017       0.00022320
S       11.01421990       8.62294019       3.82351910       17      -0.00133772      -0.00044538      -0.00200712
S       11.07611125       3.61926093       9.03281524       18      -0.00056817      -0.00304478      -0.00125017
S       15.97159791       8.94473725       8.72861198       19      -0.00147213      -0.00067557      -0.00326572
Li      11.90914658       4.86681296       2.97892194       20      -0.00036618      -0.00336113       0.00039674
Li      17.97049113       9.68854069       2.04873129       21      -0.00385402       0.00082606       0.00269570
Li      17.76383346       4.88628632       6.94849810       22      -0.01057614       0.00235990       0.00720760
Li      12.39443632       9.89915415       7.63679656       23       0.00383668      -0.00537302       0.00041202
Li      17.59639387       7.77274771       0.14322151       24      -0.00197982       0.00911622      -0.00210558
Li      13.11273569       3.15707276       0.54276901       25      -0.00464238      -0.00341074       0.00081465
Li      13.01338560       8.04282418       5.33893870       26      -0.00404255      -0.00239221      -0.00165888
Li      19.77469536       3.01298024       6.96383414       27       0.00003417       0.00431421       0.00071224
Li      17.70879887       2.27111077       9.85968799       28      -0.00233705       0.00332912      -0.00104048
Li      14.12568544       7.35274377       9.03427843       29       0.00136969      -0.00556838      -0.00148851
Li      13.21754258       2.03493715       4.65851889       30       0.00546091      -0.00620147       0.00083110
Li      17.14878306       7.88184855       4.75516516       31      -0.00014089       0.00131934      -0.00195769
Li      12.61815253       5.21978139       7.90799541       32      -0.00174002      -0.00462083      -0.00176549
Li      17.91865885       0.24210568       7.96727202       33       0.00035007       0.00812017      -0.00030218
Li      18.30614757       5.51500962       3.18712514       34      -0.00103472       0.00236726      -0.00081703
Li      12.54553855       0.19790226       2.69348578       35      -0.00211738      -0.00308293      -0.00053260
Li      10.29037301       2.73089440       4.20138051       36       0.00026304      -0.00308256       0.00133951
Li      15.04123209       8.48213714       2.82626966       37      -0.00290050      -0.00335364      -0.00049090
Li      15.26808798       3.21482688       8.06495795       38      -0.00325776      -0.00103376       0.00602697
Li      10.63782402       7.86443792       9.37425742       39       0.00136577      -0.00146824       0.00013867
Li      10.25587067       6.93220512       6.41968236       40      -0.00062291      -0.00332035       0.00058232
Li      16.96529408       2.14611826       5.28829694       41       0.00532356      -0.00056943       0.00020829
Li      15.57266463       5.65984902       1.96876895       42      -0.00187509       0.00010947      -0.00023858
Li      10.36849412       2.08086272       1.03398939       43       0.00120271      -0.00715762       0.00348954
Cl      19.34475436       9.80176042      10.03224343       44       0.00090866       0.00380831       0.00039391
Cl      14.55513595       5.02933302      -0.23532417       45      -0.00040126      -0.00107703       0.00019201
Cl      14.37851002      -0.08818261       4.60743695       46      -0.00160810      -0.00174605      -0.00202010
Cl      19.63375769       5.01318706       5.31047401       47      -0.00012043       0.00161135      -0.00229970
S       12.09574374       2.54178663       2.62606986       48       0.00014139      -0.00313814       0.00087510
S       17.13815570       7.48194843       2.44932919       49      -0.00277286       0.00164224      -0.00150956
S       17.49468743       2.57184556       7.53684565       50      -0.00254511       0.00167570       0.00001709
S       12.23525381       7.54930893       7.57026010       51       0.00047391      -0.00347278      -0.00138073
103
Lattice="20.110191271466377 0.0 0.0 0.0 10.055095635733188 0.0 0.0 0.0 10.055095635733188" Properties=species:S:1:pos:R:3:spacegroup_kinds:I:1:forces:R:3 spacegroup="P 1" unit_cell=conventional occupancy="_JSON {\"0\": {\"P\": 1.0}, \"1\": {\"P\": 1.0}, \"2\": {\"P\": 1.0}, \"3\": {\"P\": 1.0}, \"4\": {\"S\": 1.0}, \"5\": {\"S\": 1.0}, \"6\": {\"S\": 1.0}, \"7\": {\"S\": 1.0}, \"8\": {\"S\": 1.0}, \"9\": {\"S\": 1.0}, \"10\": {\"S\": 1.0}, \"11\": {\"S\": 1.0}, \"12\": {\"S\": 1.0}, \"13\": {\"S\": 1.0}, \"14\": {\"S\": 1.0}, \"15\": {\"S\": 1.0}, \"16\": {\"S\": 1.0}, \"17\": {\"S\": 1.0}, \"18\": {\"S\": 1.0}, \"19\": {\"S\": 1.0}, \"20\": {\"Li\": 1.0}, \"21\": {\"Li\": 1.0}, \"22\": {\"Li\": 1.0}, \"23\": {\"Li\": 1.0}, \"24\": {\"Li\": 1.0}, \"25\": {\"Li\": 1.0}, \"26\": {\"Li\": 1.0}, \"27\": {\"Li\": 1.0}, \"28\": {\"Li\": 1.0}, \"29\": {\"Li\": 1.0}, \"30\": {\"Li\": 1.0}, \"31\": {\"Li\": 1.0}, \"32\": {\"Li\": 1.0}, \"33\": {\"Li\": 1.0}, \"34\": {\"Li\": 1.0}, \"35\": {\"Li\": 1.0}, \"36\": {\"Li\": 1.0}, \"37\": {\"Li\": 1.0}, \"38\": {\"Li\": 1.0}, \"39\": {\"Li\": 1.0}, \"40\": {\"Li\": 1.0}, \"41\": {\"Li\": 1.0}, \"42\": {\"Li\": 1.0}, \"43\": {\"Li\": 1.0}, \"44\": {\"Cl\": 1.0}, \"45\": {\"Cl\": 1.0}, \"46\": {\"Cl\": 1.0}, \"47\": {\"Cl\": 1.0}, \"48\": {\"S\": 1.0}, \"49\": {\"S\": 1.0}, \"50\": {\"S\": 1.0}, \"51\": {\"S\": 1.0}}" charge=0 spin=0 energy=-429.6512128929984 free_energy=-429.6512128929984 stress="-0.0008267859282918914 -0.00013337770879601272 -0.0005385995900996456 -0.00013337770879601272 0.0026492898211900894 -0.0012467963302720073 -0.0005385995900996456 -0.0012467963302720073 0.0018582043676448603" pbc="T T T"
P        4.81696829       4.95076226       5.02203129        0      -0.00109372       0.00575925      -0.00668667
P       -0.12975943      10.00157523       4.97812739        1       0.01212461      -0.01002515      -0.01333224
P       -0.25173789       4.94668270      10.01083870        2       0.01263579       0.01655605       0.01691505
P        4.75939686      -0.09754974       9.99128677        3       0.00014910      -0.00214885       0.00572618
S        5.83871533       6.15886516       6.35184541        4       0.00087245       0.00017332       0.00183638
S        1.09014643       1.14085690       6.12545185        5       0.00033980       0.00353500       0.00307877
S        0.91513763       6.05259868       1.24249787        6      -0.01328147      -0.01055120      -0.00848395
S        5.92706726       0.94418509       1.25264018        7       0.00237315       0.00085420       0.00054376
S        3.52360574       3.72405255       6.07297346        8      -0.00095693      -0.00276420      -0.00143948
S        8.48905962       8.94811142       6.32435483        9      -0.00028702       0.00179444       0.00113785
S        8.45456569       3.99333495       1.33668172       10       0.00085225      -0.00017829       0.00056902
S        3.49743211       8.69682449       0.95622026       11       0.00469808       0.00237682      -0.00090449
S        3.73048949       6.16073528       3.74678138       12       0.00676020      -0.00101910      -0.00009953
S        8.68979108       1.18923476       3.85889364       13       0.00019801       0.00124274       0.00252627
S        8.74077238       6.31317638       8.92475953       14       0.00201327       0.00020751       0.00205012
S        3.67019047       1.20514320       8.81720408       15      -0.00046989       0.00372978       0.00025203
S        6.03167503       3.81647970       3.86989580       16       0.00267586      -0.00027977      -0.00067061
S        0.93814038       8.71168458       3.83878727       17      -0.00990214       0.01204925       0.00705320
S        0.93754278       3.64545962       8.93939253       18       0.00219902      -0.00028011      -0.00378867
S        5.89760251       8.78102899       8.72882517       19      -0.00066645       0.00129440      -0.00196594
Li       8.06615253       9.67980587       2.02187839       21       0.00103575       0.00039215       0.00161439
Li       7.72005957       4.83661514       7.25739008       22      -0.00276370       0.00190195       0.00413462
Li       2.44808102       9.72186770       7.45641012       23       0.00299984       0.00013558       0.00269060
Li       7.15825550       7.49206205       0.24839585       24       0.00377897      -0.00028547       0.00270649
Li       2.97928511       2.95798949       0.35902187       25      -0.00384445      -0.00189620       0.00114192
Li       2.93566765       7.94076193       5.22982204       26       0.00205259       0.00287559      -0.00781740
Li       7.83924246       2.96674974       5.31600006       27      -0.00015780       0.00254432       0.00137236
Li       6.71679589       2.95476709       9.96571714       28       0.00050777      -0.00003835       0.00075161
Li       4.36161360       6.89344118       8.28977106       29      -0.00011765       0.00195869      -0.00101330
Li       3.10810960       1.78793904       4.52576512       30      -0.00459734       0.00374851      -0.00118581
Li       6.77447718       7.90678974       4.85529345       31       0.00162739       0.00043194       0.00184534
Li       2.04858469       5.10503998       7.34656748       32       0.00437215      -0.00385198      -0.01034479
Li       9.38700441       1.84738239       8.38027046       33      -0.00095467       0.00206330       0.00060138
Li       8.85855216       5.97626871       3.08323514       34       0.00035741       0.00087455      -0.00043835
Li       1.86228735       0.09978772       2.02340036       35      -0.00401766       0.00229679      -0.00148469
Li       2.16367421       4.59060746       2.82251237       36      -0.00121218       0.00289601      -0.00033724
Li       5.17298437       9.03548457       2.74326487       37       0.00248903       0.00186466       0.00203673
Li       4.99500021       3.09949891       7.86400844       38       0.00032238       0.00192670       0.00118328
Li       0.98378713       7.79328832       9.54045670       39       0.01820406      -0.02335626      -0.00123704
Li      -0.01447052       7.01708383       6.68377571       40       0.00679171      -0.00095983      -0.00079278
Li       6.55811233       0.35431599       6.93753504       41       0.00120706       0.00027605      -0.00057154
Li       5.65039455       5.62787326       2.20136041       42       0.00543620       0.00289983       0.00138721
Li      -0.09064194       2.44175315       2.27422530       43      -0.00543376       0.00488599      -0.00198507
Cl       9.88714524      10.21462317      10.42057810       44       0.00147628      -0.00118994       0.00018041
Cl       4.84990680       4.65641481      -0.14653496       45       0.00274873       0.00301116      -0.00082206
Cl       4.69925863      -0.32688815       5.03741649       46       0.00160475       0.00160660       0.00114883
Cl       9.49986947       4.97468404       5.32094242       47       0.00099108       0.00126120      -0.00013300
S        2.17778780       2.34251820       2.44616496       48      -0.00344367       0.00297854      -0.00034418
S        7.11104259       7.55514821       2.54853920       49       0.00379453       0.00066412       0.00172674
S        7.25954588       2.55307904       7.63030090       50      -0.00015695       0.00194555       0.00122177
S        2.18324331       7.41565498       7.46572298       51       0.00549689      -0.00374167      -0.00638413
P       14.76494790       5.07742863       5.14002336        0      -0.00294533      -0.00431392      -0.00220581
P        9.77379803      10.05969092       5.15489357        1      -0.00470783       0.00358696       0.00316207
P        9.76309179       5.03748115      10.21058728        2      -0.00196232      -0.00075896       0.00125360
P       14.89739352       0.03186373      10.15535649        3      -0.00400864       0.00179190       0.00128808
S       15.92424652       6.11351469       6.43178699        4      -0.00009945       0.00298112       0.00039856
S       10.85993088       1.25680553       6.39370243        5       0.00035717      -0.00010496       0.00119754
S       10.84332220       6.25326211       1.39587900        6       0.00344028      -0.00263350       0.00041535
S       16.09573609       1.21809885       1.25877150        7      -0.00338231      -0.00098257      -0.00167150
S       13.45326706       3.86410783       6.18761955        8       0.00336106      -0.00350826       0.00078403
S       18.67672210       8.95189657       6.23423570        9      -0.00086931      -0.00273585       0.00359501
S       18.48710026       3.93758923       1.12438636       10      -0.00534002      -0.00078730      -0.00193432
S       13.65852824       8.91503574       1.25959606       11      -0.00159317      -0.00128683      -0.00147669
S       13.70966680       6.37811331       3.91171116       12      -0.00183507      -0.00413107       0.00189953
S       18.73938456       1.15657399       3.85590700       13      -0.00529642       0.00348298       0.00163579
S       18.84977797       6.18568678       8.74300794       14      -0.00277285       0.00488701      -0.00348960
S       13.74357199       1.25900513       8.94148124       15      -0.00313182      -0.00163623      -0.00044714
S       15.93867754       3.87975562       3.94699667       16       0.00054022       0.00070017       0.00022320
S       10.97064682       8.77944167       4.10684791       17      -0.00133772      -0.00044538      -0.00200712
S       10.91017674       3.75487779       9.08428816       18      -0.00056817      -0.00304478      -0.00125017
S       15.94406687       8.80043033       8.94931538       19      -0.00147213      -0.00067557      -0.00326572
Li      12.70726564       4.89601340       2.24310234       20      -0.00036618      -0.00336113       0.00039674
Li      18.03025885       9.68702373       2.11804026       21      -0.00385402       0.00082606       0.00269570
Li      17.46750037       4.19052075       5.98092821       22      -0.01057614       0.00235990       0.00720760
Li      12.19413142       9.87332903       7.81840544       23       0.00383668      -0.00537302       0.00041202
Li      17.75855654       7.69657869       0.25580577       24      -0.00197982       0.00911622      -0.00210558
Li      12.85749813       2.93498068       0.36777206       25      -0.00464238      -0.00341074       0.00081465
Li      12.80625935       7.96830387       5.56198955       26      -0.00404255      -0.00239221      -0.00165888
Li      19.61477832       2.48202462       7.39385621       27       0.00003417       0.00431421       0.00071224
Li      16.74276257       3.02457548       9.62222130       28      -0.00233705       0.00332912      -0.00104048
Li      13.97645980       7.28894718       9.39707828       29       0.00136969      -0.00556838      -0.00148851
Li      14.51292647       1.95808600       3.24388466       30       0.00546091      -0.00620147       0.00083110
Li      17.61412322       7.13121924       4.87739005       31      -0.00014089       0.00131934      -0.00195769
Li      12.48336043       5.24218237       7.90633591       32      -0.00174002      -0.00462083      -0.00176549
Li      17.93449403       0.15603619       8.39730139       33       0.00035007       0.00812017      -0.00030218
Li      19.05282373       5.95652600       2.73489610       34      -0.00103472       0.00236726      -0.00081703
Li      11.95552863       0.21643391       2.38393973       35      -0.00211738      -0.00308293      -0.00053260
Li      11.49571268       3.14100590       4.81933258       36       0.00026304      -0.00308256       0.00133951
Li      15.17321934       8.44291650       3.21714030       37      -0.00290050      -0.00335364      -0.00049090
Li      14.96793828       1.99849322       6.92520201       38      -0.00325776      -0.00103376       0.00602697
Li      10.63802909       7.96957329       9.66733726       39       0.00136577      -0.00146824       0.00013867
Li      10.03595653       6.98982998       6.74060925       40      -0.00062291      -0.00332035       0.00058232
Li      17.09239865       0.71231826       5.58226733       41       0.00532356      -0.00056943       0.00020829
Li      15.83162886       5.63213554       2.18364045       42      -0.00187509       0.00010947      -0.00023858
Li      10.02681410       2.20896856       1.94444668       43       0.00120271      -0.00715762       0.00348954
Cl      19.49546603       9.60984030      10.18783651       44       0.00090866       0.00380831       0.00039391
Cl      14.36778953       5.00043778       0.30778517       45      -0.00040126      -0.00107703       0.00019201
Cl      14.84801553       0.17973826       4.94454690       46      -0.00160810      -0.00174605      -0.00202010
Cl      19.40173236       5.34997632       5.06475086       47      -0.00012043       0.00161135      -0.00229970
S       12.26958824       2.56556752       2.61611550       48       0.00014139      -0.00313814       0.00087510
S       17.23675392       7.49171251       2.55944475       49      -0.00277286       0.00164224      -0.00150956
S       17.29184820       2.26743805       7.43119927       50      -0.00254511       0.00167570       0.00001709
S       12.14277703       7.55616279       7.80550814       51       0.00047391      -0.00347278      -0.00138073
103
Lattice="20.110191271466377 0.0 0.0 0.0 10.055095635733188 0.0 0.0 0.0 10.055095635733188" Properties=species:S:1:pos:R:3:spacegroup_kinds:I:1:forces:R:3 spacegroup="P 1" unit_cell=conventional occupancy="_JSON {\"0\": {\"P\": 1.0}, \"1\": {\"P\": 1.0}, \"2\": {\"P\": 1.0}, \"3\": {\"P\": 1.0}, \"4\": {\"S\": 1.0}, \"5\": {\"S\": 1.0}, \"6\": {\"S\": 1.0}, \"7\": {\"S\": 1.0}, \"8\": {\"S\": 1.0}, \"9\": {\"S\": 1.0}, \"10\": {\"S\": 1.0}, \"11\": {\"S\": 1.0}, \"12\": {\"S\": 1.0}, \"13\": {\"S\": 1.0}, \"14\": {\"S\": 1.0}, \"15\": {\"S\": 1.0}, \"16\": {\"S\": 1.0}, \"17\": {\"S\": 1.0}, \"18\": {\"S\": 1.0}, \"19\": {\"S\": 1.0}, \"20\": {\"Li\": 1.0}, \"21\": {\"Li\": 1.0}, \"22\": {\"Li\": 1.0}, \"23\": {\"Li\": 1.0}, \"24\": {\"Li\": 1.0}, \"25\": {\"Li\": 1.0}, \"26\": {\"Li\": 1.0}, \"27\": {\"Li\": 1.0}, \"28\": {\"Li\": 1.0}, \"29\": {\"Li\": 1.0}, \"30\": {\"Li\": 1.0}, \"31\": {\"Li\": 1.0}, \"32\": {\"Li\": 1.0}, \"33\": {\"Li\": 1.0}, \"34\": {\"Li\": 1.0}, \"35\": {\"Li\": 1.0}, \"36\": {\"Li\": 1.0}, \"37\": {\"Li\": 1.0}, \"38\": {\"Li\": 1.0}, \"39\": {\"Li\": 1.0}, \"40\": {\"Li\": 1.0}, \"41\": {\"Li\": 1.0}, \"42\": {\"Li\": 1.0}, \"43\": {\"Li\": 1.0}, \"44\": {\"Cl\": 1.0}, \"45\": {\"Cl\": 1.0}, \"46\": {\"Cl\": 1.0}, \"47\": {\"Cl\": 1.0}, \"48\": {\"S\": 1.0}, \"49\": {\"S\": 1.0}, \"50\": {\"S\": 1.0}, \"51\": {\"S\": 1.0}}" charge=0 spin=0 energy=-429.6512128929984 free_energy=-429.6512128929984 stress="-0.0008267859282918914 -0.00013337770879601272 -0.0005385995900996456 -0.00013337770879601272 0.0026492898211900894 -0.0012467963302720073 -0.0005385995900996456 -0.0012467963302720073 0.0018582043676448603" pbc="T T T"
P        4.84812523       5.04490484       4.96754732        0      -0.00109372       0.00575925      -0.00668667
P       -0.20709182      10.13957070       4.99208522        1       0.01212461      -0.01002515      -0.01333224
P       -0.28253392       5.00168572       9.98428681        2       0.01263579       0.01655605       0.01691505
P        4.62800140      -0.13856002       9.94525111        3       0.00014910      -0.00214885       0.00572618
S        5.80195166       6.27838999       6.31182432        4       0.00087245       0.00017332       0.00183638
S        1.02676796       1.27367651       6.13014765        5       0.00033980       0.00353500       0.00307877
S        0.78632212       6.23409611       1.17331526        6      -0.01328147      -0.01055120      -0.00848395
S        5.86461330       0.79585358       1.21377169        7       0.00237315       0.00085420       0.00054376
S        3.54334140       3.82344652       6.00804220        8      -0.00095693      -0.00276420      -0.00143948
S        8.49570938       9.02641584       6.28990425        9      -0.00028702       0.00179444       0.00113785
S        8.48936689       3.82212476       1.27333406       10       0.00085225      -0.00017829       0.00056902
S        3.43939294       8.64792155       1.00518863       11       0.00469808       0.00237682      -0.00090449
S        3.74654061       6.19680334       3.64924891       12       0.00676020      -0.00101910      -0.00009953
S        8.59337979       1.30710513       3.90093396       13       0.00019801       0.00124274       0.00252627
S        8.68212239       6.18603455       8.85972318       14       0.00201327       0.00020751       0.00205012
S        3.45354548       1.16416994       8.86160603       15      -0.00046989       0.00372978       0.00025203
S        6.17188127       3.96877973       3.85089828       16       0.00267586      -0.00027977      -0.00067061
S        0.86228822       8.82655668       3.88027379       17      -0.00990214       0.01204925       0.00705320
S        0.97007642       3.83096726       8.84672317       18       0.00219902      -0.00028011      -0.00378867
S        5.72411713       8.75463562       8.65405192       19      -0.00066645       0.00129440      -0.00196594
Li       9.45644971       8.19505897       2.08301972       21       0.00103575       0.00039215       0.00161439
Li       6.88264398       4.81789042       7.98762495       22      -0.00276370       0.00190195       0.00413462
Li       2.66480743       9.77866966       7.08473054       23       0.00299984       0.00013558       0.00269060
Li       7.33478789       8.78305905       0.45020419       24       0.00377897      -0.00028547       0.00270649
Li       2.88206885       3.02521312       0.32217517       25      -0.00384445      -0.00189620       0.00114192
Li       2.95027458       7.87970395       5.23500374       26       0.00205259       0.00287559      -0.00781740
Li       7.92753121       3.14881186       5.43369826       27      -0.00015780       0.00254432       0.00137236
Li       6.81223596       2.62044135       9.97037799       28       0.00050777      -0.00003835       0.00075161
Li       4.18245300       6.76250622       8.37762059       29      -0.00011765       0.00195869      -0.00101330
Li       3.01354937       1.90148204       4.56666324       30      -0.00459734       0.00374851      -0.00118581
Li       7.19463223       7.63696601       4.81147313       31       0.00162739       0.00043194       0.00184534
Li       1.69776485       5.22060249       6.87222902       32       0.00437215      -0.00385198      -0.01034479
Li       9.37652022       1.80415599       8.21006925       33      -0.00095467       0.00206330       0.00060138
Li       8.34868396       5.44228674       3.13928749       34       0.00035741       0.00087455      -0.00043835
Li       2.07787077       0.16859400       2.26421906       35      -0.00401766       0.00229679      -0.00148469
Li       1.91830113       4.72221435       2.86014910       36      -0.00121218       0.00289601      -0.00033724
Li       5.29817448       8.94287246       2.79912320       37       0.00248903       0.00186466       0.00203673
Li       4.84993894       2.86971169       7.79633251       38       0.00032238       0.00192670       0.00118328
Li       1.43381953       8.11003335       9.64828828       39       0.01820406      -0.02335626      -0.00123704
Li      -0.16975391       7.26352457       6.97269024       40       0.00679171      -0.00095983      -0.00079278
Li       6.44191049       0.32335579       6.81835140       41       0.00120706       0.00027605      -0.00057154
Li       5.64338958       5.67316033       1.98957100       42       0.00543620       0.00289983       0.00138721
Li      -0.03991596       2.19687977       2.11029210       43      -0.00543376       0.00488599      -0.00198507
Cl       9.54605904       9.73809756      10.12754351       44       0.00147628      -0.00118994       0.00018041
Cl       4.90839974       4.64221839      -0.32188749       45       0.00274873       0.00301116      -0.00082206
Cl       4.46259254      -0.18298470       5.10618754       46       0.00160475       0.00160660       0.00114883
Cl       9.90123157       4.95891292       5.13012859       47       0.00099108       0.00126120      -0.00013300
S        2.20039303       2.46429377       2.45245849       48      -0.00344367       0.00297854      -0.00034418
S        7.22187007       7.46277174       2.48859736       49       0.00379453       0.00066412       0.00172674
S        7.16256051       2.49491840       7.61652181       50      -0.00015695       0.00194555       0.00122177
S        2.12336997       7.48843041       7.44414173       51       0.00549689      -0.00374167      -0.00638413
P       14.84504501       5.13800160       4.99728889        0      -0.00294533      -0.00431392      -0.00220581
P        9.72956706      10.17299148       5.09027889        1      -0.00470783       0.00358696       0.00316207
P        9.72265759       4.96656663      10.13828484        2      -0.00196232      -0.00075896       0.00125360
P       14.83748104      -0.08621919      10.04995638        3      -0.00400864       0.00179190       0.00128808
S       15.94284363       6.34883079       6.24314629        4      -0.00009945       0.00298112       0.00039856
S       10.96674834       1.22155397       6.31368558        5       0.00035717      -0.00010496       0.00119754
S       10.87202285       6.16267744       1.32372915        6       0.00344028      -0.00263350       0.00041535
S       16.01041926       1.17347653       1.14174943        7      -0.00338231      -0.00098257      -0.00167150
S       13.52714091       4.09355848       6.18135848        8       0.00336106      -0.00350826       0.00078403
S       18.57713017       9.15745241       6.27750542        9      -0.00086931      -0.00273585       0.00359501
S       18.62182493       3.82848447       1.13837263       10      -0.00534002      -0.00078730      -0.00193432
S       13.68043099       8.82784313       1.30295080       11      -0.00159317      -0.00128683      -0.00147669
S       13.72768346       6.36482496       3.73955559       12      -0.00183507      -0.00413107       0.00189953
S       18.66236891       1.27127603       3.84445277       13      -0.00529642       0.00348298       0.00163579
S       18.59269088       6.15674030       8.83376796       14      -0.00277285       0.00488701      -0.00348960
S       13.59105552       1.06165759       8.85386891       15      -0.00313182      -0.00163623      -0.00044714
S       16.08545749       3.93042819       3.92117329       16       0.00054022       0.00070017       0.00022320
S       10.90103371       8.90892274       3.93413206       17      -0.00133772      -0.00044538      -0.00200712
S       10.88894364       3.70035311       9.01141720       18      -0.00056817      -0.00304478      -0.00125017
S       15.89834494       8.67873900       8.92073716       19      -0.00147213      -0.00067557      -0.00326572
Li      12.76163671       4.83663857       2.14406579       20      -0.00036618      -0.00336113       0.00039674
Li      17.84137613       9.79456651       2.10099618       21      -0.00385402       0.00082606       0.00269570
Li      17.72643386       4.66825987       6.81817432       22      -0.01057614       0.00235990       0.00720760
Li      12.84971305       9.66837055       6.89825646       23       0.00383668      -0.00537302       0.00041202
Li      18.80947602       7.56483599       0.87938686       24      -0.00197982       0.00911622      -0.00210558
Li      12.85174398       2.82620888       0.24871732       25      -0.00464238      -0.00341074       0.00081465
Li      11.74918885       6.95157581       5.23906496       26      -0.00404255      -0.00239221      -0.00165888
Li      19.60644015       2.39273023       7.60265782       27       0.00003417       0.00431421       0.00071224
Li      16.78955935       3.08102377       9.79945154       28      -0.00233705       0.00332912      -0.00104048
Li      12.13594869       7.65854656       9.88404352       29       0.00136969      -0.00556838      -0.00148851
Li      14.63812205       2.16257614       3.10407051       30       0.00546091      -0.00620147       0.00083110
Li      17.75456572       7.39382442       4.87354924       31      -0.00014089       0.00131934      -0.00195769
Li      14.16870107       6.42079329       7.92488762       32      -0.00174002      -0.00462083      -0.00176549
Li      17.76612735       0.16416033       8.51527634       33       0.00035007       0.00812017      -0.00030218
Li      18.02623463       5.31049463       3.03980460       34      -0.00103472       0.00236726      -0.00081703
Li      12.59928201       0.28025801       2.97558947       35      -0.00211738      -0.00308293      -0.00053260
Li      11.64224269       3.17378120       4.77380692       36       0.00026304      -0.00308256       0.00133951
Li      15.17335457       8.43618459       3.39036611       37      -0.00290050      -0.00335364      -0.00049090
Li      14.94610911       2.62471341       7.50126244       38      -0.00325776      -0.00103376       0.00602697
Li       9.92702807       8.32253429       8.17823428       39       0.00136577      -0.00146824       0.00013867
Li      10.73684600       5.50230760       7.42186737       40      -0.00062291      -0.00332035       0.00058232
Li      16.91582568       1.10892435       5.59126855       41       0.00532356      -0.00056943       0.00020829
Li      15.49304455       6.52369576       1.40871437       42      -0.00187509       0.00010947      -0.00023858
Li      10.05023169       2.05572392       2.08749966       43       0.00120271      -0.00715762       0.00348954
Cl      19.53293237       9.75760522      10.26995494       44       0.00090866       0.00380831       0.00039391
Cl      14.50195064       4.85569535       0.01427385       45      -0.00040126      -0.00107703       0.00019201
Cl      14.66512507       0.28793319       4.76664266       46      -0.00160810      -0.00174605      -0.00202010
Cl      19.50151725       5.47548590       5.31045189       47      -0.00012043       0.00161135      -0.00229970
S       12.33275407       2.56494174       2.54802125       48       0.00014139      -0.00313814       0.00087510
S       17.23521248       7.53464733       2.60862155       49      -0.00277286       0.00164224      -0.00150956
S       17.26927132       2.41163759       7.59242406       50      -0.00254511       0.00167570       0.00001709
S       12.07238563       7.49493694       7.53903917       51       0.00047391      -0.00347278      -0.00138073
103
Lattice="20.110191271466377 0.0 0.0 0.0 10.055095635733188 0.0 0.0 0.0 10.055095635733188" Properties=species:S:1:pos:R:3:spacegroup_kinds:I:1:forces:R:3 spacegroup="P 1" unit_cell=conventional occupancy="_JSON {\"0\": {\"P\": 1.0}, \"1\": {\"P\": 1.0}, \"2\": {\"P\": 1.0}, \"3\": {\"P\": 1.0}, \"4\": {\"S\": 1.0}, \"5\": {\"S\": 1.0}, \"6\": {\"S\": 1.0}, \"7\": {\"S\": 1.0}, \"8\": {\"S\": 1.0}, \"9\": {\"S\": 1.0}, \"10\": {\"S\": 1.0}, \"11\": {\"S\": 1.0}, \"12\": {\"S\": 1.0}, \"13\": {\"S\": 1.0}, \"14\": {\"S\": 1.0}, \"15\": {\"S\": 1.0}, \"16\": {\"S\": 1.0}, \"17\": {\"S\": 1.0}, \"18\": {\"S\": 1.0}, \"19\": {\"S\": 1.0}, \"20\": {\"Li\": 1.0}, \"21\": {\"Li\": 1.0}, \"22\": {\"Li\": 1.0}, \"23\": {\"Li\": 1.0}, \"24\": {\"Li\": 1.0}, \"25\": {\"Li\": 1.0}, \"26\": {\"Li\": 1.0}, \"27\": {\"Li\": 1.0}, \"28\": {\"Li\": 1.0}, \"29\": {\"Li\": 1.0}, \"30\": {\"Li\": 1.0}, \"31\": {\"Li\": 1.0}, \"32\": {\"Li\": 1.0}, \"33\": {\"Li\": 1.0}, \"34\": {\"Li\": 1.0}, \"35\": {\"Li\": 1.0}, \"36\": {\"Li\": 1.0}, \"37\": {\"Li\": 1.0}, \"38\": {\"Li\": 1.0}, \"39\": {\"Li\": 1.0}, \"40\": {\"Li\": 1.0}, \"41\": {\"Li\": 1.0}, \"42\": {\"Li\": 1.0}, \"43\": {\"Li\": 1.0}, \"44\": {\"Cl\": 1.0}, \"45\": {\"Cl\": 1.0}, \"46\": {\"Cl\": 1.0}, \"47\": {\"Cl\": 1.0}, \"48\": {\"S\": 1.0}, \"49\": {\"S\": 1.0}, \"50\": {\"S\": 1.0}, \"51\": {\"S\": 1.0}}" charge=0 spin=0 energy=-429.6512128929984 free_energy=-429.6512128929984 stress="-0.0008267859282918914 -0.00013337770879601272 -0.0005385995900996456 -0.00013337770879601272 0.0026492898211900894 -0.0012467963302720073 -0.0005385995900996456 -0.0012467963302720073 0.0018582043676448603" pbc="T T T"
P        4.86378980       4.98838243       4.87564812        0      -0.00109372       0.00575925      -0.00668667
P       -0.38625353      10.12573343       5.07356818        1       0.01212461      -0.01002515      -0.01333224
P       -0.30038734       5.03363310      10.17144719        2       0.01263579       0.01655605       0.01691505
P        4.59699440      -0.17674757      10.01339732        3       0.00014910      -0.00214885       0.00572618
S        6.02597692       6.11160518       6.17422812        4       0.00087245       0.00017332       0.00183638
S        0.88774608       1.24652611       6.16933212        5       0.00033980       0.00353500       0.00307877
S        0.85875222       6.25244968       1.31735770        6      -0.01328147      -0.01055120      -0.00848395
S        5.58890972       0.95556041       1.31558434        7       0.00237315       0.00085420       0.00054376
S        3.56967191       3.81490235       5.99924115        8      -0.00095693      -0.00276420      -0.00143948
S        8.40682228       9.00704060       6.11457213        9      -0.00028702       0.00179444       0.00113785
S        8.53512503       3.77299801       1.00284621       10       0.00085225      -0.00017829       0.00056902
S        3.46668091       8.55155502       1.07523154       11       0.00469808       0.00237682      -0.00090449
S        3.79903978       6.26360301       3.69064821       12       0.00676020      -0.00101910      -0.00009953
S        8.44223556       1.22089559       3.69262018       13       0.00019801       0.00124274       0.00252627
S        8.61394074       6.02219043       8.59343103       14       0.00201327       0.00020751       0.00205012
S        3.29474128       0.93782226       8.85315437       15      -0.00046989       0.00372978       0.00025203
S        6.06785908       3.82811669       3.71040122       16       0.00267586      -0.00027977      -0.00067061
S        0.69916526       8.90530293       3.86605306       17      -0.00990214       0.01204925       0.00705320
S        0.99676365       3.90478387       9.02979987       18       0.00219902      -0.00028011      -0.00378867
S        5.87113389       8.86126808       8.74080331       19      -0.00066645       0.00129440      -0.00196594
Li       9.33315355       8.39680900       1.90535438       21       0.00103575       0.00039215       0.00161439
Li       6.66530235       4.68914865       8.02734080       22      -0.00276370       0.00190195       0.00413462
Li       2.48333528       9.54084669       6.80531892       23       0.00299984       0.00013558       0.00269060
Li       7.50245168       7.60565603       0.00914097       24       0.00377897      -0.00028547       0.00270649
Li       2.89377498       2.69754632       0.42879793       25      -0.00384445      -0.00189620       0.00114192
Li       4.44302638       7.53108009       7.30766015       26       0.00205259       0.00287559      -0.00781740
Li       7.78230245       3.14474216       5.32023158       27      -0.00015780       0.00254432       0.00137236
Li       6.97281270       2.22004706       9.87110900       28       0.00050777      -0.00003835       0.00075161
Li       2.64452013       5.78010054       9.65263289       29      -0.00011765       0.00195869      -0.00101330
Li       3.12099133       1.80806530       4.62527869       30      -0.00459734       0.00374851      -0.00118581
Li       7.45611565       7.35722244       4.65507837       31       0.00162739       0.00043194       0.00184534
Li       1.81638457       5.33430457       6.64858982       32       0.00437215      -0.00385198      -0.01034479
Li       9.32430852       1.84482386       7.89855140       33      -0.00095467       0.00206330       0.00060138
Li       8.41636310       5.31547137       2.85562552       34       0.00035741       0.00087455      -0.00043835
Li       1.96482608       0.17077941       2.20906411       35      -0.00401766       0.00229679      -0.00148469
Li       2.21619401       4.69589353       2.85554780       36      -0.00121218       0.00289601      -0.00033724
Li       5.39390251       8.82533539       2.68827239       37       0.00248903       0.00186466       0.00203673
Li       4.70112818       2.62292554       7.79700268       38       0.00032238       0.00192670       0.00118328
Li       1.35078697       8.37359467       9.73021398       39       0.01820406      -0.02335626      -0.00123704
Li      -0.08105857       7.20517155       7.10295760       40       0.00679171      -0.00095983      -0.00079278
Li       6.38990950       0.32010534       6.70057652       41       0.00120706       0.00027605      -0.00057154
Li       5.54909097       5.58929413       1.97706267       42       0.00543620       0.00289983       0.00138721
Li      -0.11056830       2.65510485       2.87783308       43      -0.00543376       0.00488599      -0.00198507
Cl       9.64066904       9.47012128       9.80681034       44       0.00147628      -0.00118994       0.00018041
Cl       4.68519781       4.53081066      -0.21027616       45       0.00274873       0.00301116      -0.00082206
Cl       4.40689530      -0.18938285       5.32520219       46       0.00160475       0.00160660       0.00114883
Cl       9.75342084       4.97689351       4.77825961       47       0.00099108       0.00126120      -0.00013300
S        2.13098163       2.43434196       2.58597557       48      -0.00344367       0.00297854      -0.00034418
S        7.26106192       7.31461307       2.32884931       49       0.00379453       0.00066412       0.00172674
S        7.06068022       2.43599452       7.52991812       50      -0.00015695       0.00194555       0.00122177
S        2.15737236       7.35630310       7.77131278       51       0.00549689      -0.00374167      -0.00638413
P       14.68946520       5.09389336       5.05498521        0      -0.00294533      -0.00431392      -0.00220581
P        9.61671329      10.14009246       4.88559551        1      -0.00470783       0.00358696       0.00316207
P        9.78504230       4.92604166       9.87946786        2      -0.00196232      -0.00075896       0.00125360
P       14.83258685       0.01398591      10.06281115        3      -0.00400864       0.00179190       0.00128808
S       15.87777348       6.22401314       6.31559514        4      -0.00009945       0.00298112       0.00039856
S       10.82999277       1.27220875       6.06270006        5       0.00035717      -0.00010496       0.00119754
S       10.94545932       6.17563809       0.96002733        6       0.00344028      -0.00263350       0.00041535
S       16.02474510       1.16006799       1.22462271        7      -0.00338231      -0.00098257      -0.00167150
S       13.46268361       3.93216161       6.23000509        8       0.00336106      -0.00350826       0.00078403
S       18.55264112       8.97938374       6.34578817        9      -0.00086931      -0.00273585       0.00359501
S       18.58729724       3.92570245       1.33706209       10      -0.00534002      -0.00078730      -0.00193432
S       13.52743540       8.98820000       1.18325216       11      -0.00159317      -0.00128683      -0.00147669
S       13.56191787       6.31710813       3.84829352       12      -0.00183507      -0.00413107       0.00189953
S       18.41559951       1.27004821       4.01242399       13      -0.00529642       0.00348298       0.00163579
S       18.61828597       6.15337593       8.92534708       14      -0.00277285       0.00488701      -0.00348960
S       13.71188488       1.11357820       8.72756156       15      -0.00313182      -0.00163623      -0.00044714
S       15.93156421       3.91632250       3.92262950       16       0.00054022       0.00070017       0.00022320
S       10.80875226       8.85849126       3.78108418       17      -0.00133772      -0.00044538      -0.00200712
S       10.96673503       3.64230728       8.78362039       18      -0.00056817      -0.00304478      -0.00125017
S       16.03641025       8.80091983       8.98629077       19      -0.00147213      -0.00067557      -0.00326572
Li      12.86848659       4.86857581       1.94630435       20      -0.00036618      -0.00336113       0.00039674
Li      18.02147178       9.81300723       2.17206174       21      -0.00385402       0.00082606       0.00269570
Li      17.83512706       4.81375025       6.96708802       22      -0.01057614       0.00235990       0.00720760
Li      12.75862186       9.88193527       6.49617581       23       0.00383668      -0.00537302       0.00041202
Li      19.48795533       6.84242700       3.49211623       24      -0.00197982       0.00911622      -0.00210558
Li      12.65815374       2.61506447       0.23267597       25      -0.00464238      -0.00341074       0.00081465
Li      11.45284399       6.85863473       5.21752321       26      -0.00404255      -0.00239221      -0.00165888
Li      19.62739188       2.57175715       7.63212060       27       0.00003417       0.00431421       0.00071224
Li      16.92954000       3.01175411       9.92645271       28      -0.00233705       0.00332912      -0.00104048
Li      11.76832634       8.39538635       9.65959665       29       0.00136969      -0.00556838      -0.00148851
Li      14.55740795       2.16625979       2.95077584       30       0.00546091      -0.00620147       0.00083110
Li      17.08374774       7.75666324       4.88522085       31      -0.00014089       0.00131934      -0.00195769
Li      14.48450568       7.73971872       7.52959082       32      -0.00174002      -0.00462083      -0.00176549
Li      17.77502987       0.32368067       8.23269613       33       0.00035007       0.00812017      -0.00030218
Li      16.42739863       5.42746521       1.89100968       34      -0.00103472       0.00236726      -0.00081703
Li      12.56400159       0.33093907       3.08113628       35      -0.00211738      -0.00308293      -0.00053260
Li      11.51629534       3.30035437       4.70747269       36       0.00026304      -0.00308256       0.00133951
Li      15.02179346       8.24515502       2.94787565       37      -0.00290050      -0.00335364      -0.00049090
Li      14.97501916       3.15341425       8.05613878       38      -0.00325776      -0.00103376       0.00602697
Li       9.84391655       8.02150711       7.79406681       39       0.00136577      -0.00146824       0.00013867
Li      12.46545688       5.42024371       7.96090678       40      -0.00062291      -0.00332035       0.00058232
Li      16.52877884       1.98663488       5.46670973       41       0.00532356      -0.00056943       0.00020829
Li      18.01160847       7.96387399       0.28097926       42      -0.00187509       0.00010947      -0.00023858
Li      10.01332950       2.32935109       2.21698555       43       0.00120271      -0.00715762       0.00348954
Cl      19.45718556       9.81114419      10.11964030       44       0.00090866       0.00380831       0.00039391
Cl      14.73153954       4.49994327       0.11212888       45      -0.00040126      -0.00107703       0.00019201
Cl      14.50321421       0.16352870       4.66757747       46      -0.00160810      -0.00174605      -0.00202010
Cl      19.79826811       5.38314592       5.45732585       47      -0.00012043       0.00161135      -0.00229970
S       12.28760818       2.62145415       2.53745096       48       0.00014139      -0.00313814       0.00087510
S       17.28389048       7.55670064       2.58204852       49      -0.00277286       0.00164224      -0.00150956
S       17.27537891       2.60189620       7.63959784       50      -0.00254511       0.00167570       0.00001709
S       12.17594294       7.69395890       7.38461079       51       0.00047391      -0.00347278      -0.00138073
103
Lattice="20.110191271466377 0.0 0.0 0.0 10.055095635733188 0.0 0.0 0.0 10.055095635733188" Properties=species:S:1:pos:R:3:spacegroup_kinds:I:1:forces:R:3 spacegroup="P 1" unit_cell=conventional occupancy="_JSON {\"0\": {\"P\": 1.0}, \"1\": {\"P\": 1.0}, \"2\": {\"P\": 1.0}, \"3\": {\"P\": 1.0}, \"4\": {\"S\": 1.0}, \"5\": {\"S\": 1.0}, \"6\": {\"S\": 1.0}, \"7\": {\"S\": 1.0}, \"8\": {\"S\": 1.0}, \"9\": {\"S\": 1.0}, \"10\": {\"S\": 1.0}, \"11\": {\"S\": 1.0}, \"12\": {\"S\": 1.0}, \"13\": {\"S\": 1.0}, \"14\": {\"S\": 1.0}, \"15\": {\"S\": 1.0}, \"16\": {\"S\": 1.0}, \"17\": {\"S\": 1.0}, \"18\": {\"S\": 1.0}, \"19\": {\"S\": 1.0}, \"20\": {\"Li\": 1.0}, \"21\": {\"Li\": 1.0}, \"22\": {\"Li\": 1.0}, \"23\": {\"Li\": 1.0}, \"24\": {\"Li\": 1.0}, \"25\": {\"Li\": 1.0}, \"26\": {\"Li\": 1.0}, \"27\": {\"Li\": 1.0}, \"28\": {\"Li\": 1.0}, \"29\": {\"Li\": 1.0}, \"30\": {\"Li\": 1.0}, \"31\": {\"Li\": 1.0}, \"32\": {\"Li\": 1.0}, \"33\": {\"Li\": 1.0}, \"34\": {\"Li\": 1.0}, \"35\": {\"Li\": 1.0}, \"36\": {\"Li\": 1.0}, \"37\": {\"Li\": 1.0}, \"38\": {\"Li\": 1.0}, \"39\": {\"Li\": 1.0}, \"40\": {\"Li\": 1.0}, \"41\": {\"Li\": 1.0}, \"42\": {\"Li\": 1.0}, \"43\": {\"Li\": 1.0}, \"44\": {\"Cl\": 1.0}, \"45\": {\"Cl\": 1.0}, \"46\": {\"Cl\": 1.0}, \"47\": {\"Cl\": 1.0}, \"48\": {\"S\": 1.0}, \"49\": {\"S\": 1.0}, \"50\": {\"S\": 1.0}, \"51\": {\"S\": 1.0}}" charge=0 spin=0 energy=-429.6512128929984 free_energy=-429.6512128929984 stress="-0.0008267859282918914 -0.00013337770879601272 -0.0005385995900996456 -0.00013337770879601272 0.0026492898211900894 -0.0012467963302720073 -0.0005385995900996456 -0.0012467963302720073 0.0018582043676448603" pbc="T T T"
P        4.71727487       4.91699196       4.87596098        0      -0.00109372       0.00575925      -0.00668667
P       -0.31394798      10.13414478       4.96342610        1       0.01212461      -0.01002515      -0.01333224
P       -0.38762412       5.03634169       9.99759483        2       0.01263579       0.01655605       0.01691505
P        4.71632261      -0.13884270       9.85551096        3       0.00014910      -0.00214885       0.00572618
S        5.71928229       6.17166377       6.15800255        4       0.00087245       0.00017332       0.00183638
S        0.93684995       1.25728355       6.11112844        5       0.00033980       0.00353500       0.00307877
S        0.91922337       6.14300100       1.09857411        6      -0.01328147      -0.01055120      -0.00848395
S        5.93166962       0.91624354       1.10064252        7       0.00237315       0.00085420       0.00054376
S        3.44901554       3.69144254       5.95231029        8      -0.00095693      -0.00276420      -0.00143948
S        8.44256033       9.08249588       6.15715496        9      -0.00028702       0.00179444       0.00113785
S        8.50548441       4.00826863       1.26771095       10       0.00085225      -0.00017829       0.00056902
S        3.57543304       8.68328421       1.00453862       11       0.00469808       0.00237682      -0.00090449
S        3.64795213       6.12115366       3.61186644       12       0.00676020      -0.00101910      -0.00009953
S        8.63267239       1.32507956       3.73838340       13       0.00019801       0.00124274       0.00252627
S        8.68496289       6.20100131       8.75608314       14       0.00201327       0.00020751       0.00205012
S        3.47987887       1.10496745       8.75639702       15      -0.00046989       0.00372978       0.00025203
S        6.01127180       3.78525471       3.75472327       16       0.00267586      -0.00027977      -0.00067061
S        0.79849190       8.86049932       3.84265754       17      -0.00990214       0.01204925       0.00705320
S        0.71647553       3.83214980       8.74314061       18       0.00219902      -0.00028011      -0.00378867
S        5.81914952       8.78276498       8.58824301       19      -0.00066645       0.00129440      -0.00196594
Li       8.86833123       9.32463114       2.22004571       21       0.00103575       0.00039215       0.00161439
Li       6.96999620       4.87370804       7.74427314       22      -0.00276370       0.00190195       0.00413462
Li       1.93194894       9.67977571       7.61295100       23       0.00299984       0.00013558       0.00269060
Li       7.56199944       8.02715019       0.07607813       24       0.00377897      -0.00028547       0.00270649
Li       2.57147316       2.96797489       0.07726444       25      -0.00384445      -0.00189620       0.00114192
Li       3.65010050       7.74310331       5.67968126       26       0.00205259       0.00287559      -0.00781740
Li       7.87134344       3.16005832       5.31152144       27      -0.00015780       0.00254432       0.00137236
Li       6.82525560       2.79779610       9.89728532       28       0.00050777      -0.00003835       0.00075161
Li       4.55305286       2.70135480      12.11088048       29      -0.00011765       0.00195869      -0.00101330
Li       2.82726860       1.67706570       4.55996896       30      -0.00459734       0.00374851      -0.00118581
Li       6.90065568       7.80059270       4.71536347       31       0.00162739       0.00043194       0.00184534
Li       1.67457699       5.21580586       6.83140195       32       0.00437215      -0.00385198      -0.01034479
Li       9.34610149       1.70582308       8.17592128       33      -0.00095467       0.00206330       0.00060138
Li       9.04423362       6.00291100       2.85526553       34       0.00035741       0.00087455      -0.00043835
Li       1.80928870       0.07071494       1.87715175       35      -0.00401766       0.00229679      -0.00148469
Li       1.88374999       4.63107713       2.80686405       36      -0.00121218       0.00289601      -0.00033724
Li       5.41459140       9.09255989       2.63499715       37       0.00248903       0.00186466       0.00203673
Li       4.83218040       2.86534344       7.77150063       38       0.00032238       0.00192670       0.00118328
Li       2.60568716       7.03635738       9.52741887       39       0.01820406      -0.02335626      -0.00123704
Li      -0.25275749       7.25417587       7.14791355       40       0.00679171      -0.00095983      -0.00079278
Li       6.40101827       0.36889530       6.79770595       41       0.00120706       0.00027605      -0.00057154
Li       5.77490824       5.71192228       2.08163735       42       0.00543620       0.00289983       0.00138721
Li      -0.12524805       2.05255456       1.95752473       43      -0.00543376       0.00488599      -0.00198507
Cl       9.62872684       9.70692688       9.91097266       44       0.00147628      -0.00118994       0.00018041
Cl       4.82596344       4.30740543       0.06307937       45       0.00274873       0.00301116      -0.00082206
Cl       4.82554709      -0.31462529       4.89238909       46       0.00160475       0.00160660       0.00114883
Cl       9.89834975       5.03531932       5.01899553       47       0.00099108       0.00126120      -0.00013300
S        2.22424743       2.36215925       2.34104541       48      -0.00344367       0.00297854      -0.00034418
S        7.27226750       7.56185144       2.40729007       49       0.00379453       0.00066412       0.00172674
S        7.16609218       2.55876675       7.54330362       50      -0.00015695       0.00194555       0.00122177
S        2.04087777       7.42502052       7.35259229       51       0.00549689      -0.00374167      -0.00638413
P       14.73042990       5.22898540       5.07964744        0      -0.00294533      -0.00431392      -0.00220581
P        9.73773537      10.18768976       4.99500697        1      -0.00470783       0.00358696       0.00316207
P        9.78111586       5.01639720      10.06646315        2      -0.00196232      -0.00075896       0.00125360
P       14.81719716       0.04814074      10.08150523        3      -0.00400864       0.00179190       0.00128808
S       15.78006546       6.49613308       6.31105125        4      -0.00009945       0.00298112       0.00039856
S       10.94641068       1.25098964       6.21439595        5       0.00035717      -0.00010496       0.00119754
S       10.96255890       6.21540700       1.17569577        6       0.00344028      -0.00263350       0.00041535
S       15.91216648       1.37460082       1.16873036        7      -0.00338231      -0.00098257      -0.00167150
S       13.43123720       4.15673208       6.28537921        8       0.00336106      -0.00350826       0.00078403
S       18.52016582       9.15879135       6.29603182        9      -0.00086931      -0.00273585       0.00359501
S       18.57588872       3.86966449       1.20232515       10      -0.00534002      -0.00078730      -0.00193432
S       13.64874058       8.94540563       1.27514332       11      -0.00159317      -0.00128683      -0.00147669
S       13.60503853       6.39469840       3.80274057       12      -0.00183507      -0.00413107       0.00189953
S       18.56505552       1.32660569       3.87997118       13      -0.00529642       0.00348298       0.00163579
S       18.43779254       6.25329926       8.96651962       14      -0.00277285       0.00488701      -0.00348960
S       13.56283586       1.09073525       8.79767066       15      -0.00313182      -0.00163623      -0.00044714
S       15.99272751       3.96964851       4.09366679       16       0.00054022       0.00070017       0.00022320
S       10.82923985       8.93290501       3.77683058       17      -0.00133772      -0.00044538      -0.00200712
S       10.86365619       3.69085058       8.93212316       18      -0.00056817      -0.00304478      -0.00125017
S       16.04821149       8.91011253       8.99690181       19      -0.00147213      -0.00067557      -0.00326572
Li      13.03359087       4.94605571       1.96943413       20      -0.00036618      -0.00336113       0.00039674
Li      17.65105929       9.91782446       2.06036644       21      -0.00385402       0.00082606       0.00269570
Li      17.45109750       4.85615063       7.02358522       22      -0.01057614       0.00235990       0.00720760
Li      12.90399759       9.69025681       6.83048102       23       0.00383668      -0.00537302       0.00041202
Li      19.55168608       7.94032583       1.93292911       24      -0.00197982       0.00911622      -0.00210558
Li      12.85520290       2.87977572       0.18477024       25      -0.00464238      -0.00341074       0.00081465
Li      11.71638121       7.12011217       5.18834003       26      -0.00404255      -0.00239221      -0.00165888
Li      19.41574473       2.97788968       6.79920390       27       0.00003417       0.00431421       0.00071224
Li      16.65485254       3.31047391       9.79946566       28      -0.00233705       0.00332912      -0.00104048
Li      11.84666821       8.15117574       9.83566716       29       0.00136969      -0.00556838      -0.00148851
Li      14.63345508       2.20287678       3.17421567       30       0.00546091      -0.00620147       0.00083110
Li      17.70630461       7.34804887       4.91755573       31      -0.00014089       0.00131934      -0.00195769
Li      13.90741693       6.11419991       7.95209587       32      -0.00174002      -0.00462083      -0.00176549
Li      17.93398721       0.48295163       8.64459025       33       0.00035007       0.00812017      -0.00030218
Li      17.66162407       5.30148830       2.92915160       34      -0.00103472       0.00236726      -0.00081703
Li      12.61847179       0.36209566       2.98836495       35      -0.00211738      -0.00308293      -0.00053260
Li      11.67774022       3.29602532       4.72437969       36       0.00026304      -0.00308256       0.00133951
Li      15.10683955       8.29994295       3.28343822       37      -0.00290050      -0.00335364      -0.00049090
Li      14.90178412       2.61506108       7.44139973       38      -0.00325776      -0.00103376       0.00602697
Li       9.86328879       8.30436950       7.93524468       39       0.00136577      -0.00146824       0.00013867
Li      10.77047716       5.50314508       7.26729607       40      -0.00062291      -0.00332035       0.00058232
Li      16.86482183       1.06191592       5.68345224       41       0.00532356      -0.00056943       0.00020829
Li      16.50769780       7.00657042       0.44779275       42      -0.00187509       0.00010947      -0.00023858
Li      10.13771542       2.44392625       2.15841402       43       0.00120271      -0.00715762       0.00348954
Cl      19.61637575      10.07087730      10.59894190       44       0.00090866       0.00380831       0.00039391
Cl      14.65361785       4.90229866      -0.04087390       45      -0.00040126      -0.00107703       0.00019201
Cl      14.59490787       0.26213559       4.76353751       46      -0.00160810      -0.00174605      -0.00202010
Cl      19.37163208       5.29137723       5.54644682       47      -0.00012043       0.00161135      -0.00229970
S       12.40563071       2.68213283       2.51894682       48       0.00014139      -0.00313814       0.00087510
S       17.29341106       7.60113129       2.61472997       49      -0.00277286       0.00164224      -0.00150956
S       17.20808093       2.53612058       7.59315937       50      -0.00254511       0.00167570       0.00001709
S       12.03874022       7.55223742       7.50735812       51       0.00047391      -0.00347278      -0.00138073
103
Lattice="20.110191271466377 0.0 0.0 0.0 10.055095635733188 0.0 0.0 0.0 10.055095635733188" Properties=species:S:1:pos:R:3:spacegroup_kinds:I:1:forces:R:3 spacegroup="P 1" unit_cell=conventional occupancy="_JSON {\"0\": {\"P\": 1.0}, \"1\": {\"P\": 1.0}, \"2\": {\"P\": 1.0}, \"3\": {\"P\": 1.0}, \"4\": {\"S\": 1.0}, \"5\": {\"S\": 1.0}, \"6\": {\"S\": 1.0}, \"7\": {\"S\": 1.0}, \"8\": {\"S\": 1.0}, \"9\": {\"S\": 1.0}, \"10\": {\"S\": 1.0}, \"11\": {\"S\": 1.0}, \"12\": {\"S\": 1.0}, \"13\": {\"S\": 1.0}, \"14\": {\"S\": 1.0}, \"15\": {\"S\": 1.0}, \"16\": {\"S\": 1.0}, \"17\": {\"S\": 1.0}, \"18\": {\"S\": 1.0}, \"19\": {\"S\": 1.0}, \"20\": {\"Li\": 1.0}, \"21\": {\"Li\": 1.0}, \"22\": {\"Li\": 1.0}, \"23\": {\"Li\": 1.0}, \"24\": {\"Li\": 1.0}, \"25\": {\"Li\": 1.0}, \"26\": {\"Li\": 1.0}, \"27\": {\"Li\": 1.0}, \"28\": {\"Li\": 1.0}, \"29\": {\"Li\": 1.0}, \"30\": {\"Li\": 1.0}, \"31\": {\"Li\": 1.0}, \"32\": {\"Li\": 1.0}, \"33\": {\"Li\": 1.0}, \"34\": {\"Li\": 1.0}, \"35\": {\"Li\": 1.0}, \"36\": {\"Li\": 1.0}, \"37\": {\"Li\": 1.0}, \"38\": {\"Li\": 1.0}, \"39\": {\"Li\": 1.0}, \"40\": {\"Li\": 1.0}, \"41\": {\"Li\": 1.0}, \"42\": {\"Li\": 1.0}, \"43\": {\"Li\": 1.0}, \"44\": {\"Cl\": 1.0}, \"45\": {\"Cl\": 1.0}, \"46\": {\"Cl\": 1.0}, \"47\": {\"Cl\": 1.0}, \"48\": {\"S\": 1.0}, \"49\": {\"S\": 1.0}, \"50\": {\"S\": 1.0}, \"51\": {\"S\": 1.0}}" charge=0 spin=0 energy=-429.6512128929984 free_energy=-429.6512128929984 stress="-0.0008267859282918914 -0.00013337770879601272 -0.0005385995900996456 -0.00013337770879601272 0.0026492898211900894 -0.0012467963302720073 -0.0005385995900996456 -0.0012467963302720073 0.0018582043676448603" pbc="T T T"
P        4.72587624       5.11185916       4.81909779        0      -0.00109372       0.00575925      -0.00668667
P       -0.29384908      10.10260673       5.04512886        1       0.01212461      -0.01002515      -0.01333224
P       -0.28550525       5.01322670      10.04282928        2       0.01263579       0.01655605       0.01691505
P        4.78753593       0.01266411       9.86258992        3       0.00014910      -0.00214885       0.00572618
S        5.72816534       6.36981506       6.08962597        4       0.00087245       0.00017332       0.00183638
S        0.88107599       1.20046717       6.29601497        5       0.00033980       0.00353500       0.00307877
S        0.89636251       6.18415539       1.20356715        6      -0.01328147      -0.01055120      -0.00848395
S        5.95208672       1.26564958       0.97901699        7       0.00237315       0.00085420       0.00054376
S        3.46256516       3.84010461       5.88454646        8      -0.00095693      -0.00276420      -0.00143948
S        8.43376356       9.03091935       6.32849162        9      -0.00028702       0.00179444       0.00113785
S        8.62121244       3.76681258       1.21861895       10       0.00085225      -0.00017829       0.00056902
S        3.65734822       8.78964229       1.01514821       11       0.00469808       0.00237682      -0.00090449
S        3.52559303       6.34670949       3.68404290       12       0.00676020      -0.00101910      -0.00009953
S        8.50232783       1.31629724       3.93524682       13       0.00019801       0.00124274       0.00252627
S        8.63342350       6.16868886       8.82022195       14       0.00201327       0.00020751       0.00205012
S        3.47712381       1.17854437       8.78684495       15      -0.00046989       0.00372978       0.00025203
S        5.97097060       3.91614871       3.73030131       16       0.00267586      -0.00027977      -0.00067061
S        0.93954467       8.90907754       3.92467312       17      -0.00990214       0.01204925       0.00705320
S        0.98347351       3.83797346       8.91897865       18       0.00219902      -0.00028011      -0.00378867
S        5.96290325       8.88420085       8.73006400       19      -0.00066645       0.00129440      -0.00196594
Li       7.71344365       9.93097014       2.06341354       21       0.00103575       0.00039215       0.00161439
Li       7.43777319       4.91305041       6.97753662       22      -0.00276370       0.00190195       0.00413462
Li       1.53052951       9.71589170       8.12727761       23       0.00299984       0.00013558       0.00269060
Li       8.84396776       7.73849169       0.69272704       24       0.00377897      -0.00028547       0.00270649
Li       2.98633152       3.11213021       0.30356889       25      -0.00384445      -0.00189620       0.00114192
Li       3.21071148       8.08305906       5.59868821       26       0.00205259       0.00287559      -0.00781740
Li       9.06481996       2.80247131       5.93716395       27      -0.00015780       0.00254432       0.00137236
Li       6.70511635       3.34550204       9.74321834       28       0.00050777      -0.00003835       0.00075161
Li       4.58136235       2.06442584      12.88285712       29      -0.00011765       0.00195869      -0.00101330
Li       2.59262468       1.80734204       4.70705350       30      -0.00459734       0.00374851      -0.00118581
Li       7.30412146       7.64019286       4.71889505       31       0.00162739       0.00043194       0.00184534
Li       2.34280988       5.29199662       7.39800149       32       0.00437215      -0.00385198      -0.01034479
Li       7.76079430       0.54531383       8.41082099       33      -0.00095467       0.00206330       0.00060138
Li       7.78511283       5.37745786       2.89277356       34       0.00035741       0.00087455      -0.00043835
Li       1.91458959       0.13892394       1.98649279       35      -0.00401766       0.00229679      -0.00148469
Li       1.83746765       4.69636034       3.02280751       36      -0.00121218       0.00289601      -0.00033724
Li       4.97935828       8.32184033       2.98827560       37       0.00248903       0.00186466       0.00203673
Li       4.85161631       2.97007059       7.67199708       38       0.00032238       0.00192670       0.00118328
Li       2.57626701       7.08613062       9.68545331       39       0.01820406      -0.02335626      -0.00123704
Li      -0.16183193       7.01125029       6.81931996       40       0.00679171      -0.00095983      -0.00079278
Li       6.54911577       1.31299877       5.53987497       41       0.00120706       0.00027605      -0.00057154
Li       5.78524800       7.00888821       0.40819479       42       0.00543620       0.00289983       0.00138721
Li      -0.07581885       2.05692571       1.95862772       43      -0.00543376       0.00488599      -0.00198507
Cl       9.57868743       9.95424483      10.02819810       44       0.00147628      -0.00118994       0.00018041
Cl       4.68821776       4.79442393      -0.38282498       45       0.00274873       0.00301116      -0.00082206
Cl       4.62073997       0.13295455       4.59007629       46       0.00160475       0.00160660       0.00114883
Cl       9.57064649       5.01805428       5.15213093       47       0.00099108       0.00126120      -0.00013300
S        2.23629904       2.42257351       2.44888735       48      -0.00344367       0.00297854      -0.00034418
S        7.14770859       7.62124516       2.35122715       49       0.00379453       0.00066412       0.00172674
S        7.16830278       2.63285281       7.45433537       50      -0.00015695       0.00194555       0.00122177
S        1.99465530       7.53699032       7.51778997       51       0.00549689      -0.00374167      -0.00638413
P       14.65547467       5.07546755       5.09831064        0      -0.00294533      -0.00431392      -0.00220581
P        9.65968462      10.09049415       5.04693666        1      -0.00470783       0.00358696       0.00316207
P        9.75422831       4.99144638      10.07648264        2      -0.00196232      -0.00075896       0.00125360
P       14.69279485       0.06586594      10.15833149        3      -0.00400864       0.00179190       0.00128808
S       15.80038045       6.30001381       6.27778688        4      -0.00009945       0.00298112       0.00039856
S       10.88387832       1.13538352       6.27997934        5       0.00035717      -0.00010496       0.00119754
S       10.77638434       6.25785186       1.28684445        6       0.00344028      -0.00263350       0.00041535
S       16.01622934       1.27209134       1.11082322        7      -0.00338231      -0.00098257      -0.00167150
S       13.44733061       3.99147607       6.36612834        8       0.00336106      -0.00350826       0.00078403
S       18.53258701       9.02715943       6.25144091        9      -0.00086931      -0.00273585       0.00359501
S       18.60701607       3.82410325       1.15213101       10      -0.00534002      -0.00078730      -0.00193432
S       13.59498264       8.92396819       1.38337636       11      -0.00159317      -0.00128683      -0.00147669
S       13.40940620       6.11775235       3.83289713       12      -0.00183507      -0.00413107       0.00189953
S       18.62846747       1.27797891       3.90208443       13      -0.00529642       0.00348298       0.00163579
S       18.55860278       6.03361292       8.79354125       14      -0.00277285       0.00488701      -0.00348960
S       13.40106267       1.20766191       9.05542147       15      -0.00313182      -0.00163623      -0.00044714
S       15.95742957       3.88751030       4.03726722       16       0.00054022       0.00070017       0.00022320
S       10.69612488       8.82733657       3.82077760       17      -0.00133772      -0.00044538      -0.00200712
S       10.98863983       3.80319696       8.95819289       18      -0.00056817      -0.00304478      -0.00125017
S       15.77308095       8.92995677       8.87816707       19      -0.00147213      -0.00067557      -0.00326572
Li      11.24707055       4.64151172       3.24453088       20      -0.00036618      -0.00336113       0.00039674
Li      17.60490602       9.87551218       2.22003086       21      -0.00385402       0.00082606       0.00269570
Li      17.43636955       4.31111597       6.08529695       22      -0.01057614       0.00235990       0.00720760
Li      13.73013774       9.35902888       7.37386893       23       0.00383668      -0.00537302       0.00041202
Li      19.62469729       7.94831487       2.13231570       24      -0.00197982       0.00911622      -0.00210558
Li      12.96168565       3.51830476       0.31403564       25      -0.00464238      -0.00341074       0.00081465
Li      12.18005739       7.60829326       5.29203498       26      -0.00404255      -0.00239221      -0.00165888
Li      19.51589531       2.58269079       7.60294209       27       0.00003417       0.00431421       0.00071224
Li      16.88412424       3.95519347       9.38419689       28      -0.00233705       0.00332912      -0.00104048
Li      12.10671531       7.72918261       9.93649977       29       0.00136969      -0.00556838      -0.00148851
Li      14.64116052       2.77809046       2.39130076       30       0.00546091      -0.00620147       0.00083110
Li      17.55302761       7.35274041       4.81086325       31      -0.00014089       0.00131934      -0.00195769
Li      14.00149012       5.95756036       7.97613292       32      -0.00174002      -0.00462083      -0.00176549
Li      17.53519211       0.66728296       9.12209732       33       0.00035007       0.00812017      -0.00030218
Li      17.85639684       5.27626287       2.98505153       34      -0.00103472       0.00236726      -0.00081703
Li      12.18368398       0.28698769       2.70232440       35      -0.00211738      -0.00308293      -0.00053260
Li      12.78223787       2.06422597       4.91719175       36       0.00026304      -0.00308256       0.00133951
Li      14.99764099       7.18908432       2.37616452       37      -0.00290050      -0.00335364      -0.00049090
Li      14.87743492       2.18684549       7.29120082       38      -0.00325776      -0.00103376       0.00602697
Li      10.43379332       9.14832488       7.78699245       39       0.00136577      -0.00146824       0.00013867
Li      10.73615978       5.65273683       7.25559082       40      -0.00062291      -0.00332035       0.00058232
Li      16.96103241       0.88031375       5.76368995       41       0.00532356      -0.00056943       0.00020829
Li      16.96712102       7.19708154       0.16387156       42      -0.00187509       0.00010947      -0.00023858
Li      10.50407774       2.12200929       0.81947136       43       0.00120271      -0.00715762       0.00348954
Cl      19.61598411      10.09807806      10.55385927       44       0.00090866       0.00380831       0.00039391
Cl      14.82932572       5.07640526       0.05546322       45      -0.00040126      -0.00107703       0.00019201
Cl      14.57261071       0.48826939       5.46913482       46      -0.00160810      -0.00174605      -0.00202010
Cl      19.23923724       5.45745418       5.00183878       47      -0.00012043       0.00161135      -0.00229970
S       12.29701888       2.59207614       2.49855710       48       0.00014139      -0.00313814       0.00087510
S       17.30316498       7.54438858       2.45911126       49      -0.00277286       0.00164224      -0.00150956
S       17.21110284       2.45416784       7.57726123       50      -0.00254511       0.00167570       0.00001709
S       12.19152544       7.54380143       7.62096938       51       0.00047391      -0.00347278      -0.00138073
103
Lattice="20.110191271466377 0.0 0.0 0.0 10.055095635733188 0.0 0.0 0.0 10.055095635733188" Properties=species:S:1:pos:R:3:spacegroup_kinds:I:1:forces:R:3 spacegroup="P 1" unit_cell=conventional occupancy="_JSON {\"0\": {\"P\": 1.0}, \"1\": {\"P\": 1.0}, \"2\": {\"P\": 1.0}, \"3\": {\"P\": 1.0}, \"4\": {\"S\": 1.0}, \"5\": {\"S\": 1.0}, \"6\": {\"S\": 1.0}, \"7\": {\"S\": 1.0}, \"8\": {\"S\": 1.0}, \"9\": {\"S\": 1.0}, \"10\": {\"S\": 1.0}, \"11\": {\"S\": 1.0}, \"12\": {\"S\": 1.0}, \"13\": {\"S\": 1.0}, \"14\": {\"S\": 1.0}, \"15\": {\"S\": 1.0}, \"16\": {\"S\": 1.0}, \"17\": {\"S\": 1.0}, \"18\": {\"S\": 1.0}, \"19\": {\"S\": 1.0}, \"20\": {\"Li\": 1.0}, \"21\": {\"Li\": 1.0}, \"22\": {\"Li\": 1.0}, \"23\": {\"Li\": 1.0}, \"24\": {\"Li\": 1.0}, \"25\": {\"Li\": 1.0}, \"26\": {\"Li\": 1.0}, \"27\": {\"Li\": 1.0}, \"28\": {\"Li\": 1.0}, \"29\": {\"Li\": 1.0}, \"30\": {\"Li\": 1.0}, \"31\": {\"Li\": 1.0}, \"32\": {\"Li\": 1.0}, \"33\": {\"Li\": 1.0}, \"34\": {\"Li\": 1.0}, \"35\": {\"Li\": 1.0}, \"36\": {\"Li\": 1.0}, \"37\": {\"Li\": 1.0}, \"38\": {\"Li\": 1.0}, \"39\": {\"Li\": 1.0}, \"40\": {\"Li\": 1.0}, \"41\": {\"Li\": 1.0}, \"42\": {\"Li\": 1.0}, \"43\": {\"Li\": 1.0}, \"44\": {\"Cl\": 1.0}, \"45\": {\"Cl\": 1.0}, \"46\": {\"Cl\": 1.0}, \"47\": {\"Cl\": 1.0}, \"48\": {\"S\": 1.0}, \"49\": {\"S\": 1.0}, \"50\": {\"S\": 1.0}, \"51\": {\"S\": 1.0}}" charge=0 spin=0 energy=-429.6512128929984 free_energy=-429.6512128929984 stress="-0.0008267859282918914 -0.00013337770879601272 -0.0005385995900996456 -0.00013337770879601272 0.0026492898211900894 -0.0012467963302720073 -0.0005385995900996456 -0.0012467963302720073 0.0018582043676448603" pbc="T T T"
P        4.78382129       5.09952682       4.98889609        0      -0.00109372       0.00575925      -0.00668667
P       -0.23849347      10.10521227       4.98906048        1       0.01212461      -0.01002515      -0.01333224
P       -0.39867365       5.00756376       9.99059599        2       0.01263579       0.01655605       0.01691505
P        4.78732622      -0.01327188      10.00673493        3       0.00014910      -0.00214885       0.00572618
S        5.90669498       6.36569270       6.11395332        4       0.00087245       0.00017332       0.00183638
S        1.00060797       1.22645987       6.13889206        5       0.00033980       0.00353500       0.00307877
S        0.84578109       6.19151098       1.08875233        6      -0.01328147      -0.01055120      -0.00848395
S        5.94385469       1.23567621       1.12108366        7       0.00237315       0.00085420       0.00054376
S        3.56812195       3.93675998       6.18333104        8      -0.00095693      -0.00276420      -0.00143948
S        8.81090578       8.89728320       6.33927816        9      -0.00028702       0.00179444       0.00113785
S        8.51529820       3.80731206       1.18689277       10       0.00085225      -0.00017829       0.00056902
S        3.69150253       8.76988848       1.18633027       11       0.00469808       0.00237682      -0.00090449
S        3.59338662       6.22637692       3.72065847       12       0.00676020      -0.00101910      -0.00009953
S        8.53878136       1.29528576       3.97195058       13       0.00019801       0.00124274       0.00252627
S        8.57981493       6.29712067       8.97766447       14       0.00201327       0.00020751       0.00205012
S        3.50779434       1.13756655       8.87698657       15      -0.00046989       0.00372978       0.00025203
S        5.93154417       3.83692625       3.82357355       16       0.00267586      -0.00027977      -0.00067061
S        0.81703244       8.81469159       3.79458765       17      -0.00990214       0.01204925       0.00705320
S        0.78397967       3.90932982       8.71989450       18       0.00219902      -0.00028011      -0.00378867
S        5.89959875       8.81243568       8.84929353       19      -0.00066645       0.00129440      -0.00196594
Li       7.67911169       9.86854164       2.15520266       21       0.00103575       0.00039215       0.00161439
Li       7.31476739       4.87577174       7.40195203       22      -0.00276370       0.00190195       0.00413462
Li       2.67887279       9.73430961       7.13899704       23       0.00299984       0.00013558       0.00269060
Li       9.05267526       7.78005717       0.96555776       24       0.00377897      -0.00028547       0.00270649
Li       2.49602200       2.97604144       0.10839918       25      -0.00384445      -0.00189620       0.00114192
Li       2.24663553       7.46678763       5.27296091       26       0.00205259       0.00287559      -0.00781740
Li       9.20657018       2.86640281       6.10413850       27      -0.00015780       0.00254432       0.00137236
Li       7.53992201       2.33361644       9.67693504       28       0.00050777      -0.00003835       0.00075161
Li       4.52852152       3.06460222      12.03712152       29      -0.00011765       0.00195869      -0.00101330
Li       2.78049059       2.16282192       4.70138846       30      -0.00459734       0.00374851      -0.00118581
Li       7.82051897       7.31449710       4.77547367       31       0.00162739       0.00043194       0.00184534
Li       2.76770049       5.44133884       8.03362813       32       0.00437215      -0.00385198      -0.01034479
Li       7.40530919       0.21608686       7.70345848       33      -0.00095467       0.00206330       0.00060138
Li       7.59342273       5.29712985       2.81498604       34       0.00035741       0.00087455      -0.00043835
Li       2.63228893       0.19185661       2.80117424       35      -0.00401766       0.00229679      -0.00148469
Li       1.86688642       4.74493679       2.78946646       36      -0.00121218       0.00289601      -0.00033724
Li       5.06499828       8.26763321       3.35076051       37       0.00248903       0.00186466       0.00203673
Li       4.94302954       3.00161948       8.05943190       38       0.00032238       0.00192670       0.00118328
Li       1.88661438       7.97318030       9.74874042       39       0.01820406      -0.02335626      -0.00123704
Li      -0.23011523       7.07948934       7.11424356       40       0.00679171      -0.00095983      -0.00079278
Li       6.28879639       1.81056126       5.23636131       41       0.00120706       0.00027605      -0.00057154
Li       5.68938883       7.08230439       0.59857782       42       0.00543620       0.00289983       0.00138721
Li      -0.00482014       1.83344060       1.85241143       43      -0.00543376       0.00488599      -0.00198507
Cl       9.58782891      10.13026819      10.43234019       44       0.00147628      -0.00118994       0.00018041
Cl       4.41283194       4.63989360      -0.19113423       45       0.00274873       0.00301116      -0.00082206
Cl       4.38674861       0.19669170       4.73806039       46       0.00160475       0.00160660       0.00114883
Cl       9.59784992       5.13784066       5.18032990       47       0.00099108       0.00126120      -0.00013300
S        2.24737828       2.48960082       2.39753387       48      -0.00344367       0.00297854      -0.00034418
S        7.17844653       7.57656175       2.48258923       49       0.00379453       0.00066412       0.00172674
S        7.17135121       2.51897207       7.38567323       50      -0.00015695       0.00194555       0.00122177
S        2.00375771       7.56256623       7.51744135       51       0.00549689      -0.00374167      -0.00638413
P       14.67081742       5.05367662       4.97970899        0      -0.00294533      -0.00431392      -0.00220581
P        9.83664580      10.11140256       5.01704165        1      -0.00470783       0.00358696       0.00316207
P        9.74385670       4.99884883      10.07556179        2      -0.00196232      -0.00075896       0.00125360
P       14.76702799       0.00617491      10.08149077        3      -0.00400864       0.00179190       0.00128808
S       15.69845217       6.36166479       6.18706634        4      -0.00009945       0.00298112       0.00039856
S       11.07094074       1.23230927       6.13932876        5       0.00035717      -0.00010496       0.00119754
S       10.86111968       6.12584397       1.32633097        6       0.00344028      -0.00263350       0.00041535
S       15.89912659       1.28405585       1.12190486        7      -0.00338231      -0.00098257      -0.00167150
S       13.44912646       3.89152155       6.15987041        8       0.00336106      -0.00350826       0.00078403
S       18.58553114       9.10050548       6.27444770        9      -0.00086931      -0.00273585       0.00359501
S       18.63661940       3.78040073       1.18838886       10      -0.00534002      -0.00078730      -0.00193432
S       13.63907370       8.85899260       1.28939441       11      -0.00159317      -0.00128683      -0.00147669
S       13.41218213       6.17633136       3.75461871       12      -0.00183507      -0.00413107       0.00189953
S       18.68668144       1.27733118       3.84124016       13      -0.00529642       0.00348298       0.00163579
S       18.39570556       6.18479667       8.94196319       14      -0.00277285       0.00488701      -0.00348960
S       13.47784754       1.03212000       8.83278365       15      -0.00313182      -0.00163623      -0.00044714
S       15.80881257       3.85966799       3.80375404       16       0.00054022       0.00070017       0.00022320
S       10.84023565       8.90784827       3.71394411       17      -0.00133772      -0.00044538      -0.00200712
S       10.84020813       3.89098408       8.77137959       18      -0.00056817      -0.00304478      -0.00125017
S       15.90403264       8.82385741       8.89633729       19      -0.00147213      -0.00067557      -0.00326572
Li      13.96867829       4.26528312       2.18837241       20      -0.00036618      -0.00336113       0.00039674
Li      17.58732275       9.87695395       2.13905878       21      -0.00385402       0.00082606       0.00269570
Li      17.39684262       4.77037505       6.93195619       22      -0.01057614       0.00235990       0.00720760
Li      14.05200087       9.07995050       7.25012208       23       0.00383668      -0.00537302       0.00041202
Li      19.29326107       7.86620402       1.52589715       24      -0.00197982       0.00911622      -0.00210558
Li      12.60248897       2.92097852       0.08651904       25      -0.00464238      -0.00341074       0.00081465
Li      12.05099907       7.53963118       5.28831081       26      -0.00404255      -0.00239221      -0.00165888
Li      19.53552382       2.94333615       6.98378709       27       0.00003417       0.00431421       0.00071224
Li      16.76718619       3.13892883       9.73670912       28      -0.00233705       0.00332912      -0.00104048
Li      12.57661680       7.15288720       9.94164321       29       0.00136969      -0.00556838      -0.00148851
Li      13.23149191       1.96535735       4.46816870       30       0.00546091      -0.00620147       0.00083110
Li      17.72071432       7.32391189       4.85331014       31      -0.00014089       0.00131934      -0.00195769
Li      13.84490831       5.74374107       7.76737077       32      -0.00174002      -0.00462083      -0.00176549
Li      17.87297954       0.41194127       8.61224353       33       0.00035007       0.00812017      -0.00030218
Li      17.79227989       5.20469769       3.06880063       34      -0.00103472       0.00236726      -0.00081703
Li      12.00214595       0.28598900       2.11043269       35      -0.00211738      -0.00308293      -0.00053260
Li      11.35170035       4.55616091       3.50898661       36       0.00026304      -0.00308256       0.00133951
Li      15.00917883       8.02162026       3.13398446       37      -0.00290050      -0.00335364      -0.00049090
Li      14.93498071       2.16725560       7.15186317       38      -0.00325776      -0.00103376       0.00602697
Li      10.86057142       9.45874261       7.91868122       39       0.00136577      -0.00146824       0.00013867
Li      10.50935787       5.94310024       7.36013558       40      -0.00062291      -0.00332035       0.00058232
Li      17.03398654       1.00796796       5.61300140       41       0.00532356      -0.00056943       0.00020829
Li      16.41632947       6.88063176       0.37818713       42      -0.00187509       0.00010947      -0.00023858
Li       9.94805757       2.05861395       1.97275396       43       0.00120271      -0.00715762       0.00348954
Cl      19.40302029       9.97111094      10.46044924       44       0.00090866       0.00380831       0.00039391
Cl      14.58367813       5.06752920      -0.04144442       45      -0.00040126      -0.00107703       0.00019201
Cl      14.76813394       0.25305869       5.28048074       46      -0.00160810      -0.00174605      -0.00202010
Cl      19.12948187       5.34365005       5.33525782       47      -0.00012043       0.00161135      -0.00229970
S       12.21202176       2.61230629       2.40705468       48       0.00014139      -0.00313814       0.00087510
S       17.21181825       7.50645945       2.55279685       49      -0.00277286       0.00164224      -0.00150956
S       17.24893848       2.48142694       7.52090778       50      -0.00254511       0.00167570       0.00001709
S       12.26250748       7.52977571       7.61711064       51       0.00047391      -0.00347278      -0.00138073
103
Lattice="20.110191271466377 0.0 0.0 0.0 10.055095635733188 0.0 0.0 0.0 10.055095635733188" Properties=species:S:1:pos:R:3:spacegroup_kinds:I:1:forces:R:3 spacegroup="P 1" unit_cell=conventional occupancy="_JSON {\"0\": {\"P\": 1.0}, \"1\": {\"P\": 1.0}, \"2\": {\"P\": 1.0}, \"3\": {\"P\": 1.0}, \"4\": {\"S\": 1.0}, \"5\": {\"S\": 1.0}, \"6\": {\"S\": 1.0}, \"7\": {\"S\": 1.0}, \"8\": {\"S\": 1.0}, \"9\": {\"S\": 1.0}, \"10\": {\"S\": 1.0}, \"11\": {\"S\": 1.0}, \"12\": {\"S\": 1.0}, \"13\": {\"S\": 1.0}, \"14\": {\"S\": 1.0}, \"15\": {\"S\": 1.0}, \"16\": {\"S\": 1.0}, \"17\": {\"S\": 1.0}, \"18\": {\"S\": 1.0}, \"19\": {\"S\": 1.0}, \"20\": {\"Li\": 1.0}, \"21\": {\"Li\": 1.0}, \"22\": {\"Li\": 1.0}, \"23\": {\"Li\": 1.0}, \"24\": {\"Li\": 1.0}, \"25\": {\"Li\": 1.0}, \"26\": {\"Li\": 1.0}, \"27\": {\"Li\": 1.0}, \"28\": {\"Li\": 1.0}, \"29\": {\"Li\": 1.0}, \"30\": {\"Li\": 1.0}, \"31\": {\"Li\": 1.0}, \"32\": {\"Li\": 1.0}, \"33\": {\"Li\": 1.0}, \"34\": {\"Li\": 1.0}, \"35\": {\"Li\": 1.0}, \"36\": {\"Li\": 1.0}, \"37\": {\"Li\": 1.0}, \"38\": {\"Li\": 1.0}, \"39\": {\"Li\": 1.0}, \"40\": {\"Li\": 1.0}, \"41\": {\"Li\": 1.0}, \"42\": {\"Li\": 1.0}, \"43\": {\"Li\": 1.0}, \"44\": {\"Cl\": 1.0}, \"45\": {\"Cl\": 1.0}, \"46\": {\"Cl\": 1.0}, \"47\": {\"Cl\": 1.0}, \"48\": {\"S\": 1.0}, \"49\": {\"S\": 1.0}, \"50\": {\"S\": 1.0}, \"51\": {\"S\": 1.0}}" charge=0 spin=0 energy=-429.6512128929984 free_energy=-429.6512128929984 stress="-0.0008267859282918914 -0.00013337770879601272 -0.0005385995900996456 -0.00013337770879601272 0.0026492898211900894 -0.0012467963302720073 -0.0005385995900996456 -0.0012467963302720073 0.0018582043676448603" pbc="T T T"
P        4.81196822       5.05343127       4.94195782        0      -0.00109372       0.00575925      -0.00668667
P       -0.20505491      10.07971555       4.83830665        1       0.01212461      -0.01002515      -0.01333224
P       -0.29275748       5.06996433       9.85245128        2       0.01263579       0.01655605       0.01691505
P        4.74716115       0.08096985       9.98450683        3       0.00014910      -0.00214885       0.00572618
S        5.88118459       6.40354901       6.04989593        4       0.00087245       0.00017332       0.00183638
S        0.99085222       1.16652752       6.07308164        5       0.00033980       0.00353500       0.00307877
S        0.91390094       6.33635879       0.88649587        6      -0.01328147      -0.01055120      -0.00848395
S        5.72955792       1.50333185       1.07438207        7       0.00237315       0.00085420       0.00054376
S        3.79551498       3.76982606       6.20815667        8      -0.00095693      -0.00276420      -0.00143948
S        8.86569617       8.90497220       6.43966844        9      -0.00028702       0.00179444       0.00113785
S        8.79840058       3.96689993       1.37711368       10       0.00085225      -0.00017829       0.00056902
S        3.65161549       8.88558832       1.14994638       11       0.00469808       0.00237682      -0.00090449
S        3.55067758       6.02505245       3.64878736       12       0.00676020      -0.00101910      -0.00009953
S        8.41737959       1.39157449       4.18222395       13       0.00019801       0.00124274       0.00252627
S        8.42100208       6.46960902       9.12062097       14       0.00201327       0.00020751       0.00205012
S        3.46970720       1.08330503       8.69840765       15      -0.00046989       0.00372978       0.00025203
S        6.03130713       3.84769401       3.79150801       16       0.00267586      -0.00027977      -0.00067061
S        0.89680219       8.94962415       3.57034616       17      -0.00990214       0.01204925       0.00705320
S        0.85334028       3.91958620       8.58101023       18       0.00219902      -0.00028011      -0.00378867
S        6.02346218       8.95390060       8.94871298       19      -0.00066645       0.00129440      -0.00196594
Li       6.65613512      10.10155218       2.95465505       21       0.00103575       0.00039215       0.00161439
Li       6.68905638       5.03445861       8.03457068       22      -0.00276370       0.00190195       0.00413462
Li       2.94588239       9.63127979       6.69206694       23       0.00299984       0.00013558       0.00269060
Li       8.88180985       8.19574291       1.06582886       24       0.00377897      -0.00028547       0.00270649
Li       2.18823518       2.57932405       0.04187127       25      -0.00384445      -0.00189620       0.00114192
Li       1.71357864       6.96798398       5.01667853       26       0.00205259       0.00287559      -0.00781740
Li       9.05397674       3.15293712       6.25698824       27      -0.00015780       0.00254432       0.00137236
Li       7.87231216       2.24904641       9.93825914       28       0.00050777      -0.00003835       0.00075161
Li       4.30352060       3.60003031      12.05047101       29      -0.00011765       0.00195869      -0.00101330
Li       2.17925784       2.77582809       4.68731285       30      -0.00459734       0.00374851      -0.00118581
Li       7.98474988       7.26228889       4.83867779       31       0.00162739       0.00043194       0.00184534
Li       2.89226072       5.40058106       7.87984256       32       0.00437215      -0.00385198      -0.01034479
Li       7.59912827       0.36312322       7.84674793       33      -0.00095467       0.00206330       0.00060138
Li       7.44241758       5.45857704       2.68095533       34       0.00035741       0.00087455      -0.00043835
Li       2.85975904       0.37559078       2.91551949       35      -0.00401766       0.00229679      -0.00148469
Li       0.75258720       4.58656606       2.61764751       36      -0.00121218       0.00289601      -0.00033724
Li       5.13327137       7.87815973       4.04822971       37       0.00248903       0.00186466       0.00203673
Li       5.10635650       2.85443056       8.68870283       38       0.00032238       0.00192670       0.00118328
Li       2.19296842       7.91033312       9.50234771       39       0.01820406      -0.02335626      -0.00123704
Li      -0.15524199       7.37052994       7.30204066       40       0.00679171      -0.00095983      -0.00079278
Li       5.89734832       2.17547187       5.66925454       41       0.00120706       0.00027605      -0.00057154
Li       5.63322937       7.33934724       0.77397323       42       0.00543620       0.00289983       0.00138721
Li      -0.03519037       1.74625313       1.82258758       43      -0.00543376       0.00488599      -0.00198507
Cl       9.62384777      10.53321253      10.24546095       44       0.00147628      -0.00118994       0.00018041
Cl       4.70995865       4.97925833      -0.29445057       45       0.00274873       0.00301116      -0.00082206
Cl       4.64222502       0.12387559       4.69684793       46       0.00160475       0.00160660       0.00114883
Cl       9.82772200       5.43414731       5.10676582       47       0.00099108       0.00126120      -0.00013300
S        2.12734434       2.60205736       2.35819691       48      -0.00344367       0.00297854      -0.00034418
S        7.11528159       7.76794962       2.65512024       49       0.00379453       0.00066412       0.00172674
S        7.20591182       2.68660061       7.67019464       50      -0.00015695       0.00194555       0.00122177
S        2.12582798       7.51183504       7.24968514       51       0.00549689      -0.00374167      -0.00638413
P       14.82638831       5.13345118       4.88303278        0      -0.00294533      -0.00431392      -0.00220581
P        9.76619617      10.22461068       5.15317902        1      -0.00470783       0.00358696       0.00316207
P        9.73810506       5.26273888      10.13546951        2      -0.00196232      -0.00075896       0.00125360
P       14.60675902       0.18461554       9.97539149        3      -0.00400864       0.00179190       0.00128808
S       16.06413406       6.33614909       6.00278796        4      -0.00009945       0.00298112       0.00039856
S       10.90848423       1.44614902       6.30774199        5       0.00035717      -0.00010496       0.00119754
S       10.84960762       6.51913732       1.27076970        6       0.00344028      -0.00263350       0.00041535
S       15.76049559       1.49695142       0.98887416        7      -0.00338231      -0.00098257      -0.00167150
S       13.73816774       3.92042651       6.16957986        8       0.00336106      -0.00350826       0.00078403
S       18.62656206       8.94276250       5.98931489        9      -0.00086931      -0.00273585       0.00359501
S       18.80684149       3.85238802       1.10644672       10      -0.00534002      -0.00078730      -0.00193432
S       13.68005117       8.92946263       1.22725745       11      -0.00159317      -0.00128683      -0.00147669
S       13.54361223       6.24498239       3.73810935       12      -0.00183507      -0.00413107       0.00189953
S       18.64938885       1.32141905       3.77739796       13      -0.00529642       0.00348298       0.00163579
S       18.45811852       6.23376231       8.84177352       14      -0.00277285       0.00488701      -0.00348960
S       13.26339429       1.20725775       8.80656698       15      -0.00313182      -0.00163623      -0.00044714
S       15.95832352       3.92861392       3.65299275       16       0.00054022       0.00070017       0.00022320
S       10.88668717       9.19125622       3.78149762       17      -0.00133772      -0.00044538      -0.00200712
S       10.85882976       4.19933094       8.78419761       18      -0.00056817      -0.00304478      -0.00125017
S       15.85119614       9.16044524       8.74584444       19      -0.00147213      -0.00067557      -0.00326572
Li      14.28895725       3.45346868       1.75331013       20      -0.00036618      -0.00336113       0.00039674
Li      17.53079866      10.00870681       1.96605300       21      -0.00385402       0.00082606       0.00269570
Li      16.58246052       4.68736845       8.00931838       22      -0.01057614       0.00235990       0.00720760
Li      14.51510287       8.19033878       6.83206841       23       0.00383668      -0.00537302       0.00041202
Li      19.07478629       7.84422639       0.86395798       24      -0.00197982       0.00911622      -0.00210558
Li      11.51967584       2.25921163       0.17309051       25      -0.00464238      -0.00341074       0.00081465
Li      11.77477052       7.20804801       5.18439610       26      -0.00404255      -0.00239221      -0.00165888
Li      18.05998453       3.53598156       5.14989656       27       0.00003417       0.00431421       0.00071224
Li      17.28180085       1.14189711       9.13388874       28      -0.00233705       0.00332912      -0.00104048
Li      12.56104173       7.33997578       9.84895874       29       0.00136969      -0.00556838      -0.00148851
Li      12.32979481       2.63200381       4.76895538       30       0.00546091      -0.00620147       0.00083110
Li      18.14059530       7.08119365       4.42215006       31      -0.00014089       0.00131934      -0.00195769
Li      13.09330421       5.29732225       8.05617654       32      -0.00174002      -0.00462083      -0.00176549
Li      19.50937787       2.19088789       7.61413574       33       0.00035007       0.00812017      -0.00030218
Li      17.14070915       5.35012894       2.04906177       34      -0.00103472       0.00236726      -0.00081703
Li      12.95679275       0.39921678       3.04184242       35      -0.00211738      -0.00308293      -0.00053260
Li      10.98337308       4.65139004       2.89370557       36       0.00026304      -0.00308256       0.00133951
Li      15.18865479       8.10345580       3.47668893       37      -0.00290050      -0.00335364      -0.00049090
Li      14.90680674       1.89128875       6.96287581       38      -0.00325776      -0.00103376       0.00602697
Li      11.55515182       9.70054866       7.86865047       39       0.00136577      -0.00146824       0.00013867
Li      10.20561717       6.41134071       7.39743165       40      -0.00062291      -0.00332035       0.00058232
Li      17.02782036       0.71288214       5.51820329       41       0.00532356      -0.00056943       0.00020829
Li      15.73190687       7.44235360       0.45798015       42      -0.00187509       0.00010947      -0.00023858
Li      10.12438296       1.30238750       2.41338853       43       0.00120271      -0.00715762       0.00348954
Cl      19.24936868      10.22411914      10.23168575       44       0.00090866       0.00380831       0.00039391
Cl      14.79314714       5.29514636      -0.19640895       45      -0.00040126      -0.00107703       0.00019201
Cl      14.74227267      -0.01505997       5.02976813       46      -0.00160810      -0.00174605      -0.00202010
Cl      19.78538723       5.27585120       4.70622624       47      -0.00012043       0.00161135      -0.00229970
S       12.16642840       2.57844347       2.46979727       48       0.00014139      -0.00313814       0.00087510
S       17.19427959       7.67045414       2.31481352       49      -0.00277286       0.00164224      -0.00150956
S       17.22318845       2.49309941       7.17689415       50      -0.00254511       0.00167570       0.00001709
S       12.33868667       7.49656597       7.50875656       51       0.00047391      -0.00347278      -0.00138073
103
Lattice="20.110191271466377 0.0 0.0 0.0 10.055095635733188 0.0 0.0 0.0 10.055095635733188" Properties=species:S:1:pos:R:3:spacegroup_kinds:I:1:forces:R:3 spacegroup="P 1" unit_cell=conventional occupancy="_JSON {\"0\": {\"P\": 1.0}, \"1\": {\"P\": 1.0}, \"2\": {\"P\": 1.0}, \"3\": {\"P\": 1.0}, \"4\": {\"S\": 1.0}, \"5\": {\"S\": 1.0}, \"6\": {\"S\": 1.0}, \"7\": {\"S\": 1.0}, \"8\": {\"S\": 1.0}, \"9\": {\"S\": 1.0}, \"10\": {\"S\": 1.0}, \"11\": {\"S\": 1.0}, \"12\": {\"S\": 1.0}, \"13\": {\"S\": 1.0}, \"14\": {\"S\": 1.0}, \"15\": {\"S\": 1.0}, \"16\": {\"S\": 1.0}, \"17\": {\"S\": 1.0}, \"18\": {\"S\": 1.0}, \"19\": {\"S\": 1.0}, \"20\": {\"Li\": 1.0}, \"21\": {\"Li\": 1.0}, \"22\": {\"Li\": 1.0}, \"23\": {\"Li\": 1.0}, \"24\": {\"Li\": 1.0}, \"25\": {\"Li\": 1.0}, \"26\": {\"Li\": 1.0}, \"27\": {\"Li\": 1.0}, \"28\": {\"Li\": 1.0}, \"29\": {\"Li\": 1.0}, \"30\": {\"Li\": 1.0}, \"31\": {\"Li\": 1.0}, \"32\": {\"Li\": 1.0}, \"33\": {\"Li\": 1.0}, \"34\": {\"Li\": 1.0}, \"35\": {\"Li\": 1.0}, \"36\": {\"Li\": 1.0}, \"37\": {\"Li\": 1.0}, \"38\": {\"Li\": 1.0}, \"39\": {\"Li\": 1.0}, \"40\": {\"Li\": 1.0}, \"41\": {\"Li\": 1.0}, \"42\": {\"Li\": 1.0}, \"43\": {\"Li\": 1.0}, \"44\": {\"Cl\": 1.0}, \"45\": {\"Cl\": 1.0}, \"46\": {\"Cl\": 1.0}, \"47\": {\"Cl\": 1.0}, \"48\": {\"S\": 1.0}, \"49\": {\"S\": 1.0}, \"50\": {\"S\": 1.0}, \"51\": {\"S\": 1.0}}" charge=0 spin=0 energy=-429.6512128929984 free_energy=-429.6512128929984 stress="-0.0008267859282918914 -0.00013337770879601272 -0.0005385995900996456 -0.00013337770879601272 0.0026492898211900894 -0.0012467963302720073 -0.0005385995900996456 -0.0012467963302720073 0.0018582043676448603" pbc="T T T"
P        4.81391924       5.07705044       4.98359049        0      -0.00109372       0.00575925      -0.00668667
P       -0.10629311      10.04871685       5.00886668        1       0.01212461      -0.01002515      -0.01333224
P       -0.15259775       5.08379947      10.04331496        2       0.01263579       0.01655605       0.01691505
P        4.85754059       0.05843774       9.97705737        3       0.00014910      -0.00214885       0.00572618
S        6.05311838       6.35892370       5.97808385        4       0.00087245       0.00017332       0.00183638
S        1.07992717       1.12886328       6.25092267        5       0.00033980       0.00353500       0.00307877
S        0.95274394       6.28220737       1.19393966        6      -0.01328147      -0.01055120      -0.00848395
S        6.09628449       1.34477310       0.94546752        7       0.00237315       0.00085420       0.00054376
S        3.77993873       3.91204784       6.34080811        8      -0.00095693      -0.00276420      -0.00143948
S        8.68029143       8.69608743       5.99136847        9      -0.00028702       0.00179444       0.00113785
S        8.81935674       3.60722871       1.04273503       10       0.00085225      -0.00017829       0.00056902
S        3.74150927       9.00956809       1.27386660       11       0.00469808       0.00237682      -0.00090449
S        3.51410239       6.16280598       3.81248027       12       0.00676020      -0.00101910      -0.00009953
S        8.64626761       1.18185154       3.77589564       13       0.00019801       0.00124274       0.00252627
S        8.54320646       6.14719326       8.83643802       14       0.00201327       0.00020751       0.00205012
S        3.61834590       1.23271926       8.81138666       15      -0.00046989       0.00372978       0.00025203
S        5.82386103       3.78098992       3.74520128       16       0.00267586      -0.00027977      -0.00067061
S        1.03901709       8.89485910       3.79899859       17      -0.00990214       0.01204925       0.00705320
S        1.00024848       3.94876190       8.76741270       18       0.00219902      -0.00028011      -0.00378867
S        5.86947055       8.79395336       8.81384051       19      -0.00066645       0.00129440      -0.00196594
Li       7.13143077       9.79570491       2.48316716       21       0.00103575       0.00039215       0.00161439
Li       7.31941819       4.71842886       7.28334136       22      -0.00276370       0.00190195       0.00413462
Li       3.09954973       9.66774054       6.98389925       23       0.00299984       0.00013558       0.00269060
Li       8.79855063       7.73576425       0.78435399       24       0.00377897      -0.00028547       0.00270649
Li       2.35559890       2.63008274       0.25819196       25      -0.00384445      -0.00189620       0.00114192
Li       1.97722452       7.23237127       5.35636336       26       0.00205259       0.00287559      -0.00781740
Li       8.98702829       2.65124525       5.82750120       27      -0.00015780       0.00254432       0.00137236
Li       8.12026834       1.68716869       9.48558634       28       0.00050777      -0.00003835       0.00075161
Li       3.87172770       4.21540600      12.32054606       29      -0.00011765       0.00195869      -0.00101330
Li       2.11528962       2.84326830       4.90780484       30      -0.00459734       0.00374851      -0.00118581
Li       8.10823470       6.77088092       4.46250196       31       0.00162739       0.00043194       0.00184534
Li       2.98335999       5.46901633       8.20327971       32       0.00437215      -0.00385198      -0.01034479
Li       6.82247261       0.03055597       6.94222058       33      -0.00095467       0.00206330       0.00060138
Li       7.00881791       5.08040091       1.97434248       34       0.00035741       0.00087455      -0.00043835
Li       2.98590554       0.41281527       3.15422985       35      -0.00401766       0.00229679      -0.00148469
Li       0.60121892       4.45696926       2.81653043       36      -0.00121218       0.00289601      -0.00033724
Li       5.32054267       7.85933873       4.00393419       37       0.00248903       0.00186466       0.00203673
Li       5.45523366       2.86487527       8.96401261       38       0.00032238       0.00192670       0.00118328
Li       2.00703920       8.10183937       9.86513070       39       0.01820406      -0.02335626      -0.00123704
Li      -0.03117171       7.64200156       7.63996661       40       0.00679171      -0.00095983      -0.00079278
Li       5.53189589       2.25473736       5.66397848       41       0.00120706       0.00027605      -0.00057154
Li       5.42424722       7.26371127       0.65534689       42       0.00543620       0.00289983       0.00138721
Li       0.11589286       1.58471330       1.93628658       43      -0.00543376       0.00488599      -0.00198507
Cl       9.76474232       9.88944292      10.03068244       44       0.00147628      -0.00118994       0.00018041
Cl       4.74134806       4.92096290       0.09266485       45       0.00274873       0.00301116      -0.00082206
Cl       4.77261842       0.00666214       5.05322722       46       0.00160475       0.00160660       0.00114883
Cl       9.63539346       4.89872692       5.05708239       47       0.00099108       0.00126120      -0.00013300
S        2.15687425       2.60621156       2.58512127       48      -0.00344367       0.00297854      -0.00034418
S        7.08297171       7.43132991       2.40009876       49       0.00379453       0.00066412       0.00172674
S        7.20370538       2.37192365       7.37852753       50      -0.00015695       0.00194555       0.00122177
S        2.22871337       7.59011164       7.61392401       51       0.00549689      -0.00374167      -0.00638413
P       14.92695436       4.99337614       5.12573493        0      -0.00294533      -0.00431392      -0.00220581
P        9.85472003       9.95076210       4.83812092        1      -0.00470783       0.00358696       0.00316207
P        9.84368125       4.97918259       9.92463108        2      -0.00196232      -0.00075896       0.00125360
P       14.96891459      -0.00383231      10.15297050        3      -0.00400864       0.00179190       0.00128808
S       16.07947735       6.28225756       6.19279871        4      -0.00009945       0.00298112       0.00039856
S       10.93552338       1.06687006       6.17785486        5       0.00035717      -0.00010496       0.00119754
S       10.80585220       6.23502031       1.18196597        6       0.00344028      -0.00263350       0.00041535
S       15.96731624       1.24663650       1.36206887        7      -0.00338231      -0.00098257      -0.00167150
S       13.77890707       3.87367454       6.43142270        8       0.00336106      -0.00350826       0.00078403
S       18.70421536       8.90036562       6.14705833        9      -0.00086931      -0.00273585       0.00359501
S       18.87063788       3.78725501       1.19770940       10      -0.00534002      -0.00078730      -0.00193432
S       13.77848295       8.77735182       1.22874391       11      -0.00159317      -0.00128683      -0.00147669
S       13.61366408       5.97718717       3.86490140       12      -0.00183507      -0.00413107       0.00189953
S       18.79367707       1.20786140       3.85174240       13      -0.00529642       0.00348298       0.00163579
S       18.63041390       6.26698296       8.98574012       14      -0.00277285       0.00488701      -0.00348960
S       13.79872893       1.14638373       8.89488062       15      -0.00313182      -0.00163623      -0.00044714
S       15.98650323       3.71065988       3.90868876       16       0.00054022       0.00070017       0.00022320
S       11.02546096       8.87857151       3.58014884       17      -0.00133772      -0.00044538      -0.00200712
S       11.09244808       4.00982175       8.63233474       18      -0.00056817      -0.00304478      -0.00125017
S       16.17955122       8.84977609       9.01495421       19      -0.00147213      -0.00067557      -0.00326572
Li      14.13268400       4.02254801       2.32457811       20      -0.00036618      -0.00336113       0.00039674
Li      17.18461097       9.79296517       2.84278922       21      -0.00385402       0.00082606       0.00269570
Li      17.77535332       4.84883603       7.27257529       22      -0.01057614       0.00235990       0.00720760
Li      13.24206586       9.68991291       7.06560355       23       0.00383668      -0.00537302       0.00041202
Li      18.32501431       8.22441311       0.49117924       24      -0.00197982       0.00911622      -0.00210558
Li      12.63826647       2.89142976       0.18439454       25      -0.00464238      -0.00341074       0.00081465
Li      12.55806248       7.73726410       5.21424866       26      -0.00404255      -0.00239221      -0.00165888
Li      17.91267998       2.93695458       5.27059065       27       0.00003417       0.00431421       0.00071224
Li      17.76273746       1.96030854       9.92652715       28      -0.00233705       0.00332912      -0.00104048
Li      11.92047203       8.01989542       9.88209051       29       0.00136969      -0.00556838      -0.00148851
Li      12.37363575       2.63492408       4.86673211       30       0.00546091      -0.00620147       0.00083110
Li      17.97223107       7.09533670       4.67118249       31      -0.00014089       0.00131934      -0.00195769
Li      13.13144805       5.57679926       8.16714149       32      -0.00174002      -0.00462083      -0.00176549
Li      19.78287841       1.93132483       8.04830777       33       0.00035007       0.00812017      -0.00030218
Li      17.61605198       5.18378887       2.75772578       34      -0.00103472       0.00236726      -0.00081703
Li      13.04783803       0.33067607       3.01800685       35      -0.00211738      -0.00308293      -0.00053260
Li      10.63928705       4.33974856       2.81136315       36       0.00026304      -0.00308256       0.00133951
Li      15.05406512       7.87197146       3.43834792       37      -0.00290050      -0.00335364      -0.00049090
Li      15.28454601       3.06257284       8.22533081       38      -0.00325776      -0.00103376       0.00602697
Li      10.30110739       9.22635898       7.74449327       39       0.00136577      -0.00146824       0.00013867
Li      10.38607240       6.06854309       7.09304770       40      -0.00062291      -0.00332035       0.00058232
Li      16.98780894       0.27655746       7.19575710       41       0.00532356      -0.00056943       0.00020829
Li      15.58995081       7.00282258       0.62959536       42      -0.00187509       0.00010947      -0.00023858
Li      10.28974964       1.35261054       1.91788087       43       0.00120271      -0.00715762       0.00348954
Cl      19.64706650      10.34005060      10.04559902       44       0.00090866       0.00380831       0.00039391
Cl      14.56512049       4.80206097      -0.00426044       45      -0.00040126      -0.00107703       0.00019201
Cl      14.39062302      -0.41510964       4.93802639       46      -0.00160810      -0.00174605      -0.00202010
Cl      19.34860551       5.01588853       4.79158274       47      -0.00012043       0.00161135      -0.00229970
S       12.24918769       2.55031777       2.51426333       48       0.00014139      -0.00313814       0.00087510
S       17.15598085       7.48706813       2.45632836       49      -0.00277286       0.00164224      -0.00150956
S       17.51254326       2.52697909       7.60518797       50      -0.00254511       0.00167570       0.00001709
S       12.11027186       7.66062891       7.55798169       51       0.00047391      -0.00347278      -0.00138073
