103
Lattice="20.110191271466377 0.0 0.0 0.0 10.055095635733188 0.0 0.0 0.0 10.055095635733188" Properties=species:S:1:pos:R:3:spacegroup_kinds:I:1:forces:R:3 spacegroup="P 1" unit_cell=conventional occupancy="_JSON {\"0\": {\"P\": 1.0}, \"1\": {\"P\": 1.0}, \"2\": {\"P\": 1.0}, \"3\": {\"P\": 1.0}, \"4\": {\"S\": 1.0}, \"5\": {\"S\": 1.0}, \"6\": {\"S\": 1.0}, \"7\": {\"S\": 1.0}, \"8\": {\"S\": 1.0}, \"9\": {\"S\": 1.0}, \"10\": {\"S\": 1.0}, \"11\": {\"S\": 1.0}, \"12\": {\"S\": 1.0}, \"13\": {\"S\": 1.0}, \"14\": {\"S\": 1.0}, \"15\": {\"S\": 1.0}, \"16\": {\"S\": 1.0}, \"17\": {\"S\": 1.0}, \"18\": {\"S\": 1.0}, \"19\": {\"S\": 1.0}, \"20\": {\"Li\": 1.0}, \"21\": {\"Li\": 1.0}, \"22\": {\"Li\": 1.0}, \"23\": {\"Li\": 1.0}, \"24\": {\"Li\": 1.0}, \"25\": {\"Li\": 1.0}, \"26\": {\"Li\": 1.0}, \"27\": {\"Li\": 1.0}, \"28\": {\"Li\": 1.0}, \"29\": {\"Li\": 1.0}, \"30\": {\"Li\": 1.0}, \"31\": {\"Li\": 1.0}, \"32\": {\"Li\": 1.0}, \"33\": {\"Li\": 1.0}, \"34\": {\"Li\": 1.0}, \"35\": {\"Li\": 1.0}, \"36\": {\"Li\": 1.0}, \"37\": {\"Li\": 1.0}, \"38\": {\"Li\": 1.0}, \"39\": {\"Li\": 1.0}, \"40\": {\"Li\": 1.0}, \"41\": {\"Li\": 1.0}, \"42\": {\"Li\": 1.0}, \"43\": {\"Li\": 1.0}, \"44\": {\"Cl\": 1.0}, \"45\": {\"Cl\": 1.0}, \"46\": {\"Cl\": 1.0}, \"47\": {\"Cl\": 1.0}, \"48\": {\"S\": 1.0}, \"49\": {\"S\": 1.0}, \"50\": {\"S\": 1.0}, \"51\": {\"S\": 1.0}}" charge=0 spin=0 energy=-429.6512151896945 free_energy=-429.6512151896945 stress="-0.0008268858255665807 0.00013350663103630798 0.0005389809995584233 0.00013350663103630798 0.0026491587829845643 -0.0012469310409263129 0.0005389809995584233 -0.0012469310409263129 0.0018580882654774152" pbc="T T T"
P        4.83950492       4.94935077       5.09955689        0      -0.00110773      -0.00560108       0.00667671
P       -0.12114569      10.02254884       5.01974417        1       0.01206881       0.00996209       0.01323701
P       -0.17218150       5.00523573      10.10856522        2       0.01243144      -0.01621543      -0.01654616
P        4.80393513      -0.04214014      10.11476731        3       0.00009044       0.00202279      -0.00571196
S        6.07150990       5.98124389       6.38577692        4       0.00265071       0.00024046       0.00065242
S        1.06188639       1.20761658       6.16256950        5      -0.00985453      -0.01199356      -0.00700138
S        0.92220820       6.20946897       1.26365197        6       0.00214069       0.00018592       0.00367819
S        6.03786173       0.95556581       1.34381115        7      -0.00062608      -0.00124122       0.00199737
S        3.61351766       3.77425504       6.27971987        8       0.00673645       0.00098123       0.00011930
S        8.64473158       8.80459889       6.19729960        9       0.00016955      -0.00125954      -0.00251617
S        8.52483156       3.82236758       1.11309812       10       0.00196178      -0.00024425      -0.00201808
S        3.50624989       8.83469916       1.14109726       11      -0.00042850      -0.00368676      -0.00028872
S        3.71319957       6.29566053       3.99853101       12      -0.00092368       0.00272440       0.00147930
S        8.66904909       0.97932694       3.67351761       13      -0.00031692      -0.00178276      -0.00115551
S        8.80310911       6.08791396       8.63465100       14       0.00083874       0.00017617      -0.00057718
S        3.76681270       1.31770995       8.95311129       15       0.00468413      -0.00234982       0.00087761
S        5.85353338       3.79328209       3.77558186       16       0.00090483      -0.00021845      -0.00186318
S        1.02966824       8.81255818       3.87209997       17       0.00033155      -0.00351791      -0.00305432
S        0.99164915       3.73071509       8.98278846       18      -0.01306281       0.01032470       0.00825176
S        5.81766420       8.78006927       8.81776009       19       0.00236465      -0.00083668      -0.00053762
Li       8.09084914       9.49164066       1.76600692       21      -0.00094912      -0.00206235      -0.00060960
Li       8.09766553       4.46845574       6.72324066       22       0.00036052      -0.00086851       0.00043277
Li       2.08448659       9.93632208       7.90350647       23      -0.00401849      -0.00230471       0.00147772
Li       6.97870899       6.99463999       0.06212858       24       0.00050165       0.00003405      -0.00075582
Li       2.98210701       3.17054167       0.46506952       25       0.00437295       0.00386941       0.01035485
Li       2.96388271       8.17862140       5.45485940       26      -0.00460001      -0.00374539       0.00117675
Li       6.81165997       1.92267226       5.06617008       27       0.00162259      -0.00042662      -0.00184303
Li       7.34672353       2.21554035       9.75126849       28       0.00378908       0.00028409      -0.00271125
Li       3.86794162       7.29726068       9.24143227       29      -0.00384651       0.00190312      -0.00113214
Li       3.08682083       1.95062695       4.66018177       30       0.00205543      -0.00287382       0.00780756
Li       7.10456805       7.51872581       4.77642774       31      -0.00015783      -0.00254383      -0.00137304
Li       2.35214211       5.28466581       7.67529772       32      -0.00012184      -0.00196440       0.00101572
Li       8.97841021       0.79531897       7.66212771       33       0.00103968      -0.00039455      -0.00160720
Li       8.77864417       5.82680357       2.70997164       34      -0.00275710      -0.00189143      -0.00413993
Li       1.98295743       0.31850701       2.22659477       35       0.00299778      -0.00013889      -0.00269052
Li       1.97851994       4.82794770       3.08375016       36       0.00679156       0.00096063       0.00079916
Li       5.30623315       9.04494117       2.84389342       37       0.00120383      -0.00027969       0.00057379
Li       5.44779992       3.92862330       7.91533863       38       0.00543782      -0.00289425      -0.00138977
Li       0.58476583       7.82842280       9.49567209       39      -0.00543400      -0.00487973       0.00199388
Li       0.10057428       6.95876624       6.62326366       40      -0.00122954      -0.00286686       0.00032540
Li       5.51952104       0.64563418       7.29286478       41       0.00248139      -0.00187831      -0.00201537
Li       5.39530586       5.69286622       2.25198323       42       0.00031033      -0.00192018      -0.00117338
Li      -0.04919055       2.58789358       2.58433499       43       0.01819941       0.02333957       0.00125269
Cl       9.59295147      10.10499638       9.92788994       44       0.00146517       0.00118734      -0.00017814
Cl       4.73172878       5.13025412      -0.09472246       45       0.00275508      -0.00302236       0.00082237
Cl       4.76744957       0.02953689       5.04330567       46       0.00160154      -0.00160148      -0.00114318
Cl       9.74071230       5.01176877       4.86574539       47       0.00098580      -0.00125965       0.00012951
S        2.21251706       2.57797253       2.57925446       48       0.00550161       0.00374309       0.00637583
S        7.05932959       7.43333288       2.41365853       49      -0.00015835      -0.00194263      -0.00122254
S        7.19786729       2.35350575       7.40663757       50       0.00378837      -0.00066838      -0.00172681
S        2.14120964       7.61124331       7.64743830       51      -0.00343874      -0.00298576       0.00033898
P       14.94982833       5.12290214       5.01410149        0      -0.00295802       0.00430962       0.00221811
P        9.84966341       9.87197256       4.91251875        1      -0.00457666      -0.00350433      -0.00305464
P        9.82650862       4.91120711      10.00382406        2      -0.00184533       0.00081469      -0.00126277
P       14.91051564       0.10135606      10.01393468        3      -0.00399848      -0.00174462      -0.00126697
S       15.95562050       6.37927122       6.26605918        4       0.00055316      -0.00069822      -0.00022167
S       10.93612830       1.15220094       6.08604060        5      -0.00140835       0.00037829       0.00192858
S       10.78725640       6.22495857       1.20478023        6      -0.00060292       0.00301284       0.00121582
S       16.06538403       1.15411516       1.25731021        7      -0.00147379       0.00066611       0.00325500
S       13.77181295       3.87097104       6.16418136        8      -0.00182769       0.00413589      -0.00190004
S       18.77093538       8.86830024       6.22828997        9      -0.00528224      -0.00347005      -0.00162758
S       18.60650938       3.94755848       1.23114024       10      -0.00271806      -0.00487467       0.00344386
S       13.59248264       8.89344175       0.93535477       11      -0.00314783       0.00161607       0.00045246
S       13.76658274       6.26138084       3.73906068       12       0.00335533       0.00350673      -0.00078940
S       18.69528771       1.10391602       3.86352896       13      -0.00085049       0.00272766      -0.00357440
S       18.85505834       6.21143719       8.80608253       14      -0.00531347       0.00074656       0.00193601
S       13.76622407       1.41630208       8.90099081       15      -0.00160101       0.00128628       0.00146806
S       16.15174455       3.97764541       3.81191000       16      -0.00009436      -0.00298570      -0.00040233
S       11.01427426       8.62295626       3.82351825       17       0.00034669       0.00009826      -0.00121132
S       11.07612233       3.61926953       9.03284492       18       0.00341789       0.00264172      -0.00040560
S       15.97158203       8.94474294       8.72861316       19      -0.00337289       0.00096323       0.00164936
Li      11.90912546       4.86684798       2.97897393       20      -0.00174203       0.00462005       0.00176491
Li      17.97051437       9.68853340       2.04871829       21       0.00035066      -0.00811940       0.00029787
Li      17.76386714       4.88627178       6.94843436       22      -0.00103571      -0.00235589       0.00081773
Li      12.39440853       9.89916835       7.63686449       23      -0.00212161       0.00308457       0.00052604
Li      17.59638545       7.77273726       0.14319702       24      -0.00234805      -0.00335193       0.00104554
Li      13.11273373       3.15709664       0.54280790       25       0.00137206       0.00556615       0.00148686
Li      13.01341984       8.04285380       5.33898608       26       0.00545540       0.00619333      -0.00082933
Li      19.77469788       3.01296417       6.96379101       27      -0.00014099      -0.00132211       0.00195386
Li      17.70890035       2.27102842       9.85966070       28      -0.00198375      -0.00912176       0.00211408
Li      14.12567151       7.35276401       9.03433027       29      -0.00464159       0.00340658      -0.00081519
Li      13.21752760       2.03495898       4.65857269       30      -0.00404778       0.00239369       0.00166477
Li      17.14884709       7.88179574       4.75515020       31       0.00002978      -0.00430852      -0.00071129
Li      12.61818338       5.21979437       7.90804710       32      -0.00036792       0.00336012      -0.00039677
Li      17.91863700       0.24208578       7.96722378       33      -0.00385134      -0.00082261      -0.00269994
Li      18.30613689       5.51499406       3.18706871       34      -0.01057039      -0.00235568      -0.00721070
Li      12.54559471       0.19794286       2.69352343       35       0.00383892       0.00537504      -0.00041421
Li      10.29037729       2.73090096       4.20142043       36      -0.00061765       0.00331599      -0.00057777
Li      15.04126502       8.48216703       2.82630044       37       0.00531264       0.00056852      -0.00020670
Li      15.26811266       3.21481984       8.06498452       38      -0.00187505      -0.00011137       0.00024000
Li      10.63779782       7.86443080       9.37428205       39       0.00121020       0.00715519      -0.00348232
Li      10.25587514       6.93218092       6.41972521       40       0.00026620       0.00308289      -0.00133755
Li      16.96522874       2.14607549       5.28828928       41      -0.00289879       0.00335048       0.00048680
Li      15.57264214       5.65986618       1.96878114       42      -0.00326316       0.00103243      -0.00601865
Li      10.36848972       2.08086563       1.03405333       43       0.00137009       0.00146327      -0.00014396
Cl      19.34474756       9.80178100      10.03221565       44       0.00092457      -0.00379011      -0.00039373
Cl      14.55512323       5.02935479      -0.23530433       45      -0.00039898       0.00107876      -0.00019306
Cl      14.37854614      -0.08813423       4.60746091       46      -0.00159972       0.00173950       0.00201637
Cl      19.63374183       5.01318042       5.31042840       47      -0.00011487      -0.00161256       0.00230314
S       12.09574991       2.54181873       2.62611229       48       0.00046667       0.00346797       0.00137950
S       17.13816559       7.48194572       2.44930985       49      -0.00255771      -0.00167371      -0.00001173
S       17.49469675       2.57183033       7.53682121       50      -0.00276104      -0.00164670       0.00150579
S       12.23524910       7.54932162       7.57030024       51       0.00013579       0.00313329      -0.00087645
103
Lattice="20.110191271466377 0.0 0.0 0.0 10.055095635733188 0.0 0.0 0.0 10.055095635733188" Properties=species:S:1:pos:R:3:spacegroup_kinds:I:1:forces:R:3 spacegroup="P 1" unit_cell=conventional occupancy="_JSON {\"0\": {\"P\": 1.0}, \"1\": {\"P\": 1.0}, \"2\": {\"P\": 1.0}, \"3\": {\"P\": 1.0}, \"4\": {\"S\": 1.0}, \"5\": {\"S\": 1.0}, \"6\": {\"S\": 1.0}, \"7\": {\"S\": 1.0}, \"8\": {\"S\": 1.0}, \"9\": {\"S\": 1.0}, \"10\": {\"S\": 1.0}, \"11\": {\"S\": 1.0}, \"12\": {\"S\": 1.0}, \"13\": {\"S\": 1.0}, \"14\": {\"S\": 1.0}, \"15\": {\"S\": 1.0}, \"16\": {\"S\": 1.0}, \"17\": {\"S\": 1.0}, \"18\": {\"S\": 1.0}, \"19\": {\"S\": 1.0}, \"20\": {\"Li\": 1.0}, \"21\": {\"Li\": 1.0}, \"22\": {\"Li\": 1.0}, \"23\": {\"Li\": 1.0}, \"24\": {\"Li\": 1.0}, \"25\": {\"Li\": 1.0}, \"26\": {\"Li\": 1.0}, \"27\": {\"Li\": 1.0}, \"28\": {\"Li\": 1.0}, \"29\": {\"Li\": 1.0}, \"30\": {\"Li\": 1.0}, \"31\": {\"Li\": 1.0}, \"32\": {\"Li\": 1.0}, \"33\": {\"Li\": 1.0}, \"34\": {\"Li\": 1.0}, \"35\": {\"Li\": 1.0}, \"36\": {\"Li\": 1.0}, \"37\": {\"Li\": 1.0}, \"38\": {\"Li\": 1.0}, \"39\": {\"Li\": 1.0}, \"40\": {\"Li\": 1.0}, \"41\": {\"Li\": 1.0}, \"42\": {\"Li\": 1.0}, \"43\": {\"Li\": 1.0}, \"44\": {\"Cl\": 1.0}, \"45\": {\"Cl\": 1.0}, \"46\": {\"Cl\": 1.0}, \"47\": {\"Cl\": 1.0}, \"48\": {\"S\": 1.0}, \"49\": {\"S\": 1.0}, \"50\": {\"S\": 1.0}, \"51\": {\"S\": 1.0}}" charge=0 spin=0 energy=-429.6512151896945 free_energy=-429.6512151896945 stress="-0.0008268858255665807 0.00013350663103630798 0.0005389809995584233 0.00013350663103630798 0.0026491587829845643 -0.0012469310409263129 0.0005389809995584233 -0.0012469310409263129 0.0018580882654774152" pbc="T T T"
P        4.77136658       4.87573536       5.18721812        0      -0.00110773      -0.00560108       0.00667671
P       -0.18281854      10.06918601       5.02204103        1       0.01206881       0.00996209       0.01323701
P       -0.33256532       4.98299354      10.08444731        2       0.01243144      -0.01621543      -0.01654616
P        4.84300115      -0.07007952      10.03203835        3       0.00009044       0.00202279      -0.00571196
S        5.81810171       6.09442268       6.47390530        4       0.00265071       0.00024046       0.00065242
S        1.01728349       1.24958539       6.13656804        5      -0.00985453      -0.01199356      -0.00700138
S        0.68791777       6.14541504       1.38894512        6       0.00214069       0.00018592       0.00367819
S        6.02799968       0.94452833       1.29359024        7      -0.00062608      -0.00124122       0.00199737
S        3.58821526       3.63827804       6.34885437        8       0.00673645       0.00098123       0.00011930
S        8.64881852       8.80054457       6.20931289        9       0.00016955      -0.00125954      -0.00251617
S        8.53932496       3.85977996       1.24467966       10       0.00196178      -0.00024425      -0.00201808
S        3.56717042       8.73962767       1.01124002       11      -0.00042850      -0.00368676      -0.00028872
S        3.55951335       6.06404914       3.99293340       12      -0.00092368       0.00272440       0.00147930
S        8.70779045       0.98490382       3.70221863       13      -0.00031692      -0.00178276      -0.00115551
S        8.68166365       6.23095888       8.87245924       14       0.00083874       0.00017617      -0.00057718
S        3.79910006       1.30200133       8.86767339       15       0.00468413      -0.00234982       0.00087761
S        5.92217561       3.76892705       3.93933502       16       0.00090483      -0.00021845      -0.00186318
S        0.94984294       8.72440174       3.95159523       17       0.00033155      -0.00351791      -0.00305432
S        0.92816991       3.78821367       8.98825381       18      -0.01306281       0.01032470       0.00825176
S        5.88663848       8.79893288       8.72466653       19       0.00236465      -0.00083668      -0.00053762
Li       8.07377543       9.47695023       1.82374145       21      -0.00094912      -0.00206235      -0.00060960
Li       7.79616251       4.72460897       7.17648277       22       0.00036052      -0.00086851       0.00043277
Li       2.24164164       9.87653059       7.67710078       23      -0.00401849      -0.00230471       0.00147772
Li       6.81465513       7.03749521       0.20851044       24       0.00050165       0.00003405      -0.00075582
Li       3.04873917       3.10661580       0.46382578       25       0.00437295       0.00386941       0.01035485
Li       3.00593758       7.97063588       5.42689561       26      -0.00460001      -0.00374539       0.00117675
Li       7.85701846       2.82656599       5.21124444       27       0.00162259      -0.00042662      -0.00184303
Li       7.70501374       2.08687871       9.81633409       28       0.00378908       0.00028409      -0.00271125
Li       4.03397224       7.11292604       8.87753519       29      -0.00384651       0.00190312      -0.00113214
Li       3.00334112       1.93663141       4.62276882       30       0.00205543      -0.00287382       0.00780756
Li       6.93915379       7.60367287       4.88115000       31      -0.00015783      -0.00254383      -0.00137304
Li       2.00305607       5.21450541       7.27134682       32      -0.00012184      -0.00196440       0.00101572
Li       8.80806643       0.71709784       7.67875085       33       0.00103968      -0.00039455      -0.00160720
Li       8.76068443       5.80599124       2.92532829       34      -0.00275710      -0.00189143      -0.00413993
Li       2.27104726       0.12110460       2.42373246       35       0.00299778      -0.00013889      -0.00269052
Li       1.84166126       4.59475250       3.04759919       36       0.00679156       0.00096063       0.00079916
Li       5.31194792       9.09530023       2.80122953       37       0.00120383      -0.00027969       0.00057379
Li       5.23444407       3.47777376       8.25622909       38       0.00543782      -0.00289425      -0.00138977
Li       0.79262096       7.80387335       9.58118448       39      -0.00543400      -0.00487973       0.00199388
Li      -0.02961172       7.10700029       6.65507486       40      -0.00122954      -0.00286686       0.00032540
Li       5.56685369       0.78353580       7.03709704       41       0.00248139      -0.00187831      -0.00201537
Li       5.42437810       5.62136351       2.38575530       42       0.00031033      -0.00192018      -0.00117338
Li      -0.04443666       2.02968704       1.72839697       43       0.01819941       0.02333957       0.00125269
Cl       9.52457522      10.18758567       9.98670510       44       0.00146517       0.00118734      -0.00017814
Cl       4.72858022       5.06478127       0.02690176       45       0.00275508      -0.00302236       0.00082237
Cl       4.48263461      -0.18749104       4.99621923       46       0.00160154      -0.00160148      -0.00114318
Cl       9.45548947       4.87825087       5.19805042       47       0.00098580      -0.00125965       0.00012951
S        2.13471502       2.39106906       2.47025835       48       0.00550161       0.00374309       0.00637583
S        7.03373230       7.43428398       2.53341603       49      -0.00015835      -0.00194263      -0.00122254
S        7.23085653       2.44974999       7.52560038       50       0.00378837      -0.00066838      -0.00172681
S        2.09104114       7.54309708       7.59889445       51      -0.00343874      -0.00298576       0.00033898
P       14.78241077       5.12531394       5.09917802        0      -0.00295802       0.00430962       0.00221811
P        9.88185162       9.95125783       5.00735766        1      -0.00457666      -0.00350433      -0.00305464
P        9.79934429       4.99716220      10.13476408        2      -0.00184533       0.00081469      -0.00126277
P       14.86072681       0.17821419      10.02587155        3      -0.00399848      -0.00174462      -0.00126697
S       15.76410256       6.36923678       6.39017219        4       0.00055316      -0.00069822      -0.00022167
S       10.81178823       1.23751807       6.26923594        5      -0.00140835       0.00037829       0.00192858
S       10.74769654       6.29599959       1.35853210        6      -0.00060292       0.00301284       0.00121582
S       16.01630746       1.43896542       1.09543371        7      -0.00147379       0.00066611       0.00325500
S       13.59113248       3.83437813       6.17641568        8      -0.00182769       0.00413589      -0.00190004
S       18.66113493       9.02952805       6.28684079        9      -0.00528224      -0.00347005      -0.00162758
S       18.46453448       3.84121958       1.11909812       10      -0.00271806      -0.00487467       0.00344386
S       13.79681612       9.01636119       1.23086941       11      -0.00314783       0.00161607       0.00045246
S       13.62532758       6.30720687       3.87490492       12       0.00335533       0.00350673      -0.00078940
S       18.77618412       1.04800424       3.67142949       13      -0.00085049       0.00272766      -0.00357440
S       18.73000981       6.24684828       8.82369640       14      -0.00531347       0.00074656       0.00193601
S       13.63379374       1.30000210       8.80317853       15      -0.00160101       0.00128628       0.00146806
S       16.10543202       4.11962028       3.86747527       16      -0.00009436      -0.00298570      -0.00040233
S       11.19844422       8.75606013       4.01641197       17       0.00034669       0.00009826      -0.00121132
S       10.98377290       3.81072420       8.98564925       18       0.00341789       0.00264172      -0.00040560
S       15.97503938       9.01378234       8.80501406       19      -0.00337289       0.00096323       0.00164936
Li      12.60859752       4.94399657       2.13901277       20      -0.00174203       0.00462005       0.00176491
Li      19.16934077       8.97163679       2.37466500       21       0.00035066      -0.00811940       0.00029787
Li      17.65990558       4.90767598       6.86950657       22      -0.00103571      -0.00235589       0.00081773
Li      11.97416201       9.87656307       7.87161407       23      -0.00212161       0.00308457       0.00052604
Li      17.63855190       7.94040825       0.21135187       24      -0.00234805      -0.00335193       0.00104554
Li      12.76905985       2.91547870       0.31267434       25       0.00137206       0.00556615       0.00148686
Li      12.92545105       7.85921020       5.61787073       26       0.00545540       0.00619333      -0.00082933
Li      19.67446357       3.00357320       7.01764027       27      -0.00014099      -0.00132211       0.00195386
Li      16.65492136       3.25829656       9.58112513       28      -0.00198375      -0.00912176       0.00211408
Li      14.00417326       7.44531893       9.34670473       29      -0.00464159       0.00340658      -0.00081519
Li      14.63344617       2.37043016       3.07154598       30      -0.00404778       0.00239369       0.00166477
Li      17.02640831       7.86905391       4.87162200       31       0.00002978      -0.00430852      -0.00071129
Li      12.72758674       5.25623344       8.03856255       32      -0.00036792       0.00336012      -0.00039677
Li      17.99441119       0.43807841       8.22749686       33      -0.00385134      -0.00082261      -0.00269994
Li      18.70346944       5.69439120       2.86501377       34      -0.01057039      -0.00235568      -0.00721070
Li      12.65697513       0.31648513       2.97115671       35       0.00383892       0.00537504      -0.00041421
Li      11.55643680       3.24220173       4.83050312       36      -0.00061765       0.00331599      -0.00057777
Li      15.92223541       9.52491241       2.63725394       37       0.00531264       0.00056852      -0.00020670
Li      15.06032420       1.92958863       6.90733556       38      -0.00187505      -0.00011137       0.00024000
Li      10.43347631       7.90645107       9.55346432       39       0.00121020       0.00715519      -0.00348232
Li      10.10576473       6.83187810       6.71942472       40       0.00026620       0.00308289      -0.00133755
Li      17.12624748       2.13289417       5.07436590       41      -0.00289879       0.00335048       0.00048680
Li      15.52447136       6.04628563       2.26344163       42      -0.00326316       0.00103243      -0.00601865
Li      10.13244855       2.15994489       2.03348455       43       0.00137009       0.00146327      -0.00014396
Cl      19.56024866       9.73882173      10.17388680       44       0.00092457      -0.00379011      -0.00039373
Cl      14.31428386       5.12415675       0.25902119       45      -0.00039898       0.00107876      -0.00019306
Cl      15.10120519       0.52266780       4.66861113       46      -0.00159972       0.00173950       0.00201637
Cl      19.70444296       5.06555133       5.42979170       47      -0.00011487      -0.00161256       0.00230314
S       12.34155543       2.63041751       2.62035897       48       0.00046667       0.00346797       0.00137950
S       17.27730828       7.59202307       2.53907670       49      -0.00255771      -0.00167371      -0.00001173
S       17.33212173       2.59539279       7.39624320       50      -0.00276104      -0.00164670       0.00150579
S       12.13621963       7.55200691       7.82527940       51       0.00013579       0.00313329      -0.00087645
103
Lattice="20.110191271466377 0.0 0.0 0.0 10.055095635733188 0.0 0.0 0.0 10.055095635733188" Properties=species:S:1:pos:R:3:spacegroup_kinds:I:1:forces:R:3 spacegroup="P 1" unit_cell=conventional occupancy="_JSON {\"0\": {\"P\": 1.0}, \"1\": {\"P\": 1.0}, \"2\": {\"P\": 1.0}, \"3\": {\"P\": 1.0}, \"4\": {\"S\": 1.0}, \"5\": {\"S\": 1.0}, \"6\": {\"S\": 1.0}, \"7\": {\"S\": 1.0}, \"8\": {\"S\": 1.0}, \"9\": {\"S\": 1.0}, \"10\": {\"S\": 1.0}, \"11\": {\"S\": 1.0}, \"12\": {\"S\": 1.0}, \"13\": {\"S\": 1.0}, \"14\": {\"S\": 1.0}, \"15\": {\"S\": 1.0}, \"16\": {\"S\": 1.0}, \"17\": {\"S\": 1.0}, \"18\": {\"S\": 1.0}, \"19\": {\"S\": 1.0}, \"20\": {\"Li\": 1.0}, \"21\": {\"Li\": 1.0}, \"22\": {\"Li\": 1.0}, \"23\": {\"Li\": 1.0}, \"24\": {\"Li\": 1.0}, \"25\": {\"Li\": 1.0}, \"26\": {\"Li\": 1.0}, \"27\": {\"Li\": 1.0}, \"28\": {\"Li\": 1.0}, \"29\": {\"Li\": 1.0}, \"30\": {\"Li\": 1.0}, \"31\": {\"Li\": 1.0}, \"32\": {\"Li\": 1.0}, \"33\": {\"Li\": 1.0}, \"34\": {\"Li\": 1.0}, \"35\": {\"Li\": 1.0}, \"36\": {\"Li\": 1.0}, \"37\": {\"Li\": 1.0}, \"38\": {\"Li\": 1.0}, \"39\": {\"Li\": 1.0}, \"40\": {\"Li\": 1.0}, \"41\": {\"Li\": 1.0}, \"42\": {\"Li\": 1.0}, \"43\": {\"Li\": 1.0}, \"44\": {\"Cl\": 1.0}, \"45\": {\"Cl\": 1.0}, \"46\": {\"Cl\": 1.0}, \"47\": {\"Cl\": 1.0}, \"48\": {\"S\": 1.0}, \"49\": {\"S\": 1.0}, \"50\": {\"S\": 1.0}, \"51\": {\"S\": 1.0}}" charge=0 spin=0 energy=-429.6512151896945 free_energy=-429.6512151896945 stress="-0.0008268858255665807 0.00013350663103630798 0.0005389809995584233 0.00013350663103630798 0.0026491587829845643 -0.0012469310409263129 0.0005389809995584233 -0.0012469310409263129 0.0018580882654774152" pbc="T T T"
P        4.73755029       4.89601075       5.13406637        0      -0.00110773      -0.00560108       0.00667671
P       -0.27402082       9.86522928       4.96468083        1       0.01206881       0.00996209       0.01323701
P       -0.40088999       4.93953946       9.97024111        2       0.01243144      -0.01621543      -0.01654616
P        4.65125522      -0.01359633      10.20030975        3       0.00009044       0.00202279      -0.00571196
S        5.66830768       6.16684802       6.46391353        4       0.00265071       0.00024046       0.00065242
S        0.89334678       1.05785139       6.11562540        5      -0.00985453      -0.01199356      -0.00700138
S        0.63550294       6.19283949       1.16482676        6       0.00214069       0.00018592       0.00367819
S        5.70397291       1.12577834       1.46808658        7      -0.00062608      -0.00124122       0.00199737
S        3.52386703       3.62514746       6.23964385        8       0.00673645       0.00098123       0.00011930
S        8.72998465       8.82019147       6.31505410        9       0.00016955      -0.00125954      -0.00251617
S        8.59872466       3.98303487       1.33759834       10       0.00196178      -0.00024425      -0.00201808
S        3.50327477       8.71106471       1.22035004       11      -0.00042850      -0.00368676      -0.00028872
S        3.55246649       6.03155057       3.87842765       12      -0.00092368       0.00272440       0.00147930
S        8.54527838       1.29927683       4.03601038       13      -0.00031692      -0.00178276      -0.00115551
S        8.52856046       6.23615421       8.90764768       14       0.00083874       0.00017617      -0.00057718
S        3.49358024       1.21002256       9.02503867       15       0.00468413      -0.00234982       0.00087761
S        6.05438193       3.86095934       3.99589609       16       0.00090483      -0.00021845      -0.00186318
S        0.94481169       8.53619276       3.96300816       17       0.00033155      -0.00351791      -0.00305432
S        0.84116583       3.68095703       8.92918032       18      -0.01306281       0.01032470       0.00825176
S        5.77333451       8.81640556       8.96305137       19       0.00236465      -0.00083668      -0.00053762
Li       8.50128360       9.41050284       2.43731987       21      -0.00094912      -0.00206235      -0.00060960
Li       6.42359514       4.61160505       8.48026907       22       0.00036052      -0.00086851       0.00043277
Li       2.51432772       9.73616696       7.40279324       23      -0.00401849      -0.00230471       0.00147772
Li       7.24213122       7.58289295       0.38676366       24       0.00050165       0.00003405      -0.00075582
Li       3.45788803       2.96714157       0.82534834       25       0.00437295       0.00386941       0.01035485
Li       3.53883749       7.70814849       5.61918276       26      -0.00460001      -0.00374539       0.00117675
Li       7.85176286       3.32746947       5.64027868       27       0.00162259      -0.00042662      -0.00184303
Li       9.57205989       2.04275739       8.22053813       28       0.00378908       0.00028409      -0.00271125
Li       3.78779867       7.23068159       9.33039919       29      -0.00384651       0.00190312      -0.00113214
Li       2.77419380       1.93618372       4.66937389       30       0.00205543      -0.00287382       0.00780756
Li       6.94934062       7.62090146       4.99786053       31      -0.00015783      -0.00254383      -0.00137304
Li       2.39274547       5.12770645       7.79961378       32      -0.00012184      -0.00196440       0.00101572
Li       7.21564668       0.13384639       7.63004765       33       0.00103968      -0.00039455      -0.00160720
Li       8.85839458       5.90723687       3.00240070       34      -0.00275710      -0.00189143      -0.00413993
Li       2.20870792       0.08225996       2.60249200       35       0.00299778      -0.00013889      -0.00269052
Li       1.51130173       4.59064268       3.13441165       36       0.00679156       0.00096063       0.00079916
Li       5.32881438       9.16757367       2.90308265       37       0.00120383      -0.00027969       0.00057379
Li       7.51033862       1.97922598      10.14469527       38       0.00543782      -0.00289425      -0.00138977
Li       0.44149517       7.77131952       9.12064963       39      -0.00543400      -0.00487973       0.00199388
Li       0.40454617       7.07478118       5.94043975       40      -0.00122954      -0.00286686       0.00032540
Li       5.00380213       1.98353955       7.24937478       41       0.00248139      -0.00187831      -0.00201537
Li       5.47468115       5.73679444       2.37326416       42       0.00031033      -0.00192018      -0.00117338
Li      -0.01234445       1.95380096       1.38741816       43       0.01819941       0.02333957       0.00125269
Cl       9.31789992      10.36880873      10.23561106       44       0.00146517       0.00118734      -0.00017814
Cl       4.71515429       5.01213648       0.02260903       45       0.00275508      -0.00302236       0.00082237
Cl       4.48909191      -0.18977753       5.16299733       46       0.00160154      -0.00160148      -0.00114318
Cl       9.90836689       5.07420874       5.09067042       47       0.00098580      -0.00125965       0.00012951
S        1.99589447       2.36287830       2.52916958       48       0.00550161       0.00374309       0.00637583
S        7.08950628       7.53221605       2.67988300       49      -0.00015835      -0.00194263      -0.00122254
S        7.25905191       2.46887199       7.81430322       50       0.00378837      -0.00066838      -0.00172681
S        2.17647004       7.43469309       7.55705939       51      -0.00343874      -0.00298576       0.00033898
P       14.79035015       5.18001110       4.98331631        0      -0.00295802       0.00430962       0.00221811
P        9.79008241      10.13288832       5.11465247        1      -0.00457666      -0.00350433      -0.00305464
P        9.77172239       5.12957678      10.16096613        2      -0.00184533       0.00081469      -0.00126277
P       14.77190249       0.16445933       9.92631497        3      -0.00399848      -0.00174462      -0.00126697
S       15.85283718       6.34429718       6.25733809        4       0.00055316      -0.00069822      -0.00022167
S       11.01779734       1.23436594       6.29714243        5      -0.00140835       0.00037829       0.00192858
S       10.78131683       6.50308170       1.23158987        6      -0.00060292       0.00301284       0.00121582
S       15.95956727       1.47168912       0.92068801        7      -0.00147379       0.00066611       0.00325500
S       13.61435640       3.90461350       6.10615260        8      -0.00182769       0.00413589      -0.00190004
S       18.63049039       8.74475438       6.20246369        9      -0.00528224      -0.00347005      -0.00162758
S       18.47068647       3.76054315       1.07789050       10      -0.00271806      -0.00487467       0.00344386
S       13.67686819       9.13654682       1.21370588       11      -0.00314783       0.00161607       0.00045246
S       13.60495153       6.38832696       3.80082446       12       0.00335533       0.00350673      -0.00078940
S       18.72252787       0.78867199       3.53863671       13      -0.00085049       0.00272766      -0.00357440
S       18.57722345       6.07801721       8.68074302       14      -0.00531347       0.00074656       0.00193601
S       13.56531746       1.28679618       8.66642905       15      -0.00160101       0.00128628       0.00146806
S       16.03851587       4.14983890       3.69520015       16      -0.00009436      -0.00298570      -0.00040233
S       10.87692727       9.01346539       3.77983439       17       0.00034669       0.00009826      -0.00121132
S       10.96073201       3.95016722       8.95923160       18       0.00341789       0.00264172      -0.00040560
S       15.78116510       8.91966847       8.71455225       19      -0.00337289       0.00096323       0.00164936
Li      12.52461951       4.97912805       2.12932669       20      -0.00174203       0.00462005       0.00176491
Li      19.32430345       8.59188039       2.16161297       21       0.00035066      -0.00811940       0.00029787
Li      17.64944743       4.80159891       6.62758776       22      -0.00103571      -0.00235589       0.00081773
Li      12.66407743       9.67875447       7.15400979       23      -0.00212161       0.00308457       0.00052604
Li      17.51767766       7.87113868       0.02924556       24      -0.00234805      -0.00335193       0.00104554
Li      12.72178038       2.83972777       0.27048078       25       0.00137206       0.00556615       0.00148686
Li      11.79881466       7.18722024       5.18677129       26       0.00545540       0.00619333      -0.00082933
Li      19.72826670       3.01348556       6.84706343       27      -0.00014099      -0.00132211       0.00195386
Li      16.99839587       3.05834888       9.38983069       28      -0.00198375      -0.00912176       0.00211408
Li      13.51495435       7.53848760       9.46945989       29      -0.00464159       0.00340658      -0.00081519
Li      14.63215899       2.38752133       2.86349871       30      -0.00404778       0.00239369       0.00166477
Li      17.03941332       7.72360236       4.66268383       31       0.00002978      -0.00430852      -0.00071129
Li      13.08652699       5.36283833       7.96265594       32      -0.00036792       0.00336012      -0.00039677
Li      17.90582220       0.27899355       7.99725337       33      -0.00385134      -0.00082261      -0.00269994
Li      18.33228788       5.48403513       2.81688489       34      -0.01057039      -0.00235568      -0.00721070
Li      12.82077572       0.39809017       3.22492402       35       0.00383892       0.00537504      -0.00041421
Li      11.64928945       3.25343216       4.80390648       36      -0.00061765       0.00331599      -0.00057777
Li      16.25601098       9.70125187       2.58326228       37       0.00531264       0.00056852      -0.00020670
Li      15.07178909       2.11205189       6.88610589       38      -0.00187505      -0.00011137       0.00024000
Li      10.34585412       8.30953651       9.12373190       39       0.00121020       0.00715519      -0.00348232
Li      10.07107277       6.36175170       7.10373352       40       0.00026620       0.00308289      -0.00133755
Li      17.07739633       1.99831995       4.84340901       41      -0.00289879       0.00335048       0.00048680
Li      15.31439276       6.26268408       2.00231087       42      -0.00326316       0.00103243      -0.00601865
Li      10.08895170       2.13629829       2.23180251       43       0.00137009       0.00146327      -0.00014396
Cl      19.36686884       9.70193872       9.97920605       44       0.00092457      -0.00379011      -0.00039373
Cl      14.20390795       5.26617550       0.12708505       45      -0.00039898       0.00107876      -0.00019306
Cl      14.92771349       0.57541805       4.49447339       46      -0.00159972       0.00173950       0.00201637
Cl      19.63239150       4.98082659       5.05278910       47      -0.00011487      -0.00161256       0.00230314
S       12.32469188       2.65832758       2.58080318       48       0.00046667       0.00346797       0.00137950
S       17.21771468       7.55070552       2.34733419       49      -0.00255771      -0.00167371      -0.00001173
S       17.38248813       2.47868156       7.14987062       50      -0.00276104      -0.00164670       0.00150579
S       12.04942546       7.48989023       7.59611062       51       0.00013579       0.00313329      -0.00087645
103
Lattice="20.110191271466377 0.0 0.0 0.0 10.055095635733188 0.0 0.0 0.0 10.055095635733188" Properties=species:S:1:pos:R:3:spacegroup_kinds:I:1:forces:R:3 spacegroup="P 1" unit_cell=conventional occupancy="_JSON {\"0\": {\"P\": 1.0}, \"1\": {\"P\": 1.0}, \"2\": {\"P\": 1.0}, \"3\": {\"P\": 1.0}, \"4\": {\"S\": 1.0}, \"5\": {\"S\": 1.0}, \"6\": {\"S\": 1.0}, \"7\": {\"S\": 1.0}, \"8\": {\"S\": 1.0}, \"9\": {\"S\": 1.0}, \"10\": {\"S\": 1.0}, \"11\": {\"S\": 1.0}, \"12\": {\"S\": 1.0}, \"13\": {\"S\": 1.0}, \"14\": {\"S\": 1.0}, \"15\": {\"S\": 1.0}, \"16\": {\"S\": 1.0}, \"17\": {\"S\": 1.0}, \"18\": {\"S\": 1.0}, \"19\": {\"S\": 1.0}, \"20\": {\"Li\": 1.0}, \"21\": {\"Li\": 1.0}, \"22\": {\"Li\": 1.0}, \"23\": {\"Li\": 1.0}, \"24\": {\"Li\": 1.0}, \"25\": {\"Li\": 1.0}, \"26\": {\"Li\": 1.0}, \"27\": {\"Li\": 1.0}, \"28\": {\"Li\": 1.0}, \"29\": {\"Li\": 1.0}, \"30\": {\"Li\": 1.0}, \"31\": {\"Li\": 1.0}, \"32\": {\"Li\": 1.0}, \"33\": {\"Li\": 1.0}, \"34\": {\"Li\": 1.0}, \"35\": {\"Li\": 1.0}, \"36\": {\"Li\": 1.0}, \"37\": {\"Li\": 1.0}, \"38\": {\"Li\": 1.0}, \"39\": {\"Li\": 1.0}, \"40\": {\"Li\": 1.0}, \"41\": {\"Li\": 1.0}, \"42\": {\"Li\": 1.0}, \"43\": {\"Li\": 1.0}, \"44\": {\"Cl\": 1.0}, \"45\": {\"Cl\": 1.0}, \"46\": {\"Cl\": 1.0}, \"47\": {\"Cl\": 1.0}, \"48\": {\"S\": 1.0}, \"49\": {\"S\": 1.0}, \"50\": {\"S\": 1.0}, \"51\": {\"S\": 1.0}}" charge=0 spin=0 energy=-429.6512151896945 free_energy=-429.6512151896945 stress="-0.0008268858255665807 0.00013350663103630798 0.0005389809995584233 0.00013350663103630798 0.0026491587829845643 -0.0012469310409263129 0.0005389809995584233 -0.0012469310409263129 0.0018580882654774152" pbc="T T T"
P        4.78938038       4.79206451       5.06701528        0      -0.00110773      -0.00560108       0.00667671
P       -0.32910438      10.13712666       5.01199359        1       0.01206881       0.00996209       0.01323701
P       -0.41850755       4.96988704      10.06755748        2       0.01243144      -0.01621543      -0.01654616
P        4.37494893      -0.43739317      10.14368787        3       0.00009044       0.00202279      -0.00571196
S        5.93294208       5.97930454       6.26743715        4       0.00265071       0.00024046       0.00065242
S        0.94432478       1.03845605       6.32483467        5      -0.00985453      -0.01199356      -0.00700138
S        0.95331563       6.20279469       0.92267216        6       0.00214069       0.00018592       0.00367819
S        5.47301389       0.87901726       1.22624934        7      -0.00062608      -0.00124122       0.00199737
S        3.62172080       3.64751088       6.34614828        8       0.00673645       0.00098123       0.00011930
S        8.41055863       8.83935047       5.94107662        9       0.00016955      -0.00125954      -0.00251617
S        8.50609511       3.66118695       1.35641676       10       0.00196178      -0.00024425      -0.00201808
S        3.43606870       8.25156018       1.27017104       11      -0.00042850      -0.00368676      -0.00028872
S        3.52152138       5.80967336       3.77246124       12      -0.00092368       0.00272440       0.00147930
S        8.52972576       0.95506201       3.46010870       13      -0.00031692      -0.00178276      -0.00115551
S        8.88577047       5.70596079       8.74616073       14       0.00083874       0.00017617      -0.00057718
S        3.05944670       0.61821039       8.97438722       15       0.00468413      -0.00234982       0.00087761
S        6.06006782       3.66032933       3.93202669       16       0.00090483      -0.00021845      -0.00186318
S        0.80750336       8.89564015       3.79556482       17       0.00033155      -0.00351791      -0.00305432
S        0.70393759       3.70867418       8.87821086       18      -0.01306281       0.01032470       0.00825176
S        5.67223049       8.62211545       8.86290033       19       0.00236465      -0.00083668      -0.00053762
Li       8.99947072       8.94790616       2.02049140       21      -0.00094912      -0.00206235      -0.00060960
Li       7.20688228       4.09783271       9.32079374       22       0.00036052      -0.00086851       0.00043277
Li       3.83468630       8.96974762       7.39679378       23      -0.00401849      -0.00230471       0.00147772
Li       7.56415581       7.29544538       0.05913624       24       0.00050165       0.00003405      -0.00075582
Li       4.36080388       3.03124906       2.16369069       25       0.00437295       0.00386941       0.01035485
Li       3.33647621       7.68289193       5.15937384       26      -0.00460001      -0.00374539       0.00117675
Li       7.44660026       3.74428352       6.11185979       27       0.00162259      -0.00042662      -0.00184303
Li       9.31853401       1.80072043       8.40316126       28       0.00378908       0.00028409      -0.00271125
Li       2.76380344       6.66583423       9.29503777       29      -0.00384651       0.00190312      -0.00113214
Li       2.10353341       2.62815030       4.87397301       30       0.00205543      -0.00287382       0.00780756
Li       6.72096928       7.57865064       4.71217250       31      -0.00015783      -0.00254383      -0.00137304
Li       1.61056260       5.08740803       6.78720566       32      -0.00012184      -0.00196440       0.00101572
Li       6.55263303       0.44844240       6.48121299       33       0.00103968      -0.00039455      -0.00160720
Li       8.50749942       5.43097247       3.10844666       34      -0.00275710      -0.00189143      -0.00413993
Li       2.60595080       0.14678456       2.69532301       35       0.00299778      -0.00013889      -0.00269052
Li       1.21959809       4.49344715       2.73748541       36       0.00679156       0.00096063       0.00079916
Li       6.13931968       9.36406601       2.83853667       37       0.00120383      -0.00027969       0.00057379
Li       6.90693806       0.59559640       9.39061731       38       0.00543782      -0.00289425      -0.00138977
Li       1.04731763       9.29184158       8.18574377       39      -0.00543400      -0.00487973       0.00199388
Li       0.27143618       7.24547547       5.66321609       40      -0.00122954      -0.00286686       0.00032540
Li       4.66469610       2.77238538       8.57347969       41       0.00248139      -0.00187831      -0.00201537
Li       5.15106439       6.30732951       1.90108447       42       0.00031033      -0.00192018      -0.00117338
Li       0.75935956       2.23576526       0.80264251       43       0.01819941       0.02333957       0.00125269
Cl       9.14682298       9.54662680       9.62633550       44       0.00146517       0.00118734      -0.00017814
Cl       4.84771155       4.52453062       0.13225472       45       0.00275508      -0.00302236       0.00082237
Cl       4.95048077      -0.59026463       4.95683179       46       0.00160154      -0.00160148      -0.00114318
Cl       9.93484059       4.90061291       5.21441053       47       0.00098580      -0.00125965       0.00012951
S        2.18395179       2.39652438       2.59608393       48       0.00550161       0.00374309       0.00637583
S        7.22844779       7.37569324       2.39964726       49      -0.00015835      -0.00194263      -0.00122254
S        7.03584149       2.28934138       7.87391402       50       0.00378837      -0.00066838      -0.00172681
S        2.13653609       7.41706497       7.17071130       51      -0.00343874      -0.00298576       0.00033898
P       14.68303424       5.40533211       5.21791070        0      -0.00295802       0.00430962       0.00221811
P        9.66712828       9.98770438       4.80301620        1      -0.00457666      -0.00350433      -0.00305464
P        9.83611343       4.72723244      10.26797784        2      -0.00184533       0.00081469      -0.00126277
P       14.67505347       0.36697244       9.84316442        3      -0.00399848      -0.00174462      -0.00126697
S       15.88426057       6.56517409       6.41223753        4       0.00055316      -0.00069822      -0.00022167
S       10.73721659       1.08427839       6.17554477        5      -0.00140835       0.00037829       0.00192858
S       10.73947977       6.06350868       1.47697930        6      -0.00060292       0.00301284       0.00121582
S       15.82500019       1.65406556       0.95000752        7      -0.00147379       0.00066611       0.00325500
S       13.55423849       4.14853350       6.39942797        8      -0.00182769       0.00413589      -0.00190004
S       18.55153779       8.92354780       6.14127375        9      -0.00528224      -0.00347005      -0.00162758
S       18.83586605       3.83662402       1.52587001       10      -0.00271806      -0.00487467       0.00344386
S       13.30152025       9.49124357       1.05191144       11      -0.00314783       0.00161607       0.00045246
S       13.52687484       6.49647965       3.95977161       12       0.00335533       0.00350673      -0.00078940
S       18.72592101       1.42786721       3.91441572       13      -0.00085049       0.00272766      -0.00357440
S       18.15759283       5.89155246       9.09042617       14      -0.00531347       0.00074656       0.00193601
S       13.53814672       1.50173377       8.55498208       15      -0.00160101       0.00128628       0.00146806
S       15.99929140       4.15892666       4.23239675       16      -0.00009436      -0.00298570      -0.00040233
S       10.95387548       8.80146195       3.72543187       17       0.00034669       0.00009826      -0.00121132
S       11.12135985       3.39168027       9.33632380       18       0.00341789       0.00264172      -0.00040560
S       15.81074723       9.10352306       8.78757970       19      -0.00337289       0.00096323       0.00164936
Li      12.87595284       4.99129379       1.99195745       20      -0.00174203       0.00462005       0.00176491
Li      19.64395155       7.91470117       2.00322740       21       0.00035066      -0.00811940       0.00029787
Li      17.64255484       4.84212633       6.72954926       22      -0.00103571      -0.00235589       0.00081773
Li      12.90752473       9.90337686       6.66699778       23      -0.00212161       0.00308457       0.00052604
Li      17.61849788       8.06591892       0.10295788       24      -0.00234805      -0.00335193       0.00104554
Li      12.52548830       2.02908355       0.74524510       25       0.00137206       0.00556615       0.00148686
Li      11.31686455       6.96580565       5.41780136       26       0.00545540       0.00619333      -0.00082933
Li      19.65923895       2.89505667       6.98148278       27      -0.00014099      -0.00132211       0.00195386
Li      17.21490719       3.23538603       9.80443840       28      -0.00198375      -0.00912176       0.00211408
Li      11.77416257       7.48541580       9.81138506       29      -0.00464159       0.00340658      -0.00081519
Li      14.70906309       2.29986232       3.41539890       30      -0.00404778       0.00239369       0.00166477
Li      16.53966057       8.25982629       4.72256101       31       0.00002978      -0.00430852      -0.00071129
Li      14.34673544       7.29602173       8.02516700       32      -0.00036792       0.00336012      -0.00039677
Li      17.94894262       0.40805125       8.05395236       33      -0.00385134      -0.00082261      -0.00269994
Li      17.03385490       5.45019582       2.37179761       34      -0.01057039      -0.00235568      -0.00721070
Li      12.83098448       0.29784326       3.26292200       35       0.00383892       0.00537504      -0.00041421
Li      11.63616727       3.29079696       5.00760295       36      -0.00061765       0.00331599      -0.00057777
Li      17.36702799      10.18314020       2.26125551       37       0.00531264       0.00056852      -0.00020670
Li      15.06168291       2.90407825       7.63179507       38      -0.00187505      -0.00011137       0.00024000
Li      10.13433875       8.91546480       7.65651493       39       0.00121020       0.00715519      -0.00348232
Li      12.02997548       5.15179223       7.76796730       40       0.00026620       0.00308289      -0.00133755
Li      16.88483555       1.82480478       5.38397460       41      -0.00289879       0.00335048       0.00048680
Li      14.81559255       7.79303461       1.89982666       42      -0.00326316       0.00103243      -0.00601865
Li      10.12352911       2.48423654       2.67031101       43       0.00137009       0.00146327      -0.00014396
Cl      19.42439780       9.61223059       9.92864842       44       0.00092457      -0.00379011      -0.00039373
Cl      14.17784073       6.12467456       0.18846125       45      -0.00039898       0.00107876      -0.00019306
Cl      15.10726942       0.21822562       4.58478085       46      -0.00159972       0.00173950       0.00201637
Cl      20.08532709       4.85322937       5.50321458       47      -0.00011487      -0.00161256       0.00230314
S       12.43331955       2.66942584       2.91380420       48       0.00046667       0.00346797       0.00137950
S       17.18503293       7.80186751       2.42503289       49      -0.00255771      -0.00167371      -0.00001173
S       17.33262306       2.63566035       7.50628252       50      -0.00276104      -0.00164670       0.00150579
S       12.15142413       7.67791771       7.45598499       51       0.00013579       0.00313329      -0.00087645
103
Lattice="20.110191271466377 0.0 0.0 0.0 10.055095635733188 0.0 0.0 0.0 10.055095635733188" Properties=species:S:1:pos:R:3:spacegroup_kinds:I:1:forces:R:3 spacegroup="P 1" unit_cell=conventional occupancy="_JSON {\"0\": {\"P\": 1.0}, \"1\": {\"P\": 1.0}, \"2\": {\"P\": 1.0}, \"3\": {\"P\": 1.0}, \"4\": {\"S\": 1.0}, \"5\": {\"S\": 1.0}, \"6\": {\"S\": 1.0}, \"7\": {\"S\": 1.0}, \"8\": {\"S\": 1.0}, \"9\": {\"S\": 1.0}, \"10\": {\"S\": 1.0}, \"11\": {\"S\": 1.0}, \"12\": {\"S\": 1.0}, \"13\": {\"S\": 1.0}, \"14\": {\"S\": 1.0}, \"15\": {\"S\": 1.0}, \"16\": {\"S\": 1.0}, \"17\": {\"S\": 1.0}, \"18\": {\"S\": 1.0}, \"19\": {\"S\": 1.0}, \"20\": {\"Li\": 1.0}, \"21\": {\"Li\": 1.0}, \"22\": {\"Li\": 1.0}, \"23\": {\"Li\": 1.0}, \"24\": {\"Li\": 1.0}, \"25\": {\"Li\": 1.0}, \"26\": {\"Li\": 1.0}, \"27\": {\"Li\": 1.0}, \"28\": {\"Li\": 1.0}, \"29\": {\"Li\": 1.0}, \"30\": {\"Li\": 1.0}, \"31\": {\"Li\": 1.0}, \"32\": {\"Li\": 1.0}, \"33\": {\"Li\": 1.0}, \"34\": {\"Li\": 1.0}, \"35\": {\"Li\": 1.0}, \"36\": {\"Li\": 1.0}, \"37\": {\"Li\": 1.0}, \"38\": {\"Li\": 1.0}, \"39\": {\"Li\": 1.0}, \"40\": {\"Li\": 1.0}, \"41\": {\"Li\": 1.0}, \"42\": {\"Li\": 1.0}, \"43\": {\"Li\": 1.0}, \"44\": {\"Cl\": 1.0}, \"45\": {\"Cl\": 1.0}, \"46\": {\"Cl\": 1.0}, \"47\": {\"Cl\": 1.0}, \"48\": {\"S\": 1.0}, \"49\": {\"S\": 1.0}, \"50\": {\"S\": 1.0}, \"51\": {\"S\": 1.0}}" charge=0 spin=0 energy=-429.6512151896945 free_energy=-429.6512151896945 stress="-0.0008268858255665807 0.00013350663103630798 0.0005389809995584233 0.00013350663103630798 0.0026491587829845643 -0.0012469310409263129 0.0005389809995584233 -0.0012469310409263129 0.0018580882654774152" pbc="T T T"
P        4.66476326       4.93465576       5.12226421        0      -0.00110773      -0.00560108       0.00667671
P       -0.32512009      10.08914017       5.03702589        1       0.01206881       0.00996209       0.01323701
P       -0.35098980       4.96393740      10.21297290        2       0.01243144      -0.01621543      -0.01654616
P        4.69472160      -0.16627565      10.00832034        3       0.00009044       0.00202279      -0.00571196
S        5.64572058       6.30939053       6.34639558        4       0.00265071       0.00024046       0.00065242
S        0.88981062       1.22065494       6.20653788        5      -0.00985453      -0.01199356      -0.00700138
S        0.81611959       6.13181926       1.38513462        6       0.00214069       0.00018592       0.00367819
S        5.86448808       0.92933996       1.23432098        7      -0.00062608      -0.00124122       0.00199737
S        3.48251297       3.72643037       6.29548180        8       0.00673645       0.00098123       0.00011930
S        8.60960665       8.93584253       6.22062032        9       0.00016955      -0.00125954      -0.00251617
S        8.51086129       3.95089482       1.28158138       10       0.00196178      -0.00024425      -0.00201808
S        3.45011251       8.70138670       1.05365017       11      -0.00042850      -0.00368676      -0.00028872
S        3.56814921       6.10833575       3.83787248       12      -0.00092368       0.00272440       0.00147930
S        8.64209134       1.17292485       3.71091558       13      -0.00031692      -0.00178276      -0.00115551
S        8.59934148       6.09073120       8.72700158       14       0.00083874       0.00017617      -0.00057718
S        3.63788268       1.11860350       8.77354384       15       0.00468413      -0.00234982       0.00087761
S        5.96209988       3.81683386       4.04148877       16       0.00090483      -0.00021845      -0.00186318
S        0.88384378       8.78977272       3.99845147       17       0.00033155      -0.00351791      -0.00305432
S        0.87235679       3.76560465       9.05448929       18      -0.01306281       0.01032470       0.00825176
S        5.83254079       8.64972897       8.80780558       19       0.00236465      -0.00083668      -0.00053762
Li       7.97837214       9.59190104       1.67761196       21      -0.00094912      -0.00206235      -0.00060960
Li       6.78359995       4.71792218       7.77974317       22       0.00036052      -0.00086851       0.00043277
Li       1.92154034       9.77327109       7.78502245       23      -0.00401849      -0.00230471       0.00147772
Li       6.77148096       6.88744262       0.24849243       24       0.00050165       0.00003405      -0.00075582
Li       2.71343766       2.75671764       0.30616900       25       0.00437295       0.00386941       0.01035485
Li       3.49628225       7.89410350       5.62684817       26      -0.00460001      -0.00374539       0.00117675
Li       7.70382727       2.73702586       5.34371709       27       0.00162259      -0.00042662      -0.00184303
Li       9.48242775       2.01855908       8.16010843       28       0.00378908       0.00028409      -0.00271125
Li       4.24340979       6.76277442       8.31643919       29      -0.00384651       0.00190312      -0.00113214
Li       2.73610504       2.03995928       4.68654516       30       0.00205543      -0.00287382       0.00780756
Li       7.07695691       7.68322614       4.85141200       31      -0.00015783      -0.00254383      -0.00137304
Li       1.61745224       5.17069269       7.15324724       32      -0.00012184      -0.00196440       0.00101572
Li       7.55129262       0.13303005       8.12198984       33       0.00103968      -0.00039455      -0.00160720
Li       9.05549373       6.16767253       2.87760735       34      -0.00275710      -0.00189143      -0.00413993
Li       2.64045544       0.17652830       2.73576338       35       0.00299778      -0.00013889      -0.00269052
Li       1.77445032       4.59135741       3.07925294       36       0.00679156       0.00096063       0.00079916
Li       5.24652804       8.93523726       2.72777035       37       0.00120383      -0.00027969       0.00057379
Li       6.54993706       2.91894818       9.93924320       38       0.00543782      -0.00289425      -0.00138977
Li       0.80531792       7.60962779       9.46290323       39      -0.00543400      -0.00487973       0.00199388
Li       0.25938343       7.33756317       5.99101861       40      -0.00122954      -0.00286686       0.00032540
Li       5.04582528       1.67007490       6.74634527       41       0.00248139      -0.00187831      -0.00201537
Li       5.60294739       5.58938660       2.41551757       42       0.00031033      -0.00192018      -0.00117338
Li      -0.03636430       1.87625910       1.87737462       43       0.01819941       0.02333957       0.00125269
Cl       9.40696517      10.11138594       9.72039613       44       0.00146517       0.00118734      -0.00017814
Cl       5.23419952       5.06281453      -0.07587872       45       0.00275508      -0.00302236       0.00082237
Cl       4.33888024      -0.05754407       4.79695396       46       0.00160154      -0.00160148      -0.00114318
Cl      10.10980621       5.14559193       4.92718800       47       0.00098580      -0.00125965       0.00012951
S        2.12649562       2.39994635       2.49547161       48       0.00550161       0.00374309       0.00637583
S        7.10995511       7.48680248       2.52866225       49      -0.00015835      -0.00194263      -0.00122254
S        7.17395501       2.42024016       7.61882653       50       0.00378837      -0.00066838      -0.00172681
S        2.10847137       7.45747425       7.50294349       51      -0.00343874      -0.00298576       0.00033898
P       14.84711036       5.14053333       5.06995122        0      -0.00295802       0.00430962       0.00221811
P        9.79971818      10.08676522       4.98414221        1      -0.00457666      -0.00350433      -0.00305464
P        9.73291779       4.99607335      10.08081882        2      -0.00184533       0.00081469      -0.00126277
P       14.81091029       0.07563326      10.02220394        3      -0.00399848      -0.00174462      -0.00126697
S       15.83128558       6.34808474       6.40387627        4       0.00055316      -0.00069822      -0.00022167
S       10.93762936       1.27722417       6.18434851        5      -0.00140835       0.00037829       0.00192858
S       10.78950789       6.34228573       1.16648113        6      -0.00060292       0.00301284       0.00121582
S       15.87927342       1.43794077       1.09865412        7      -0.00147379       0.00066611       0.00325500
S       13.63711294       3.88019920       6.15827414        8      -0.00182769       0.00413589      -0.00190004
S       18.54623658       8.98316439       6.24812952        9      -0.00528224      -0.00347005      -0.00162758
S       18.53424432       3.79933798       1.31955466       10      -0.00271806      -0.00487467       0.00344386
S       13.71830106       8.93697738       1.24368608       11      -0.00314783       0.00161607       0.00045246
S       13.70494011       6.36408224       3.86420428       12       0.00335533       0.00350673      -0.00078940
S       18.70599146       1.22947168       3.76787890       13      -0.00085049       0.00272766      -0.00357440
S       18.67468663       6.20657968       9.00235968       14      -0.00531347       0.00074656       0.00193601
S       13.53534834       1.17147297       8.81404376       15      -0.00160101       0.00128628       0.00146806
S       16.16197297       4.08383122       3.89531232       16      -0.00009436      -0.00298570      -0.00040233
S       10.96510221       8.88102102       3.82086296       17       0.00034669       0.00009826      -0.00121132
S       10.97001442       3.77438286       8.98831006       18       0.00341789       0.00264172      -0.00040560
S       15.99364420       8.98597241       8.83808677       19      -0.00337289       0.00096323       0.00164936
Li      12.54506863       4.96656755       2.24643739       20      -0.00174203       0.00462005       0.00176491
Li      19.57478480       8.11551096       2.18633098       21       0.00035066      -0.00811940       0.00029787
Li      17.73796551       4.94425288       7.06483127       22      -0.00103571      -0.00235589       0.00081773
Li      12.34158996       9.66483801       7.39592782       23      -0.00212161       0.00308457       0.00052604
Li      17.64836413       8.05156150       0.28535699       24      -0.00234805      -0.00335193       0.00104554
Li      13.05146451       3.04368989       0.25630691       25       0.00137206       0.00556615       0.00148686
Li      11.80267797       7.13078083       5.26471954       26       0.00545540       0.00619333      -0.00082933
Li      19.61892802       2.92220095       7.19052441       27      -0.00014099      -0.00132211       0.00195386
Li      16.86391464       3.15486220       9.72528643       28      -0.00198375      -0.00912176       0.00211408
Li      12.62553915       7.25237030       9.87980635       29      -0.00464159       0.00340658      -0.00081519
Li      14.62705983       2.35976393       3.09931546       30      -0.00404778       0.00239369       0.00166477
Li      16.57885041       8.16434775       4.89626248       31       0.00002978      -0.00430852      -0.00071129
Li      13.84009791       5.76407139       7.82955208       32      -0.00036792       0.00336012      -0.00039677
Li      17.92272671       0.37493825       8.21668372       33      -0.00385134      -0.00082261      -0.00269994
Li      18.03345787       5.50427296       3.13208406       34      -0.01057039      -0.00235568      -0.00721070
Li      12.62801301       0.31661803       2.91101533       35       0.00383892       0.00537504      -0.00041421
Li      11.64481724       3.25132914       4.70472116       36      -0.00061765       0.00331599      -0.00057777
Li      16.83527369      10.03059770       2.82578825       37       0.00531264       0.00056852      -0.00020670
Li      15.04581536       1.95143070       7.05220088       38      -0.00187505      -0.00011137       0.00024000
Li       9.90155214       8.14541044       8.37515762       39       0.00121020       0.00715519      -0.00348232
Li      10.60913906       5.47630342       7.23370668       40       0.00026620       0.00308289      -0.00133755
Li      17.05035657       2.18029459       5.21532857       41      -0.00289879       0.00335048       0.00048680
Li      15.17575151       6.94874284       1.92938717       42      -0.00326316       0.00103243      -0.00601865
Li      10.11092050       2.26133297       2.01466871       43       0.00137009       0.00146327      -0.00014396
Cl      19.60513768       9.59127483      10.15440140       44       0.00092457      -0.00379011      -0.00039373
Cl      14.26497634       5.26705188       0.18012778       45      -0.00039898       0.00107876      -0.00019306
Cl      15.20265108       0.55712282       4.73895579       46      -0.00159972       0.00173950       0.00201637
Cl      19.78040936       5.00672303       5.59474120       47      -0.00011487      -0.00161256       0.00230314
S       12.36339498       2.63612554       2.51087499       48       0.00046667       0.00346797       0.00137950
S       17.29255035       7.70308753       2.62885690       49      -0.00255771      -0.00167371      -0.00001173
S       17.31013059       2.60244749       7.51290729       50      -0.00276104      -0.00164670       0.00150579
S       12.03954962       7.36714040       7.61233078       51       0.00013579       0.00313329      -0.00087645
103
Lattice="20.110191271466377 0.0 0.0 0.0 10.055095635733188 0.0 0.0 0.0 10.055095635733188" Properties=species:S:1:pos:R:3:spacegroup_kinds:I:1:forces:R:3 spacegroup="P 1" unit_cell=conventional occupancy="_JSON {\"0\": {\"P\": 1.0}, \"1\": {\"P\": 1.0}, \"2\": {\"P\": 1.0}, \"3\": {\"P\": 1.0}, \"4\": {\"S\": 1.0}, \"5\": {\"S\": 1.0}, \"6\": {\"S\": 1.0}, \"7\": {\"S\": 1.0}, \"8\": {\"S\": 1.0}, \"9\": {\"S\": 1.0}, \"10\": {\"S\": 1.0}, \"11\": {\"S\": 1.0}, \"12\": {\"S\": 1.0}, \"13\": {\"S\": 1.0}, \"14\": {\"S\": 1.0}, \"15\": {\"S\": 1.0}, \"16\": {\"S\": 1.0}, \"17\": {\"S\": 1.0}, \"18\": {\"S\": 1.0}, \"19\": {\"S\": 1.0}, \"20\": {\"Li\": 1.0}, \"21\": {\"Li\": 1.0}, \"22\": {\"Li\": 1.0}, \"23\": {\"Li\": 1.0}, \"24\": {\"Li\": 1.0}, \"25\": {\"Li\": 1.0}, \"26\": {\"Li\": 1.0}, \"27\": {\"Li\": 1.0}, \"28\": {\"Li\": 1.0}, \"29\": {\"Li\": 1.0}, \"30\": {\"Li\": 1.0}, \"31\": {\"Li\": 1.0}, \"32\": {\"Li\": 1.0}, \"33\": {\"Li\": 1.0}, \"34\": {\"Li\": 1.0}, \"35\": {\"Li\": 1.0}, \"36\": {\"Li\": 1.0}, \"37\": {\"Li\": 1.0}, \"38\": {\"Li\": 1.0}, \"39\": {\"Li\": 1.0}, \"40\": {\"Li\": 1.0}, \"41\": {\"Li\": 1.0}, \"42\": {\"Li\": 1.0}, \"43\": {\"Li\": 1.0}, \"44\": {\"Cl\": 1.0}, \"45\": {\"Cl\": 1.0}, \"46\": {\"Cl\": 1.0}, \"47\": {\"Cl\": 1.0}, \"48\": {\"S\": 1.0}, \"49\": {\"S\": 1.0}, \"50\": {\"S\": 1.0}, \"51\": {\"S\": 1.0}}" charge=0 spin=0 energy=-429.6512151896945 free_energy=-429.6512151896945 stress="-0.0008268858255665807 0.00013350663103630798 0.0005389809995584233 0.00013350663103630798 0.0026491587829845643 -0.0012469310409263129 0.0005389809995584233 -0.0012469310409263129 0.0018580882654774152" pbc="T T T"
P        4.86359181       4.96578549       5.09323711        0      -0.00110773      -0.00560108       0.00667671
P       -0.21309976      10.19233879       4.99684460        1       0.01206881       0.00996209       0.01323701
P       -0.43181560       5.06261248      10.06345183        2       0.01243144      -0.01621543      -0.01654616
P        4.46612673      -0.18095612       9.93060078        3       0.00009044       0.00202279      -0.00571196
S        6.08495849       6.16149112       6.23209477        4       0.00265071       0.00024046       0.00065242
S        1.06003139       1.10978653       6.24122560        5      -0.00985453      -0.01199356      -0.00700138
S        0.77403782       6.08588801       1.29475230        6       0.00214069       0.00018592       0.00367819
S        5.79197496       0.83577210       1.06955022        7      -0.00062608      -0.00124122       0.00199737
S        3.63009038       3.78129692       6.22997871        8       0.00673645       0.00098123       0.00011930
S        8.58103718       8.70463286       5.96568856        9       0.00016955      -0.00125954      -0.00251617
S        8.55738788       3.52427342       1.16498303       10       0.00196178      -0.00024425      -0.00201808
S        3.18960025       8.66480821       0.91793262       11      -0.00042850      -0.00368676      -0.00028872
S        3.60523053       6.18858971       4.00649346       12      -0.00092368       0.00272440       0.00147930
S        8.70906825       0.87730035       3.51288796       13      -0.00031692      -0.00178276      -0.00115551
S        8.45027200       6.09021295       9.09426132       14       0.00083874       0.00017617      -0.00057718
S        3.39463681       1.21243851       8.83315796       15       0.00468413      -0.00234982       0.00087761
S        6.10850944       3.85124948       3.86133688       16       0.00090483      -0.00021845      -0.00186318
S        0.96482527       8.82099935       3.97355637       17       0.00033155      -0.00351791      -0.00305432
S        0.76200848       3.75371344       8.99504374       18      -0.01306281       0.01032470       0.00825176
S        5.65298416       8.72464456       8.68449242       19       0.00236465      -0.00083668      -0.00053762
Li       7.13754997       8.85912214       0.65101264       21      -0.00094912      -0.00206235      -0.00060960
Li       7.75270039       4.59174342       7.17578459       22       0.00036052      -0.00086851       0.00043277
Li       1.71015192       9.68576219       7.97558734       23      -0.00401849      -0.00230471       0.00147772
Li       6.77937106       5.20341426       1.28706931       24       0.00050165       0.00003405      -0.00075582
Li       2.85875983       3.32181771       0.23181660       25       0.00437295       0.00386941       0.01035485
Li       3.19894883       8.26265770       5.43934666       26      -0.00460001      -0.00374539       0.00117675
Li       7.71123536       2.50463616       5.26417689       27       0.00162259      -0.00042662      -0.00184303
Li       8.88530567       2.25148266       8.95102218       28       0.00378908       0.00028409      -0.00271125
Li       4.19073588       6.68055966       8.29216745       29      -0.00384651       0.00190312      -0.00113214
Li       2.31009559       4.10448490       4.10838221       30       0.00205543      -0.00287382       0.00780756
Li       6.38163938       8.47671276       4.54932196       31      -0.00015783      -0.00254383      -0.00137304
Li       1.53054804       5.10372058       7.02748510       32      -0.00012184      -0.00196440       0.00101572
Li       7.40656374      -0.02899582       7.80026120       33       0.00103968      -0.00039455      -0.00160720
Li       9.30021585       8.39105011       2.34971411       34      -0.00275710      -0.00189143      -0.00413993
Li       4.48875398       1.79299833       2.97844774       35       0.00299778      -0.00013889      -0.00269052
Li       0.17981916       3.09049952       2.38236415       36       0.00679156       0.00096063       0.00079916
Li       4.76885033       6.98476367       1.97649641       37       0.00120383      -0.00027969       0.00057379
Li       5.60026647       2.64059507       9.40222696       38       0.00543782      -0.00289425      -0.00138977
Li       1.21759745       7.58791586       9.52575594       39      -0.00543400      -0.00487973       0.00199388
Li       0.29118541       7.22626816       5.76719273       40      -0.00122954      -0.00286686       0.00032540
Li       4.87415132       1.48433619       6.79049195       41       0.00248139      -0.00187831      -0.00201537
Li       7.79695220       5.91653996       4.27368004       42       0.00031033      -0.00192018      -0.00117338
Li       1.63135674       0.26918551       2.43968237       43       0.01819941       0.02333957       0.00125269
Cl       9.27382747       9.84368618       9.62291909       44       0.00146517       0.00118734      -0.00017814
Cl       4.78688922       4.94069081       0.00167777       45       0.00275508      -0.00302236       0.00082237
Cl       4.65948414      -0.05685172       4.84817202       46       0.00160154      -0.00160148      -0.00114318
Cl       9.42569345       4.74221384       5.51755067       47       0.00098580      -0.00125965       0.00012951
S        2.37105406       2.47590681       2.42496712       48       0.00550161       0.00374309       0.00637583
S        7.09946200       7.31316592       2.47175905       49      -0.00015835      -0.00194263      -0.00122254
S        7.06194322       2.30772793       7.54571265       50       0.00378837      -0.00066838      -0.00172681
S        2.05892221       7.44376813       7.36792748       51      -0.00343874      -0.00298576       0.00033898
P       14.90687360       5.22261960       5.23665940        0      -0.00295802       0.00430962       0.00221811
P        9.83843937       9.98638128       4.93361392        1      -0.00457666      -0.00350433      -0.00305464
P        9.69037764       4.94377358      10.26470087        2      -0.00184533       0.00081469      -0.00126277
P       14.62902812       0.13648035      10.08888942        3      -0.00399848      -0.00174462      -0.00126697
S       15.98163889       6.38523858       6.52757406        4       0.00055316      -0.00069822      -0.00022167
S       10.75280767       1.25006785       6.19459492        5      -0.00140835       0.00037829       0.00192858
S       10.66470967       6.19184541       1.52569804        6      -0.00060292       0.00301284       0.00121582
S       15.73660701       1.51524721       1.11517245        7      -0.00147379       0.00066611       0.00325500
S       13.61902838       4.04460732       6.30908772        8      -0.00182769       0.00413589      -0.00190004
S       18.51713224       9.00284272       5.94956040        9      -0.00528224      -0.00347005      -0.00162758
S       18.34662338       4.00640634       1.19797576       10      -0.00271806      -0.00487467       0.00344386
S       13.31944924       9.20847522       1.27145012       11      -0.00314783       0.00161607       0.00045246
S       13.87943362       6.47635789       3.95895941       12       0.00335533       0.00350673      -0.00078940
S       18.89960488       1.44087406       3.73264056       13      -0.00085049       0.00272766      -0.00357440
S       18.62492624       6.23217925       8.77580331       14      -0.00531347       0.00074656       0.00193601
S       13.53333403       1.28046044       8.76479160       15      -0.00160101       0.00128628       0.00146806
S       16.25919317       4.13862207       4.11680118       16      -0.00009436      -0.00298570      -0.00040233
S       11.21276085       8.84424275       3.87922620       17       0.00034669       0.00009826      -0.00121132
S       10.95320980       3.81895061       9.06837824       18       0.00341789       0.00264172      -0.00040560
S       15.78431055       8.85656532       9.04299829       19      -0.00337289       0.00096323       0.00164936
Li      12.68805814       5.02588692       2.30485048       20      -0.00174203       0.00462005       0.00176491
Li      19.73838431       7.92153363       2.08935821       21       0.00035066      -0.00811940       0.00029787
Li      17.92523033       4.75676385       6.88204747       22      -0.00103571      -0.00235589       0.00081773
Li      11.72858054       9.95836956       8.05621109       23      -0.00212161       0.00308457       0.00052604
Li      17.78939957       8.09401303       0.18789158       24      -0.00234805      -0.00335193       0.00104554
Li      12.95690125       3.02550594       0.33509952       25       0.00137206       0.00556615       0.00148686
Li      12.39230425       7.56602501       5.48473320       26       0.00545540       0.00619333      -0.00082933
Li      19.59100243       2.28819693       7.52956466       27      -0.00014099      -0.00132211       0.00195386
Li      16.88282874       3.01125174       9.69858258       28      -0.00198375      -0.00912176       0.00211408
Li      12.22138792       7.23691819      10.07949128       29      -0.00464159       0.00340658      -0.00081519
Li      14.71102715       2.53446814       3.20604552       30      -0.00404778       0.00239369       0.00166477
Li      16.34877191       8.18265681       4.69151447       31       0.00002978      -0.00430852      -0.00071129
Li      14.03265889       6.29227487       8.11446340       32      -0.00036792       0.00336012      -0.00039677
Li      17.36531380       0.09831369       7.76729640       33      -0.00385134      -0.00082261      -0.00269994
Li      17.59680702       5.64509745       2.86232047       34      -0.01057039      -0.00235568      -0.00721070
Li      13.03810875       0.42110803       3.52728942       35       0.00383892       0.00537504      -0.00041421
Li      11.46895073       3.30475860       4.92552098       36      -0.00061765       0.00331599      -0.00057777
Li      17.16762706      10.18735877       2.48552545       37       0.00531264       0.00056852      -0.00020670
Li      14.99907780       2.11931221       7.02891338       38      -0.00187505      -0.00011137       0.00024000
Li       9.67458605       8.00861853       8.08845410       39       0.00121020       0.00715519      -0.00348232
Li      10.74338231       5.53707777       7.47397735       40       0.00026620       0.00308289      -0.00133755
Li      17.16258005       2.12318568       5.18745220       41      -0.00289879       0.00335048       0.00048680
Li      15.04281503       7.36728838       1.68367541       42      -0.00326316       0.00103243      -0.00601865
Li      10.26804327       2.11446187       2.07728200       43       0.00137009       0.00146327      -0.00014396
Cl      19.90242618       9.46712862      10.19901226       44       0.00092457      -0.00379011      -0.00039373
Cl      14.17789546       5.47269227       0.34582080       45      -0.00039898       0.00107876      -0.00019306
Cl      15.15628668       0.61495958       4.66016758       46      -0.00159972       0.00173950       0.00201637
Cl      20.10130864       4.84379008       5.20271213       47      -0.00011487      -0.00161256       0.00230314
S       12.42787123       2.71574987       2.73264923       48       0.00046667       0.00346797       0.00137950
S       17.25813951       7.86844824       2.48014554       49      -0.00255771      -0.00167371      -0.00001173
S       17.26871826       2.45515993       7.49958854       50      -0.00276104      -0.00164670       0.00150579
S       11.98690403       7.54179864       7.75806699       51       0.00013579       0.00313329      -0.00087645
103
Lattice="20.110191271466377 0.0 0.0 0.0 10.055095635733188 0.0 0.0 0.0 10.055095635733188" Properties=species:S:1:pos:R:3:spacegroup_kinds:I:1:forces:R:3 spacegroup="P 1" unit_cell=conventional occupancy="_JSON {\"0\": {\"P\": 1.0}, \"1\": {\"P\": 1.0}, \"2\": {\"P\": 1.0}, \"3\": {\"P\": 1.0}, \"4\": {\"S\": 1.0}, \"5\": {\"S\": 1.0}, \"6\": {\"S\": 1.0}, \"7\": {\"S\": 1.0}, \"8\": {\"S\": 1.0}, \"9\": {\"S\": 1.0}, \"10\": {\"S\": 1.0}, \"11\": {\"S\": 1.0}, \"12\": {\"S\": 1.0}, \"13\": {\"S\": 1.0}, \"14\": {\"S\": 1.0}, \"15\": {\"S\": 1.0}, \"16\": {\"S\": 1.0}, \"17\": {\"S\": 1.0}, \"18\": {\"S\": 1.0}, \"19\": {\"S\": 1.0}, \"20\": {\"Li\": 1.0}, \"21\": {\"Li\": 1.0}, \"22\": {\"Li\": 1.0}, \"23\": {\"Li\": 1.0}, \"24\": {\"Li\": 1.0}, \"25\": {\"Li\": 1.0}, \"26\": {\"Li\": 1.0}, \"27\": {\"Li\": 1.0}, \"28\": {\"Li\": 1.0}, \"29\": {\"Li\": 1.0}, \"30\": {\"Li\": 1.0}, \"31\": {\"Li\": 1.0}, \"32\": {\"Li\": 1.0}, \"33\": {\"Li\": 1.0}, \"34\": {\"Li\": 1.0}, \"35\": {\"Li\": 1.0}, \"36\": {\"Li\": 1.0}, \"37\": {\"Li\": 1.0}, \"38\": {\"Li\": 1.0}, \"39\": {\"Li\": 1.0}, \"40\": {\"Li\": 1.0}, \"41\": {\"Li\": 1.0}, \"42\": {\"Li\": 1.0}, \"43\": {\"Li\": 1.0}, \"44\": {\"Cl\": 1.0}, \"45\": {\"Cl\": 1.0}, \"46\": {\"Cl\": 1.0}, \"47\": {\"Cl\": 1.0}, \"48\": {\"S\": 1.0}, \"49\": {\"S\": 1.0}, \"50\": {\"S\": 1.0}, \"51\": {\"S\": 1.0}}" charge=0 spin=0 energy=-429.6512151896945 free_energy=-429.6512151896945 stress="-0.0008268858255665807 0.00013350663103630798 0.0005389809995584233 0.00013350663103630798 0.0026491587829845643 -0.0012469310409263129 0.0005389809995584233 -0.0012469310409263129 0.0018580882654774152" pbc="T T T"
P        4.83065470       4.96105787       5.07141278        0      -0.00110773      -0.00560108       0.00667671
P       -0.32926557       9.95057874       5.04539443        1       0.01206881       0.00996209       0.01323701
P       -0.33584173       4.90668307      10.13921565        2       0.01243144      -0.01621543      -0.01654616
P        4.73770972      -0.26644889      10.01870129        3       0.00009044       0.00202279      -0.00571196
S        5.84400919       6.25075440       6.29494123        4       0.00265071       0.00024046       0.00065242
S        0.80229203       1.13276072       6.25038213        5      -0.00985453      -0.01199356      -0.00700138
S        0.83672711       6.04583928       1.30049976        6       0.00214069       0.00018592       0.00367819
S        5.73720488       0.92403277       1.30076019        7      -0.00062608      -0.00124122       0.00199737
S        3.61166540       3.75759253       6.24287003        8       0.00673645       0.00098123       0.00011930
S        8.58440030       8.84755498       6.05004572        9       0.00016955      -0.00125954      -0.00251617
S        8.48753325       3.83462419       1.09778363       10       0.00196178      -0.00024425      -0.00201808
S        3.46820534       8.53280879       0.90763719       11      -0.00042850      -0.00368676      -0.00028872
S        3.70868884       6.14886786       3.78977138       12      -0.00092368       0.00272440       0.00147930
S        8.70095770       1.17563447       3.76341395       13      -0.00031692      -0.00178276      -0.00115551
S        8.69224646       6.09220693       8.67102019       14       0.00083874       0.00017617      -0.00057718
S        3.68134508       1.12332415       8.83109363       15       0.00468413      -0.00234982       0.00087761
S        6.03536572       3.79653120       3.90551260       16       0.00090483      -0.00021845      -0.00186318
S        0.87059817       8.74272972       3.92361136       17       0.00033155      -0.00351791      -0.00305432
S        0.80049279       3.61469789       8.98639980       18      -0.01306281       0.01032470       0.00825176
S        5.95637928       8.71877862       8.75296079       19       0.00236465      -0.00083668      -0.00053762
Li       7.76854411       9.71029152       1.94625082       21      -0.00094912      -0.00206235      -0.00060960
Li       6.79599187       4.76387902       8.01624713       22       0.00036052      -0.00086851       0.00043277
Li       2.14822972       9.70455538       7.66019059       23      -0.00401849      -0.00230471       0.00147772
Li       7.42787085       7.35910306       0.21426137       24       0.00050165       0.00003405      -0.00075582
Li       2.50623357       4.55293586       2.17024988       25       0.00437295       0.00386941       0.01035485
Li       2.87745201       8.03813436       5.26747248       26      -0.00460001      -0.00374539       0.00117675
Li       7.71961056       2.79018109       5.42362445       27       0.00162259      -0.00042662      -0.00184303
Li       8.89482604       2.18114625       9.30508673       28       0.00378908       0.00028409      -0.00271125
Li       4.30361401       6.90184908       8.35956213       29      -0.00384651       0.00190312      -0.00113214
Li       2.25802156       2.49902389       4.74567759       30       0.00205543      -0.00287382       0.00780756
Li       9.03804353       7.39797880       4.16906524       31      -0.00015783      -0.00254383      -0.00137304
Li       1.93512625       5.11768167       7.37693079       32      -0.00012184      -0.00196440       0.00101572
Li       7.68696107       0.18139145       7.86820165       33       0.00103968      -0.00039455      -0.00160720
Li       7.92982519       5.26077135       3.06260789       34      -0.00275710      -0.00189143      -0.00413993
Li       3.57143741       0.32723486       2.70860659       35       0.00299778      -0.00013889      -0.00269052
Li      -0.07201414       2.43464055       2.57831659       36       0.00679156       0.00096063       0.00079916
Li       5.83231508       7.92603590       4.38581379       37       0.00120383      -0.00027969       0.00057379
Li       5.62004942       2.70506300       9.63536288       38       0.00543782      -0.00289425      -0.00138977
Li       0.81935669       7.68738205       9.49179594       39      -0.00543400      -0.00487973       0.00199388
Li       0.20824937       7.13610981       6.06950897       40      -0.00122954      -0.00286686       0.00032540
Li       5.01049411       1.74741481       6.79602315       41       0.00248139      -0.00187831      -0.00201537
Li       5.40490929       6.11263936       2.01061391       42       0.00031033      -0.00192018      -0.00117338
Li       2.01409729       1.94645024       0.29861833       43       0.01819941       0.02333957       0.00125269
Cl       9.32565941       9.89067800       9.72675798       44       0.00146517       0.00118734      -0.00017814
Cl       5.09043475       5.10984068      -0.20047207       45       0.00275508      -0.00302236       0.00082237
Cl       4.46652339      -0.22684068       4.99126981       46       0.00160154      -0.00160148      -0.00114318
Cl       9.72148868       4.99564513       4.75523018       47       0.00098580      -0.00125965       0.00012951
S        2.21541396       2.31462785       2.50757040       48       0.00550161       0.00374309       0.00637583
S        7.28965813       7.45801615       2.55978352       49      -0.00015835      -0.00194263      -0.00122254
S        7.11106131       2.44732100       7.69780279       50       0.00378837      -0.00066838      -0.00172681
S        2.09956024       7.41318732       7.45515381       51      -0.00343874      -0.00298576       0.00033898
P       14.79920701       5.25274265       4.99039650        0      -0.00295802       0.00430962       0.00221811
P        9.87702440      10.07002316       5.00338260        1      -0.00457666      -0.00350433      -0.00305464
P        9.79680461       5.02187566      10.07902394        2      -0.00184533       0.00081469      -0.00126277
P       14.81969377       0.16581111       9.94905595        3      -0.00399848      -0.00174462      -0.00126697
S       15.81657086       6.48277237       6.28700153        4       0.00055316      -0.00069822      -0.00022167
S       10.94459356       1.14894063       6.31523338        5      -0.00140835       0.00037829       0.00192858
S       10.77799533       6.30545500       1.25207254        6      -0.00060292       0.00301284       0.00121582
S       16.04463110       1.33518223       1.07303151        7      -0.00147379       0.00066611       0.00325500
S       13.54189534       4.08562499       6.14701191        8      -0.00182769       0.00413589      -0.00190004
S       18.58049486       8.82570906       6.28269639        9      -0.00528224      -0.00347005      -0.00162758
S       18.52381278       3.80707585       1.30677966       10      -0.00271806      -0.00487467       0.00344386
S       13.75676001       9.02303915       1.20456701       11      -0.00314783       0.00161607       0.00045246
S       13.64562428       6.48544894       3.81541704       12       0.00335533       0.00350673      -0.00078940
S       18.57249197       0.90888522       3.71703171       13      -0.00085049       0.00272766      -0.00357440
S       18.68267060       6.12231011       8.91488549       14      -0.00531347       0.00074656       0.00193601
S       13.55136615       1.42979870       8.91590431       15      -0.00160101       0.00128628       0.00146806
S       16.10581212       4.15978807       3.85400581       16      -0.00009436      -0.00298570      -0.00040233
S       11.04069055       8.87183317       3.79381475       17       0.00034669       0.00009826      -0.00121132
S       10.94663431       3.76024476       8.95225988       18       0.00341789       0.00264172      -0.00040560
S       15.79633248       8.97876085       8.68366057       19      -0.00337289       0.00096323       0.00164936
Li      11.78687190       5.04771580       3.18561383       20      -0.00174203       0.00462005       0.00176491
Li      19.32698122       9.04020420       2.16827841       21       0.00035066      -0.00811940       0.00029787
Li      17.60960064       4.91202125       6.95974766       22      -0.00103571      -0.00235589       0.00081773
Li      12.11689849       9.82283036       7.97510353       23      -0.00212161       0.00308457       0.00052604
Li      17.63768043       8.00717175       0.15205439       24      -0.00234805      -0.00335193       0.00104554
Li      12.89417128       3.43253948       0.32573482       25       0.00137206       0.00556615       0.00148686
Li      12.68881997       8.02455040       5.46519447       26       0.00545540       0.00619333      -0.00082933
Li      19.55092158       2.95613093       7.06497552       27      -0.00014099      -0.00132211       0.00195386
Li      17.07783295       2.90245900       9.71289186       28      -0.00198375      -0.00912176       0.00211408
Li      12.56492596       7.20446528       9.99864104       29      -0.00464159       0.00340658      -0.00081519
Li      14.66439710       2.40994891       2.82617319       30      -0.00404778       0.00239369       0.00166477
Li      16.87037737       8.08499186       4.80160490       31       0.00002978      -0.00430852      -0.00071129
Li      14.02537875       6.04189148       7.90187207       32      -0.00036792       0.00336012      -0.00039677
Li      17.72196962       0.32121576       8.00361475       33      -0.00385134      -0.00082261      -0.00269994
Li      18.32257317       5.60894451       2.97782984       34      -0.01057039      -0.00235568      -0.00721070
Li      12.15744903       0.42056718       2.28733680       35       0.00383892       0.00537504      -0.00041421
Li      12.53092461       2.25965228       4.82684849       36      -0.00061765       0.00331599      -0.00057777
Li      15.90031022       9.55914702       2.65562645       37       0.00531264       0.00056852      -0.00020670
Li      14.95691205       2.49368505       7.27661183       38      -0.00187505      -0.00011137       0.00024000
Li       9.79904728       8.11540726       8.04929269       39       0.00121020       0.00715519      -0.00348232
Li      10.82839082       5.49458829       7.09887400       40       0.00026620       0.00308289      -0.00133755
Li      16.88351647       1.98721867       5.11669977       41      -0.00289879       0.00335048       0.00048680
Li      15.29331583       6.55863883       1.85826987       42      -0.00326316       0.00103243      -0.00601865
Li      10.03152839       2.81529341       2.70792763       43       0.00137009       0.00146327      -0.00014396
Cl      19.50522319       9.61682322       9.91306073       44       0.00092457      -0.00379011      -0.00039373
Cl      14.38841821       5.31119637       0.05101114       45      -0.00039898       0.00107876      -0.00019306
Cl      14.84961175       0.60098122       4.52661880       46      -0.00159972       0.00173950       0.00201637
Cl      19.61210340       4.93831030       5.49996979       47      -0.00011487      -0.00161256       0.00230314
S       12.34056104       2.75429328       2.55801661       48       0.00046667       0.00346797       0.00137950
S       17.29265033       7.66799133       2.50154521       49      -0.00255771      -0.00167371      -0.00001173
S       17.24782549       2.56905466       7.40341728       50      -0.00276104      -0.00164670       0.00150579
S       12.07488836       7.47815141       7.68501092       51       0.00013579       0.00313329      -0.00087645
103
Lattice="20.110191271466377 0.0 0.0 0.0 10.055095635733188 0.0 0.0 0.0 10.055095635733188" Properties=species:S:1:pos:R:3:spacegroup_kinds:I:1:forces:R:3 spacegroup="P 1" unit_cell=conventional occupancy="_JSON {\"0\": {\"P\": 1.0}, \"1\": {\"P\": 1.0}, \"2\": {\"P\": 1.0}, \"3\": {\"P\": 1.0}, \"4\": {\"S\": 1.0}, \"5\": {\"S\": 1.0}, \"6\": {\"S\": 1.0}, \"7\": {\"S\": 1.0}, \"8\": {\"S\": 1.0}, \"9\": {\"S\": 1.0}, \"10\": {\"S\": 1.0}, \"11\": {\"S\": 1.0}, \"12\": {\"S\": 1.0}, \"13\": {\"S\": 1.0}, \"14\": {\"S\": 1.0}, \"15\": {\"S\": 1.0}, \"16\": {\"S\": 1.0}, \"17\": {\"S\": 1.0}, \"18\": {\"S\": 1.0}, \"19\": {\"S\": 1.0}, \"20\": {\"Li\": 1.0}, \"21\": {\"Li\": 1.0}, \"22\": {\"Li\": 1.0}, \"23\": {\"Li\": 1.0}, \"24\": {\"Li\": 1.0}, \"25\": {\"Li\": 1.0}, \"26\": {\"Li\": 1.0}, \"27\": {\"Li\": 1.0}, \"28\": {\"Li\": 1.0}, \"29\": {\"Li\": 1.0}, \"30\": {\"Li\": 1.0}, \"31\": {\"Li\": 1.0}, \"32\": {\"Li\": 1.0}, \"33\": {\"Li\": 1.0}, \"34\": {\"Li\": 1.0}, \"35\": {\"Li\": 1.0}, \"36\": {\"Li\": 1.0}, \"37\": {\"Li\": 1.0}, \"38\": {\"Li\": 1.0}, \"39\": {\"Li\": 1.0}, \"40\": {\"Li\": 1.0}, \"41\": {\"Li\": 1.0}, \"42\": {\"Li\": 1.0}, \"43\": {\"Li\": 1.0}, \"44\": {\"Cl\": 1.0}, \"45\": {\"Cl\": 1.0}, \"46\": {\"Cl\": 1.0}, \"47\": {\"Cl\": 1.0}, \"48\": {\"S\": 1.0}, \"49\": {\"S\": 1.0}, \"50\": {\"S\": 1.0}, \"51\": {\"S\": 1.0}}" charge=0 spin=0 energy=-429.6512151896945 free_energy=-429.6512151896945 stress="-0.0008268858255665807 0.00013350663103630798 0.0005389809995584233 0.00013350663103630798 0.0026491587829845643 -0.0012469310409263129 0.0005389809995584233 -0.0012469310409263129 0.0018580882654774152" pbc="T T T"
P        4.86203887       4.86684672       4.96970840        0      -0.00110773      -0.00560108       0.00667671
P       -0.23501063      10.02118207       5.14157355        1       0.01206881       0.00996209       0.01323701
P       -0.29561235       5.04709963      10.09306297        2       0.01243144      -0.01621543      -0.01654616
P        4.84965696      -0.20791764      10.11510061        3       0.00009044       0.00202279      -0.00571196
S        5.79297277       6.16396323       6.25764292        4       0.00265071       0.00024046       0.00065242
S        0.93781371       1.22896066       6.27420692        5      -0.00985453      -0.01199356      -0.00700138
S        0.89913751       6.21020848       1.24895414        6       0.00214069       0.00018592       0.00367819
S        5.82410492       1.05582944       1.31630253        7      -0.00062608      -0.00124122       0.00199737
S        3.58341928       3.71887120       6.12181669        8       0.00673645       0.00098123       0.00011930
S        8.64934012       8.96064452       6.08140028        9       0.00016955      -0.00125954      -0.00251617
S        8.65995259       3.79619886       1.13837383       10       0.00196178      -0.00024425      -0.00201808
S        3.60889036       8.64142758       1.18883412       11      -0.00042850      -0.00368676      -0.00028872
S        3.74992075       6.09612349       3.70769155       12      -0.00092368       0.00272440       0.00147930
S        8.76412588       1.37287033       3.80699083       13      -0.00031692      -0.00178276      -0.00115551
S        8.75938351       6.19326699       8.80023042       14       0.00083874       0.00017617      -0.00057718
S        3.68427132       1.04707406       8.88848148       15       0.00468413      -0.00234982       0.00087761
S        6.07092589       3.67735018       3.86471577       16       0.00090483      -0.00021845      -0.00186318
S        0.93745091       8.81992709       3.96702227       17       0.00033155      -0.00351791      -0.00305432
S        0.89281205       3.91823499       8.86008002       18      -0.01306281       0.01032470       0.00825176
S        5.99351005       8.66967587       8.91280396       19       0.00236465      -0.00083668      -0.00053762
Li       7.50790503       9.81123121       2.40159884       21      -0.00094912      -0.00206235      -0.00060960
Li       6.81494863       4.86107018       8.11127971       22       0.00036052      -0.00086851       0.00043277
Li       2.64161242       9.72069229       7.20262449       23      -0.00401849      -0.00230471       0.00147772
Li       7.85697905       7.86662221       0.31218333       24       0.00050165       0.00003405      -0.00075582
Li       2.46519491       4.58791369       2.24476387       25       0.00437295       0.00386941       0.01035485
Li       2.75520854       7.74349459       5.29479185       26      -0.00460001      -0.00374539       0.00117675
Li       7.62392308       2.80966675       5.51559435       27       0.00162259      -0.00042662      -0.00184303
Li       8.95753710       2.31647779       9.17780906       28       0.00378908       0.00028409      -0.00271125
Li       2.70660868       7.01989596       9.75543842       29      -0.00384651       0.00190312      -0.00113214
Li       2.19828484       2.49319360       4.64511187       30       0.00205543      -0.00287382       0.00780756
Li       9.10028807       7.41497567       4.03923380       31      -0.00015783      -0.00254383      -0.00137304
Li       3.68906042       5.63550584       7.62461961       32      -0.00012184      -0.00196440       0.00101572
Li       7.54501046       0.20959906       7.91978291       33       0.00103968      -0.00039455      -0.00160720
Li       7.71079158       5.19171736       2.87938426       34      -0.00275710      -0.00189143      -0.00413993
Li       2.90346900       0.16518357       2.95522847       35       0.00299778      -0.00013889      -0.00269052
Li      -0.15335468       2.33002218       2.40284387       36       0.00679156       0.00096063       0.00079916
Li       5.78203036       7.90817389       4.46452533       37       0.00120383      -0.00027969       0.00057379
Li       5.50258472       2.74082839       9.66145984       38       0.00543782      -0.00289425      -0.00138977
Li       0.10006450       8.30354272       8.44312832       39      -0.00543400      -0.00487973       0.00199388
Li       0.42083706       5.96186085       7.03318798       40      -0.00122954      -0.00286686       0.00032540
Li       4.97158020       1.72200572       6.81706089       41       0.00248139      -0.00187831      -0.00201537
Li       5.17441401       6.72917815       1.67640594       42       0.00031033      -0.00192018      -0.00117338
Li       1.88495515       2.00326334       0.13919856       43       0.01819941       0.02333957       0.00125269
Cl       9.36524949       9.99093740       9.86677035       44       0.00146517       0.00118734      -0.00017814
Cl       4.70042752       5.12056329      -0.23406127       45       0.00275508      -0.00302236       0.00082237
Cl       4.27390060      -0.29298763       5.18870542       46       0.00160154      -0.00160148      -0.00114318
Cl       9.78132893       5.22991805       4.90019040       47       0.00098580      -0.00125965       0.00012951
S        2.12141413       2.32630950       2.39293353       48       0.00550161       0.00374309       0.00637583
S        7.23787524       7.48830522       2.58756388       49      -0.00015835      -0.00194263      -0.00122254
S        7.03313789       2.50675999       7.75173402       50       0.00378837      -0.00066838      -0.00172681
S        2.12806030       7.45361393       7.54853797       51      -0.00343874      -0.00298576       0.00033898
P       14.85503086       5.20701800       4.95577905        0      -0.00295802       0.00430962       0.00221811
P        9.93175172      10.16674750       4.99726671        1      -0.00457666      -0.00350433      -0.00305464
P        9.89854880       5.01554317      10.11477709        2      -0.00184533       0.00081469      -0.00126277
P       14.83475506       0.02326172       9.91978495        3      -0.00399848      -0.00174462      -0.00126697
S       15.85813640       6.44689681       6.26247797        4       0.00055316      -0.00069822      -0.00022167
S       11.12441278       1.28746147       6.13986621        5      -0.00140835       0.00037829       0.00192858
S       10.95485064       6.26848377       1.26167128        6      -0.00060292       0.00301284       0.00121582
S       15.78321462       1.36910985       1.10320820        7      -0.00147379       0.00066611       0.00325500
S       13.60958500       4.07522473       6.15975910        8      -0.00182769       0.00413589      -0.00190004
S       18.72231688       8.92861115       6.43383612        9      -0.00528224      -0.00347005      -0.00162758
S       18.54350500       3.92497863       1.19810739       10      -0.00271806      -0.00487467       0.00344386
S       13.76179369       8.84663253       1.12844817       11      -0.00314783       0.00161607       0.00045246
S       13.72042713       6.42049099       3.73058079       12       0.00335533       0.00350673      -0.00078940
S       18.62083004       1.07804697       3.92762585       13      -0.00085049       0.00272766      -0.00357440
S       18.68111415       6.27821562       8.87011575       14      -0.00531347       0.00074656       0.00193601
S       13.53850840       1.12199888       8.74213332       15      -0.00160101       0.00128628       0.00146806
S       16.02712933       4.05251204       3.76883083       16      -0.00009436      -0.00298570      -0.00040233
S       10.96623553       8.97855036       3.68907154       17       0.00034669       0.00009826      -0.00121132
S       10.99548913       3.77029854       8.90178455       18       0.00341789       0.00264172      -0.00040560
S       16.02686782       8.96593889       8.71660058       19      -0.00337289       0.00096323       0.00164936
Li      12.70019765       4.83762091       2.23684941       20      -0.00174203       0.00462005       0.00176491
Li      19.66309164       8.21004049       2.07226155       21       0.00035066      -0.00811940       0.00029787
Li      17.58680416       4.94741760       6.99753525       22      -0.00103571      -0.00235589       0.00081773
Li      12.77580625       9.63473314       7.04132976       23      -0.00212161       0.00308457       0.00052604
Li      17.64620306       8.07732999       0.21526248       24      -0.00234805      -0.00335193       0.00104554
Li      12.98950416       2.95837510       0.19993035       25       0.00137206       0.00556615       0.00148686
Li      12.00772492       7.28006018       5.15162029       26       0.00545540       0.00619333      -0.00082933
Li      19.53627113       2.98946463       7.07910338       27      -0.00014099      -0.00132211       0.00195386
Li      16.57500743       3.35830250       9.74083052       28      -0.00198375      -0.00912176       0.00211408
Li      12.45551912       7.37781075       9.79489591       29      -0.00464159       0.00340658      -0.00081519
Li      13.12218294       2.28488325       4.64197904       30      -0.00404778       0.00239369       0.00166477
Li      17.17551470       7.88647943       4.86073217       31       0.00002978      -0.00430852      -0.00071129
Li      14.00013564       5.90131411       7.82488977       32      -0.00036792       0.00336012      -0.00039677
Li      17.88495763       0.48861564       8.27573254       33      -0.00385134      -0.00082261      -0.00269994
Li      18.01652527       5.41311017       3.15211155       34      -0.01057039      -0.00235568      -0.00721070
Li      13.73563166       0.69708913       2.62328328       35       0.00383892       0.00537504      -0.00041421
Li      10.47735757       3.21659599       3.83211746       36      -0.00061765       0.00331599      -0.00057777
Li      16.84816603       9.92925254       2.69884114       37       0.00531264       0.00056852      -0.00020670
Li      15.00645520       2.12929179       7.06797424       38      -0.00187505      -0.00011137       0.00024000
Li       9.96911789       8.14917749       8.08077925       39       0.00121020       0.00715519      -0.00348232
Li      10.71611565       5.45332185       7.15286793       40       0.00026620       0.00308289      -0.00133755
Li      17.00421000       2.31641323       5.21515476       41      -0.00289879       0.00335048       0.00048680
Li      15.24164798       6.84036832       1.81197890       42      -0.00326316       0.00103243      -0.00601865
Li      10.44605840       1.13029037       1.86058497       43       0.00137009       0.00146327      -0.00014396
Cl      19.48758503       9.77660734      10.11487566       44       0.00092457      -0.00379011      -0.00039373
Cl      14.44191648       5.05907636       0.07595686       45      -0.00039898       0.00107876      -0.00019306
Cl      14.84759781       0.66566252       4.90564467       46      -0.00159972       0.00173950       0.00201637
Cl      19.40250279       4.85320031       5.37028684       47      -0.00011487      -0.00161256       0.00230314
S       12.25941348       2.54038041       2.46137334       48       0.00046667       0.00346797       0.00137950
S       17.38377620       7.64603657       2.52771845       49      -0.00255771      -0.00167371      -0.00001173
S       17.24655517       2.66321715       7.54967572       50      -0.00276104      -0.00164670       0.00150579
S       12.13352502       7.40808511       7.48495016       51       0.00013579       0.00313329      -0.00087645
103
Lattice="20.110191271466377 0.0 0.0 0.0 10.055095635733188 0.0 0.0 0.0 10.055095635733188" Properties=species:S:1:pos:R:3:spacegroup_kinds:I:1:forces:R:3 spacegroup="P 1" unit_cell=conventional occupancy="_JSON {\"0\": {\"P\": 1.0}, \"1\": {\"P\": 1.0}, \"2\": {\"P\": 1.0}, \"3\": {\"P\": 1.0}, \"4\": {\"S\": 1.0}, \"5\": {\"S\": 1.0}, \"6\": {\"S\": 1.0}, \"7\": {\"S\": 1.0}, \"8\": {\"S\": 1.0}, \"9\": {\"S\": 1.0}, \"10\": {\"S\": 1.0}, \"11\": {\"S\": 1.0}, \"12\": {\"S\": 1.0}, \"13\": {\"S\": 1.0}, \"14\": {\"S\": 1.0}, \"15\": {\"S\": 1.0}, \"16\": {\"S\": 1.0}, \"17\": {\"S\": 1.0}, \"18\": {\"S\": 1.0}, \"19\": {\"S\": 1.0}, \"20\": {\"Li\": 1.0}, \"21\": {\"Li\": 1.0}, \"22\": {\"Li\": 1.0}, \"23\": {\"Li\": 1.0}, \"24\": {\"Li\": 1.0}, \"25\": {\"Li\": 1.0}, \"26\": {\"Li\": 1.0}, \"27\": {\"Li\": 1.0}, \"28\": {\"Li\": 1.0}, \"29\": {\"Li\": 1.0}, \"30\": {\"Li\": 1.0}, \"31\": {\"Li\": 1.0}, \"32\": {\"Li\": 1.0}, \"33\": {\"Li\": 1.0}, \"34\": {\"Li\": 1.0}, \"35\": {\"Li\": 1.0}, \"36\": {\"Li\": 1.0}, \"37\": {\"Li\": 1.0}, \"38\": {\"Li\": 1.0}, \"39\": {\"Li\": 1.0}, \"40\": {\"Li\": 1.0}, \"41\": {\"Li\": 1.0}, \"42\": {\"Li\": 1.0}, \"43\": {\"Li\": 1.0}, \"44\": {\"Cl\": 1.0}, \"45\": {\"Cl\": 1.0}, \"46\": {\"Cl\": 1.0}, \"47\": {\"Cl\": 1.0}, \"48\": {\"S\": 1.0}, \"49\": {\"S\": 1.0}, \"50\": {\"S\": 1.0}, \"51\": {\"S\": 1.0}}" charge=0 spin=0 energy=-429.6512151896945 free_energy=-429.6512151896945 stress="-0.0008268858255665807 0.00013350663103630798 0.0005389809995584233 0.00013350663103630798 0.0026491587829845643 -0.0012469310409263129 0.0005389809995584233 -0.0012469310409263129 0.0018580882654774152" pbc="T T T"
P        4.81391515       4.97802659       5.07148894        0      -0.00110773      -0.00560108       0.00667671
P       -0.10628724      10.06146296       5.04624784        1       0.01206881       0.00996209       0.01323701
P       -0.15261816       4.97126280      10.06687244        2       0.01243144      -0.01621543      -0.01654616
P        4.85754185      -0.05844877      10.13313218        3       0.00009044       0.00202279      -0.00571196
S        5.82387502       6.27409198       6.30986747        4       0.00265071       0.00024046       0.00065242
S        1.03903356       1.16021366       6.25610677        5      -0.00985453      -0.01199356      -0.00700138
S        1.00024336       6.10629745       1.28768443        6       0.00214069       0.00018592       0.00367819
S        5.86946203       1.26113093       1.24125330        7      -0.00062608      -0.00124122       0.00199737
S        3.51410539       3.89227998       6.24260931        8       0.00673645       0.00098123       0.00011930
S        8.64626003       8.87323461       6.27918759        9       0.00016955      -0.00125954      -0.00251617
S        8.54320228       3.90791559       1.21863512       10       0.00196178      -0.00024425      -0.00201808
S        3.61834918       8.82235018       1.24370182       11      -0.00042850      -0.00368676      -0.00028872
S        3.77992892       6.14303578       3.71427791       12      -0.00092368       0.00272440       0.00147930
S        8.68027528       1.35899195       4.06370783       13      -0.00031692      -0.00178276      -0.00115551
S        8.81935961       6.44788271       9.01234047       14       0.00083874       0.00017617      -0.00057718
S        3.74151141       1.04551227       8.78122704       15       0.00468413      -0.00234982       0.00087761
S        6.05310622       3.69615560       4.07699068       16       0.00090483      -0.00021845      -0.00186318
S        1.07992112       8.92621282       3.80418394       17       0.00033155      -0.00351791      -0.00305432
S        0.95267834       3.77284192       8.86116330       18      -0.01306281       0.01032470       0.00825176
S        6.09629217       8.71031425       9.10962566       19       0.00236465      -0.00083668      -0.00053762
Li       6.82244860      10.02452280       3.11288211       21      -0.00094912      -0.00206235      -0.00060960
Li       7.00888121       4.97468542       8.08067697       22       0.00036052      -0.00086851       0.00043277
Li       2.98590873       9.64225471       6.90088169       23      -0.00401849      -0.00230471       0.00147772
Li       8.12027744       8.36794110       0.56951166       24       0.00050165       0.00003405      -0.00075582
Li       2.98335603       4.58605072       1.85181140       25       0.00437295       0.00386941       0.01035485
Li       2.11528629       7.21180478       5.14729534       26      -0.00460001      -0.00374539       0.00117675
Li       8.10824819       3.28417809       5.59257371       27       0.00162259      -0.00042662      -0.00184303
Li       8.79856090       2.31932886       9.27071691       28       0.00378908       0.00028409      -0.00271125
Li       2.35567003       7.42489790       9.79690523       29      -0.00384651       0.00190312      -0.00113214
Li       1.97722104       2.82270108       4.69873309       30       0.00205543      -0.00287382       0.00780756
Li       8.98705600       7.40385332       4.22757512       31      -0.00015783      -0.00254383      -0.00137304
Li       3.87176421       5.83969529       7.78961383       32      -0.00012184      -0.00196440       0.00101572
Li       7.13140429       0.25937865       7.57189935       33       0.00103968      -0.00039455      -0.00160720
Li       7.31945909       5.33665955       2.77179702       34      -0.00275710      -0.00189143      -0.00413993
Li       3.09953764       0.38732578       3.07118725       35       0.00299778      -0.00013889      -0.00269052
Li      -0.03118458       2.41307210       2.41511429       36       0.00679156       0.00096063       0.00079916
Li       5.53189556       7.80033926       4.39109435       37       0.00120383      -0.00027969       0.00057379
Li       5.42424437       2.79138435       9.39973795       38       0.00543782      -0.00289425      -0.00138977
Li       0.11590030       8.47034497       8.11883375       39      -0.00543400      -0.00487973       0.00199388
Li       0.60122414       5.59808998       7.23857290       40      -0.00122954      -0.00286686       0.00032540
Li       5.32055436       2.19575535       6.05111783       41       0.00248139      -0.00187831      -0.00201537
Li       5.45525417       7.19019796       1.09107018       42       0.00031033      -0.00192018      -0.00117338
Li       2.00704796       1.95324360       0.18996286       43       0.01819941       0.02333957       0.00125269
Cl       9.76475890      10.22075808      10.07951047       44       0.00146517       0.00118734      -0.00017814
Cl       4.74127273       5.13413819      -0.09266456       45       0.00275508      -0.00302236       0.00082237
Cl       4.77263269      -0.00667922       5.00185663       46       0.00160154      -0.00160148      -0.00114318
Cl       9.63535447       5.15635204       4.99799462       47       0.00098580      -0.00125965       0.00012951
S        2.22870197       2.46495867       2.44117191       48       0.00550161       0.00374309       0.00637583
S        7.20371606       7.68316104       2.67656180       49      -0.00015835      -0.00194263      -0.00122254
S        7.08296918       2.62375597       7.65498007       50       0.00378837      -0.00066838      -0.00172681
S        2.15687726       7.44885322       7.46997869       51      -0.00343874      -0.00298576       0.00033898
P       14.92694108       5.06173368       4.92936604        0      -0.00295802       0.00430962       0.00221811
P        9.85470219      10.15942882       5.21696715        1      -0.00457666      -0.00350433      -0.00305464
P        9.84367410       5.07592837      10.18554607        2      -0.00184533       0.00081469      -0.00126277
P       14.96891420       0.00384311       9.95723843        3      -0.00399848      -0.00174462      -0.00126697
S       15.98649636       6.34444553       6.14641198        4       0.00055316      -0.00069822      -0.00022167
S       11.02541570       1.17655223       6.47495544        5      -0.00140835       0.00037829       0.00192858
S       11.09243467       6.04529644       1.42275553        6      -0.00060292       0.00301284       0.00121582
S       16.17955473       1.20532794       1.04015919        7      -0.00147379       0.00066611       0.00325500
S       13.61364094       4.07793496       6.19020084        8      -0.00182769       0.00413589      -0.00190004
S       18.79367632       8.84723039       6.20337453        9      -0.00528224      -0.00347005      -0.00162758
S       18.63037659       3.78810590       1.06937069       10      -0.00271806      -0.00487467       0.00344386
S       13.79873224       8.90872753       1.16023695       11      -0.00314783       0.00161607       0.00045246
S       13.77890971       6.18144680       3.62367500       12       0.00335533       0.00350673      -0.00078940
S       18.70422372       1.15472906       3.90805947       13      -0.00085049       0.00272766      -0.00357440
S       18.87062932       6.26783023       8.85739024       14      -0.00531347       0.00074656       0.00193601
S       13.77848298       1.27777053       8.82638362       15      -0.00160101       0.00128628       0.00146806
S       16.07945381       3.77284172       3.86230564       16      -0.00009436      -0.00298570      -0.00040233
S       10.93553602       8.98824325       3.87724753       17       0.00034669       0.00009826      -0.00121132
S       10.80585854       3.82009525       8.87311974       18       0.00341789       0.00264172      -0.00040560
S       15.96730769       8.80847117       8.69304225       19      -0.00337289       0.00096323       0.00164936
Li      13.13144589       4.47832692       1.88795766       20      -0.00174203       0.00462005       0.00176491
Li      19.78289709       8.12373576       2.00678557       21       0.00035066      -0.00811940       0.00029787
Li      17.61604066       4.87130932       7.29736805       22      -0.00103571      -0.00235589       0.00081773
Li      13.04779399       9.72447965       7.03714160       23      -0.00212161       0.00308457       0.00052604
Li      17.76275068       8.09480518       0.12856720       24      -0.00234805      -0.00335193       0.00104554
Li      11.92046472       2.03523139       0.17301639       25       0.00137206       0.00556615       0.00148686
Li      12.37375268       7.42030673       5.18837546       26       0.00545540       0.00619333      -0.00082933
Li      17.97220233       2.95975758       5.38391711       27      -0.00014099      -0.00132211       0.00195386
Li      18.32503232       1.83069707       9.56390043       28      -0.00198375      -0.00912176       0.00211408
Li      12.63825427       7.16370819       9.87071148       29      -0.00464159       0.00340658      -0.00081519
Li      12.55803162       2.31784699       4.84086422       30      -0.00404778       0.00239369       0.00166477
Li      17.91267733       7.11815089       4.78451119       31       0.00002978      -0.00430852      -0.00071129
Li      14.13268099       6.03256777       7.73053144       32      -0.00036792       0.00336012      -0.00039677
Li      17.18459407       0.26213449       7.21230558       33      -0.00385134      -0.00082261      -0.00269994
Li      17.77536172       5.20625088       2.78255793       34      -0.01057039      -0.00235568      -0.00721070
Li      13.24212181       0.36524965       2.98948323       35       0.00383892       0.00537504      -0.00041421
Li      10.38607514       3.98659157       2.96202674       36      -0.00061765       0.00331599      -0.00057777
Li      16.98788692       9.77853482       2.85929520       37       0.00531264       0.00056852      -0.00020670
Li      15.58997103       3.05229403       9.42553454       38      -0.00187505      -0.00011137       0.00024000
Li      10.28972939       8.70248523       8.13721014       39       0.00121020       0.00715519      -0.00348232
Li      10.63932245       5.71536310       7.24369922       40       0.00026620       0.00308289      -0.00133755
Li      15.05403151       2.18314517       6.61678693       41      -0.00289879       0.00335048       0.00048680
Li      15.28456050       6.99252631       1.82975725       42      -0.00326316       0.00103243      -0.00601865
Li      10.30112375       0.82874631       2.31060737       43       0.00137009       0.00146327      -0.00014396
Cl      19.64704488       9.77013335      10.06459809       44       0.00092457      -0.00379011      -0.00039373
Cl      14.56511866       5.25305015       0.00426913       45      -0.00039898       0.00107876      -0.00019306
Cl      14.39057254       0.41512791       5.11711271       46      -0.00159972       0.00173950       0.00201637
Cl      19.34858914       5.03920027       5.26351288       47      -0.00011487      -0.00161256       0.00230314
S       12.11027094       2.39449885       2.49712257       48       0.00046667       0.00346797       0.00137950
S       17.51255945       7.52810411       2.44990548       49      -0.00255771      -0.00167371      -0.00001173
S       17.15596341       2.56803358       7.59877278       50      -0.00276104      -0.00164670       0.00150579
S       12.24919385       7.50481432       7.54084125       51       0.00013579       0.00313329      -0.00087645
