103
Lattice="20.110191271466377 0.0 0.0 0.0 10.055095635733188 0.0 0.0 0.0 10.055095635733188" Properties=species:S:1:pos:R:3:spacegroup_kinds:I:1:forces:R:3 spacegroup="P 1" unit_cell=conventional occupancy="_JSON {\"0\": {\"P\": 1.0}, \"1\": {\"P\": 1.0}, \"2\": {\"P\": 1.0}, \"3\": {\"P\": 1.0}, \"4\": {\"S\": 1.0}, \"5\": {\"S\": 1.0}, \"6\": {\"S\": 1.0}, \"7\": {\"S\": 1.0}, \"8\": {\"S\": 1.0}, \"9\": {\"S\": 1.0}, \"10\": {\"S\": 1.0}, \"11\": {\"S\": 1.0}, \"12\": {\"S\": 1.0}, \"13\": {\"S\": 1.0}, \"14\": {\"S\": 1.0}, \"15\": {\"S\": 1.0}, \"16\": {\"S\": 1.0}, \"17\": {\"S\": 1.0}, \"18\": {\"S\": 1.0}, \"19\": {\"S\": 1.0}, \"20\": {\"Li\": 1.0}, \"21\": {\"Li\": 1.0}, \"22\": {\"Li\": 1.0}, \"23\": {\"Li\": 1.0}, \"24\": {\"Li\": 1.0}, \"25\": {\"Li\": 1.0}, \"26\": {\"Li\": 1.0}, \"27\": {\"Li\": 1.0}, \"28\": {\"Li\": 1.0}, \"29\": {\"Li\": 1.0}, \"30\": {\"Li\": 1.0}, \"31\": {\"Li\": 1.0}, \"32\": {\"Li\": 1.0}, \"33\": {\"Li\": 1.0}, \"34\": {\"Li\": 1.0}, \"35\": {\"Li\": 1.0}, \"36\": {\"Li\": 1.0}, \"37\": {\"Li\": 1.0}, \"38\": {\"Li\": 1.0}, \"39\": {\"Li\": 1.0}, \"40\": {\"Li\": 1.0}, \"41\": {\"Li\": 1.0}, \"42\": {\"Li\": 1.0}, \"43\": {\"Li\": 1.0}, \"44\": {\"Cl\": 1.0}, \"45\": {\"Cl\": 1.0}, \"46\": {\"Cl\": 1.0}, \"47\": {\"Cl\": 1.0}, \"48\": {\"S\": 1.0}, \"49\": {\"S\": 1.0}, \"50\": {\"S\": 1.0}, \"51\": {\"S\": 1.0}}" charge=0 spin=0 energy=-429.6512057312285 free_energy=-429.6512057312285 stress="-0.0008266908128584511 -0.00013346124482063612 -0.0005386078487629 -0.00013346124482063612 0.0026494357872869525 -0.0012467692713462617 -0.0005386078487629 -0.0012467692713462617 0.0018583251570133707" pbc="T T T"
P        4.83950880       4.94935348       5.09955850        0      -0.00116456       0.00571129      -0.00676861
P       -0.12115028      10.02255264       5.01975908        1       0.01224790      -0.01003141      -0.01338952
P       -0.17217596       5.00523735      10.10858583        2       0.01285897       0.01670278       0.01710208
P        4.80393554      -0.04215606      10.11477809        3       0.00009160      -0.00210754       0.00579751
S        6.07152644       5.98124980       6.38576605        4       0.00091842       0.00022303       0.00188044
S        1.06187789       1.20762202       6.16258439        5       0.00032455       0.00352117       0.00306609
S        0.92220782       6.20947618       1.26366957        6      -0.01340637      -0.01067482      -0.00860850
S        6.03786314       0.95556397       1.34381190        7       0.00237145       0.00084576       0.00053159
S        3.61352571       3.77426694       6.27973694        8      -0.00095411      -0.00275722      -0.00143464
S        8.64472077       8.80461699       6.19732060        9      -0.00030517       0.00178486       0.00116113
S        8.52485045       3.82238363       1.11310884       10       0.00085252      -0.00017248       0.00056143
S        3.50626712       8.83467929       1.14111901       11       0.00471716       0.00239327      -0.00093647
S        3.71320620       6.29566693       3.99853687       12       0.00679175      -0.00103579      -0.00007265
S        8.66902601       0.97933018       3.67352485       13       0.00019656       0.00124279       0.00253685
S        8.80310993       6.08791957       8.63464790       14       0.00198481       0.00022790       0.00203286
S        3.76680177       1.31768952       8.95312296       15      -0.00046370       0.00372630       0.00025220
S        5.85351836       3.79327300       3.77558581       16       0.00267107      -0.00026455      -0.00065152
S        1.02966290       8.81254696       3.87213062       17      -0.00994713       0.01208559       0.00709591
S        0.99165750       3.73072056       8.98281279       18       0.00219626      -0.00029962      -0.00381432
S        5.81766227       8.78006007       8.81776300       19      -0.00063821       0.00124915      -0.00200818
Li       8.09086406       9.49164688       1.76599159       21       0.00103661       0.00038852       0.00161507
Li       8.09768552       4.46845712       6.72323845       22      -0.00276644       0.00189967       0.00413576
Li       2.08446111       9.93631901       7.90352512       23       0.00299854       0.00013973       0.00268737
Li       6.97868761       6.99461189       0.06213118       24       0.00378228      -0.00028493       0.00271092
Li       2.98213179       3.17049576       0.46506837       25      -0.00384187      -0.00189148       0.00114832
Li       2.96387797       8.17861811       5.45488116       26       0.00205565       0.00287802      -0.00782392
Li       6.81164787       1.92267374       5.06618771       27      -0.00016090       0.00254745       0.00137113
Li       7.34665018       2.21562638       9.75128658       28       0.00051091      -0.00003860       0.00075108
Li       3.86793957       7.29724568       9.24144297       29      -0.00011739       0.00195999      -0.00100951
Li       3.08683135       1.95063582       4.66019886       30      -0.00459497       0.00375038      -0.00118594
Li       7.10459086       7.51873099       4.77642627       31       0.00163514       0.00043183       0.00183694
Li       2.35209364       5.28466780       7.67526268       32       0.00437195      -0.00384713      -0.01033946
Li       8.97841574       0.79534659       7.66215594       33      -0.00095583       0.00206699       0.00059664
Li       8.77869524       5.82685069       2.70996189       34       0.00035811       0.00087317      -0.00043781
Li       1.98297591       0.31847451       2.22662624       35      -0.00401507       0.00229505      -0.00148294
Li       1.97858921       4.82793503       3.08368027       36      -0.00119960       0.00291174      -0.00034656
Li       5.30625510       9.04495482       2.84391137       37       0.00248839       0.00186564       0.00203904
Li       5.44782092       3.92868228       7.91532703       38       0.00032699       0.00192288       0.00118831
Li       0.58476260       7.82842372       9.49569408       39       0.01821901      -0.02338254      -0.00122746
Li       0.10055171       6.95878361       6.62327889       40       0.00680280      -0.00096412      -0.00079956
Li       5.51951901       0.64564441       7.29288454       41       0.00120576       0.00027690      -0.00057035
Li       5.39533668       5.69287858       2.25200610       42       0.00543102       0.00290211       0.00139178
Li      -0.04916821       2.58787668       2.58432540       43      -0.00543015       0.00489768      -0.00197273
Cl       9.59298196      10.10497797       9.92789341       44       0.00147209      -0.00118781       0.00018088
Cl       4.73178747       5.13025932      -0.09469916       45       0.00275042       0.00301025      -0.00082533
Cl       4.76745042       0.02954855       5.04332159       46       0.00160698       0.00160638       0.00115361
Cl       9.74071933       5.01176848       4.86573504       47       0.00098720       0.00126445      -0.00012987
S        2.21254081       2.57794693       2.57925599       48      -0.00344715       0.00297870      -0.00034711
S        7.05934910       7.43334330       2.41366116       49       0.00379587       0.00066633       0.00172532
S        7.19786091       2.35352428       7.40665326       50      -0.00015811       0.00194549       0.00122296
S        2.14119747       7.61124335       7.64745567       51       0.00548970      -0.00373925      -0.00639109
P       14.94981996       5.12289185       5.01408991        0      -0.00309233      -0.00440169      -0.00233110
P        9.84964254       9.87197622       4.91252554        1      -0.00464483       0.00354141       0.00306200
P        9.82651965       4.91120859      10.00381284        2      -0.00193008      -0.00078084       0.00128793
P       14.91050614       0.10134687      10.01392274        3      -0.00406860       0.00184279       0.00136610
S       15.95559832       6.37926424       6.26605670        4      -0.00001762       0.00306394       0.00047315
S       10.93612620       1.15220540       6.08602847        5       0.00035929      -0.00009610       0.00121628
S       10.78729338       6.22495503       1.20475327        6       0.00342913      -0.00264423       0.00039928
S       16.06535617       1.15410804       1.25731295        7      -0.00338400      -0.00099889      -0.00169639
S       13.77180056       3.87095544       6.16415907        8       0.00338964      -0.00349456       0.00078613
S       18.77091307       8.86831555       6.22830453        9      -0.00091266      -0.00276719       0.00363122
S       18.60651727       3.94756047       1.23116918       10      -0.00538412      -0.00082201      -0.00192326
S       13.59247068       8.89342641       0.93532513       11      -0.00157156      -0.00127780      -0.00149310
S       13.76658069       6.26136096       3.73903874       12      -0.00178689      -0.00415624       0.00194342
S       18.69529543       1.10392088       3.86352822       13      -0.00532066       0.00349836       0.00162932
S       18.85505523       6.21143620       8.80610628       14      -0.00285538       0.00491839      -0.00354762
S       13.76622653       1.41629106       8.90096497       15      -0.00311810      -0.00164329      -0.00045314
S       16.15175113       3.97763924       3.81190774       16       0.00054849       0.00071191       0.00024181
S       11.01423157       8.62294410       3.82351753       17      -0.00138418      -0.00039902      -0.00194995
S       11.07611284       3.61926375       9.03282304       18      -0.00057074      -0.00304240      -0.00125313
S       15.97159474       8.94473772       8.72861175       19      -0.00142710      -0.00071522      -0.00331148
Li      11.90914110       4.86682238       2.97893486       20      -0.00037014      -0.00335938       0.00039959
Li      17.97049711       9.68853839       2.04872783       21      -0.00386041       0.00082883       0.00269185
Li      17.76384346       4.88628249       6.94847939       22      -0.01057529       0.00235534       0.00720784
Li      12.39443416       9.89915761       7.63680964       23       0.00383440      -0.00537193       0.00041306
Li      17.59638902       7.77274452       0.14321440       24      -0.00198718       0.00911520      -0.00209710
Li      13.11273513       3.15707926       0.54277913       25      -0.00464302      -0.00341010       0.00081671
Li      13.01339385       8.04283014       5.33894927       26      -0.00404525      -0.00239094      -0.00166864
Li      19.77469759       3.01297663       6.96382592       27       0.00002926       0.00431140       0.00071063
Li      17.70882618       2.27108849       9.85968164       28      -0.00231839       0.00328105      -0.00103797
Li      14.12568235       7.35274857       9.03429107       29       0.00137074      -0.00556912      -0.00148354
Li      13.21754021       2.03494333       4.65853049       30       0.00546307      -0.00620076       0.00082615
Li      17.14879880       7.88183463       4.75516215       31      -0.00013811       0.00131795      -0.00196494
Li      12.61815935       5.21978534       7.90800799       32      -0.00174326      -0.00462460      -0.00176480
Li      17.91865278       0.24210063       7.96725892       33       0.00035759       0.00813597      -0.00031954
Li      18.30614601       5.51500567       3.18711018       34      -0.00103971       0.00236748      -0.00081563
Li      12.54555252       0.19791224       2.69349566       35      -0.00212200      -0.00308521      -0.00053511
Li      10.29037422       2.73089667       4.20139059       36       0.00026591      -0.00308427       0.00133409
Li      15.04124017       8.48214370       2.82627700       37      -0.00291314      -0.00335382      -0.00049638
Li      15.26809544       3.21482532       8.06496531       38      -0.00325588      -0.00103645       0.00603919
Li      10.63781804       7.86443724       9.37426268       39       0.00136530      -0.00146778       0.00013981
Li      10.25587197       6.93219977       6.41969178       40      -0.00061901      -0.00332702       0.00058133
Li      16.96528059       2.14610908       5.28829588       41       0.00532364      -0.00056527       0.00020601
Li      15.57265918       5.65985274       1.96877143       42      -0.00188596       0.00010813      -0.00023319
Li      10.36849400       2.08086437       1.03400444       43       0.00120605      -0.00715694       0.00349301
Cl      19.34475210       9.80176648      10.03223697       44       0.00088017       0.00382605       0.00039446
Cl      14.55513179       5.02933888      -0.23531833       45      -0.00039986      -0.00107092       0.00019085
Cl      14.37851605      -0.08817074       4.60744182       46      -0.00160377      -0.00174726      -0.00201666
Cl      19.63375017       5.01318556       5.31046412       47      -0.00012691       0.00161434      -0.00229366
S       12.09574493       2.54179423       2.62608019       48       0.00014228      -0.00313597       0.00087310
S       17.13815697       7.48194770       2.44932421       49      -0.00276856       0.00164038      -0.00151158
S       17.49468873       2.57184183       7.53684079       50      -0.00254091       0.00167808       0.00002418
S       12.23525334       7.54931243       7.57026932       51       0.00047855      -0.00347380      -0.00138150
103
Lattice="20.110191271466377 0.0 0.0 0.0 10.055095635733188 0.0 0.0 0.0 10.055095635733188" Properties=species:S:1:pos:R:3:spacegroup_kinds:I:1:forces:R:3 spacegroup="P 1" unit_cell=conventional occupancy="_JSON {\"0\": {\"P\": 1.0}, \"1\": {\"P\": 1.0}, \"2\": {\"P\": 1.0}, \"3\": {\"P\": 1.0}, \"4\": {\"S\": 1.0}, \"5\": {\"S\": 1.0}, \"6\": {\"S\": 1.0}, \"7\": {\"S\": 1.0}, \"8\": {\"S\": 1.0}, \"9\": {\"S\": 1.0}, \"10\": {\"S\": 1.0}, \"11\": {\"S\": 1.0}, \"12\": {\"S\": 1.0}, \"13\": {\"S\": 1.0}, \"14\": {\"S\": 1.0}, \"15\": {\"S\": 1.0}, \"16\": {\"S\": 1.0}, \"17\": {\"S\": 1.0}, \"18\": {\"S\": 1.0}, \"19\": {\"S\": 1.0}, \"20\": {\"Li\": 1.0}, \"21\": {\"Li\": 1.0}, \"22\": {\"Li\": 1.0}, \"23\": {\"Li\": 1.0}, \"24\": {\"Li\": 1.0}, \"25\": {\"Li\": 1.0}, \"26\": {\"Li\": 1.0}, \"27\": {\"Li\": 1.0}, \"28\": {\"Li\": 1.0}, \"29\": {\"Li\": 1.0}, \"30\": {\"Li\": 1.0}, \"31\": {\"Li\": 1.0}, \"32\": {\"Li\": 1.0}, \"33\": {\"Li\": 1.0}, \"34\": {\"Li\": 1.0}, \"35\": {\"Li\": 1.0}, \"36\": {\"Li\": 1.0}, \"37\": {\"Li\": 1.0}, \"38\": {\"Li\": 1.0}, \"39\": {\"Li\": 1.0}, \"40\": {\"Li\": 1.0}, \"41\": {\"Li\": 1.0}, \"42\": {\"Li\": 1.0}, \"43\": {\"Li\": 1.0}, \"44\": {\"Cl\": 1.0}, \"45\": {\"Cl\": 1.0}, \"46\": {\"Cl\": 1.0}, \"47\": {\"Cl\": 1.0}, \"48\": {\"S\": 1.0}, \"49\": {\"S\": 1.0}, \"50\": {\"S\": 1.0}, \"51\": {\"S\": 1.0}}" charge=0 spin=0 energy=-429.6512057312285 free_energy=-429.6512057312285 stress="-0.0008266908128584511 -0.00013346124482063612 -0.0005386078487629 -0.00013346124482063612 0.0026494357872869525 -0.0012467692713462617 -0.0005386078487629 -0.0012467692713462617 0.0018583251570133707" pbc="T T T"
P        4.81100734       4.91838718       5.02216115        0      -0.00116456       0.00571129      -0.00676861
P       -0.14667665      10.05450808       5.06016560        1       0.01224790      -0.01003141      -0.01338952
P       -0.13558756       4.99990884      10.05389219        2       0.01285897       0.01670278       0.01710208
P        4.78419788      -0.15849732       9.99907895        3       0.00009160      -0.00210754       0.00579751
S        5.90963446       6.02296753       6.34801353        4       0.00091842       0.00022303       0.00188044
S        1.05591270       1.24371797       6.16637036        5       0.00032455       0.00352117       0.00306609
S        1.08872586       6.12163646       1.17903132        6      -0.01340637      -0.01067482      -0.00860850
S        5.97364011       0.86882799       1.25365885        7       0.00237145       0.00084576       0.00053159
S        3.52192642       3.71138806       6.11029336        8      -0.00095411      -0.00275722      -0.00143464
S        8.60193954       8.88468699       6.22867672        9      -0.00030517       0.00178486       0.00116113
S        8.59546971       3.91473048       1.15980730       10       0.00085252      -0.00017248       0.00056143
S        3.46903994       8.74142502       1.06196423       11       0.00471716       0.00239327      -0.00093647
S        3.71380368       6.20790752       3.83355374       12       0.00679175      -0.00103579      -0.00007265
S        8.77458076       1.15130983       3.71670889       13       0.00019656       0.00124279       0.00253685
S        8.74891089       6.15533846       8.66722159       14       0.00198481       0.00022790       0.00203286
S        3.76547677       1.19081027       8.79861609       15      -0.00046370       0.00372630       0.00025220
S        5.90265010       3.74708323       3.77071308       16       0.00267107      -0.00026455      -0.00065152
S        0.94907611       8.76617591       3.95727274       17      -0.00994713       0.01208559       0.00709591
S        0.92863585       3.68612322       8.89383120       18       0.00219626      -0.00029962      -0.00381432
S        5.76159722       8.61841232       8.74539067       19      -0.00063821       0.00124915      -0.00200818
Li       8.19537451       9.55511688       1.93409345       21       0.00103661       0.00038852       0.00161507
Li       7.86005178       4.59975174       6.90178506       22      -0.00276644       0.00189967       0.00413576
Li       2.17571508       9.81477047       7.68231026       23       0.00299854       0.00013973       0.00268737
Li       7.22383676       7.36653476       0.11879325       24       0.00378228      -0.00028493       0.00271092
Li       2.95977605       2.96275570       0.37272271       25      -0.00384187      -0.00189148       0.00114832
Li       3.11106509       7.99804301       5.46412558       26       0.00205565       0.00287802      -0.00782392
Li       7.19011502       2.29312980       5.15413675       27      -0.00016090       0.00254745       0.00137113
Li       7.07188005       2.53460150       9.85894198       28       0.00051091      -0.00003860       0.00075108
Li       3.56638367       6.75570357       9.55565057       29      -0.00011739       0.00195999      -0.00100951
Li       3.06728195       1.80166774       4.57159399       30      -0.00459497       0.00375038      -0.00118594
Li       7.02848549       7.59895561       4.82104086       31       0.00163514       0.00043183       0.00183694
Li       2.06054875       5.18679162       7.28442456       32       0.00437195      -0.00384713      -0.01033946
Li       9.07077679       0.99129499       7.82943265       33      -0.00095583       0.00206699       0.00059664
Li       8.92273303       5.92727213       2.78922245       34       0.00035811       0.00087317      -0.00043781
Li       1.88548580       0.14735750       2.17144985       35      -0.00401507       0.00229505      -0.00148294
Li       2.06449450       4.65231954       2.96191721       36      -0.00119960       0.00291174      -0.00034656
Li       5.28734476       9.03002290       2.78156579       37       0.00248839       0.00186564       0.00203904
Li       5.09889325       3.49115284       7.93712245       38       0.00032699       0.00192288       0.00118831
Li       0.93302982       7.94774672       9.65175710       39       0.01821901      -0.02338254      -0.00122746
Li       0.02223814       7.09753679       6.77769209       40       0.00680280      -0.00096412      -0.00079956
Li       5.73422689       0.45257345       7.15867266       41       0.00120576       0.00027690      -0.00057035
Li       5.62085549       5.60619217       2.21539644       42       0.00543102       0.00290211       0.00139178
Li      -0.06540454       2.38616142       2.33201846       43      -0.00543015       0.00489768      -0.00197273
Cl       9.59115007      10.11371825      10.04818275       44       0.00147209      -0.00118781       0.00018088
Cl       4.75376746       4.69711616       0.00657974       45       0.00275042       0.00301025      -0.00082533
Cl       4.69079623      -0.18432675       5.01671764       46       0.00160698       0.00160638       0.00115361
Cl       9.60737404       5.00495687       5.00012275       47       0.00098720       0.00126445      -0.00012987
S        2.18270714       2.39997738       2.48442275       48      -0.00344715       0.00297870      -0.00034711
S        7.13555744       7.47938575       2.46095528       49       0.00379587       0.00066633       0.00172532
S        7.16801329       2.39027107       7.49669426       50      -0.00015811       0.00194549       0.00122296
S        2.18189160       7.48404409       7.65646130       51       0.00548970      -0.00373925      -0.00639109
P       14.91391503       5.13644341       5.00510854        0      -0.00309233      -0.00440169      -0.00233110
P        9.84175193       9.94886690       4.98327605        1      -0.00464483       0.00354141       0.00306200
P        9.85686814       4.97267028       9.97904705        2      -0.00193008      -0.00078084       0.00128793
P       14.93397657       0.08417885      10.11548082        3      -0.00406860       0.00184279       0.00136610
S       15.90308152       6.36353002       6.27992611        4      -0.00001762       0.00306394       0.00047315
S       10.95352908       1.15129825       6.18266594        5       0.00035929      -0.00009610       0.00121628
S       10.85098360       6.32775904       1.11145420        6       0.00342913      -0.00264423       0.00039928
S       16.04929066       1.26599295       1.29484088        7      -0.00338400      -0.00099889      -0.00169639
S       13.62383144       3.89851310       6.02850780        8       0.00338964      -0.00349456       0.00078613
S       18.71095879       9.00526814       6.34122664        9      -0.00091266      -0.00276719       0.00363122
S       18.64973270       3.99778631       1.24898518       10      -0.00538412      -0.00082201      -0.00192326
S       13.62631983       8.95859925       1.14110725       11      -0.00157156      -0.00127780      -0.00149310
S       13.82661171       6.31296566       3.66864307       12      -0.00178689      -0.00415624       0.00194342
S       18.69557224       1.17508781       3.90475198       13      -0.00532066       0.00349836       0.00162932
S       18.84202576       6.24028992       8.85036913       14      -0.00285538       0.00491839      -0.00354762
S       13.76901717       1.28908537       8.89031184       15      -0.00311810      -0.00164329      -0.00045314
S       16.09539165       3.90317410       3.84768580       16       0.00054849       0.00071191       0.00024181
S       10.94244596       8.70131853       3.80308846       17      -0.00138418      -0.00039902      -0.00194995
S       11.05253495       3.70490922       8.92970727       18      -0.00057074      -0.00304240      -0.00125313
S       16.04134919       8.84867918       8.97523693       19      -0.00142710      -0.00071522      -0.00331148
Li      12.19252204       4.92468836       2.55748621       20      -0.00037014      -0.00335938       0.00039959
Li      17.86568195       9.79645689       2.15704141       21      -0.00386041       0.00082883       0.00269185
Li      17.67232004       4.88812017       7.05302248       22      -0.01057529       0.00235534       0.00720784
Li      12.71189719       9.86767976       7.26254420       23       0.00383440      -0.00537193       0.00041306
Li      18.02317429       7.83468449       0.38201217       24      -0.00198718       0.00911520      -0.00209710
Li      13.00302998       3.04943479       0.36839637       25      -0.00464302      -0.00341010       0.00081671
Li      12.72210291       7.83002378       5.24389064       26      -0.00404525      -0.00239094      -0.00166864
Li      19.65730489       2.99097766       6.90294615       27       0.00002926       0.00431140       0.00071063
Li      17.25338644       2.74901975       9.85809444       28      -0.00231839       0.00328105      -0.00103797
Li      13.88694281       7.45556396       9.24797978       29       0.00137074      -0.00556912      -0.00148354
Li      14.05897184       2.39786709       3.99813500       30       0.00546307      -0.00620076       0.00082615
Li      17.33970150       7.73631804       4.87610960       31      -0.00013811       0.00131795      -0.00196494
Li      12.73564447       5.27253128       7.91449474       32      -0.00174326      -0.00462460      -0.00176480
Li      17.94385743       0.29072005       8.24056030       33       0.00035759       0.00813597      -0.00031954
Li      18.22991765       5.41132862       3.28011089       34      -0.00103971       0.00236748      -0.00081563
Li      12.53280848       0.28060957       2.87982721       35      -0.00212200      -0.00308521      -0.00053511
Li      10.65910434       2.86496967       4.41454998       36       0.00026591      -0.00308427       0.00133409
Li      15.09350740       8.49031888       3.05273156       37      -0.00291314      -0.00335382      -0.00049638
Li      15.10000591       2.98513101       7.77590821       38      -0.00325588      -0.00103645       0.00603919
Li      10.51805317       8.00936707       9.22497902       39       0.00136530      -0.00146778       0.00013981
Li      10.13366419       6.77055066       6.58847415       40      -0.00061901      -0.00332702       0.00058133
Li      16.87642741       1.87925638       5.35431002       41       0.00532364      -0.00056527       0.00020601
Li      15.62439316       5.90043054       1.75410684       42      -0.00188596       0.00010813      -0.00023319
Li      10.21231278       2.02061431       1.37601955       43       0.00120605      -0.00715694       0.00349301
Cl      19.52002928       9.74946167      10.25322058       44       0.00088017       0.00382605       0.00039446
Cl      14.48169194       5.04667685      -0.24194697       45      -0.00039986      -0.00107092       0.00019085
Cl      14.42962156       0.07628426       4.72268205       46      -0.00160377      -0.00174726      -0.00201666
Cl      19.53934926       5.10590349       5.43601940       47      -0.00012691       0.00161434      -0.00229366
S       12.19588423       2.60822724       2.55945535       48       0.00014228      -0.00313597       0.00087310
S       17.20959497       7.50949891       2.57272157       49      -0.00276856       0.00164038      -0.00151158
S       17.38585770       2.55745070       7.54987195       50      -0.00254091       0.00167808       0.00002418
S       12.20400924       7.56345762       7.53852272       51       0.00047855      -0.00347380      -0.00138150
103
Lattice="20.110191271466377 0.0 0.0 0.0 10.055095635733188 0.0 0.0 0.0 10.055095635733188" Properties=species:S:1:pos:R:3:spacegroup_kinds:I:1:forces:R:3 spacegroup="P 1" unit_cell=conventional occupancy="_JSON {\"0\": {\"P\": 1.0}, \"1\": {\"P\": 1.0}, \"2\": {\"P\": 1.0}, \"3\": {\"P\": 1.0}, \"4\": {\"S\": 1.0}, \"5\": {\"S\": 1.0}, \"6\": {\"S\": 1.0}, \"7\": {\"S\": 1.0}, \"8\": {\"S\": 1.0}, \"9\": {\"S\": 1.0}, \"10\": {\"S\": 1.0}, \"11\": {\"S\": 1.0}, \"12\": {\"S\": 1.0}, \"13\": {\"S\": 1.0}, \"14\": {\"S\": 1.0}, \"15\": {\"S\": 1.0}, \"16\": {\"S\": 1.0}, \"17\": {\"S\": 1.0}, \"18\": {\"S\": 1.0}, \"19\": {\"S\": 1.0}, \"20\": {\"Li\": 1.0}, \"21\": {\"Li\": 1.0}, \"22\": {\"Li\": 1.0}, \"23\": {\"Li\": 1.0}, \"24\": {\"Li\": 1.0}, \"25\": {\"Li\": 1.0}, \"26\": {\"Li\": 1.0}, \"27\": {\"Li\": 1.0}, \"28\": {\"Li\": 1.0}, \"29\": {\"Li\": 1.0}, \"30\": {\"Li\": 1.0}, \"31\": {\"Li\": 1.0}, \"32\": {\"Li\": 1.0}, \"33\": {\"Li\": 1.0}, \"34\": {\"Li\": 1.0}, \"35\": {\"Li\": 1.0}, \"36\": {\"Li\": 1.0}, \"37\": {\"Li\": 1.0}, \"38\": {\"Li\": 1.0}, \"39\": {\"Li\": 1.0}, \"40\": {\"Li\": 1.0}, \"41\": {\"Li\": 1.0}, \"42\": {\"Li\": 1.0}, \"43\": {\"Li\": 1.0}, \"44\": {\"Cl\": 1.0}, \"45\": {\"Cl\": 1.0}, \"46\": {\"Cl\": 1.0}, \"47\": {\"Cl\": 1.0}, \"48\": {\"S\": 1.0}, \"49\": {\"S\": 1.0}, \"50\": {\"S\": 1.0}, \"51\": {\"S\": 1.0}}" charge=0 spin=0 energy=-429.6512057312285 free_energy=-429.6512057312285 stress="-0.0008266908128584511 -0.00013346124482063612 -0.0005386078487629 -0.00013346124482063612 0.0026494357872869525 -0.0012467692713462617 -0.0005386078487629 -0.0012467692713462617 0.0018583251570133707" pbc="T T T"
P        4.80787385       4.90989146       5.00613475        0      -0.00116456       0.00571129      -0.00676861
P       -0.19418427      10.07809489       5.00731902        1       0.01224790      -0.01003141      -0.01338952
P       -0.05527738       4.97704614      10.00522911        2       0.01285897       0.01670278       0.01710208
P        4.78859660      -0.03178530       9.91383601        3       0.00009160      -0.00210754       0.00579751
S        5.84640803       6.06496996       6.32749982        4       0.00091842       0.00022303       0.00188044
S        1.02207268       1.27825614       6.10037785        5       0.00032455       0.00352117       0.00306609
S        1.40138444       6.01356623       1.02793977        6      -0.01340637      -0.01067482      -0.00860850
S        5.79292378       1.16038216       1.15629229        7       0.00237145       0.00084576       0.00053159
S        3.52542569       3.70941310       6.09069208        8      -0.00095411      -0.00275722      -0.00143464
S        8.52230707       9.03760877       6.30821660        9      -0.00030517       0.00178486       0.00116113
S        8.38112851       4.00715859       1.18038980       10       0.00085252      -0.00017248       0.00056143
S        3.55626321       8.80386185       1.01432107       11       0.00471716       0.00239327      -0.00093647
S        3.74868798       6.15847358       3.74689962       12       0.00679175      -0.00103579      -0.00007265
S        8.72928372       1.22899974       3.75936094       13       0.00019656       0.00124279       0.00253685
S        8.60194518       6.19564574       8.71618949       14       0.00198481       0.00022790       0.00203286
S        3.71763090       1.17820161       8.62712900       15      -0.00046370       0.00372630       0.00025220
S        5.93678737       3.71922257       3.79300204       16       0.00267107      -0.00026455      -0.00065152
S        0.90579667       8.79272508       3.89451468       17      -0.00994713       0.01208559       0.00709591
S        0.95838191       3.67769976       8.80223040       18       0.00219626      -0.00029962      -0.00381432
S        5.88271873       8.79343222       8.73812657       19      -0.00063821       0.00124915      -0.00200818
Li       8.62873816       9.40209781       2.14074814       21       0.00103661       0.00038852       0.00161507
Li       7.47214512       4.69118693       7.28460917       22      -0.00276644       0.00189967       0.00413576
Li       1.98319259       9.81521225       7.64618152       23       0.00299854       0.00013973       0.00268737
Li       7.27750562       7.60604646       0.16071275       24       0.00378228      -0.00028493       0.00271092
Li       3.17938681       2.64888037       0.37170698       25      -0.00384187      -0.00189148       0.00114832
Li       3.08511443       8.05857180       5.33531770       26       0.00205565       0.00287802      -0.00782392
Li       7.36935654       2.52020661       5.27718748       27      -0.00016090       0.00254745       0.00137113
Li       6.58950363       3.01042217       9.93908503       28       0.00051091      -0.00003860       0.00075108
Li       3.94920780       4.97546118      10.10174051       29      -0.00011739       0.00195999      -0.00100951
Li       3.02052422       1.75446063       4.55862745       30      -0.00459497       0.00375038      -0.00118594
Li       7.01877245       7.70322185       4.85595419       31       0.00163514       0.00043183       0.00183694
Li       2.01972709       5.26294577       7.20783905       32       0.00437195      -0.00384713      -0.01033946
Li       9.09313840       1.28057048       7.98770338       33      -0.00095583       0.00206699       0.00059664
Li       8.97764738       5.98166702       2.82883998       34       0.00035811       0.00087317      -0.00043781
Li       1.82991119       0.12555485       2.08945869       35      -0.00401507       0.00229505      -0.00148294
Li       2.01109698       4.62487133       2.95250029       36      -0.00119960       0.00291174      -0.00034656
Li       5.32784245       9.11361535       2.72108183       37       0.00248839       0.00186564       0.00203904
Li       4.88952676       3.29675210       7.94202976       38       0.00032699       0.00192288       0.00118831
Li       2.00086525       7.68613231       9.63925304       39       0.01821901      -0.02338254      -0.00122746
Li      -0.08422449       7.15265043       6.85212052       40       0.00680280      -0.00096412      -0.00079956
Li       5.83014708       0.47474848       7.06159754       41       0.00120576       0.00027690      -0.00057035
Li       5.87576511       5.58972205       2.31089038       42       0.00543102       0.00290211       0.00139178
Li      -0.05126651       2.23601554       2.20533448       43      -0.00543015       0.00489768      -0.00197273
Cl       9.57627094      10.11037393      10.08179449       44       0.00147209      -0.00118781       0.00018088
Cl       4.43917144       4.45427478      -0.18488266       45       0.00275042       0.00301025      -0.00082533
Cl       4.73633216      -0.19696285       4.95051173       46       0.00160698       0.00160638       0.00115361
Cl       9.64461399       4.96161427       4.95308163       47       0.00098720       0.00126445      -0.00012987
S        2.21042531       2.37752388       2.45005974       48      -0.00344715       0.00297870      -0.00034711
S        7.17492851       7.55686329       2.48511942       49       0.00379587       0.00066633       0.00172532
S        7.01017329       2.50700289       7.65819904       50      -0.00015811       0.00194549       0.00122296
S        2.12597220       7.54566631       7.40772067       51       0.00548970      -0.00373925      -0.00639109
P       14.87697931       5.10404400       4.98955118        0      -0.00309233      -0.00440169      -0.00233110
P        9.78259155      10.03838464       5.03865099        1      -0.00464483       0.00354141       0.00306200
P        9.71632937       4.98723941      10.00466850        2      -0.00193008      -0.00078084       0.00128793
P       14.91705906       0.06172346      10.09818616        3      -0.00406860       0.00184279       0.00136610
S       15.79847653       6.33789628       6.33553138        4      -0.00001762       0.00306394       0.00047315
S       10.95791134       1.17849030       6.23146507        5       0.00035929      -0.00009610       0.00121628
S       10.81841940       6.29665193       1.09772747        6       0.00342913      -0.00264423       0.00039928
S       15.96899087       1.32051364       1.27199621        7      -0.00338400      -0.00099889      -0.00169639
S       13.55867666       3.86824993       6.00578876        8       0.00338964      -0.00349456       0.00078613
S       18.65819295       9.07124916       6.32064185        9      -0.00091266      -0.00276719       0.00363122
S       18.79235999       4.00498303       1.27402285       10      -0.00538412      -0.00082201      -0.00192326
S       13.66045293       8.95802560       1.23822653       11      -0.00157156      -0.00127780      -0.00149310
S       13.79972950       6.31869262       3.69293660       12      -0.00178689      -0.00415624       0.00194342
S       18.65733022       1.21187536       3.86920832       13      -0.00532066       0.00349836       0.00162932
S       18.84842491       6.26238545       8.95534256       14      -0.00285538       0.00491839      -0.00354762
S       13.69095245       1.22710563       8.87866520       15      -0.00311810      -0.00164329      -0.00045314
S       16.11215292       3.86586397       3.92581808       16       0.00054849       0.00071191       0.00024181
S       10.82515530       8.78132869       3.78978226       17      -0.00138418      -0.00039902      -0.00194995
S       10.84488529       3.70852457       8.92193937       18      -0.00057074      -0.00304240      -0.00125313
S       16.03202263       8.82590721       9.01270048       19      -0.00142710      -0.00071522      -0.00331148
Li      12.31729723       4.91267997       2.43992997       20      -0.00037014      -0.00335938       0.00039959
Li      17.77023109       9.86578466       2.07802239       21      -0.00386041       0.00082883       0.00269185
Li      17.61226832       4.87467104       7.05912023       22      -0.01057529       0.00235534       0.00720784
Li      12.85212863       9.82295022       7.12386675       23       0.00383440      -0.00537193       0.00041306
Li      18.84265064       7.76596187       0.80948382       24      -0.00198718       0.00911520      -0.00209710
Li      12.95153761       2.99896259       0.31872501       25      -0.00464302      -0.00341010       0.00081671
Li      12.46479803       7.65139375       5.19650008       26      -0.00404525      -0.00239094      -0.00166864
Li      19.59602445       2.99263390       6.84970032       27       0.00002926       0.00431140       0.00071063
Li      17.24052536       2.79993815       9.89257389       28      -0.00231839       0.00328105      -0.00103797
Li      13.01128173       7.32882605       9.68928272       29       0.00137074      -0.00556912      -0.00148354
Li      14.10659307       2.38729958       3.91756601       30       0.00546307      -0.00620076       0.00082615
Li      17.37467977       7.65643417       4.92021569       31      -0.00013811       0.00131795      -0.00196494
Li      13.45458201       5.59714900       7.68165406       32      -0.00174326      -0.00462460      -0.00176480
Li      17.94087571       0.28568562       8.34439807       33       0.00035759       0.00813597      -0.00031954
Li      18.07388056       5.34998723       3.27558532       34      -0.00103971       0.00236748      -0.00081563
Li      12.53107107       0.29186826       2.90228029       35      -0.00212200      -0.00308521      -0.00053511
Li      10.88325706       2.95913426       4.50748898       36       0.00026591      -0.00308427       0.00133409
Li      15.11689380       8.43755412       3.14008784       37      -0.00291314      -0.00335382      -0.00049638
Li      15.05266452       2.82835751       7.69769045       38      -0.00325588      -0.00103645       0.00603919
Li      10.15603530       8.25766216       8.67705906       39       0.00136530      -0.00146778       0.00013981
Li      10.36364090       6.05262679       6.88209310       40      -0.00061901      -0.00332702       0.00058133
Li      16.84181940       1.72394660       5.40923265       41       0.00532364      -0.00056527       0.00020601
Li      15.89751236       6.54055232       0.96572334       42      -0.00188596       0.00010813      -0.00023319
Li      10.09935535       2.07473107       1.48478889       43       0.00120605      -0.00715694       0.00349301
Cl      19.56532841       9.95300779      10.38624563       44       0.00088017       0.00382605       0.00039446
Cl      14.36068436       5.09363310      -0.20022934       45      -0.00039986      -0.00107092       0.00019085
Cl      14.45557441       0.13374951       4.77220736       46      -0.00160377      -0.00174726      -0.00201666
Cl      19.44364430       5.15906580       5.46282770       47      -0.00012691       0.00161434      -0.00229366
S       12.17957589       2.60468734       2.52862932       48       0.00014228      -0.00313597       0.00087310
S       17.28192177       7.53938495       2.59223707       49      -0.00276856       0.00164038      -0.00151158
S       17.35738001       2.55222542       7.58449926       50      -0.00254091       0.00167808       0.00002418
S       12.11323562       7.54341586       7.51062904       51       0.00047855      -0.00347380      -0.00138150
103
Lattice="20.110191271466377 0.0 0.0 0.0 10.055095635733188 0.0 0.0 0.0 10.055095635733188" Properties=species:S:1:pos:R:3:spacegroup_kinds:I:1:forces:R:3 spacegroup="P 1" unit_cell=conventional occupancy="_JSON {\"0\": {\"P\": 1.0}, \"1\": {\"P\": 1.0}, \"2\": {\"P\": 1.0}, \"3\": {\"P\": 1.0}, \"4\": {\"S\": 1.0}, \"5\": {\"S\": 1.0}, \"6\": {\"S\": 1.0}, \"7\": {\"S\": 1.0}, \"8\": {\"S\": 1.0}, \"9\": {\"S\": 1.0}, \"10\": {\"S\": 1.0}, \"11\": {\"S\": 1.0}, \"12\": {\"S\": 1.0}, \"13\": {\"S\": 1.0}, \"14\": {\"S\": 1.0}, \"15\": {\"S\": 1.0}, \"16\": {\"S\": 1.0}, \"17\": {\"S\": 1.0}, \"18\": {\"S\": 1.0}, \"19\": {\"S\": 1.0}, \"20\": {\"Li\": 1.0}, \"21\": {\"Li\": 1.0}, \"22\": {\"Li\": 1.0}, \"23\": {\"Li\": 1.0}, \"24\": {\"Li\": 1.0}, \"25\": {\"Li\": 1.0}, \"26\": {\"Li\": 1.0}, \"27\": {\"Li\": 1.0}, \"28\": {\"Li\": 1.0}, \"29\": {\"Li\": 1.0}, \"30\": {\"Li\": 1.0}, \"31\": {\"Li\": 1.0}, \"32\": {\"Li\": 1.0}, \"33\": {\"Li\": 1.0}, \"34\": {\"Li\": 1.0}, \"35\": {\"Li\": 1.0}, \"36\": {\"Li\": 1.0}, \"37\": {\"Li\": 1.0}, \"38\": {\"Li\": 1.0}, \"39\": {\"Li\": 1.0}, \"40\": {\"Li\": 1.0}, \"41\": {\"Li\": 1.0}, \"42\": {\"Li\": 1.0}, \"43\": {\"Li\": 1.0}, \"44\": {\"Cl\": 1.0}, \"45\": {\"Cl\": 1.0}, \"46\": {\"Cl\": 1.0}, \"47\": {\"Cl\": 1.0}, \"48\": {\"S\": 1.0}, \"49\": {\"S\": 1.0}, \"50\": {\"S\": 1.0}, \"51\": {\"S\": 1.0}}" charge=0 spin=0 energy=-429.6512057312285 free_energy=-429.6512057312285 stress="-0.0008266908128584511 -0.00013346124482063612 -0.0005386078487629 -0.00013346124482063612 0.0026494357872869525 -0.0012467692713462617 -0.0005386078487629 -0.0012467692713462617 0.0018583251570133707" pbc="T T T"
P        4.73906567       4.98942888       4.91787702        0      -0.00116456       0.00571129      -0.00676861
P       -0.22133127      10.12757659       4.97599852        1       0.01224790      -0.01003141      -0.01338952
P       -0.34318771       5.05006616      10.03375819        2       0.01285897       0.01670278       0.01710208
P        4.71510528      -0.01575086       9.93417515        3       0.00009160      -0.00210754       0.00579751
S        5.76751351       6.18794817       6.21259624        4       0.00091842       0.00022303       0.00188044
S        1.00891961       1.29802346       6.09685785        5       0.00032455       0.00352117       0.00306609
S        0.87915487       6.18407000       1.18123944        6      -0.01340637      -0.01067482      -0.00860850
S        5.84452965       1.09888890       1.19360101        7       0.00237145       0.00084576       0.00053159
S        3.51328723       3.72467577       5.99520246        8      -0.00095411      -0.00275722      -0.00143464
S        8.48500789       9.07455190       6.26275351        9      -0.00030517       0.00178486       0.00116113
S        8.57319438       3.97000013       1.20630669       10       0.00085252      -0.00017248       0.00056143
S        3.54575883       8.82951904       1.08309948       11       0.00471716       0.00239327      -0.00093647
S        3.61861163       6.17808352       3.67023649       12       0.00679175      -0.00103579      -0.00007265
S        8.67526141       1.21796891       3.70008112       13       0.00019656       0.00124279       0.00253685
S        8.70095707       6.24182556       8.73838634       14       0.00198481       0.00022790       0.00203286
S        3.56344112       1.20804217       8.72439803       15      -0.00046370       0.00372630       0.00025220
S        5.97299633       3.88366685       3.69763327       16       0.00267107      -0.00026455      -0.00065152
S        0.86627633       8.86112239       3.85294316       17      -0.00994713       0.01208559       0.00709591
S        0.74711822       3.85271209       8.76158735       18       0.00219626      -0.00029962      -0.00381432
S        5.81084356       8.84389513       8.71341574       19      -0.00063821       0.00124915      -0.00200818
Li       8.74897108       9.34773393       2.11526509       21       0.00103661       0.00038852       0.00161507
Li       7.48370303       4.80202838       7.22727001       22      -0.00276644       0.00189967       0.00413576
Li       1.95630227       9.78388552       7.65399195       23       0.00299854       0.00013973       0.00268737
Li       7.27541177       7.66731282       0.12395259       24       0.00378228      -0.00028493       0.00271092
Li       2.44436720       2.83904339       0.08671357       25      -0.00384187      -0.00189148       0.00114832
Li       3.32820082       7.94224799       5.47850142       26       0.00205565       0.00287802      -0.00782392
Li       7.50194289       2.71469396       5.16820522       27      -0.00016090       0.00254745       0.00137113
Li       6.96116649       2.75594099       9.84761481       28       0.00051091      -0.00003860       0.00075108
Li       4.44550853       3.11071429      11.99269379       29      -0.00011739       0.00195999      -0.00100951
Li       2.96538555       1.71717395       4.55329196       30      -0.00459497       0.00375038      -0.00118594
Li       7.04401881       7.71199712       4.79428716       31       0.00163514       0.00043183       0.00183694
Li       2.06233661       5.26184556       7.19331595       32       0.00437195      -0.00384713      -0.01033946
Li       9.25183904       1.48791395       8.00682180       33      -0.00095583       0.00206699       0.00059664
Li       8.97925740       5.94876942       2.85478311       34       0.00035811       0.00087317      -0.00043781
Li       1.81060303       0.15501951       2.02015471       35      -0.00401507       0.00229505      -0.00148294
Li       1.73171755       4.71040726       3.03380307       36      -0.00119960       0.00291174      -0.00034656
Li       5.41566340       9.20265118       2.71522188       37       0.00248839       0.00186564       0.00203904
Li       4.90943616       3.19886042       7.94479631       38       0.00032699       0.00192288       0.00118831
Li       2.36963460       7.32334892       9.65660540       39       0.01821901      -0.02338254      -0.00122746
Li      -0.17509115       7.15942919       6.92592424       40       0.00680280      -0.00096412      -0.00079956
Li       6.19402923       0.36739015       6.89759860       41       0.00120576       0.00027690      -0.00057035
Li       5.63917133       5.84397400       2.10770209       42       0.00543102       0.00290211       0.00139178
Li      -0.11581197       2.13210550       2.03801462       43      -0.00543015       0.00489768      -0.00197273
Cl       9.57239783      10.11740810      10.00583110       44       0.00147209      -0.00118781       0.00018088
Cl       4.83301921       4.51790034       0.04022950       45       0.00275042       0.00301025      -0.00082533
Cl       4.74196423      -0.17693517       4.93619283       46       0.00160698       0.00160638       0.00115361
Cl       9.69785133       4.96099838       5.03362557       47       0.00098720       0.00126445      -0.00012987
S        2.19445810       2.47967494       2.38592938       48      -0.00344715       0.00297870      -0.00034711
S        7.22101409       7.57647798       2.45746664       49       0.00379587       0.00066633       0.00172532
S        7.14933819       2.51541770       7.48876717       50      -0.00015811       0.00194549       0.00122296
S        2.05775415       7.51894706       7.40910870       51       0.00548970      -0.00373925      -0.00639109
P       14.80798838       5.12448269       5.02123804        0      -0.00309233      -0.00440169      -0.00233110
P        9.75449435      10.08988531       4.99589191        1      -0.00464483       0.00354141       0.00306200
P        9.81377737       5.01308051      10.00949922        2      -0.00193008      -0.00078084       0.00128793
P       14.87371387       0.04804978      10.11304782        3      -0.00406860       0.00184279       0.00136610
S       15.78579812       6.37187435       6.32918205        4      -0.00001762       0.00306394       0.00047315
S       10.98348660       1.17607076       6.18185346        5       0.00035929      -0.00009610       0.00121628
S       10.90375124       6.27334201       1.16748270        6       0.00342913      -0.00264423       0.00039928
S       15.88384264       1.33670161       1.30178725        7      -0.00338400      -0.00099889      -0.00169639
S       13.46886660       3.98287325       6.10441440        8       0.00338964      -0.00349456       0.00078613
S       18.61254055       9.13393135       6.29546196        9      -0.00091266      -0.00276719       0.00363122
S       18.60267372       3.90723814       1.24177661       10      -0.00538412      -0.00082201      -0.00192326
S       13.66029815       8.91739952       1.25432899       11      -0.00157156      -0.00127780      -0.00149310
S       13.73584797       6.34216526       3.73514292       12      -0.00178689      -0.00415624       0.00194342
S       18.63571460       1.30080004       3.87467277       13      -0.00532066       0.00349836       0.00162932
S       18.51905906       6.30782177       8.99549910       14      -0.00285538       0.00491839      -0.00354762
S       13.65735550       1.15744050       8.84886633       15      -0.00311810      -0.00164329      -0.00045314
S       16.07724622       3.89381608       4.00882933       16       0.00054849       0.00071191       0.00024181
S       10.79435892       8.81178133       3.75974160       17      -0.00138418      -0.00039902      -0.00194995
S       10.93329430       3.78301080       8.83846791       18      -0.00057074      -0.00304240      -0.00125313
S       16.08009148       8.87599194       9.04589619       19      -0.00142710      -0.00071522      -0.00331148
Li      12.56599651       4.88835392       2.26741305       20      -0.00037014      -0.00335938       0.00039959
Li      17.72421770       9.89335689       2.09810417       21      -0.00386041       0.00082883       0.00269185
Li      17.55489078       4.86528243       7.05950270       22      -0.01057529       0.00235534       0.00720784
Li      12.93346032       9.75701562       7.00071365       23       0.00383440      -0.00537193       0.00041306
Li      19.10822947       7.79267036       1.00239284       24      -0.00198718       0.00911520      -0.00209710
Li      12.95053978       2.97085304       0.23922422       25      -0.00464302      -0.00341010       0.00081671
Li      12.15405439       7.41034510       5.19021551       26      -0.00404525      -0.00239094      -0.00166864
Li      19.51919600       2.99363960       6.77980523       27       0.00002926       0.00431140       0.00071063
Li      16.93232683       2.96244954       9.86460603       28      -0.00231839       0.00328105      -0.00103797
Li      12.45343417       7.52338399       9.80251267       29       0.00137074      -0.00556912      -0.00148354
Li      14.39562287       2.24486060       3.46473659       30       0.00546307      -0.00620076       0.00082615
Li      17.45476506       7.58970920       4.89227685       31      -0.00013811       0.00131795      -0.00196494
Li      13.76821150       5.82938847       7.76585098       32      -0.00174326      -0.00462460      -0.00176480
Li      17.99505562       0.34955059       8.41419037       33       0.00035759       0.00813597      -0.00031954
Li      17.97055077       5.34234598       3.17150163       34      -0.00103971       0.00236748      -0.00081563
Li      12.52715850       0.28289549       2.90726881       35      -0.00212200      -0.00308521      -0.00053511
Li      11.29146776       3.14906286       4.64950093       36       0.00026591      -0.00308427       0.00133409
Li      15.11623033       8.36099058       3.17373538       37      -0.00291314      -0.00335382      -0.00049638
Li      14.98699638       2.79918838       7.63840681       38      -0.00325588      -0.00103645       0.00603919
Li       9.97511864       8.40562715       8.21912364       39       0.00136530      -0.00146778       0.00013981
Li      10.63249827       5.64598328       7.12985471       40      -0.00061901      -0.00332702       0.00058133
Li      16.81378678       1.45146128       5.50643917       41       0.00532364      -0.00056527       0.00020601
Li      16.13118334       6.81554818       0.56208324       42      -0.00188596       0.00010813      -0.00023319
Li      10.09747186       2.06642828       1.68723214       43       0.00120605      -0.00715694       0.00349301
Cl      19.58526703      10.10562972      10.49251390       44       0.00088017       0.00382605       0.00039446
Cl      14.53608152       4.94065128      -0.17053441       45      -0.00039986      -0.00107092       0.00019085
Cl      14.56831299       0.19129781       4.77524447       46      -0.00160377      -0.00174726      -0.00201666
Cl      19.37668172       5.21324627       5.43441556       47      -0.00012691       0.00161434      -0.00229366
S       12.25167067       2.59922944       2.50621867       48       0.00014228      -0.00313597       0.00087310
S       17.27006761       7.56648334       2.55902253       49      -0.00276856       0.00164038      -0.00151158
S       17.30019508       2.53924284       7.58862322       50      -0.00254091       0.00167808       0.00002418
S       12.09636601       7.54305543       7.50543980       51       0.00047855      -0.00347380      -0.00138150
103
Lattice="20.110191271466377 0.0 0.0 0.0 10.055095635733188 0.0 0.0 0.0 10.055095635733188" Properties=species:S:1:pos:R:3:spacegroup_kinds:I:1:forces:R:3 spacegroup="P 1" unit_cell=conventional occupancy="_JSON {\"0\": {\"P\": 1.0}, \"1\": {\"P\": 1.0}, \"2\": {\"P\": 1.0}, \"3\": {\"P\": 1.0}, \"4\": {\"S\": 1.0}, \"5\": {\"S\": 1.0}, \"6\": {\"S\": 1.0}, \"7\": {\"S\": 1.0}, \"8\": {\"S\": 1.0}, \"9\": {\"S\": 1.0}, \"10\": {\"S\": 1.0}, \"11\": {\"S\": 1.0}, \"12\": {\"S\": 1.0}, \"13\": {\"S\": 1.0}, \"14\": {\"S\": 1.0}, \"15\": {\"S\": 1.0}, \"16\": {\"S\": 1.0}, \"17\": {\"S\": 1.0}, \"18\": {\"S\": 1.0}, \"19\": {\"S\": 1.0}, \"20\": {\"Li\": 1.0}, \"21\": {\"Li\": 1.0}, \"22\": {\"Li\": 1.0}, \"23\": {\"Li\": 1.0}, \"24\": {\"Li\": 1.0}, \"25\": {\"Li\": 1.0}, \"26\": {\"Li\": 1.0}, \"27\": {\"Li\": 1.0}, \"28\": {\"Li\": 1.0}, \"29\": {\"Li\": 1.0}, \"30\": {\"Li\": 1.0}, \"31\": {\"Li\": 1.0}, \"32\": {\"Li\": 1.0}, \"33\": {\"Li\": 1.0}, \"34\": {\"Li\": 1.0}, \"35\": {\"Li\": 1.0}, \"36\": {\"Li\": 1.0}, \"37\": {\"Li\": 1.0}, \"38\": {\"Li\": 1.0}, \"39\": {\"Li\": 1.0}, \"40\": {\"Li\": 1.0}, \"41\": {\"Li\": 1.0}, \"42\": {\"Li\": 1.0}, \"43\": {\"Li\": 1.0}, \"44\": {\"Cl\": 1.0}, \"45\": {\"Cl\": 1.0}, \"46\": {\"Cl\": 1.0}, \"47\": {\"Cl\": 1.0}, \"48\": {\"S\": 1.0}, \"49\": {\"S\": 1.0}, \"50\": {\"S\": 1.0}, \"51\": {\"S\": 1.0}}" charge=0 spin=0 energy=-429.6512057312285 free_energy=-429.6512057312285 stress="-0.0008266908128584511 -0.00013346124482063612 -0.0005386078487629 -0.00013346124482063612 0.0026494357872869525 -0.0012467692713462617 -0.0005386078487629 -0.0012467692713462617 0.0018583251570133707" pbc="T T T"
P        4.71742324       4.91501651       4.87573420        0      -0.00116456       0.00571129      -0.00676861
P       -0.31484745      10.13482715       4.96322038        1       0.01224790      -0.01003141      -0.01338952
P       -0.38758386       5.03688519       9.99789723        2       0.01285897       0.01670278       0.01710208
P        4.71551198      -0.14023432       9.85598726        3       0.00009160      -0.00210754       0.00579751
S        5.72188603       6.16826580       6.15741305        4       0.00091842       0.00022303       0.00188044
S        0.93682443       1.25810063       6.10985045        5       0.00032455       0.00352117       0.00306609
S        0.91910805       6.14325614       1.09919160        6      -0.01340637      -0.01067482      -0.00860850
S        5.92998162       0.91538652       1.10133323        7       0.00237145       0.00084576       0.00053159
S        3.44823959       3.69109938       5.95269173        8      -0.00095411      -0.00275722      -0.00143464
S        8.44342354       9.08275322       6.15762259        9      -0.00030517       0.00178486       0.00116113
S        8.50642446       4.00729276       1.26807448       10       0.00085252      -0.00017248       0.00056143
S        3.57468395       8.68216810       1.00521617       11       0.00471716       0.00239327      -0.00093647
S        3.64935258       6.12040738       3.61199445       12       0.00679175      -0.00103579      -0.00007265
S        8.63229693       1.32455823       3.73869181       13       0.00019656       0.00124279       0.00253685
S        8.68439345       6.19929101       8.75592651       14       0.00198481       0.00022790       0.00203286
S        3.47922844       1.10329866       8.75617374       15      -0.00046370       0.00372630       0.00025220
S        6.00986260       3.78180870       3.75414106       16       0.00267107      -0.00026455      -0.00065152
S        0.79687168       8.86082569       3.84237040       17      -0.00994713       0.01208559       0.00709591
S        0.71577731       3.83334858       8.74261968       18       0.00219626      -0.00029962      -0.00381432
S        5.81859554       8.78136871       8.58887736       19      -0.00063821       0.00124915      -0.00200818
Li       8.87034176       9.32292757       2.22002059       21       0.00103661       0.00038852       0.00161507
Li       6.96474303       4.87200005       7.75167075       22      -0.00276644       0.00189967       0.00413576
Li       1.93529652       9.67917134       7.60740686       23       0.00299854       0.00013973       0.00268737
Li       7.56268965       8.02480993       0.07545050       24       0.00378228      -0.00028493       0.00271092
Li       2.56836802       2.96582028       0.07503584       25      -0.00384187      -0.00189148       0.00114832
Li       3.65643592       7.73938376       5.68414053       26       0.00205565       0.00287802      -0.00782392
Li       7.86888146       3.16013765       5.31223882       27      -0.00016090       0.00254745       0.00137113
Li       6.82707414       2.79351575       9.89748996       28       0.00051091      -0.00003860       0.00075108
Li       4.55161664       2.70482772      12.10502359       29      -0.00011739       0.00195999      -0.00100951
Li       2.82684268       1.68017822       4.55856002       30      -0.00459497       0.00375038      -0.00118594
Li       6.90124469       7.80041584       4.71538073       31       0.00163514       0.00043183       0.00183694
Li       1.66831139       5.21645622       6.82532815       32       0.00437195      -0.00384713      -0.01033946
Li       9.34710396       1.70617992       8.17532841       33      -0.00095583       0.00206699       0.00059664
Li       9.04674961       6.00362757       2.85541092       34       0.00035811       0.00087317      -0.00043781
Li       1.80898191       0.07058721       1.87681662       35      -0.00401507       0.00229505      -0.00148294
Li       1.88492373       4.63134227       2.80573561       36      -0.00119960       0.00291174      -0.00034656
Li       5.41510096       9.09131426       2.63519325       37       0.00248839       0.00186564       0.00203904
Li       4.83210440       2.86279256       7.77107071       38       0.00032699       0.00192288       0.00118831
Li       2.60332939       7.03754887       9.52723232       39       0.01821901      -0.02338254      -0.00122746
Li      -0.25245046       7.25659507       7.15003750       40       0.00680280      -0.00096412      -0.00079956
Li       6.40134287       0.36763718       6.79899758       41       0.00120576       0.00027690      -0.00057035
Li       5.77861797       5.70956661       2.08345979       42       0.00543102       0.00290211       0.00139178
Li      -0.12591654       2.05298441       1.95914739       43      -0.00543015       0.00489768      -0.00197273
Cl       9.62857374       9.70498268       9.91010857       44       0.00147209      -0.00118781       0.00018088
Cl       4.82785115       4.30558022       0.06033595       45       0.00275042       0.00301025      -0.00082533
Cl       4.82885317      -0.31841743       4.89388447       46       0.00160698       0.00160638       0.00115361
Cl       9.89994884       5.03764243       5.01876929       47       0.00098720       0.00126445      -0.00012987
S        2.22365887       2.36248005       2.33957480       48      -0.00344715       0.00297870      -0.00034711
S        7.27347839       7.56094084       2.40712336       49       0.00379587       0.00066633       0.00172532
S        7.16625165       2.55743819       7.54380772       50      -0.00015811       0.00194549       0.00122296
S        2.04144579       7.42413165       7.35163882       51       0.00548970      -0.00373925      -0.00639109
P       14.73058861       5.22982738       5.07937542        0      -0.00309233      -0.00440169      -0.00233110
P        9.73822247      10.18830619       4.99551702        1      -0.00464483       0.00354141       0.00306200
P        9.78146639       5.01543990      10.06619366        2      -0.00193008      -0.00078084       0.00128793
P       14.81651285       0.04890711      10.08142277        3      -0.00406860       0.00184279       0.00136610
S       15.78146214       6.49688282       6.30985996        4      -0.00001762       0.00306394       0.00047315
S       10.94653863       1.25306282       6.21392118        5       0.00035929      -0.00009610       0.00121628
S       10.96353478       6.21461142       1.17458693        6       0.00342913      -0.00264423       0.00039928
S       15.91186441       1.37493408       1.16885249        7      -0.00338400      -0.00099889      -0.00169639
S       13.43148217       4.15824052       6.28549852        8       0.00338964      -0.00349456       0.00078613
S       18.51946192       9.15965275       6.29607844        9      -0.00091266      -0.00276719       0.00363122
S       18.57592513       3.86983852       1.20233629       10      -0.00538412      -0.00082201      -0.00192326
S       13.64819737       8.94623348       1.27501935       11      -0.00157156      -0.00127780      -0.00149310
S       13.60513220       6.39527312       3.80242746       12      -0.00178689      -0.00415624       0.00194342
S       18.56376773       1.32764161       3.88050608       13      -0.00532066       0.00349836       0.00162932
S       18.43814089       6.25516750       8.96776674       14      -0.00285538       0.00491839      -0.00354762
S       13.56253319       1.09152597       8.79742050       15      -0.00311810      -0.00164329      -0.00045314
S       15.99248693       3.96972496       4.09348944       16       0.00054849       0.00071191       0.00024181
S       10.83046129       8.93327079       3.77813927       17      -0.00138418      -0.00039902      -0.00194995
S       10.86344993       3.68984230       8.93132130       18      -0.00057074      -0.00304240      -0.00125313
S       16.04718133       8.91100636       8.99612311       19      -0.00142710      -0.00071522      -0.00331148
Li      13.03663360       4.94606659       1.96816276       20      -0.00037014      -0.00335938       0.00039959
Li      17.65145033       9.91885368       2.06070864       21      -0.00386041       0.00082883       0.00269185
Li      17.45234286       4.85809710       7.02678108       22      -0.01057529       0.00235534       0.00720784
Li      12.90146013       9.69110999       6.83043228       23       0.00383440      -0.00537193       0.00041306
Li      19.55124121       7.94034271       1.93299760       24      -0.00198718       0.00911520      -0.00209710
Li      12.85389487       2.87774492       0.18629332       25      -0.00464302      -0.00341010       0.00081671
Li      11.71550193       7.11877857       5.18909333       26      -0.00404525      -0.00239094      -0.00166864
Li      19.41517968       2.97831721       6.79825708       27       0.00002926       0.00431140       0.00071063
Li      16.65526955       3.30970199       9.80112395       28      -0.00231839       0.00328105      -0.00103797
Li      11.84496945       8.15405806       9.83596369       29       0.00137074      -0.00556912      -0.00148354
Li      14.63357736       2.20214551       3.17516368       30       0.00546307      -0.00620076       0.00082615
Li      17.70915922       7.34742618       4.91640975       31      -0.00013811       0.00131795      -0.00196494
Li      13.90998380       6.11822300       7.95233655       32      -0.00174326      -0.00462460      -0.00176480
Li      17.93331648       0.48339670       8.64383597       33       0.00035759       0.00813597      -0.00031954
Li      17.65237325       5.30246174       2.92163868       34      -0.00103971       0.00236748      -0.00081563
Li      12.61909807       0.36243131       2.98917413       35      -0.00212200      -0.00308521      -0.00053511
Li      11.67784389       3.29961701       4.72371438       36       0.00026591      -0.00308427       0.00133409
Li      15.10636032       8.30164540       3.28420405       37      -0.00291314      -0.00335382      -0.00049638
Li      14.90159233       2.62097631       7.44677020       38      -0.00325588      -0.00103645       0.00603919
Li       9.86249495       8.30143373       7.93468345       39       0.00136530      -0.00146778       0.00013981
Li      10.77260481       5.50213091       7.26808596       40      -0.00061901      -0.00332702       0.00058133
Li      16.86256356       1.06461584       5.68389352       41       0.00532364      -0.00056527       0.00020601
Li      16.50961161       7.01009004       0.44644523       42      -0.00188596       0.00010813      -0.00023319
Li      10.13754768       2.44465352       2.16182128       43       0.00120605      -0.00715694       0.00349301
Cl      19.61537106      10.07106152      10.59953545       44       0.00088017       0.00382605       0.00039446
Cl      14.65409364       4.90148318      -0.04256265       45      -0.00039986      -0.00107092       0.00019085
Cl      14.59353003       0.26160291       4.76239676       46      -0.00160377      -0.00174726      -0.00201666
Cl      19.37460765       5.29138278       5.55001064       47      -0.00012691       0.00161434      -0.00229366
S       12.40587293       2.68252657       2.51955105       48       0.00014228      -0.00313597       0.00087310
S       17.29251528       7.60245874       2.61426478       49      -0.00276856       0.00164038      -0.00151158
S       17.20793680       2.53758312       7.59403583       50      -0.00254091       0.00167808       0.00002418
S       12.03894398       7.55245562       7.50805651       51       0.00047855      -0.00347380      -0.00138150
103
Lattice="20.110191271466377 0.0 0.0 0.0 10.055095635733188 0.0 0.0 0.0 10.055095635733188" Properties=species:S:1:pos:R:3:spacegroup_kinds:I:1:forces:R:3 spacegroup="P 1" unit_cell=conventional occupancy="_JSON {\"0\": {\"P\": 1.0}, \"1\": {\"P\": 1.0}, \"2\": {\"P\": 1.0}, \"3\": {\"P\": 1.0}, \"4\": {\"S\": 1.0}, \"5\": {\"S\": 1.0}, \"6\": {\"S\": 1.0}, \"7\": {\"S\": 1.0}, \"8\": {\"S\": 1.0}, \"9\": {\"S\": 1.0}, \"10\": {\"S\": 1.0}, \"11\": {\"S\": 1.0}, \"12\": {\"S\": 1.0}, \"13\": {\"S\": 1.0}, \"14\": {\"S\": 1.0}, \"15\": {\"S\": 1.0}, \"16\": {\"S\": 1.0}, \"17\": {\"S\": 1.0}, \"18\": {\"S\": 1.0}, \"19\": {\"S\": 1.0}, \"20\": {\"Li\": 1.0}, \"21\": {\"Li\": 1.0}, \"22\": {\"Li\": 1.0}, \"23\": {\"Li\": 1.0}, \"24\": {\"Li\": 1.0}, \"25\": {\"Li\": 1.0}, \"26\": {\"Li\": 1.0}, \"27\": {\"Li\": 1.0}, \"28\": {\"Li\": 1.0}, \"29\": {\"Li\": 1.0}, \"30\": {\"Li\": 1.0}, \"31\": {\"Li\": 1.0}, \"32\": {\"Li\": 1.0}, \"33\": {\"Li\": 1.0}, \"34\": {\"Li\": 1.0}, \"35\": {\"Li\": 1.0}, \"36\": {\"Li\": 1.0}, \"37\": {\"Li\": 1.0}, \"38\": {\"Li\": 1.0}, \"39\": {\"Li\": 1.0}, \"40\": {\"Li\": 1.0}, \"41\": {\"Li\": 1.0}, \"42\": {\"Li\": 1.0}, \"43\": {\"Li\": 1.0}, \"44\": {\"Cl\": 1.0}, \"45\": {\"Cl\": 1.0}, \"46\": {\"Cl\": 1.0}, \"47\": {\"Cl\": 1.0}, \"48\": {\"S\": 1.0}, \"49\": {\"S\": 1.0}, \"50\": {\"S\": 1.0}, \"51\": {\"S\": 1.0}}" charge=0 spin=0 energy=-429.6512057312285 free_energy=-429.6512057312285 stress="-0.0008266908128584511 -0.00013346124482063612 -0.0005386078487629 -0.00013346124482063612 0.0026494357872869525 -0.0012467692713462617 -0.0005386078487629 -0.0012467692713462617 0.0018583251570133707" pbc="T T T"
P        4.62522623       5.08304661       5.06397029        0      -0.00116456       0.00571129      -0.00676861
P       -0.39360833      10.07042531       4.90612696        1       0.01224790      -0.01003141      -0.01338952
P       -0.30732941       4.93395663       9.97410309        2       0.01285897       0.01670278       0.01710208
P        4.72138129       0.01780071      10.06091869        3       0.00009160      -0.00210754       0.00579751
S        5.76357782       6.40345695       6.14174444        4       0.00091842       0.00022303       0.00188044
S        0.63784477       1.32419629       6.09463874        5       0.00032455       0.00352117       0.00306609
S        0.97008728       6.10097558       1.00103109        6      -0.01340637      -0.01067482      -0.00860850
S        5.88833169       1.17454379       1.24252813        7       0.00237145       0.00084576       0.00053159
S        3.42302726       3.98146775       6.31601621        8      -0.00095411      -0.00275722      -0.00143464
S        8.51099660       8.88621248       6.39946831        9      -0.00030517       0.00178486       0.00116113
S        8.56923526       3.76648405       1.27061242       10       0.00085252      -0.00017248       0.00056143
S        3.56431382       8.80271222       1.14746620       11       0.00471716       0.00239327      -0.00093647
S        3.38829446       6.11355568       3.76969614       12       0.00679175      -0.00103579      -0.00007265
S        8.34201628       1.21742520       4.11112301       13       0.00019656       0.00124279       0.00253685
S        8.57694687       6.21058295       8.92665066       14       0.00198481       0.00022790       0.00203286
S        3.41131942       1.06152887       8.87709753       15      -0.00046370       0.00372630       0.00025220
S        5.84137955       3.81954851       3.97197597       16       0.00267107      -0.00026455      -0.00065152
S        0.84003344       8.87090702       3.77443846       17      -0.00994713       0.01208559       0.00709591
S        0.79517735       3.74274309       8.71734892       18       0.00219626      -0.00029962      -0.00381432
S        5.91446790       8.96351520       8.81236502       19      -0.00063821       0.00124915      -0.00200818
Li       9.36568049       8.27376331       2.08656935       21       0.00103661       0.00038852       0.00161507
Li       7.15539861       4.90239647       7.45535398       22      -0.00276644       0.00189967       0.00413576
Li       4.21768209       8.56331548       6.94309663       23       0.00299854       0.00013973       0.00268737
Li       7.55306984       7.97964663       0.27810017       24       0.00378228      -0.00028493       0.00271092
Li       2.46458221       2.85604349       0.21357729       25      -0.00384187      -0.00189148       0.00114832
Li       1.89158439       7.31392726       5.30360971       26       0.00205565       0.00287802      -0.00782392
Li       9.12037741       2.89688184       6.41330996       27      -0.00016090       0.00254745       0.00137113
Li       6.81826527       2.94210884       9.88781803       28       0.00051091      -0.00003860       0.00075108
Li       4.44696920       3.09103223      12.14846654       29      -0.00011739       0.00195999      -0.00100951
Li       2.49960935       2.27558602       4.85926162       30      -0.00459497       0.00375038      -0.00118594
Li       7.86742088       7.08417306       4.88039066       31       0.00163514       0.00043183       0.00183694
Li       2.61549681       5.52704537       8.29166973       32       0.00437195      -0.00384713      -0.01033946
Li       7.80618922       0.42985089       8.26909736       33      -0.00095583       0.00206699       0.00059664
Li       7.43567832       5.22601750       2.75989170       34       0.00035811       0.00087317      -0.00043781
Li       2.84749442       0.17977340       2.96864031       35      -0.00401507       0.00229505      -0.00148294
Li       1.48960855       4.64491027       2.91264637       36      -0.00119960       0.00291174      -0.00034656
Li       6.41862889       9.67028640       3.19154820       37       0.00248839       0.00186564       0.00203904
Li       4.78128155       2.91653321       8.02828062       38       0.00032699       0.00192288       0.00118831
Li       1.92583335       9.05237634       9.38085387       39       0.01821901      -0.02338254      -0.00122746
Li      -0.14795981       7.73861397       7.71579409       40       0.00680280      -0.00096412      -0.00079956
Li       6.24910441       1.77816648       5.50841031       41       0.00120576       0.00027690      -0.00057035
Li       4.96913044       7.17760591       2.18224702       42       0.00543102       0.00290211       0.00139178
Li       0.03302163       1.74246344       1.89338820       43      -0.00543015       0.00489768      -0.00197273
Cl       9.50275258       9.65648915      10.08246580       44       0.00147209      -0.00118781       0.00018088
Cl       4.57627742       4.37835239      -0.05434867       45       0.00275042       0.00301025      -0.00082533
Cl       4.61467233       0.08616224       4.82405707       46       0.00160698       0.00160638       0.00115361
Cl       9.56445735       5.09625950       5.19056803       47       0.00098720       0.00126445      -0.00012987
S        2.21241505       2.43848380       2.52935072       48      -0.00344715       0.00297870      -0.00034711
S        7.22025395       7.53419803       2.58977557       49       0.00379587       0.00066633       0.00172532
S        7.07617673       2.58042453       7.58642392       50      -0.00015811       0.00194549       0.00122296
S        2.12764988       7.66026856       7.53189651       51       0.00548970      -0.00373925      -0.00639109
P       14.70527250       5.13607445       4.87884460        0      -0.00309233      -0.00440169      -0.00233110
P        9.65568855      10.10018401       5.20132007        1      -0.00464483       0.00354141       0.00306200
P        9.73134782       4.98309878      10.11107348        2      -0.00193008      -0.00078084       0.00128793
P       14.75564473       0.04955987       9.95811955        3      -0.00406860       0.00184279       0.00136610
S       15.93765305       6.33093812       6.00421373        4      -0.00001762       0.00306394       0.00047315
S       10.88112403       1.20529371       6.31013909        5       0.00035929      -0.00009610       0.00121628
S       10.86199762       6.19158927       1.28698172        6       0.00342913      -0.00264423       0.00039928
S       15.91480538       1.31109939       1.04216903        7      -0.00338400      -0.00099889      -0.00169639
S       13.45291026       4.10296740       6.16065178        8       0.00338964      -0.00349456       0.00078613
S       18.52141520       8.92728199       6.15057881        9      -0.00091266      -0.00276719       0.00363122
S       18.68477596       3.70596158       1.14343261       10      -0.00538412      -0.00082201      -0.00192326
S       13.65179323       8.92930608       1.21174890       11      -0.00157156      -0.00127780      -0.00149310
S       13.52098523       6.34794519       3.69661863       12      -0.00178689      -0.00415624       0.00194342
S       18.49321087       1.10775796       3.66778574       13      -0.00532066       0.00349836       0.00162932
S       18.53735060       6.13957385       8.86557802       14      -0.00285538       0.00491839      -0.00354762
S       13.49706341       1.22523755       8.81721992       15      -0.00311810      -0.00164329      -0.00045314
S       15.70554803       3.79958202       3.70668661       16       0.00054849       0.00071191       0.00024181
S       10.77150177       8.94237125       3.89245381       17      -0.00138418      -0.00039902      -0.00194995
S       10.83716638       3.78586337       8.89245232       18      -0.00057074      -0.00304240      -0.00125313
S       15.81860692       8.88152734       8.72715472       19      -0.00142710      -0.00071522      -0.00331148
Li      14.33605970       3.30901067       1.58534949       20      -0.00037014      -0.00335938       0.00039959
Li      17.61305821       9.80327868       1.79893186       21      -0.00386041       0.00082883       0.00269185
Li      17.62495283       4.82035237       7.03313523       22      -0.01057529       0.00235534       0.00720784
Li      13.04032734       9.65930423       7.04724181       23       0.00383440      -0.00537193       0.00041306
Li      19.63230983       7.89494016       1.81109145       24      -0.00198718       0.00911520      -0.00209710
Li      11.71186863       1.96178927       0.24451045       25      -0.00464302      -0.00341010       0.00081671
Li      12.12464893       7.52063134       5.26438203       26      -0.00404525      -0.00239094      -0.00166864
Li      18.63747366       2.81127259       5.39821306       27       0.00002926       0.00431140       0.00071063
Li      16.96805841       3.03536178       9.65108504       28      -0.00231839       0.00328105      -0.00103797
Li      12.37210271       7.41990597       9.89726141       29       0.00137074      -0.00556912      -0.00148354
Li      13.64448570       2.31632668       4.47802303       30       0.00546307      -0.00620076       0.00082615
Li      17.90847324       7.16975521       4.63780592       31      -0.00013811       0.00131795      -0.00196494
Li      14.17989095       6.17475573       7.75186972       32      -0.00174326      -0.00462460      -0.00176480
Li      19.38360994       1.74787228       8.12622852       33       0.00035759       0.00813597      -0.00031954
Li      17.67847330       5.16013737       2.82028296       34      -0.00103971       0.00236748      -0.00081563
Li      12.64301338       0.23553846       3.00123875       35      -0.00212200      -0.00308521      -0.00053511
Li      11.77245272       4.76372610       3.05105809       36       0.00026591      -0.00308427       0.00133409
Li      15.15326404       8.13000096       3.07198121       37      -0.00291314      -0.00335382      -0.00049638
Li      14.95302711       2.95905560       7.75566392       38      -0.00325588      -0.00103645       0.00603919
Li      10.12853905       8.35894210       8.16811262       39       0.00136530      -0.00146778       0.00013981
Li      11.02038965       5.46815117       7.11584022       40      -0.00061901      -0.00332702       0.00058133
Li      16.61366629       0.33028739       6.70168951       41       0.00532364      -0.00056527       0.00020601
Li      16.58425494       6.92559275       0.18425971       42      -0.00188596       0.00010813      -0.00023319
Li       9.93240660       2.41146534       2.79686776       43       0.00120605      -0.00715694       0.00349301
Cl      19.76053775       9.99493565      10.24272176       44       0.00088017       0.00382605       0.00039446
Cl      15.01716121       4.84798345      -0.36055625       45      -0.00039986      -0.00107092       0.00019085
Cl      14.33583121       0.04580827       4.98094059       46      -0.00160377      -0.00174726      -0.00201666
Cl      19.22064230       5.08151761       4.78400793       47      -0.00012691       0.00161434      -0.00229366
S       12.24240082       2.50870026       2.50031745       48       0.00014228      -0.00313597       0.00087310
S       17.33094682       7.50806502       2.36810718       49      -0.00276856       0.00164038      -0.00151158
S       17.24887326       2.53269755       7.36858227       50      -0.00254091       0.00167808       0.00002418
S       12.20892139       7.48241677       7.57549009       51       0.00047855      -0.00347380      -0.00138150
103
Lattice="20.110191271466377 0.0 0.0 0.0 10.055095635733188 0.0 0.0 0.0 10.055095635733188" Properties=species:S:1:pos:R:3:spacegroup_kinds:I:1:forces:R:3 spacegroup="P 1" unit_cell=conventional occupancy="_JSON {\"0\": {\"P\": 1.0}, \"1\": {\"P\": 1.0}, \"2\": {\"P\": 1.0}, \"3\": {\"P\": 1.0}, \"4\": {\"S\": 1.0}, \"5\": {\"S\": 1.0}, \"6\": {\"S\": 1.0}, \"7\": {\"S\": 1.0}, \"8\": {\"S\": 1.0}, \"9\": {\"S\": 1.0}, \"10\": {\"S\": 1.0}, \"11\": {\"S\": 1.0}, \"12\": {\"S\": 1.0}, \"13\": {\"S\": 1.0}, \"14\": {\"S\": 1.0}, \"15\": {\"S\": 1.0}, \"16\": {\"S\": 1.0}, \"17\": {\"S\": 1.0}, \"18\": {\"S\": 1.0}, \"19\": {\"S\": 1.0}, \"20\": {\"Li\": 1.0}, \"21\": {\"Li\": 1.0}, \"22\": {\"Li\": 1.0}, \"23\": {\"Li\": 1.0}, \"24\": {\"Li\": 1.0}, \"25\": {\"Li\": 1.0}, \"26\": {\"Li\": 1.0}, \"27\": {\"Li\": 1.0}, \"28\": {\"Li\": 1.0}, \"29\": {\"Li\": 1.0}, \"30\": {\"Li\": 1.0}, \"31\": {\"Li\": 1.0}, \"32\": {\"Li\": 1.0}, \"33\": {\"Li\": 1.0}, \"34\": {\"Li\": 1.0}, \"35\": {\"Li\": 1.0}, \"36\": {\"Li\": 1.0}, \"37\": {\"Li\": 1.0}, \"38\": {\"Li\": 1.0}, \"39\": {\"Li\": 1.0}, \"40\": {\"Li\": 1.0}, \"41\": {\"Li\": 1.0}, \"42\": {\"Li\": 1.0}, \"43\": {\"Li\": 1.0}, \"44\": {\"Cl\": 1.0}, \"45\": {\"Cl\": 1.0}, \"46\": {\"Cl\": 1.0}, \"47\": {\"Cl\": 1.0}, \"48\": {\"S\": 1.0}, \"49\": {\"S\": 1.0}, \"50\": {\"S\": 1.0}, \"51\": {\"S\": 1.0}}" charge=0 spin=0 energy=-429.6512057312285 free_energy=-429.6512057312285 stress="-0.0008266908128584511 -0.00013346124482063612 -0.0005386078487629 -0.00013346124482063612 0.0026494357872869525 -0.0012467692713462617 -0.0005386078487629 -0.0012467692713462617 0.0018583251570133707" pbc="T T T"
P        4.83455547       4.65202319       4.64221071        0      -0.00116456       0.00571129      -0.00676861
P       -0.40137697      10.45561460       5.41771354        1       0.01224790      -0.01003141      -0.01338952
P       -0.50257962       5.55115733      10.31058807        2       0.01285897       0.01670278       0.01710208
P        4.33223686      -0.19411714      10.00989512        3       0.00009160      -0.00210754       0.00579751
S        6.31428416       5.93928558       5.17364411        4       0.00091842       0.00022303       0.00188044
S        1.02998970       1.47113685       6.38782424        5       0.00032455       0.00352117       0.00306609
S        0.50348005       6.64015570       1.68600276        6      -0.01340637      -0.01067482      -0.00860850
S        5.55698916       1.34757211       0.71365769        7       0.00237145       0.00084576       0.00053159
S        4.46051946       3.25047558       6.05259786        8      -0.00095411      -0.00275722      -0.00143464
S        8.64807353       8.58977006       5.18821158        9      -0.00030517       0.00178486       0.00116113
S        8.89228664       3.42518121       0.46298681       10       0.00085252      -0.00017248       0.00056143
S        3.54698600       8.82149710       1.51279055       11       0.00471716       0.00239327      -0.00093647
S        3.07487089       5.69334627       4.34890107       12       0.00679175      -0.00103579      -0.00007265
S        8.11329702       1.20332779       3.16414152       13       0.00019656       0.00124279       0.00253685
S        8.89970392       5.68920136       8.00676815       14       0.00198481       0.00022790       0.00203286
S        2.87147637       1.03530508       9.08594320       15      -0.00046370       0.00372630       0.00025220
S        5.53416624       3.71507825       2.92018482       16       0.00267107      -0.00026455      -0.00065152
S        0.41381135       9.13018954       4.03934028       17      -0.00994713       0.01208559       0.00709591
S        0.75919253       4.44493567       9.12518798       18       0.00219626      -0.00029962      -0.00381432
S        5.23124138       8.65559004       8.65453994       19      -0.00063821       0.00124915      -0.00200818
Li       3.70634412      11.99131327       2.72450435       21       0.00103661       0.00038852       0.00161507
Li       7.87149762       3.66654386       7.03770611       22      -0.00276644       0.00189967       0.00413576
Li       2.44802761       9.93438120       7.19908069       23       0.00299854       0.00013973       0.00268737
Li      10.24796108       7.76925966       1.69477430       24       0.00378228      -0.00028493       0.00271092
Li       0.89895194       1.86847468       0.22968625       25      -0.00384187      -0.00189148       0.00114832
Li       2.55382095       7.95148793       5.20502867       26       0.00205565       0.00287802      -0.00782392
Li      10.54052037       1.70335068      11.40902738       27      -0.00016090       0.00254745       0.00137113
Li       8.22381898       0.52829258       8.96733669       28       0.00051091      -0.00003860       0.00075108
Li       4.09648738       3.30757512      10.99759114       29      -0.00011739       0.00195999      -0.00100951
Li       2.77628273       1.86478996       4.87728153       30      -0.00459497       0.00375038      -0.00118594
Li       8.10977605       6.95190448       3.58138742       31       0.00163514       0.00043183       0.00183694
Li       3.92994095       5.47881890       7.22528013       32       0.00437195      -0.00384713      -0.01033946
Li       6.30386095      -0.60789835       6.31035261       33      -0.00095583       0.00206699       0.00059664
Li       7.53971983       5.02340990       1.59794224       34       0.00035811       0.00087317      -0.00043781
Li       1.80692821       0.13947078       2.48591295       35      -0.00401507       0.00229505      -0.00148294
Li       1.00530214       4.80104083       3.30824878       36      -0.00119960       0.00291174      -0.00034656
Li       3.75096696       5.52986908       2.29215623       37       0.00248839       0.00186564       0.00203904
Li       5.43406821       2.27977752       8.60907915       38       0.00032699       0.00192288       0.00118831
Li       2.58628440       5.06590203      10.18594488       39       0.01821901      -0.02338254      -0.00122746
Li       0.12794013       7.57338181       7.46003673       40       0.00680280      -0.00096412      -0.00079956
Li       6.48487243       2.07855308       4.92805675       41       0.00120576       0.00027690      -0.00057035
Li       6.95735294       6.22412384      -2.84530080       42       0.00543102       0.00290211       0.00139178
Li      -0.57009299       2.57812692       2.81926863       43      -0.00543015       0.00489768      -0.00197273
Cl      10.10367897       9.94069252       9.50235979       44       0.00147209      -0.00118781       0.00018088
Cl       4.79193340       5.10176348      -0.55636440       45       0.00275042       0.00301025      -0.00082533
Cl       3.97658592      -0.07706954       4.88132380       46       0.00160698       0.00160638       0.00115361
Cl       9.49932178       5.23730008       4.20354239       47       0.00098720       0.00126445      -0.00012987
S        1.82191168       2.71912896       2.44111389       48      -0.00344715       0.00297870      -0.00034711
S        7.03862248       7.24057152       1.61072692       49       0.00379587       0.00066633       0.00172532
S        7.14546117       1.54804516       7.12312022       50      -0.00015811       0.00194549       0.00122296
S        2.27226528       7.16898537       7.34048600       51       0.00548970      -0.00373925      -0.00639109
P       14.73784063       5.16657516       4.88826659        0      -0.00309233      -0.00440169      -0.00233110
P        9.48407895      10.19059288       4.18044942        1      -0.00464483       0.00354141       0.00306200
P       10.04784570       4.70216959       9.44584894        2      -0.00193008      -0.00078084       0.00128793
P       14.62866966       0.22555381      10.02150529        3      -0.00406860       0.00184279       0.00136610
S       16.00298676       5.98612493       6.29551639        4      -0.00001762       0.00306394       0.00047315
S       10.48096619       1.28161062       5.57758618        5       0.00035929      -0.00009610       0.00121628
S       11.06663734       6.11591536       0.49761503        6       0.00342913      -0.00264423       0.00039928
S       15.33342014       1.46422607       1.42904134        7      -0.00338400      -0.00099889      -0.00169639
S       13.83777124       3.66116974       6.00224118        8       0.00338964      -0.00349456       0.00078613
S       18.72829158       9.19700761       6.76003147        9      -0.00091266      -0.00276719       0.00363122
S       18.32263607       4.23834223       1.20968489       10      -0.00538412      -0.00082201      -0.00192326
S       13.40993850       8.83534751       0.78082124       11      -0.00157156      -0.00127780      -0.00149310
S       13.30029204       6.36578718       4.04767841       12      -0.00178689      -0.00415624       0.00194342
S       18.32581264       1.69927007       4.64075368       13      -0.00532066       0.00349836       0.00162932
S       18.51748619       6.94531982       9.22942969       14      -0.00285538       0.00491839      -0.00354762
S       13.56657630       1.39910325       8.73924874       15      -0.00311810      -0.00164329      -0.00045314
S       15.96349655       4.32970437       3.49643712       16       0.00054849       0.00071191       0.00024181
S       10.94909470       9.50659615       2.85781513       17      -0.00138418      -0.00039902      -0.00194995
S       11.45287496       3.70982725       8.39244052       18      -0.00057074      -0.00304240      -0.00125313
S       16.22104018       9.38214539       9.01350930       19      -0.00142710      -0.00071522      -0.00331148
Li      13.92757171       4.89940296       2.34605015       20      -0.00037014      -0.00335938       0.00039959
Li      16.33389883      10.45130135       3.75419915       21      -0.00386041       0.00082883       0.00269185
Li      16.07331547       4.17162125       9.96901784       22      -0.01057529       0.00235534       0.00720784
Li      15.37971477       7.82027387       7.34693529       23       0.00383440      -0.00537193       0.00041306
Li      18.82002576       8.75794542       2.32016156       24      -0.00198718       0.00911520      -0.00209710
Li      13.14803703       3.64963819       0.09795094       25      -0.00464302      -0.00341010       0.00081671
Li      12.23068296       8.94302380       4.97363046       26      -0.00404525      -0.00239094      -0.00166864
Li      16.32228768       3.69500072       6.03789341       27       0.00002926       0.00431140       0.00071063
Li      17.69884065       1.36411266       9.87182543       28      -0.00231839       0.00328105      -0.00103797
Li      11.63079225       8.32040161       9.01642734       29       0.00137074      -0.00556912      -0.00148354
Li      12.10192393       2.19054751       4.37864183       30       0.00546307      -0.00620076       0.00082615
Li      17.69413876       7.43587199       5.09510053       31      -0.00013811       0.00131795      -0.00196494
Li      12.59074534       5.49727513       7.45544668       32      -0.00174326      -0.00462460      -0.00176480
Li      20.63432117       5.43556222       6.28151151       33       0.00035759       0.00813597      -0.00031954
Li      17.82422873       5.95611488       2.76211619       34      -0.00103971       0.00236748      -0.00081563
Li      12.80870680       0.87316358       1.89358212       35      -0.00212200      -0.00308521      -0.00053511
Li      11.31421663       5.31562457       2.99896119       36       0.00026591      -0.00308427       0.00133409
Li      14.42290669       8.27142592       3.03204369       37      -0.00291314      -0.00335382      -0.00049638
Li      15.93515598       1.31232178       7.70568898       38      -0.00325588      -0.00103645       0.00603919
Li      13.40959687      11.57408507       6.31096133       39       0.00136530      -0.00146778       0.00013981
Li      10.03274000       7.58384690       6.75993884       40      -0.00061901      -0.00332702       0.00058133
Li      19.54010335      -0.46628184       9.23761609       41       0.00532364      -0.00056527       0.00020601
Li      16.24810178       7.55581131       0.65207677       42      -0.00188596       0.00010813      -0.00023319
Li       9.76032745       3.10534658       4.09364641       43       0.00120605      -0.00715694       0.00349301
Cl      19.23981495      10.75022134      11.23996637       44       0.00088017       0.00382605       0.00039446
Cl      14.46821818       5.70944546       0.06178366       45      -0.00039986      -0.00107092       0.00019085
Cl      14.13144014      -0.00387859       4.63850616       46      -0.00160377      -0.00174726      -0.00201666
Cl      19.33166580       5.57209655       4.56560863       47      -0.00012691       0.00161434      -0.00229366
S       12.10470873       3.14074015       2.35237941       48       0.00014228      -0.00313597       0.00087310
S       16.74754559       8.10560096       2.96721525       49      -0.00276856       0.00164038      -0.00151158
S       17.34860357       2.94911476       8.13471780       50      -0.00254091       0.00167808       0.00002418
S       12.41159534       7.79064057       6.98045209       51       0.00047855      -0.00347380      -0.00138150
103
Lattice="20.110191271466377 0.0 0.0 0.0 10.055095635733188 0.0 0.0 0.0 10.055095635733188" Properties=species:S:1:pos:R:3:spacegroup_kinds:I:1:forces:R:3 spacegroup="P 1" unit_cell=conventional occupancy="_JSON {\"0\": {\"P\": 1.0}, \"1\": {\"P\": 1.0}, \"2\": {\"P\": 1.0}, \"3\": {\"P\": 1.0}, \"4\": {\"S\": 1.0}, \"5\": {\"S\": 1.0}, \"6\": {\"S\": 1.0}, \"7\": {\"S\": 1.0}, \"8\": {\"S\": 1.0}, \"9\": {\"S\": 1.0}, \"10\": {\"S\": 1.0}, \"11\": {\"S\": 1.0}, \"12\": {\"S\": 1.0}, \"13\": {\"S\": 1.0}, \"14\": {\"S\": 1.0}, \"15\": {\"S\": 1.0}, \"16\": {\"S\": 1.0}, \"17\": {\"S\": 1.0}, \"18\": {\"S\": 1.0}, \"19\": {\"S\": 1.0}, \"20\": {\"Li\": 1.0}, \"21\": {\"Li\": 1.0}, \"22\": {\"Li\": 1.0}, \"23\": {\"Li\": 1.0}, \"24\": {\"Li\": 1.0}, \"25\": {\"Li\": 1.0}, \"26\": {\"Li\": 1.0}, \"27\": {\"Li\": 1.0}, \"28\": {\"Li\": 1.0}, \"29\": {\"Li\": 1.0}, \"30\": {\"Li\": 1.0}, \"31\": {\"Li\": 1.0}, \"32\": {\"Li\": 1.0}, \"33\": {\"Li\": 1.0}, \"34\": {\"Li\": 1.0}, \"35\": {\"Li\": 1.0}, \"36\": {\"Li\": 1.0}, \"37\": {\"Li\": 1.0}, \"38\": {\"Li\": 1.0}, \"39\": {\"Li\": 1.0}, \"40\": {\"Li\": 1.0}, \"41\": {\"Li\": 1.0}, \"42\": {\"Li\": 1.0}, \"43\": {\"Li\": 1.0}, \"44\": {\"Cl\": 1.0}, \"45\": {\"Cl\": 1.0}, \"46\": {\"Cl\": 1.0}, \"47\": {\"Cl\": 1.0}, \"48\": {\"S\": 1.0}, \"49\": {\"S\": 1.0}, \"50\": {\"S\": 1.0}, \"51\": {\"S\": 1.0}}" charge=0 spin=0 energy=-429.6512057312285 free_energy=-429.6512057312285 stress="-0.0008266908128584511 -0.00013346124482063612 -0.0005386078487629 -0.00013346124482063612 0.0026494357872869525 -0.0012467692713462617 -0.0005386078487629 -0.0012467692713462617 0.0018583251570133707" pbc="T T T"
P        4.75865415       5.01856345       4.95781333        0      -0.00116456       0.00571129      -0.00676861
P       -0.33003223      10.17156262       5.03225462        1       0.01224790      -0.01003141      -0.01338952
P       -0.29819663       5.14101593      10.04216919        2       0.01285897       0.01670278       0.01710208
P        4.67978300      -0.03375148      10.05506832        3       0.00009160      -0.00210754       0.00579751
S        5.99504667       6.30353807       5.93767781        4       0.00091842       0.00022303       0.00188044
S        0.90807792       1.21773369       6.20628595        5       0.00032455       0.00352117       0.00306609
S        0.84603488       6.30205390       1.23966804        6      -0.01340637      -0.01067482      -0.00860850
S        5.82974550       1.26075466       1.10467885        7       0.00237145       0.00084576       0.00053159
S        3.70799750       3.82232568       6.27461506        8      -0.00095411      -0.00275722      -0.00143464
S        8.66695782       8.72866131       6.16752577        9      -0.00030517       0.00178486       0.00116113
S        8.69077586       3.66500924       1.11651235       10       0.00085252      -0.00017248       0.00056143
S        3.67768568       8.75320799       1.29777954       11       0.00471716       0.00239327      -0.00093647
S        3.43087037       6.09379775       3.79305314       12       0.00679175      -0.00103579      -0.00007265
S        8.28332771       1.16497779       3.88994447       13       0.00019656       0.00124279       0.00253685
S        8.57683675       6.12418576       8.78079046       14       0.00198481       0.00022790       0.00203286
S        3.36584265       1.03189023       8.88769882       15      -0.00046370       0.00372630       0.00025220
S        5.82822507       3.75375375       3.71983950       16       0.00267107      -0.00026455      -0.00065152
S        0.75941400       8.94532013       3.77621891       17      -0.00994713       0.01208559       0.00709591
S        0.94401166       4.05697874       8.80751725       18       0.00219626      -0.00029962      -0.00381432
S        5.72381595       8.79547339       8.79309979       19      -0.00063821       0.00124915      -0.00200818
Li       7.37902653       9.81080939       2.16477414       21       0.00103661       0.00038852       0.00161507
Li       6.96522841       4.72917095       7.57882376       22      -0.00276644       0.00189967       0.00413576
Li       3.74381437       9.27467849       7.15191932       23       0.00299854       0.00013973       0.00268737
Li       8.93581186       7.73529975       0.74329968       24       0.00378228      -0.00028493       0.00271092
Li       1.94580530       2.39822580       0.20834689       25      -0.00384187      -0.00189148       0.00114832
Li       2.01589564       7.40706867       5.28215575       26       0.00205565       0.00287802      -0.00782392
Li       9.42824919       2.74832411       7.18560077       27      -0.00016090       0.00254745       0.00137113
Li       7.73244344       1.95592248       9.75218019       28       0.00051091      -0.00003860       0.00075108
Li       4.33394606       3.29214313      11.88688638       29      -0.00011739       0.00195999      -0.00100951
Li       2.73237351       2.13390771       4.81938541       30      -0.00459497       0.00375038      -0.00118594
Li       8.09336470       6.98846130       4.49501850       31       0.00163514       0.00043183       0.00183694
Li       2.99831101       5.40991123       8.02680347       32       0.00437195      -0.00384713      -0.01033946
Li       7.51828569       0.03251248       7.81124545       33      -0.00095583       0.00206699       0.00059664
Li       7.31853444       5.15806232       2.41481300       34       0.00035811       0.00087317      -0.00043781
Li       2.66356846       0.22109267       2.90690186       35      -0.00401507       0.00229505      -0.00148294
Li       1.31815449       4.68637323       3.13190984       36      -0.00119960       0.00291174      -0.00034656
Li       5.06332886       7.95244605       3.46742098       37       0.00248839       0.00186564       0.00203904
Li       4.95426081       2.80622752       8.26667738       38       0.00032699       0.00192288       0.00118831
Li       2.14990369       7.71594864       9.81534066       39       0.01821901      -0.02338254      -0.00122746
Li      -0.02063516       7.75867498       7.63682162       40       0.00680280      -0.00096412      -0.00079956
Li       6.30515554       1.85016002       5.30330359       41       0.00120576       0.00027690      -0.00057035
Li       5.63230659       6.98688861       0.41172450       42       0.00543102       0.00290211       0.00139178
Li      -0.10609918       1.92580920       2.17126103       43      -0.00543015       0.00489768      -0.00197273
Cl       9.28811503       9.99221764       9.74691613       44       0.00147209      -0.00118781       0.00018088
Cl       4.73944581       4.79229329      -0.26031563       45       0.00275042       0.00301025      -0.00082533
Cl       4.37475772       0.08373601       4.87307362       46       0.00160698       0.00160638       0.00115361
Cl       9.73755291       4.98571522       4.82127409       47       0.00098720       0.00126445      -0.00012987
S        2.16786586       2.51468748       2.51409347       48      -0.00344715       0.00297870      -0.00034711
S        7.12174505       7.46324799       2.30431332       49       0.00379587       0.00066633       0.00172532
S        7.14879315       2.36833523       7.50689041       50      -0.00015811       0.00194549       0.00122296
S        2.23126009       7.53602860       7.54650812       51       0.00548970      -0.00373925      -0.00639109
P       14.77712863       5.10205842       4.91267264        0      -0.00309233      -0.00440169      -0.00233110
P        9.62568378      10.01849994       4.88895418        1      -0.00464483       0.00354141       0.00306200
P        9.76828010       4.93201444       9.95251751        2      -0.00193008      -0.00078084       0.00128793
P       14.67250032       0.10170647      10.00905133        3      -0.00406860       0.00184279       0.00136610
S       15.92885995       6.29800711       6.11662594        4      -0.00001762       0.00306394       0.00047315
S       10.85416850       1.15867919       6.05221797        5       0.00035929      -0.00009610       0.00121628
S       10.84987727       6.18784285       1.11343921        6       0.00342913      -0.00264423       0.00039928
S       15.75318401       1.39363883       1.11897782        7      -0.00338400      -0.00099889      -0.00169639
S       13.60534687       3.94641758       6.15604775        8       0.00338964      -0.00349456       0.00078613
S       18.60649534       8.93524680       6.21344943        9      -0.00091266      -0.00276719       0.00363122
S       18.67172053       3.85857097       1.11115583       10      -0.00538412      -0.00082201      -0.00192326
S       13.58197765       8.88995655       1.15526240       11      -0.00157156      -0.00127780      -0.00149310
S       13.56234018       6.27292895       3.72737534       12      -0.00178689      -0.00415624       0.00194342
S       18.49233088       1.30573305       3.95434921       13      -0.00532066       0.00349836       0.00162932
S       18.58471834       6.38724918       8.95437048       14      -0.00285538       0.00491839      -0.00354762
S       13.40560151       1.16112334       8.77950861       15      -0.00311810      -0.00164329      -0.00045314
S       15.90653961       3.91748785       3.67699089       16       0.00054849       0.00071191       0.00024181
S       10.67433115       8.90167637       3.54634530       17      -0.00138418      -0.00039902      -0.00194995
S       10.98257988       3.86626484       8.68740309       18      -0.00057074      -0.00304240      -0.00125313
S       15.85506772       8.99276039       8.78936537       19      -0.00142710      -0.00071522      -0.00331148
Li      14.32538591       3.42616998       1.87475340       20      -0.00037014      -0.00335938       0.00039959
Li      17.42418990       9.98954821       2.20622581       21      -0.00386041       0.00082883       0.00269185
Li      16.88351139       4.90914038       8.06006545       22      -0.01057529       0.00235534       0.00720784
Li      13.94487346       9.20520107       7.18587681       23       0.00383440      -0.00537193       0.00041306
Li      19.42636150       8.15987592       1.83798059       24      -0.00198718       0.00911520      -0.00209710
Li      11.79379023       2.27285237       0.27871749       25      -0.00464302      -0.00341010       0.00081671
Li      12.39004811       8.01181229       5.09755262       26      -0.00404525      -0.00239094      -0.00166864
Li      17.66789067       3.28001342       5.22939070       27       0.00002926       0.00431140       0.00071063
Li      17.76522217       2.01178140       9.79414613       28      -0.00231839       0.00328105      -0.00103797
Li      12.34251205       7.41596386       9.73169040       29       0.00137074      -0.00556912      -0.00148354
Li      12.85951392       2.05342525       4.78890416       30       0.00546307      -0.00620076       0.00082615
Li      17.89919273       7.17074281       4.73086515       31      -0.00013811       0.00131795      -0.00196494
Li      13.88107545       5.92913644       7.61612668       32      -0.00174326      -0.00462460      -0.00176480
Li      19.65301610       2.89079748       7.27756488       33       0.00035759       0.00813597      -0.00031954
Li      17.75548063       5.34963577       2.77279609       34      -0.00103971       0.00236748      -0.00081563
Li      12.45614896       0.29830912       2.73419112       35      -0.00212200      -0.00308521      -0.00053511
Li      11.62138090       4.93989246       3.18440585       36       0.00026591      -0.00308427       0.00133409
Li      15.01023951       8.19278826       3.16876797       37      -0.00291314      -0.00335382      -0.00049638
Li      14.99717804       2.85310735       7.93980370       38      -0.00325588      -0.00103645       0.00603919
Li      10.70179661       9.40001777       7.71625432       39       0.00136530      -0.00146778       0.00013981
Li      10.50893731       5.98776702       7.02821868       40      -0.00061901      -0.00332702       0.00058133
Li      17.22105202       0.36582979       7.36919366       41       0.00532364      -0.00056527       0.00020601
Li      16.50045204       7.05210525       0.30181432       42      -0.00188596       0.00010813      -0.00023319
Li       9.88427362       2.86366558       3.25676044       43       0.00120605      -0.00715694       0.00349301
Cl      19.32252724      10.31532401      10.58211672       44       0.00088017       0.00382605       0.00039446
Cl      14.97698737       5.10250541      -0.45631189       45      -0.00039986      -0.00107092       0.00019085
Cl      14.08245381      -0.18347510       4.81746694       46      -0.00160377      -0.00174726      -0.00201666
Cl      19.34004117       5.12893451       4.63365148       47      -0.00012691       0.00161434      -0.00229366
S       12.17547293       2.64612954       2.56801511       48       0.00014228      -0.00313597       0.00087310
S       17.20303005       7.65098096       2.49305845       49      -0.00276856       0.00164038      -0.00151158
S       17.32387672       2.66299987       7.53554020       50      -0.00254091       0.00167808       0.00002418
S       12.22417981       7.59453435       7.43222324       51       0.00047855      -0.00347380      -0.00138150
103
Lattice="20.110191271466377 0.0 0.0 0.0 10.055095635733188 0.0 0.0 0.0 10.055095635733188" Properties=species:S:1:pos:R:3:spacegroup_kinds:I:1:forces:R:3 spacegroup="P 1" unit_cell=conventional occupancy="_JSON {\"0\": {\"P\": 1.0}, \"1\": {\"P\": 1.0}, \"2\": {\"P\": 1.0}, \"3\": {\"P\": 1.0}, \"4\": {\"S\": 1.0}, \"5\": {\"S\": 1.0}, \"6\": {\"S\": 1.0}, \"7\": {\"S\": 1.0}, \"8\": {\"S\": 1.0}, \"9\": {\"S\": 1.0}, \"10\": {\"S\": 1.0}, \"11\": {\"S\": 1.0}, \"12\": {\"S\": 1.0}, \"13\": {\"S\": 1.0}, \"14\": {\"S\": 1.0}, \"15\": {\"S\": 1.0}, \"16\": {\"S\": 1.0}, \"17\": {\"S\": 1.0}, \"18\": {\"S\": 1.0}, \"19\": {\"S\": 1.0}, \"20\": {\"Li\": 1.0}, \"21\": {\"Li\": 1.0}, \"22\": {\"Li\": 1.0}, \"23\": {\"Li\": 1.0}, \"24\": {\"Li\": 1.0}, \"25\": {\"Li\": 1.0}, \"26\": {\"Li\": 1.0}, \"27\": {\"Li\": 1.0}, \"28\": {\"Li\": 1.0}, \"29\": {\"Li\": 1.0}, \"30\": {\"Li\": 1.0}, \"31\": {\"Li\": 1.0}, \"32\": {\"Li\": 1.0}, \"33\": {\"Li\": 1.0}, \"34\": {\"Li\": 1.0}, \"35\": {\"Li\": 1.0}, \"36\": {\"Li\": 1.0}, \"37\": {\"Li\": 1.0}, \"38\": {\"Li\": 1.0}, \"39\": {\"Li\": 1.0}, \"40\": {\"Li\": 1.0}, \"41\": {\"Li\": 1.0}, \"42\": {\"Li\": 1.0}, \"43\": {\"Li\": 1.0}, \"44\": {\"Cl\": 1.0}, \"45\": {\"Cl\": 1.0}, \"46\": {\"Cl\": 1.0}, \"47\": {\"Cl\": 1.0}, \"48\": {\"S\": 1.0}, \"49\": {\"S\": 1.0}, \"50\": {\"S\": 1.0}, \"51\": {\"S\": 1.0}}" charge=0 spin=0 energy=-429.6512057312285 free_energy=-429.6512057312285 stress="-0.0008266908128584511 -0.00013346124482063612 -0.0005386078487629 -0.00013346124482063612 0.0026494357872869525 -0.0012467692713462617 -0.0005386078487629 -0.0012467692713462617 0.0018583251570133707" pbc="T T T"
P        4.81392001       5.07704856       4.98359909        0      -0.00116456       0.00571129      -0.00676861
P       -0.10629525      10.04871566       5.00886894        1       0.01224790      -0.01003141      -0.01338952
P       -0.15259879       5.08378875      10.04330875        2       0.01285897       0.01670278       0.01710208
P        4.85754264       0.05843492       9.97705753        3       0.00009160      -0.00210754       0.00579751
S        6.05311741       6.35892215       5.97808433        4       0.00091842       0.00022303       0.00188044
S        1.07992378       1.12886391       6.25092688        5       0.00032455       0.00352117       0.00306609
S        0.95275213       6.28220625       1.19393928        6      -0.01340637      -0.01067482      -0.00860850
S        6.09627836       1.34477782       0.94546858        7       0.00237145       0.00084576       0.00053159
S        3.77994329       3.91204442       6.34081800        8      -0.00095411      -0.00275722      -0.00143464
S        8.68029496       8.69608487       5.99136522        9      -0.00030517       0.00178486       0.00116113
S        8.81935891       3.60722977       1.04273606       10       0.00085252      -0.00017248       0.00056143
S        3.74150594       9.00956525       1.27386636       11       0.00471716       0.00239327      -0.00093647
S        3.51409306       6.16280140       3.81249111       12       0.00679175      -0.00103579      -0.00007265
S        8.64627016       1.18184611       3.77589041       13       0.00019656       0.00124279       0.00253685
S        8.54320703       6.14719065       8.83643667       14       0.00198481       0.00022790       0.00203286
S        3.61834237       1.23271063       8.81138518       15      -0.00046370       0.00372630       0.00025220
S        5.82385742       3.78098991       3.74520125       16       0.00267107      -0.00026455      -0.00065152
S        1.03902216       8.89485342       3.79900528       17      -0.00994713       0.01208559       0.00709591
S        1.00024659       3.94875039       8.76741360       18       0.00219626      -0.00029962      -0.00381432
S        5.86947835       8.79395361       8.81384867       19      -0.00063821       0.00124915      -0.00200818
Li       7.13142643       9.79570446       2.48316339       21       0.00103661       0.00038852       0.00161507
Li       7.31943684       4.71842465       7.28332565       22      -0.00276644       0.00189967       0.00413576
Li       3.09954478       9.66773772       6.98389604       23       0.00299854       0.00013973       0.00268737
Li       8.79854204       7.73576540       0.78434800       24       0.00378228      -0.00028493       0.00271092
Li       2.35561368       2.63008791       0.25819338       25      -0.00384187      -0.00189148       0.00114832
Li       1.97722018       7.23236773       5.35638054       26       0.00205565       0.00287802      -0.00782392
Li       8.98702884       2.65123723       5.82749453       27      -0.00016090       0.00254745       0.00137113
Li       8.12025668       1.68717254       9.48558920       28       0.00051091      -0.00003860       0.00075108
Li       3.87172244       4.21540961      12.32054972       29      -0.00011739       0.00195999      -0.00100951
Li       2.11529990       2.84325939       4.90780897       30      -0.00459497       0.00375038      -0.00118594
Li       8.10822491       6.77088091       4.46250142       31       0.00163514       0.00043183       0.00183694
Li       2.98335249       5.46902372       8.20330049       32       0.00437195      -0.00384713      -0.01033946
Li       6.82247698       0.03055062       6.94222436       33      -0.00095583       0.00206699       0.00059664
Li       7.00881989       5.08039871       1.97434644       34       0.00035811       0.00087317      -0.00043781
Li       2.98591144       0.41281044       3.15423044       35      -0.00401507       0.00229505      -0.00148294
Li       0.60122130       4.45696086       2.81653370       36      -0.00119960       0.00291174      -0.00034656
Li       5.32053141       7.85933683       4.00392337       37       0.00248839       0.00186564       0.00203904
Li       5.45521855       2.86488031       8.96398345       38       0.00032699       0.00192288       0.00118831
Li       2.00698327       8.10191195       9.86513487       39       0.01821901      -0.02338254      -0.00122746
Li      -0.03118201       7.64201596       7.63997714       40       0.00680280      -0.00096412      -0.00079956
Li       5.53189925       2.25473185       5.66397142       41       0.00120576       0.00027690      -0.00057035
Li       5.42423601       7.26370356       0.65534205       42       0.00543102       0.00290211       0.00139178
Li       0.11590928       1.58468610       1.93627836       43      -0.00543015       0.00489768      -0.00197273
Cl       9.76473977       9.88944511      10.03068146       44       0.00147209      -0.00118781       0.00018088
Cl       4.74133629       4.92095499       0.09266322       45       0.00275042       0.00301025      -0.00082533
Cl       4.77261486       0.00665888       5.05322427       46       0.00160698       0.00160638       0.00115361
Cl       9.63538743       4.89872468       5.05708620       47       0.00098720       0.00126445      -0.00012987
S        2.15687802       2.60620522       2.58512328       48      -0.00344715       0.00297870      -0.00034711
S        7.08296499       7.43132783       2.40009534       49       0.00379587       0.00066633       0.00172532
S        7.20370712       2.37191918       7.37852193       50      -0.00015811       0.00194549       0.00122296
S        2.22870387       7.59011851       7.61394025       51       0.00548970      -0.00373925      -0.00639109
P       14.92695764       4.99338313       5.12573471        0      -0.00309233      -0.00440169      -0.00233110
P        9.85472190       9.95075955       4.83811982        1      -0.00464483       0.00354141       0.00306200
P        9.84368251       4.97918549       9.92463090        2      -0.00193008      -0.00078084       0.00128793
P       14.96892136      -0.00383496      10.15296953        3      -0.00406860       0.00184279       0.00136610
S       16.07947678       6.28225417       6.19279801        4      -0.00001762       0.00306394       0.00047315
S       10.93552398       1.06686978       6.17785121        5       0.00035929      -0.00009610       0.00121628
S       10.80584857       6.23502635       1.18196791        6       0.00342913      -0.00264423       0.00039928
S       15.96731915       1.24663419       1.36207533        7      -0.00338400      -0.00099889      -0.00169639
S       13.77889449       3.87368559       6.43141579        8       0.00338964      -0.00349456       0.00078613
S       18.70421141       8.90036967       6.14705558        9      -0.00091266      -0.00276719       0.00363122
S       18.87064770       3.78724994       1.19771530       10      -0.00538412      -0.00082201      -0.00192326
S       13.77848605       8.77735229       1.22874498       11      -0.00157156      -0.00127780      -0.00149310
S       13.61366804       5.97719687       3.86489455       12      -0.00178689      -0.00415624       0.00194342
S       18.79368648       1.20785882       3.85173447       13      -0.00532066       0.00349836       0.00162932
S       18.63041623       6.26697328       8.98574185       14      -0.00285538       0.00491839      -0.00354762
S       13.79873503       1.14638480       8.89488153       15      -0.00311810      -0.00164329      -0.00045314
S       15.98650030       3.71065893       3.90868857       16       0.00054849       0.00071191       0.00024181
S       11.02546887       8.87856735       3.58014773       17      -0.00138418      -0.00039902      -0.00194995
S       11.09245307       4.00982613       8.63233795       18      -0.00057074      -0.00304240      -0.00125313
S       16.17955743       8.84977615       9.01496072       19      -0.00142710      -0.00071522      -0.00331148
Li      14.13268340       4.02255373       2.32457707       20      -0.00037014      -0.00335938       0.00039959
Li      17.18462388       9.79296099       2.84278330       21      -0.00386041       0.00082883       0.00269185
Li      17.77537712       4.84883420       7.27255422       22      -0.01057529       0.00235534       0.00720784
Li      13.24206287       9.68991936       7.06560309       23       0.00383440      -0.00537193       0.00041306
Li      18.32503858       8.22439615       0.49118948       24      -0.00198718       0.00911520      -0.00209710
Li      12.63827523       2.89143342       0.18439404       25      -0.00464302      -0.00341010       0.00081671
Li      12.55806795       7.73726677       5.21425169       26      -0.00404525      -0.00239094      -0.00166864
Li      17.91268115       2.93694649       5.27058488       27       0.00002926       0.00431140       0.00071063
Li      17.76270972       1.96036358       9.92653046       28      -0.00231839       0.00328105      -0.00103797
Li      11.92046701       8.01990610       9.88209370       29       0.00137074      -0.00556912      -0.00148354
Li      12.37362817       2.63492881       4.86672942       30       0.00546307      -0.00620076       0.00082615
Li      17.97223278       7.09533598       4.67118463       31      -0.00013811       0.00131795      -0.00196494
Li      13.13144875       5.57680695       8.16714663       32      -0.00174326      -0.00462460      -0.00176480
Li      19.78287462       1.93128958       8.04832849       33       0.00035759       0.00813597      -0.00031954
Li      17.61605565       5.18378431       2.75772954       34      -0.00103971       0.00236748      -0.00081563
Li      13.04784073       0.33068007       3.01800753       35      -0.00212200      -0.00308521      -0.00053511
Li      10.63928667       4.33975392       2.81136342       36       0.00026591      -0.00308427       0.00133409
Li      15.05407237       7.87197907       3.43834867       37      -0.00291314      -0.00335382      -0.00049638
Li      15.28453936       3.06257476       8.22530008       38      -0.00325588      -0.00103645       0.00603919
Li      10.30110611       9.22636410       7.74449343       39       0.00136530      -0.00146778       0.00013981
Li      10.38607129       6.06855328       7.09304619       40      -0.00061901      -0.00332702       0.00058133
Li      16.98780089       0.27655592       7.19575987       41       0.00532364      -0.00056527       0.00020601
Li      15.58995833       7.00282177       0.62959558       42      -0.00188596       0.00010813      -0.00023319
Li      10.28974636       1.35262439       1.91787116       43       0.00120605      -0.00715694       0.00349301
Cl      19.64709446      10.34002044      10.04559221       44       0.00088017       0.00382605       0.00039446
Cl      14.56512688       4.80205784      -0.00426315       45      -0.00039986      -0.00107092       0.00019085
Cl      14.39062654      -0.41510524       4.93803034       46      -0.00160377      -0.00174726      -0.00201666
Cl      19.34860059       5.01588330       4.79158806       47      -0.00012691       0.00161434      -0.00229366
S       12.24918728       2.55032224       2.51426210       48       0.00014228      -0.00313597       0.00087310
S       17.15598669       7.48706417       2.45633030       49      -0.00276856       0.00164038      -0.00151158
S       17.51254458       2.52697737       7.60518397       50      -0.00254091       0.00167808       0.00002418
S       12.11027157       7.66063499       7.55798451       51       0.00047855      -0.00347380      -0.00138150
