103
Lattice="20.110191271466377 0.0 0.0 0.0 10.055095635733188 0.0 0.0 0.0 10.055095635733188" Properties=species:S:1:pos:R:3:spacegroup_kinds:I:1:forces:R:3 spacegroup="P 1" unit_cell=conventional occupancy="_JSON {\"0\": {\"P\": 1.0}, \"1\": {\"P\": 1.0}, \"2\": {\"P\": 1.0}, \"3\": {\"P\": 1.0}, \"4\": {\"S\": 1.0}, \"5\": {\"S\": 1.0}, \"6\": {\"S\": 1.0}, \"7\": {\"S\": 1.0}, \"8\": {\"S\": 1.0}, \"9\": {\"S\": 1.0}, \"10\": {\"S\": 1.0}, \"11\": {\"S\": 1.0}, \"12\": {\"S\": 1.0}, \"13\": {\"S\": 1.0}, \"14\": {\"S\": 1.0}, \"15\": {\"S\": 1.0}, \"16\": {\"S\": 1.0}, \"17\": {\"S\": 1.0}, \"18\": {\"S\": 1.0}, \"19\": {\"S\": 1.0}, \"20\": {\"Li\": 1.0}, \"21\": {\"Li\": 1.0}, \"22\": {\"Li\": 1.0}, \"23\": {\"Li\": 1.0}, \"24\": {\"Li\": 1.0}, \"25\": {\"Li\": 1.0}, \"26\": {\"Li\": 1.0}, \"27\": {\"Li\": 1.0}, \"28\": {\"Li\": 1.0}, \"29\": {\"Li\": 1.0}, \"30\": {\"Li\": 1.0}, \"31\": {\"Li\": 1.0}, \"32\": {\"Li\": 1.0}, \"33\": {\"Li\": 1.0}, \"34\": {\"Li\": 1.0}, \"35\": {\"Li\": 1.0}, \"36\": {\"Li\": 1.0}, \"37\": {\"Li\": 1.0}, \"38\": {\"Li\": 1.0}, \"39\": {\"Li\": 1.0}, \"40\": {\"Li\": 1.0}, \"41\": {\"Li\": 1.0}, \"42\": {\"Li\": 1.0}, \"43\": {\"Li\": 1.0}, \"44\": {\"Cl\": 1.0}, \"45\": {\"Cl\": 1.0}, \"46\": {\"Cl\": 1.0}, \"47\": {\"Cl\": 1.0}, \"48\": {\"S\": 1.0}, \"49\": {\"S\": 1.0}, \"50\": {\"S\": 1.0}, \"51\": {\"S\": 1.0}}" charge=0 spin=0 energy=-429.6512814970289 free_energy=-429.6512814970289 stress="-0.000827994308604007 -0.0001327980266848669 -0.0005386849296988706 -0.0001327980266848669 0.0026476205037658067 -0.0012467505102174163 -0.0005386849296988706 -0.0012467505102174163 0.0018573893777536824" pbc="T T T"
P        4.87343193       4.96193813       5.08049280        0      -0.00112368       0.00555590      -0.00670898
P       -0.10606970      10.04593311       5.01093426        1       0.01217370      -0.01009429      -0.01329604
P       -0.13970846       5.01440167      10.08286672        2       0.01236708       0.01615304       0.01640553
P        4.81585948      -0.03134050      10.08998953        3       0.00012150      -0.00214821       0.00566246
S        6.08497658       5.98842533       6.38519496        4       0.00093346       0.00023075       0.00188023
S        1.06326755       1.23940993       6.15357631        5       0.00030377       0.00354267       0.00308986
S        0.98286535       6.20796953       1.21374378        6      -0.01300565      -0.01030502      -0.00819569
S        6.04830351       0.94941377       1.33143304        7       0.00237769       0.00089177       0.00055801
S        3.62370324       3.77953033       6.23005713        8      -0.00089900      -0.00274001      -0.00149728
S        8.66889964       8.79545621       6.18165012        9      -0.00030602       0.00177536       0.00117167
S        8.53087981       3.79388566       1.10367302       10       0.00085630      -0.00016942       0.00057188
S        3.49269242       8.85876092       1.09977159       11       0.00469905       0.00235869      -0.00089143
S        3.75400448       6.30162825       3.96295092       12       0.00674549      -0.00099024      -0.00011260
S        8.71075704       0.97447624       3.66257458       13       0.00016862       0.00125623       0.00250843
S        8.82504343       6.06411516       8.63747647       14       0.00197646       0.00024262       0.00201742
S        3.79864576       1.33759013       8.91907820       15      -0.00043630       0.00367944       0.00027998
S        5.91437906       3.80959803       3.77128929       16       0.00265962      -0.00023986      -0.00066853
S        1.04278783       8.85308899       3.84361773       17      -0.00992764       0.01207147       0.00710465
S        0.98235556       3.73711978       8.92139309       18       0.00211070      -0.00021529      -0.00365398
S        5.82747723       8.77536539       8.80282498       19      -0.00063308       0.00129512      -0.00193948
Li       8.09537235       9.48508944       1.75947429       21       0.00101501       0.00040535       0.00159783
Li       8.07249095       4.46094626       6.72277823       22      -0.00274033       0.00188543       0.00413484
Li       2.14017714       9.94477020       7.83856678       23       0.00299689       0.00010679       0.00269058
Li       7.01823085       7.01324107       0.04237497       24       0.00379047      -0.00027578       0.00270293
Li       2.94693672       3.23124359       0.43933964       25      -0.00385905      -0.00194619       0.00112818
Li       2.99426314       8.17857800       5.40886883       26       0.00205642       0.00286437      -0.00779633
Li       6.82330006       1.90529644       5.04214313       27      -0.00017253       0.00253856       0.00135001
Li       7.36931294       2.19119628       9.73327802       28       0.00048968      -0.00003694       0.00075937
Li       3.87194111       7.28857524       9.21571707       29      -0.00013716       0.00196628      -0.00102816
Li       3.08548161       1.95474820       4.61994172       30      -0.00459316       0.00372698      -0.00117245
Li       7.13477746       7.49867188       4.75860254       31       0.00160862       0.00043029       0.00185209
Li       2.37066878       5.28545488       7.63294209       32       0.00439101      -0.00389747      -0.01036875
Li       8.98355647       0.77333823       7.66096626       33      -0.00094852       0.00205410       0.00061458
Li       8.75017701       5.76057355       2.71195707       34       0.00037821       0.00088144      -0.00041756
Li       1.96031941       0.36895634       2.17388971       35      -0.00404105       0.00228706      -0.00149670
Li       1.88904745       4.84968674       3.23928217       36      -0.00122848       0.00282621      -0.00030618
Li       5.28997770       8.99221467       2.81431685       37       0.00247374       0.00188462       0.00198989
Li       5.39693962       3.81300288       7.92680327       38       0.00030811       0.00191929       0.00116843
Li       0.62250001       7.85106520       9.45531320       39       0.01804278      -0.02310940      -0.00125661
Li       0.14027450       6.93886923       6.53213288       40       0.00679504      -0.00087101      -0.00072310
Li       5.54179921       0.60863941       7.25837701       41       0.00122300       0.00026404      -0.00059576
Li       5.41074918       5.66045024       2.21031014       42       0.00544775       0.00288831       0.00137325
Li      -0.04475116       2.68049464       2.68479541       43      -0.00539387       0.00473451      -0.00206185
Cl       9.61826185      10.09087399       9.92949242       44       0.00147038      -0.00118038       0.00017669
Cl       4.71896395       5.10951974      -0.13006574       45       0.00275349       0.00301471      -0.00083316
Cl       4.77453485       0.02499728       5.01296312       46       0.00160642       0.00159462       0.00113736
Cl       9.75842908       5.01406148       4.87349692       47       0.00098759       0.00125806      -0.00012208
S        2.21317838       2.62138582       2.55955052       48      -0.00346251       0.00296635      -0.00034495
S        7.07529674       7.41744700       2.39214503       49       0.00379336       0.00067518       0.00173181
S        7.20943610       2.32711953       7.38702558       50      -0.00015337       0.00193604       0.00121887
S        2.16097696       7.61619613       7.59888114       51       0.00552086      -0.00375800      -0.00634411
P       14.97871631       5.13171747       5.02626662        0      -0.00291022      -0.00419171      -0.00214887
P        9.88560470       9.86938723       4.91305686        1      -0.00456072       0.00345626       0.00299571
P        9.84565354       4.88808420      10.01286693        2      -0.00186175      -0.00077920       0.00130895
P       14.93077450       0.09074789      10.03803701        3      -0.00402229       0.00155390       0.00113969
S       15.97939148       6.40638750       6.26920678        4      -0.00015235       0.00292981       0.00034673
S       10.94869688       1.15234662       6.10836322        5       0.00036611      -0.00007740       0.00122828
S       10.78595849       6.20209735       1.22868240        6       0.00341937      -0.00264766       0.00039991
S       16.09752608       1.15810356       1.25599554        7      -0.00332497      -0.00089584      -0.00153095
S       13.80868747       3.88002957       6.18690580        8       0.00330595      -0.00349613       0.00076906
S       18.80887610       8.86623527       6.22114135        9      -0.00085736      -0.00271725       0.00358445
S       18.63339253       3.96308944       1.20417158       10      -0.00528807      -0.00077286      -0.00191827
S       13.63120716       8.88270687       0.98092542       11      -0.00158922      -0.00126933      -0.00148384
S       13.78686814       6.27458378       3.76675404       12      -0.00183770      -0.00411873       0.00187709
S       18.69133075       1.12562051       3.87424212       13      -0.00530792       0.00350796       0.00157803
S       18.88888329       6.24216110       8.78612004       14      -0.00265644       0.00484072      -0.00339955
S       13.74608745       1.39124283       8.94743255       15      -0.00317353      -0.00160142      -0.00044877
S       16.18387208       3.99765806       3.82090900       16       0.00056724       0.00066582       0.00019099
S       11.07702281       8.63560557       3.84116057       17      -0.00141418      -0.00035225      -0.00189758
S       11.10572281       3.60479891       9.05049189       18      -0.00057400      -0.00302238      -0.00123108
S       15.97550683       8.93912135       8.73532527       19      -0.00153628      -0.00058164      -0.00317531
Li      11.90681152       4.87901259       3.03512536       20      -0.00038537      -0.00335479       0.00040014
Li      18.00435288       9.69569170       2.06438836       21      -0.00382101       0.00080439       0.00270330
Li      17.54379638       4.89274865       7.29307296       22      -0.01056965       0.00237579       0.00720635
Li      12.33667885       9.89280554       7.71388753       23       0.00383745      -0.00536765       0.00041297
Li      17.62709332       7.79541333       0.14298886       24      -0.00186568       0.00914221      -0.00208780
Li      13.10693961       3.16196419       0.57447340       25      -0.00465629      -0.00340816       0.00082750
Li      13.06687287       8.06803716       5.38952527       26      -0.00405587      -0.00239627      -0.00165656
Li      19.74767434       3.08611989       6.84780623       27       0.00006062       0.00433567       0.00069042
Li      17.82078872       2.20530785       9.86751925       28      -0.00254468       0.00375494      -0.00103561
Li      14.12824208       7.35512440       9.07607080       29       0.00135648      -0.00556352      -0.00147839
Li      13.21210064       2.03616099       4.71339337       30       0.00543310      -0.00619576       0.00082382
Li      17.22220828       7.84889107       4.75014839       31      -0.00012392       0.00133215      -0.00196255
Li      12.65350631       5.21674596       7.94590286       32      -0.00175252      -0.00461091      -0.00175657
Li      17.91813021       0.22303259       7.95028216       33       0.00032092       0.00795242      -0.00014996
Li      18.35765678       5.52267372       3.16053254       34      -0.00101387       0.00236244      -0.00080727
Li      12.60748487       0.21884223       2.72544297       35      -0.00212719      -0.00309016      -0.00051187
Li      10.30796347       2.73531274       4.24435596       36       0.00025382      -0.00308469       0.00134286
Li      15.09011319       8.49878254       2.86471839       37      -0.00288956      -0.00334280      -0.00046644
Li      15.24439742       3.10379463       8.08788729       38      -0.00335051      -0.00102671       0.00590277
Li      10.63160248       7.83137186       9.39868830       39       0.00137281      -0.00145419       0.00014611
Li      10.27471003       6.91767111       6.44898766       40      -0.00062558      -0.00329152       0.00057456
Li      16.92947252       2.13778817       5.28898627       41       0.00530700      -0.00058669       0.00021689
Li      15.58335020       5.67544864       1.98324929       42      -0.00185999       0.00012901      -0.00024111
Li      10.35483892       2.04320577       1.13426602       43       0.00121326      -0.00717145       0.00348429
Cl      19.34355896       9.82103999      10.02237693       44       0.00113485       0.00364918       0.00034704
Cl      14.58285178       5.02235969      -0.23276113       45      -0.00036948      -0.00110736       0.00018404
Cl      14.43223291      -0.05452272       4.63502517       46      -0.00158823      -0.00172748      -0.00200474
Cl      19.84811507       5.00674426       5.10799093       47      -0.00013907       0.00159969      -0.00232260
S       12.11454803       2.55338233       2.66969201       48       0.00013397      -0.00313120       0.00088663
S       17.17138045       7.48601922       2.44680153       49      -0.00274309       0.00164684      -0.00151308
S       17.49345865       2.55909514       7.54276354       50      -0.00258207       0.00167320      -0.00000592
S       12.24744791       7.54603498       7.60575975       51       0.00046696      -0.00346123      -0.00137983
103
Lattice="20.110191271466377 0.0 0.0 0.0 10.055095635733188 0.0 0.0 0.0 10.055095635733188" Properties=species:S:1:pos:R:3:spacegroup_kinds:I:1:forces:R:3 spacegroup="P 1" unit_cell=conventional occupancy="_JSON {\"0\": {\"P\": 1.0}, \"1\": {\"P\": 1.0}, \"2\": {\"P\": 1.0}, \"3\": {\"P\": 1.0}, \"4\": {\"S\": 1.0}, \"5\": {\"S\": 1.0}, \"6\": {\"S\": 1.0}, \"7\": {\"S\": 1.0}, \"8\": {\"S\": 1.0}, \"9\": {\"S\": 1.0}, \"10\": {\"S\": 1.0}, \"11\": {\"S\": 1.0}, \"12\": {\"S\": 1.0}, \"13\": {\"S\": 1.0}, \"14\": {\"S\": 1.0}, \"15\": {\"S\": 1.0}, \"16\": {\"S\": 1.0}, \"17\": {\"S\": 1.0}, \"18\": {\"S\": 1.0}, \"19\": {\"S\": 1.0}, \"20\": {\"Li\": 1.0}, \"21\": {\"Li\": 1.0}, \"22\": {\"Li\": 1.0}, \"23\": {\"Li\": 1.0}, \"24\": {\"Li\": 1.0}, \"25\": {\"Li\": 1.0}, \"26\": {\"Li\": 1.0}, \"27\": {\"Li\": 1.0}, \"28\": {\"Li\": 1.0}, \"29\": {\"Li\": 1.0}, \"30\": {\"Li\": 1.0}, \"31\": {\"Li\": 1.0}, \"32\": {\"Li\": 1.0}, \"33\": {\"Li\": 1.0}, \"34\": {\"Li\": 1.0}, \"35\": {\"Li\": 1.0}, \"36\": {\"Li\": 1.0}, \"37\": {\"Li\": 1.0}, \"38\": {\"Li\": 1.0}, \"39\": {\"Li\": 1.0}, \"40\": {\"Li\": 1.0}, \"41\": {\"Li\": 1.0}, \"42\": {\"Li\": 1.0}, \"43\": {\"Li\": 1.0}, \"44\": {\"Cl\": 1.0}, \"45\": {\"Cl\": 1.0}, \"46\": {\"Cl\": 1.0}, \"47\": {\"Cl\": 1.0}, \"48\": {\"S\": 1.0}, \"49\": {\"S\": 1.0}, \"50\": {\"S\": 1.0}, \"51\": {\"S\": 1.0}}" charge=0 spin=0 energy=-429.6512814970289 free_energy=-429.6512814970289 stress="-0.000827994308604007 -0.0001327980266848669 -0.0005386849296988706 -0.0001327980266848669 0.0026476205037658067 -0.0012467505102174163 -0.0005386849296988706 -0.0012467505102174163 0.0018573893777536824" pbc="T T T"
P        4.81050515       4.92032926       5.08124827        0      -0.00112368       0.00555590      -0.00670898
P       -0.14497299       9.96694678       5.02212073        1       0.01217370      -0.01009429      -0.01329604
P       -0.19030146       4.87378461      10.05761228        2       0.01236708       0.01615304       0.01640553
P        4.85796544      -0.09106817      10.03622293        3       0.00012150      -0.00214821       0.00566246
S        5.86942258       6.03870096       6.44929050        4       0.00093346       0.00023075       0.00188023
S        1.05662214       1.12277023       6.17093587        5       0.00030377       0.00354267       0.00308986
S        0.96689918       6.00542041       1.27321288        6      -0.01300565      -0.01030502      -0.00819569
S        6.00310873       0.95190800       1.31368912        7       0.00237769       0.00089177       0.00055801
S        3.56387546       3.66446861       6.15554895        8      -0.00089900      -0.00274001      -0.00149728
S        8.58504276       9.05897201       6.32832845        9      -0.00030602       0.00177536       0.00117167
S        8.45168148       4.04017243       1.32423951       10       0.00085630      -0.00016942       0.00057188
S        3.57173748       8.70206289       0.98630342       11       0.00469905       0.00235869      -0.00089143
S        3.68983095       6.17896593       3.88474021       12       0.00674549      -0.00099024      -0.00011260
S        8.76619194       1.20684470       3.75740724       13       0.00016862       0.00125623       0.00250843
S        8.73962772       6.30883834       8.88364714       14       0.00197646       0.00024262       0.00201742
S        3.84189835       1.21682352       8.80603897       15      -0.00043630       0.00367944       0.00027998
S        5.96183018       3.79705702       3.84567198       16       0.00265962      -0.00023986      -0.00066853
S        0.95318927       8.70135358       3.88463979       17      -0.00992764       0.01207147       0.00710465
S        0.99939119       3.61783329       8.93827226       18       0.00211070      -0.00021529      -0.00365398
S        5.97092511       8.76066571       8.79066688       19      -0.00063308       0.00129512      -0.00193948
Li       8.11040252       9.61897435       1.98214388       21       0.00101501       0.00040535       0.00159783
Li       8.07243124       4.78068910       7.09508793       22      -0.00274033       0.00188543       0.00413484
Li       2.21578765       9.77394353       7.75733586       23       0.00299689       0.00010679       0.00269058
Li       7.07642243       7.26296936       0.29139912       24       0.00379047      -0.00027578       0.00270293
Li       3.00686552       2.93029474       0.36826721       25      -0.00385905      -0.00194619       0.00112818
Li       2.91823929       8.02753206       5.36058725       26       0.00205642       0.00286437      -0.00779633
Li       7.51931506       2.62562735       5.28155329       27      -0.00017253       0.00253856       0.00135001
Li       6.80546179       2.90228778       9.97238350       28       0.00048968      -0.00003694       0.00075937
Li       4.06587398       7.15146186       8.91578763       29      -0.00013716       0.00196628      -0.00102816
Li       3.18563125       1.75679209       4.55622989       30      -0.00459316       0.00372698      -0.00117245
Li       6.85115886       7.84414981       4.97401872       31       0.00160862       0.00043029       0.00185209
Li       2.15719567       5.12953300       7.40919417       32       0.00439101      -0.00389747      -0.01036875
Li       9.15169733       1.28500558       8.12228400       33      -0.00094852       0.00205410       0.00061458
Li       8.87392250       5.94752830       2.99060246       34       0.00037821       0.00088144      -0.00041756
Li       1.83445468       0.06605266       2.01382324       35      -0.00404105       0.00228706      -0.00149670
Li       2.18280519       4.55984836       2.92484678       36      -0.00122848       0.00282621      -0.00030618
Li       5.24310743       9.04681438       2.80971833       37       0.00247374       0.00188462       0.00198989
Li       5.29634131       3.91532302       7.83506937       38       0.00030811       0.00191929       0.00116843
Li       0.71977689       7.66749142       9.52130100       39       0.01804278      -0.02310940      -0.00125661
Li      -0.05975895       6.92995776       6.71609262       40       0.00679504      -0.00087101      -0.00072310
Li       5.86374750       0.63267608       7.18097234       41       0.00122300       0.00026404      -0.00059576
Li       5.56781396       5.68752054       2.31105954       42       0.00544775       0.00288831       0.00137325
Li      -0.03248548       2.47725779       2.48782980       43      -0.00539387       0.00473451      -0.00206185
Cl       9.92912911      10.14172133      10.31362952       44       0.00147038      -0.00118038       0.00017669
Cl       4.87076807       4.88948547      -0.03010244       45       0.00275349       0.00301471      -0.00083316
Cl       4.71660507      -0.28505322       5.08626927       46       0.00160642       0.00159462       0.00113736
Cl       9.68533447       5.10042202       5.23359731       47       0.00098759       0.00125806      -0.00012208
S        2.23670003       2.30818891       2.47541853       48      -0.00346251       0.00296635      -0.00034495
S        7.10646509       7.53706787       2.61680740       49       0.00379336       0.00067518       0.00173181
S        7.23289339       2.58358344       7.62734557       50      -0.00015337       0.00193604       0.00121887
S        2.11300483       7.44738971       7.56422016       51       0.00552086      -0.00375800      -0.00634411
P       14.75093145       5.04043169       5.13350102        0      -0.00291022      -0.00419171      -0.00214887
P        9.84377155      10.12207817       5.09998750        1      -0.00456072       0.00345626       0.00299571
P        9.76945681       5.05417489      10.16141702        2      -0.00186175      -0.00077920       0.00130895
P       14.87845406      -0.02117050      10.17534233        3      -0.00402229       0.00155390       0.00113969
S       16.00618215       5.96823425       6.42028364        4      -0.00015235       0.00292981       0.00034673
S       10.90347037       1.33750869       6.33728568        5       0.00036611      -0.00007740       0.00122828
S       10.85272403       6.29157113       1.33536102        6       0.00341937      -0.00264766       0.00039991
S       16.07656330       1.13802751       1.31107877        7      -0.00332497      -0.00089584      -0.00153095
S       13.40761294       3.86396326       6.17504218        8       0.00330595      -0.00349613       0.00076906
S       18.65794154       8.88505143       6.25146300        9      -0.00085736      -0.00271725       0.00358445
S       18.57286480       3.84920478       1.17239743       10      -0.00528807      -0.00077286      -0.00191827
S       13.63757008       8.84169787       1.24409341       11      -0.00158922      -0.00126933      -0.00148384
S       13.73105668       6.41089706       3.95402126       12      -0.00183770      -0.00411873       0.00187709
S       18.71344716       1.10662784       3.89345543       13      -0.00530792       0.00350796       0.00157803
S       18.85890323       6.10527641       8.80679638       14      -0.00265644       0.00484072      -0.00339955
S       13.73228895       1.24059946       8.99216254       15      -0.00317353      -0.00160142      -0.00044877
S       15.84862439       3.81753127       3.88828863       16       0.00056724       0.00066582       0.00019099
S       11.06802404       8.83422113       4.08061758       17      -0.00141418      -0.00035225      -0.00189758
S       10.89281349       3.74212574       9.06570524       18      -0.00057400      -0.00302238      -0.00123108
S       15.93212133       8.76758936       8.94665655       19      -0.00153628      -0.00058164      -0.00317531
Li      12.69723334       4.95943432       2.24423928       20      -0.00038537      -0.00335479       0.00040014
Li      18.08959877       9.66473954       2.06413814       21      -0.00382101       0.00080439       0.00270330
Li      17.46398800       4.02738036       5.82906482       22      -0.01056965       0.00237579       0.00720635
Li      12.13286869       9.91763058       7.86050089       23       0.00383745      -0.00536765       0.00041297
Li      17.59643281       7.54440904       0.25543828       24      -0.00186568       0.00914221      -0.00208780
Li      12.93911811       3.05924307       0.32822453       25      -0.00465629      -0.00340816       0.00082750
Li      13.12603316       8.29071228       5.54539997       26      -0.00405587      -0.00239627      -0.00165656
Li      19.59977125       2.55535643       7.35195955       27       0.00006062       0.00433567       0.00069042
Li      16.79957426       2.96611751       9.67359717       28      -0.00254468       0.00375494      -0.00103561
Li      13.95357966       7.18485395       9.27000560       29       0.00135648      -0.00556352      -0.00147839
Li      14.39760194       1.91028074       3.23475150       30       0.00543310      -0.00619576       0.00082382
Li      17.57777917       7.07741533       4.87895727       31      -0.00012392       0.00133215      -0.00196255
Li      12.03755793       5.28550363       7.57622598       32      -0.00175252      -0.00461091      -0.00175657
Li      17.95243785       0.10826900       8.38273861       33       0.00032092       0.00795242      -0.00014996
Li      19.04545529       5.91076272       2.71202332       34      -0.00101387       0.00236244      -0.00080727
Li      11.86779460       0.22894626       2.13689932       35      -0.00212719      -0.00309016      -0.00051187
Li      11.47160445       3.20620169       4.73763668       36       0.00025382      -0.00308469       0.00134286
Li      15.21432875       8.49211964       3.14660386       37      -0.00288956      -0.00334280      -0.00046644
Li      14.94497360       2.11168105       7.03898488       38      -0.00335051      -0.00102671       0.00590277
Li      10.59706865       7.89061486       9.47075888       39       0.00137281      -0.00145419       0.00014611
Li      10.32794544       7.30081529       6.07755972       40      -0.00062558      -0.00329152       0.00057456
Li      17.04634491       0.62612273       5.62286770       41       0.00530700      -0.00058669       0.00021689
Li      15.71408021       5.70864253       2.26707339       42      -0.00185999       0.00012901      -0.00024111
Li      10.05052863       2.33459802       1.84826066       43       0.00121326      -0.00717145       0.00348429
Cl      19.56674823       9.61388776      10.16445848       44       0.00113485       0.00364918       0.00034704
Cl      14.47743210       5.01274051       0.34305320       45      -0.00036948      -0.00110736       0.00018404
Cl      14.80083321       0.08307496       4.93798443       46      -0.00158823      -0.00172748      -0.00200474
Cl      19.43340977       5.24459976       5.04637430       47      -0.00013907       0.00159969      -0.00232260
S       12.25398688       2.59857882       2.54720013       48       0.00013397      -0.00313120       0.00088663
S       17.26502767       7.47575465       2.56661367       49      -0.00274309       0.00164684      -0.00151308
S       17.28877920       2.21834214       7.43794979       50      -0.00258207       0.00167320      -0.00000592
S       12.18344906       7.61072905       7.65408129       51       0.00046696      -0.00346123      -0.00137983
103
Lattice="20.110191271466377 0.0 0.0 0.0 10.055095635733188 0.0 0.0 0.0 10.055095635733188" Properties=species:S:1:pos:R:3:spacegroup_kinds:I:1:forces:R:3 spacegroup="P 1" unit_cell=conventional occupancy="_JSON {\"0\": {\"P\": 1.0}, \"1\": {\"P\": 1.0}, \"2\": {\"P\": 1.0}, \"3\": {\"P\": 1.0}, \"4\": {\"S\": 1.0}, \"5\": {\"S\": 1.0}, \"6\": {\"S\": 1.0}, \"7\": {\"S\": 1.0}, \"8\": {\"S\": 1.0}, \"9\": {\"S\": 1.0}, \"10\": {\"S\": 1.0}, \"11\": {\"S\": 1.0}, \"12\": {\"S\": 1.0}, \"13\": {\"S\": 1.0}, \"14\": {\"S\": 1.0}, \"15\": {\"S\": 1.0}, \"16\": {\"S\": 1.0}, \"17\": {\"S\": 1.0}, \"18\": {\"S\": 1.0}, \"19\": {\"S\": 1.0}, \"20\": {\"Li\": 1.0}, \"21\": {\"Li\": 1.0}, \"22\": {\"Li\": 1.0}, \"23\": {\"Li\": 1.0}, \"24\": {\"Li\": 1.0}, \"25\": {\"Li\": 1.0}, \"26\": {\"Li\": 1.0}, \"27\": {\"Li\": 1.0}, \"28\": {\"Li\": 1.0}, \"29\": {\"Li\": 1.0}, \"30\": {\"Li\": 1.0}, \"31\": {\"Li\": 1.0}, \"32\": {\"Li\": 1.0}, \"33\": {\"Li\": 1.0}, \"34\": {\"Li\": 1.0}, \"35\": {\"Li\": 1.0}, \"36\": {\"Li\": 1.0}, \"37\": {\"Li\": 1.0}, \"38\": {\"Li\": 1.0}, \"39\": {\"Li\": 1.0}, \"40\": {\"Li\": 1.0}, \"41\": {\"Li\": 1.0}, \"42\": {\"Li\": 1.0}, \"43\": {\"Li\": 1.0}, \"44\": {\"Cl\": 1.0}, \"45\": {\"Cl\": 1.0}, \"46\": {\"Cl\": 1.0}, \"47\": {\"Cl\": 1.0}, \"48\": {\"S\": 1.0}, \"49\": {\"S\": 1.0}, \"50\": {\"S\": 1.0}, \"51\": {\"S\": 1.0}}" charge=0 spin=0 energy=-429.6512814970289 free_energy=-429.6512814970289 stress="-0.000827994308604007 -0.0001327980266848669 -0.0005386849296988706 -0.0001327980266848669 0.0026476205037658067 -0.0012467505102174163 -0.0005386849296988706 -0.0012467505102174163 0.0018573893777536824" pbc="T T T"
P        4.83476663       5.06095074       5.11014249        0      -0.00112368       0.00555590      -0.00670898
P       -0.23115487      10.02883850       5.01430006        1       0.01217370      -0.01009429      -0.01329604
P       -0.25083274       5.00046035       9.95932284        2       0.01236708       0.01615304       0.01640553
P        4.78421148      -0.03807841      10.16340710        3       0.00012150      -0.00214821       0.00566246
S        5.94685070       6.21876241       6.36019597        4       0.00093346       0.00023075       0.00188023
S        0.77828774       1.21359382       6.28857140        5       0.00030377       0.00354267       0.00308986
S        0.77101969       6.23320515       1.19491037        6      -0.01300565      -0.01030502      -0.00819569
S        5.93569998       0.99235615       1.43171474        7       0.00237769       0.00089177       0.00055801
S        3.49524257       3.86229955       6.11491972        8      -0.00089900      -0.00274001      -0.00149728
S        8.57149159       9.00456702       6.42102913        9      -0.00030602       0.00177536       0.00117167
S        8.68644025       3.82792287       1.15667939       10       0.00085630      -0.00016942       0.00057188
S        3.51485034       8.74457173       1.13029803       11       0.00469905       0.00235869      -0.00089143
S        3.73922216       6.31521038       3.84604595       12       0.00674549      -0.00099024      -0.00011260
S        8.65803262       1.33386834       3.97371764       13       0.00016862       0.00125623       0.00250843
S        8.65341005       6.26496582       8.80284850       14       0.00197646       0.00024262       0.00201742
S        3.60092660       1.25565937       9.04614323       15      -0.00043630       0.00367944       0.00027998
S        5.93276781       3.83479275       3.89281670       16       0.00265962      -0.00023986      -0.00066853
S        0.90756277       8.84020757       3.83700093       17      -0.00992764       0.01207147       0.00710465
S        0.94664699       3.80094430       8.84119664       18       0.00211070      -0.00021529      -0.00365398
S        5.88448818       8.87110522       8.85751313       19      -0.00063308       0.00129512      -0.00193948
Li       8.02307967       9.65621681       2.26206431       21       0.00101501       0.00040535       0.00159783
Li       6.81289561       4.79232125       8.14966464       22      -0.00274033       0.00188543       0.00413484
Li       2.64198220       9.95559938       7.30994124       23       0.00299689       0.00010679       0.00269058
Li       7.09013814       7.32755632       0.28420291       24       0.00379047      -0.00027578       0.00270293
Li       2.64643491       2.98244753       0.40789887       25      -0.00385905      -0.00194619       0.00112818
Li       2.76395256       8.03854380       5.31213551       26       0.00205642       0.00286437      -0.00779633
Li       7.80804379       3.25996254       5.41647466       27      -0.00017253       0.00253856       0.00135001
Li       7.39439660       2.15021171       9.93928692       28       0.00048968      -0.00003694       0.00075937
Li       4.08947493       7.18258483       8.90461261       29      -0.00013716       0.00196628      -0.00102816
Li       3.91222568       2.14228893       4.11814580       30      -0.00459316       0.00372698      -0.00117245
Li       7.81532742       7.12259414       4.92527526       31       0.00160862       0.00043029       0.00185209
Li       2.39580471       5.36742622       7.62907081       32       0.00439101      -0.00389747      -0.01036875
Li       9.35640249       1.43342922       7.93727898       33      -0.00094852       0.00205410       0.00061458
Li       8.96157829       5.82161780       2.65395509       34       0.00037821       0.00088144      -0.00041756
Li       2.05094061       0.29772852       2.27879508       35      -0.00404105       0.00228706      -0.00149670
Li       1.94770076       4.84585079       3.00052435       36      -0.00122848       0.00282621      -0.00030618
Li       5.13127096       8.48089225       3.21538953       37       0.00247374       0.00188462       0.00198989
Li       4.91489017       2.76961724       7.73004653       38       0.00030811       0.00191929       0.00116843
Li       1.10633007       8.14121828       9.65757627       39       0.01804278      -0.02310940      -0.00125661
Li      -0.01570405       7.03290383       6.77030913       40       0.00679504      -0.00087101      -0.00072310
Li       6.55689552       0.32079238       6.78451492       41       0.00122300       0.00026404      -0.00059576
Li       5.56222938       5.62447310       2.20706563       42       0.00544775       0.00288831       0.00137325
Li      -0.12273638       2.58080901       2.48831631       43      -0.00539387       0.00473451      -0.00206185
Cl       9.65914704      10.32319372      10.12672174       44       0.00147038      -0.00118038       0.00017669
Cl       4.83117878       5.11617835      -0.16224115       45       0.00275349       0.00301471      -0.00083316
Cl       4.49099049      -0.03225267       5.22442528       46       0.00160642       0.00159462       0.00113736
Cl       9.64087640       5.05474975       4.93573849       47       0.00098759       0.00125806      -0.00012208
S        2.14160487       2.57310904       2.60435456       48      -0.00346251       0.00296635      -0.00034495
S        7.17874267       7.40870977       2.59766261       49       0.00379336       0.00067518       0.00173181
S        7.22912698       2.51467474       7.62169720       50      -0.00015337       0.00193604       0.00121887
S        2.15030992       7.65412049       7.57013610       51       0.00552086      -0.00375800      -0.00634411
P       14.76707028       5.09493660       5.01666924        0      -0.00291022      -0.00419171      -0.00214887
P        9.74468111      10.06570755       5.11985696        1      -0.00456072       0.00345626       0.00299571
P        9.81699929       5.03424171      10.01045215        2      -0.00186175      -0.00077920       0.00130895
P       14.76221324      -0.02483091      10.07944354        3      -0.00402229       0.00155390       0.00113969
S       15.79723307       6.26486388       6.32772709        4      -0.00015235       0.00292981       0.00034673
S       11.08829666       1.13162077       6.20642408        5       0.00036611      -0.00007740       0.00122828
S       10.87454697       6.32220181       1.14170143        6       0.00341937      -0.00264766       0.00039991
S       15.94508109       1.18562626       1.21484807        7      -0.00332497      -0.00089584      -0.00153095
S       13.49283170       3.83321386       6.06105176        8       0.00330595      -0.00349613       0.00076906
S       18.58719502       8.88106556       6.17885222        9      -0.00085736      -0.00271725       0.00358445
S       18.53931166       3.92998035       1.09239555       10      -0.00528807      -0.00077286      -0.00191827
S       13.53048298       8.91250135       1.26209785       11      -0.00158922      -0.00126933      -0.00148384
S       13.64060561       6.35374602       3.78362123       12      -0.00183770      -0.00411873       0.00187709
S       18.59935940       1.20254916       3.92022906       13      -0.00530792       0.00350796       0.00157803
S       18.72557837       6.19756221       8.70654360       14      -0.00265644       0.00484072      -0.00339955
S       13.55640315       1.22759994       8.95784259       15      -0.00317353      -0.00160142      -0.00044877
S       15.90439143       3.95506657       3.77874071       16       0.00056724       0.00066582       0.00019099
S       10.65222771       8.74962893       3.82961370       17      -0.00141418      -0.00035225      -0.00189758
S       10.98188997       3.84823960       8.81177003       18      -0.00057400      -0.00302238      -0.00123108
S       15.75176484       8.75186564       8.86439523       19      -0.00153628      -0.00058164      -0.00317531
Li      12.48487939       4.84260120       2.22901242       20      -0.00038537      -0.00335479       0.00040014
Li      17.85523820       9.80479451       2.08322056       21      -0.00382101       0.00080439       0.00270330
Li      17.19282706       4.70704965       7.53471412       22      -0.01056965       0.00237579       0.00720635
Li      12.99717071       9.60394165       7.10964983       23       0.00383745      -0.00536765       0.00041297
Li      17.70409457       7.83005103       0.17028020       24      -0.00186568       0.00914221      -0.00208780
Li      14.00865320       2.74758799       0.88524131       25      -0.00465629      -0.00340816       0.00082750
Li      12.02810120       7.36984957       5.26666699       26      -0.00405587      -0.00239627      -0.00165656
Li      19.01940647       2.99978728       5.73263476       27       0.00006062       0.00433567       0.00069042
Li      17.42293049       2.32349938       9.72800830       28      -0.00254468       0.00375494      -0.00103561
Li      13.71000724       7.34739316       9.46350185       29       0.00135648      -0.00556352      -0.00147839
Li      14.03070376       2.28341009       4.14633225       30       0.00543310      -0.00619576       0.00082382
Li      17.52370413       7.11139481       4.78449986       31      -0.00012392       0.00133215      -0.00196255
Li      13.10227662       5.15803937       8.05780843       32      -0.00175252      -0.00461091      -0.00175657
Li      19.04983991       0.65385858       7.89131775       33       0.00032092       0.00795242      -0.00014996
Li      18.82452104       5.95237836       2.61988733       34      -0.00101387       0.00236244      -0.00080727
Li      11.88296534       0.20867509       2.40917111       35      -0.00212719      -0.00309016      -0.00051187
Li      10.80268188       2.82549350       4.36117485       36       0.00025382      -0.00308469       0.00134286
Li      15.00417274       8.49027961       3.22370111       37      -0.00288956      -0.00334280      -0.00046644
Li      14.99787965       2.25058299       7.28793586       38      -0.00335051      -0.00102671       0.00590277
Li      10.48691541       8.10939842       9.19058505       39       0.00137281      -0.00145419       0.00014611
Li      10.42484338       5.73699671       7.17386681       40      -0.00062558      -0.00329152       0.00057456
Li      16.90437964       0.62952987       5.81456420       41       0.00530700      -0.00058669       0.00021689
Li      15.67435184       5.80327515       2.05126887       42      -0.00185999       0.00012901      -0.00024111
Li      10.71095825       2.31652847       0.79211520       43       0.00121326      -0.00717145       0.00348429
Cl      19.45053119       9.78598957      10.12058548       44       0.00113485       0.00364918       0.00034704
Cl      14.42922531       5.05134380       0.10634493       45      -0.00036948      -0.00110736       0.00018404
Cl      14.67766420       0.17644192       5.17414100       46      -0.00158823      -0.00172748      -0.00200474
Cl      19.45788573       5.31147628       4.88951870       47      -0.00013907       0.00159969      -0.00232260
S       12.29645948       2.52564562       2.52345484       48       0.00013397      -0.00313120       0.00088663
S       17.13055453       7.60117446       2.48923258       49      -0.00274309       0.00164684      -0.00151308
S       17.35731270       2.37255585       7.40787494       50      -0.00258207       0.00167320      -0.00000592
S       12.16176717       7.35721046       7.61561277       51       0.00046696      -0.00346123      -0.00137983
103
Lattice="20.110191271466377 0.0 0.0 0.0 10.055095635733188 0.0 0.0 0.0 10.055095635733188" Properties=species:S:1:pos:R:3:spacegroup_kinds:I:1:forces:R:3 spacegroup="P 1" unit_cell=conventional occupancy="_JSON {\"0\": {\"P\": 1.0}, \"1\": {\"P\": 1.0}, \"2\": {\"P\": 1.0}, \"3\": {\"P\": 1.0}, \"4\": {\"S\": 1.0}, \"5\": {\"S\": 1.0}, \"6\": {\"S\": 1.0}, \"7\": {\"S\": 1.0}, \"8\": {\"S\": 1.0}, \"9\": {\"S\": 1.0}, \"10\": {\"S\": 1.0}, \"11\": {\"S\": 1.0}, \"12\": {\"S\": 1.0}, \"13\": {\"S\": 1.0}, \"14\": {\"S\": 1.0}, \"15\": {\"S\": 1.0}, \"16\": {\"S\": 1.0}, \"17\": {\"S\": 1.0}, \"18\": {\"S\": 1.0}, \"19\": {\"S\": 1.0}, \"20\": {\"Li\": 1.0}, \"21\": {\"Li\": 1.0}, \"22\": {\"Li\": 1.0}, \"23\": {\"Li\": 1.0}, \"24\": {\"Li\": 1.0}, \"25\": {\"Li\": 1.0}, \"26\": {\"Li\": 1.0}, \"27\": {\"Li\": 1.0}, \"28\": {\"Li\": 1.0}, \"29\": {\"Li\": 1.0}, \"30\": {\"Li\": 1.0}, \"31\": {\"Li\": 1.0}, \"32\": {\"Li\": 1.0}, \"33\": {\"Li\": 1.0}, \"34\": {\"Li\": 1.0}, \"35\": {\"Li\": 1.0}, \"36\": {\"Li\": 1.0}, \"37\": {\"Li\": 1.0}, \"38\": {\"Li\": 1.0}, \"39\": {\"Li\": 1.0}, \"40\": {\"Li\": 1.0}, \"41\": {\"Li\": 1.0}, \"42\": {\"Li\": 1.0}, \"43\": {\"Li\": 1.0}, \"44\": {\"Cl\": 1.0}, \"45\": {\"Cl\": 1.0}, \"46\": {\"Cl\": 1.0}, \"47\": {\"Cl\": 1.0}, \"48\": {\"S\": 1.0}, \"49\": {\"S\": 1.0}, \"50\": {\"S\": 1.0}, \"51\": {\"S\": 1.0}}" charge=0 spin=0 energy=-429.6512814970289 free_energy=-429.6512814970289 stress="-0.000827994308604007 -0.0001327980266848669 -0.0005386849296988706 -0.0001327980266848669 0.0026476205037658067 -0.0012467505102174163 -0.0005386849296988706 -0.0012467505102174163 0.0018573893777536824" pbc="T T T"
P        4.91878707       4.83144489       4.96050711        0      -0.00112368       0.00555590      -0.00670898
P       -0.39857024      10.01300810       4.97685734        1       0.01217370      -0.01009429      -0.01329604
P       -0.15469267       4.86847826       9.86297284        2       0.01236708       0.01615304       0.01640553
P        4.72803508      -0.15324034      10.03908449        3       0.00012150      -0.00214821       0.00566246
S        5.99010616       6.07596167       6.23137333        4       0.00093346       0.00023075       0.00188023
S        0.89679548       1.07809230       6.11059972        5       0.00030377       0.00354267       0.00308986
S        1.34403804       5.79658583       0.84110574        6      -0.01300565      -0.01030502      -0.00819569
S        5.94843859       0.91451576       1.22589044        7       0.00237769       0.00089177       0.00055801
S        3.61658724       3.70478168       6.10277628        8      -0.00089900      -0.00274001      -0.00149728
S        8.54325285       9.03114820       6.51013779        9      -0.00030602       0.00177536       0.00117167
S        8.67274247       3.72303231       1.04989700       10       0.00085630      -0.00016942       0.00057188
S        3.64981283       8.59939821       1.15358691       11       0.00469905       0.00235869      -0.00089143
S        3.81221061       5.95911898       3.62454355       12       0.00674549      -0.00099024      -0.00011260
S        8.76535231       1.33973903       4.21334811       13       0.00016862       0.00125623       0.00250843
S        8.62858224       6.15667438       8.70724854       14       0.00197646       0.00024262       0.00201742
S        3.45643338       1.07230327       8.95405163       15      -0.00043630       0.00367944       0.00027998
S        6.23715016       3.75719074       3.84467865       16       0.00265962      -0.00023986      -0.00066853
S        0.59899492       8.66944945       3.76745801       17      -0.00992764       0.01207147       0.00710465
S        0.78359538       3.65787316       8.48900064       18       0.00211070      -0.00021529      -0.00365398
S        5.91779760       8.81250122       8.73853212       19      -0.00063308       0.00129512      -0.00193948
Li       8.56365517       9.68750054       2.21656137       21       0.00101501       0.00040535       0.00159783
Li       6.53110260       4.73228121       8.16761345       22      -0.00274033       0.00188543       0.00413484
Li       2.00513033       9.69210752       7.68589949       23       0.00299689       0.00010679       0.00269058
Li       7.42810776       7.57600965       0.24893413       24       0.00379047      -0.00027578       0.00270293
Li       1.37537828       1.97657747       0.26154988       25      -0.00385905      -0.00194619       0.00112818
Li       1.99260060       6.92681893       4.98161891       26       0.00205642       0.00286437      -0.00779633
Li       7.92215155       3.46893014       5.69660876       27      -0.00017253       0.00253856       0.00135001
Li       6.47135276       2.80192232       9.97176745       28       0.00048968      -0.00003694       0.00075937
Li       2.89854289       5.03435602       8.24911811       29      -0.00013716       0.00196628      -0.00102816
Li       3.14627182       1.79400063       4.46734090       30      -0.00459316       0.00372698      -0.00117245
Li       7.70924485       7.40830535       4.87987108       31       0.00160862       0.00043029       0.00185209
Li       4.61421103       7.98845242       6.79396173       32       0.00439101      -0.00389747      -0.01036875
Li       7.75829740       0.38354757       8.59545744       33      -0.00094852       0.00205410       0.00061458
Li       8.78152518       5.63828675       2.64975084       34       0.00037821       0.00088144      -0.00041756
Li       1.78443972      -0.02390059       2.09454351       35      -0.00404105       0.00228706      -0.00149670
Li       3.20959853       4.12859377       1.91246508       36      -0.00122848       0.00282621      -0.00030618
Li       5.53987747       9.07224244       2.76192809       37       0.00247374       0.00188462       0.00198989
Li       4.80159686       1.86721386       7.07730030       38       0.00030811       0.00191929       0.00116843
Li       1.99110873       7.68557323       9.63884099       39       0.01804278      -0.02310940      -0.00125661
Li       0.05123231       7.76332551       7.63773834       40       0.00679504      -0.00087101      -0.00072310
Li       6.96252866       0.83436466       5.86143353       41       0.00122300       0.00026404      -0.00059576
Li       5.85973268       5.69728219       2.23239981       42       0.00544775       0.00288831       0.00137325
Li       0.16133946       3.12431430       3.48427816       43      -0.00539387       0.00473451      -0.00206185
Cl       9.60580255      10.09445110      10.16186928       44       0.00147038      -0.00118038       0.00017669
Cl       4.91939262       4.56853784       0.00386425       45       0.00275349       0.00301471      -0.00083316
Cl       4.88931331       0.03431449       5.03102752       46       0.00160642       0.00159462       0.00113736
Cl       9.85863952       4.95073398       4.90383653       47       0.00098759       0.00125806      -0.00012208
S        2.03815345       2.23124017       2.48577678       48      -0.00346251       0.00296635      -0.00034495
S        7.35639205       7.54189372       2.57701779       49       0.00379336       0.00067518       0.00173181
S        7.00918034       2.44603787       7.61089868       50      -0.00015337       0.00193604       0.00121887
S        2.34352022       7.33132226       7.32743085       51       0.00552086      -0.00375800      -0.00634411
P       14.64543941       5.10988792       4.89586331        0      -0.00291022      -0.00419171      -0.00214887
P        9.90423518      10.08685987       5.34180026        1      -0.00456072       0.00345626       0.00299571
P        9.79998452       4.99820918       9.98534543        2      -0.00186175      -0.00077920       0.00130895
P       14.62989870       0.17777291      10.20085471        3      -0.00402229       0.00155390       0.00113969
S       15.88535875       6.30759909       6.00535795        4      -0.00015235       0.00292981       0.00034673
S       11.14778276       1.11412589       6.51159887        5       0.00036611      -0.00007740       0.00122828
S       10.71417434       6.29766577       1.26818393        6       0.00341937      -0.00264766       0.00039991
S       15.87491908       1.33746130       1.32816408        7      -0.00332497      -0.00089584      -0.00153095
S       13.44223113       4.01884738       6.14632982        8       0.00330595      -0.00349613       0.00076906
S       18.45046551       8.95879459       6.22110751        9      -0.00085736      -0.00271725       0.00358445
S       18.81559115       3.75729796       1.10996790       10      -0.00528807      -0.00077286      -0.00191827
S       13.59148313       8.92520182       1.36202893       11      -0.00158922      -0.00126933      -0.00148384
S       13.46262617       6.29750122       3.72033837       12      -0.00183770      -0.00411873       0.00187709
S       18.63536710       1.30612642       3.84735083       13      -0.00530792       0.00350796       0.00157803
S       18.75662726       6.28647857       8.95457411       14      -0.00265644       0.00484072      -0.00339955
S       13.35786630       1.46180859       9.23062270       15      -0.00317353      -0.00160142      -0.00044877
S       15.70735735       3.80236928       3.68882881       16       0.00056724       0.00066582       0.00019099
S       10.81921620       8.77940114       4.05282440       17      -0.00141418      -0.00035225      -0.00189758
S       11.18912872       4.04881328       8.86371167       18      -0.00057400      -0.00302238      -0.00123108
S       15.61512467       9.07132635       8.84133394       19      -0.00153628      -0.00058164      -0.00317531
Li      11.60279291       4.84237252       3.03502640       20      -0.00038537      -0.00335479       0.00040014
Li      17.38869142       9.86518902       2.49344620       21      -0.00382101       0.00080439       0.00270330
Li      17.01377280       4.98439149       7.84877586       22      -0.01056965       0.00237579       0.00720635
Li      13.02267797       9.86468834       7.39096798       23       0.00383745      -0.00536765       0.00041297
Li      19.58742509       7.74248612       1.57558931       24      -0.00186568       0.00914221      -0.00208780
Li      14.24132284       3.28926334       1.71621598       25      -0.00465629      -0.00340816       0.00082750
Li      12.67785492       8.03494227       5.40663617       26      -0.00405587      -0.00239627      -0.00165656
Li      17.53485606       3.10288939       5.27653103       27       0.00006062       0.00433567       0.00069042
Li      17.15000503       2.69828705       9.87766360       28      -0.00254468       0.00375494      -0.00103561
Li      12.51992126       7.17295491       9.99505784       29       0.00135648      -0.00556352      -0.00147839
Li      13.90493475       2.17485114       4.43688473       30       0.00543310      -0.00619576       0.00082382
Li      17.86251216       7.09809210       4.66591152       31      -0.00012392       0.00133215      -0.00196255
Li      13.98345504       6.10269966       7.60636752       32      -0.00175252      -0.00461091      -0.00175657
Li      19.30792914       2.11930444       7.59362096       33       0.00032092       0.00795242      -0.00014996
Li      17.58537207       5.19453028       2.71036828       34      -0.00101387       0.00236244      -0.00080727
Li      12.26136721       0.23159894       2.83099359       35      -0.00212719      -0.00309016      -0.00051187
Li      10.86154169       2.67425323       4.63101213       36       0.00025382      -0.00308469       0.00134286
Li      15.03850092       8.03837948       3.14881417       37      -0.00288956      -0.00334280      -0.00046644
Li      14.72923519       3.20791157       8.14367706       38      -0.00335051      -0.00102671       0.00590277
Li      10.08915702       8.35763417       8.51548425       39       0.00137281      -0.00145419       0.00014611
Li      10.79872581       5.76472393       7.08067194       40      -0.00062558      -0.00329152       0.00057456
Li      16.34529478       0.46759954       7.02667439       41       0.00530700      -0.00058669       0.00021689
Li      16.40229448       7.21534746       0.16181028       42      -0.00185999       0.00012901      -0.00024111
Li      11.18023256       2.23891405       0.52684506       43       0.00121326      -0.00717145       0.00348429
Cl      20.42525750       9.47936177      10.04493488       44       0.00113485       0.00364918       0.00034704
Cl      15.13974143       5.13399341      -0.48317651       45      -0.00036948      -0.00110736       0.00018404
Cl      14.42191492      -0.10966876       5.18200333       46      -0.00158823      -0.00172748      -0.00200474
Cl      19.06568550       4.96195199       4.61926836       47      -0.00013907       0.00159969      -0.00232260
S       12.26092887       2.56963905       2.71549618       48       0.00013397      -0.00313120       0.00088663
S       17.23549464       7.54676389       2.36971978       49      -0.00274309       0.00164684      -0.00151308
S       17.04244253       2.63970439       7.55182447       50      -0.00258207       0.00167320      -0.00000592
S       12.22744645       7.60377876       7.69582849       51       0.00046696      -0.00346123      -0.00137983
103
Lattice="20.110191271466377 0.0 0.0 0.0 10.055095635733188 0.0 0.0 0.0 10.055095635733188" Properties=species:S:1:pos:R:3:spacegroup_kinds:I:1:forces:R:3 spacegroup="P 1" unit_cell=conventional occupancy="_JSON {\"0\": {\"P\": 1.0}, \"1\": {\"P\": 1.0}, \"2\": {\"P\": 1.0}, \"3\": {\"P\": 1.0}, \"4\": {\"S\": 1.0}, \"5\": {\"S\": 1.0}, \"6\": {\"S\": 1.0}, \"7\": {\"S\": 1.0}, \"8\": {\"S\": 1.0}, \"9\": {\"S\": 1.0}, \"10\": {\"S\": 1.0}, \"11\": {\"S\": 1.0}, \"12\": {\"S\": 1.0}, \"13\": {\"S\": 1.0}, \"14\": {\"S\": 1.0}, \"15\": {\"S\": 1.0}, \"16\": {\"S\": 1.0}, \"17\": {\"S\": 1.0}, \"18\": {\"S\": 1.0}, \"19\": {\"S\": 1.0}, \"20\": {\"Li\": 1.0}, \"21\": {\"Li\": 1.0}, \"22\": {\"Li\": 1.0}, \"23\": {\"Li\": 1.0}, \"24\": {\"Li\": 1.0}, \"25\": {\"Li\": 1.0}, \"26\": {\"Li\": 1.0}, \"27\": {\"Li\": 1.0}, \"28\": {\"Li\": 1.0}, \"29\": {\"Li\": 1.0}, \"30\": {\"Li\": 1.0}, \"31\": {\"Li\": 1.0}, \"32\": {\"Li\": 1.0}, \"33\": {\"Li\": 1.0}, \"34\": {\"Li\": 1.0}, \"35\": {\"Li\": 1.0}, \"36\": {\"Li\": 1.0}, \"37\": {\"Li\": 1.0}, \"38\": {\"Li\": 1.0}, \"39\": {\"Li\": 1.0}, \"40\": {\"Li\": 1.0}, \"41\": {\"Li\": 1.0}, \"42\": {\"Li\": 1.0}, \"43\": {\"Li\": 1.0}, \"44\": {\"Cl\": 1.0}, \"45\": {\"Cl\": 1.0}, \"46\": {\"Cl\": 1.0}, \"47\": {\"Cl\": 1.0}, \"48\": {\"S\": 1.0}, \"49\": {\"S\": 1.0}, \"50\": {\"S\": 1.0}, \"51\": {\"S\": 1.0}}" charge=0 spin=0 energy=-429.6512814970289 free_energy=-429.6512814970289 stress="-0.000827994308604007 -0.0001327980266848669 -0.0005386849296988706 -0.0001327980266848669 0.0026476205037658067 -0.0012467505102174163 -0.0005386849296988706 -0.0012467505102174163 0.0018573893777536824" pbc="T T T"
P        4.74847198       4.96133998       4.76388407        0      -0.00112368       0.00555590      -0.00670898
P       -0.52039289      10.21691724       4.94708453        1       0.01217370      -0.01009429      -0.01329604
P       -0.20318199       5.07085143       9.95237271        2       0.01236708       0.01615304       0.01640553
P        4.77396344      -0.01717725      10.07472082        3       0.00012150      -0.00214821       0.00566246
S        5.76515689       6.28812016       5.99978719        4       0.00093346       0.00023075       0.00188023
S        0.49790707       1.43968180       6.13975201        5       0.00030377       0.00354267       0.00308986
S        1.01407119       6.23756536       1.05550351        6      -0.01300565      -0.01030502      -0.00819569
S        5.98355702       1.15362598       1.21445025        7       0.00237769       0.00089177       0.00055801
S        3.48750597       3.69862996       5.81879561        8      -0.00089900      -0.00274001      -0.00149728
S        8.49223035       9.01860330       6.42838482        9      -0.00030602       0.00177536       0.00117167
S        8.94671662       3.84968891       1.03919979       10       0.00085630      -0.00016942       0.00057188
S        3.79573303       8.77936888       1.38401532       11       0.00469905       0.00235869      -0.00089143
S        3.55177345       5.97971501       3.45577265       12       0.00674549      -0.00099024      -0.00011260
S        8.61660786       1.22105081       4.10129380       13       0.00016862       0.00125623       0.00250843
S        8.62636267       6.28051012       8.65220297       14       0.00197646       0.00024262       0.00201742
S        3.36473555       0.84637721       8.93783441       15      -0.00043630       0.00367944       0.00027998
S        6.12712797       3.78609231       3.77447923       16       0.00265962      -0.00023986      -0.00066853
S        0.74627682       8.96901377       3.88071286       17      -0.00992764       0.01207147       0.00710465
S        0.85148298       3.75891653       8.77499370       18       0.00211070      -0.00021529      -0.00365398
S        6.06128598       8.92470782       8.89320493       19      -0.00063308       0.00129512      -0.00193948
Li       9.03891246       9.08987649       2.42307974       21       0.00101501       0.00040535       0.00159783
Li       6.36553430       4.89352741       7.88654697       22      -0.00274033       0.00188543       0.00413484
Li       1.97638573       7.96612327       9.74611347       23       0.00299689       0.00010679       0.00269058
Li       7.91238141       7.93198651       0.25286474       24       0.00379047      -0.00027578       0.00270293
Li       0.73464976       2.03687596       0.55299507       25      -0.00385905      -0.00194619       0.00112818
Li       2.06307191       7.42882984       5.20921156       26       0.00205642       0.00286437      -0.00779633
Li       7.93096323       3.31355203       5.45890490       27      -0.00017253       0.00253856       0.00135001
Li       6.78693047       3.07932946       9.95715767       28       0.00048968      -0.00003694       0.00075937
Li       4.76242922       1.75166190      13.36566321       29      -0.00013716       0.00196628      -0.00102816
Li       2.43211952       1.59882953       4.72787307       30      -0.00459316       0.00372698      -0.00117245
Li       7.73293422       7.26232435       4.70015939       31       0.00160862       0.00043029       0.00185209
Li       4.51143878       8.16625091       7.27708880       32       0.00439101      -0.00389747      -0.01036875
Li       7.87116877       0.64960218       8.61657078       33      -0.00094852       0.00205410       0.00061458
Li       7.54751688       5.21472937       2.41405565       34       0.00037821       0.00088144      -0.00041756
Li       1.92864056       0.12670129       2.07420953       35      -0.00404105       0.00228706      -0.00149670
Li       2.99468648       4.45493165       1.57059158       36      -0.00122848       0.00282621      -0.00030618
Li       5.67876233       9.17289841       2.81215181       37       0.00247374       0.00188462       0.00198989
Li       4.67591710       2.12715141       7.40891657       38       0.00030811       0.00191929       0.00116843
Li       2.56973510       5.06290327       7.55827605       39       0.01804278      -0.02310940      -0.00125661
Li       0.09395345       8.10975127       7.69546315       40       0.00679504      -0.00087101      -0.00072310
Li       6.83591625       0.76714562       5.90365770       41       0.00122300       0.00026404      -0.00059576
Li       5.13288759       6.77714973       1.34194117       42       0.00544775       0.00288831       0.00137325
Li       0.08631245       3.04934712       3.22234879       43      -0.00539387       0.00473451      -0.00206185
Cl       9.51171461       9.74422802      10.16986389       44       0.00147038      -0.00118038       0.00017669
Cl       4.99194484       4.75234287      -0.07918729       45       0.00275349       0.00301471      -0.00083316
Cl       4.78718344       0.00377548       5.01569211       46       0.00160642       0.00159462       0.00113736
Cl       9.72161625       4.94649663       4.80658838       47       0.00098759       0.00125806      -0.00012208
S        2.28103572       2.33752867       2.50109374       48      -0.00346251       0.00296635      -0.00034495
S        7.22992610       7.51359938       2.43067673       49       0.00379336       0.00067518       0.00173181
S        6.98063863       2.55768023       7.56321761       50      -0.00015337       0.00193604       0.00121887
S        2.28194001       7.33319285       7.52543388       51       0.00552086      -0.00375800      -0.00634411
P       14.68056702       5.21936735       4.84494613        0      -0.00291022      -0.00419171      -0.00214887
P        9.83862172      10.11563821       5.27492244        1      -0.00456072       0.00345626       0.00299571
P        9.90065999       5.21676677       9.89168587        2      -0.00186175      -0.00077920       0.00130895
P       14.75480186       0.26083314      10.15818075        3      -0.00402229       0.00155390       0.00113969
S       15.77636991       6.48823004       5.98265731        4      -0.00015235       0.00292981       0.00034673
S       11.12676917       1.15868144       6.38270618        5       0.00036611      -0.00007740       0.00122828
S       10.92583580       6.47159481       1.08256969        6       0.00341937      -0.00264766       0.00039991
S       15.97127173       1.50979844       1.19078328        7      -0.00332497      -0.00089584      -0.00153095
S       13.51106304       4.03821851       6.06503264        8       0.00330595      -0.00349613       0.00076906
S       18.46122617       8.98991936       6.17019731        9      -0.00085736      -0.00271725       0.00358445
S       18.85611509       3.77020841       1.14697081       10      -0.00528807      -0.00077286      -0.00191827
S       13.68381960       9.09038897       1.39030880       11      -0.00158922      -0.00126933      -0.00148384
S       13.45848096       6.26040554       3.56967826       12      -0.00183770      -0.00411873       0.00187709
S       18.42259829       1.20991049       3.59850761       13      -0.00530792       0.00350796       0.00157803
S       18.66675056       6.24539024       8.78490429       14      -0.00265644       0.00484072      -0.00339955
S       13.45348235       1.42616067       9.07724778       15      -0.00317353      -0.00160142      -0.00044877
S       15.78800614       3.92858588       3.65159088       16       0.00056724       0.00066582       0.00019099
S       10.82566412       8.77515236       4.05861262       17      -0.00141418      -0.00035225      -0.00189758
S       11.09888766       4.12097346       8.63272143       18      -0.00057400      -0.00302238      -0.00123108
S       15.86227989       9.11921883       8.93941064       19      -0.00153628      -0.00058164      -0.00317531
Li      11.28135789       4.82694281       2.82697451       20      -0.00038537      -0.00335479       0.00040014
Li      17.23582355       9.72201975       2.16053878       21      -0.00382101       0.00080439       0.00270330
Li      16.70705139       5.04180911       7.81239678       22      -0.01056965       0.00237579       0.00720635
Li      13.17803560       9.81776245       7.29957187       23       0.00383745      -0.00536765       0.00041297
Li      19.62960601       8.03607485       1.82233408       24      -0.00186568       0.00914221      -0.00208780
Li      14.35974123       3.50279262       1.63165840       25      -0.00465629      -0.00340816       0.00082750
Li      12.99687305       7.90294005       5.35197960       26      -0.00405587      -0.00239627      -0.00165656
Li      17.32969171       2.90359968       5.08771821       27       0.00006062       0.00433567       0.00069042
Li      17.54703892       2.38165572       9.60035452       28      -0.00254468       0.00375494      -0.00103561
Li      12.47169968       7.73880532       9.84011914       29       0.00135648      -0.00556352      -0.00147839
Li      14.03200924       2.25024887       4.41078274       30       0.00543310      -0.00619576       0.00082382
Li      17.65368382       7.26379564       4.66295610       31      -0.00012392       0.00133215      -0.00196255
Li      13.03173311       5.48060763       8.05854463       32      -0.00175252      -0.00461091      -0.00175657
Li      19.38226891       3.60157931       6.84192959       33       0.00032092       0.00795242      -0.00014996
Li      17.78001767       5.09793416       2.88160757       34      -0.00101387       0.00236244      -0.00080727
Li      12.36782840       0.33238120       2.97788334       35      -0.00212719      -0.00309016      -0.00051187
Li      11.14978308       2.90884446       4.70509372       36       0.00025382      -0.00308469       0.00134286
Li      15.09929263       7.35866572       2.31759674       37      -0.00288956      -0.00334280      -0.00046644
Li      14.92316704       3.03009406       7.92471739       38      -0.00335051      -0.00102671       0.00590277
Li       9.99474880       8.45255918       8.14454511       39       0.00137281      -0.00145419       0.00014611
Li      10.50478775       5.87621589       6.89147024       40      -0.00062558      -0.00329152       0.00057456
Li      16.58969957       0.42239574       6.93332781       41       0.00530700      -0.00058669       0.00021689
Li      16.83726002       7.10485719       0.06998821       42      -0.00185999       0.00012901      -0.00024111
Li      11.49665136       2.52767087       0.41452830       43       0.00121326      -0.00717145       0.00348429
Cl      20.24314942       9.74964773      10.36656389       44       0.00113485       0.00364918       0.00034704
Cl      14.96371324       5.03743095      -0.43252763       45      -0.00036948      -0.00110736       0.00018404
Cl      14.59776700       0.14621414       5.38614972       46      -0.00158823      -0.00172748      -0.00200474
Cl      19.17475457       4.79825794       4.84394052       47      -0.00013907       0.00159969      -0.00232260
S       12.36947468       2.64651578       2.66234079       48       0.00013397      -0.00313120       0.00088663
S       17.40634950       7.40450602       2.31102276       49      -0.00274309       0.00164684      -0.00151308
S       17.15332277       2.74311238       7.37090556       50      -0.00258207       0.00167320      -0.00000592
S       12.16024272       7.62315618       7.55095678       51       0.00046696      -0.00346123      -0.00137983
103
Lattice="20.110191271466377 0.0 0.0 0.0 10.055095635733188 0.0 0.0 0.0 10.055095635733188" Properties=species:S:1:pos:R:3:spacegroup_kinds:I:1:forces:R:3 spacegroup="P 1" unit_cell=conventional occupancy="_JSON {\"0\": {\"P\": 1.0}, \"1\": {\"P\": 1.0}, \"2\": {\"P\": 1.0}, \"3\": {\"P\": 1.0}, \"4\": {\"S\": 1.0}, \"5\": {\"S\": 1.0}, \"6\": {\"S\": 1.0}, \"7\": {\"S\": 1.0}, \"8\": {\"S\": 1.0}, \"9\": {\"S\": 1.0}, \"10\": {\"S\": 1.0}, \"11\": {\"S\": 1.0}, \"12\": {\"S\": 1.0}, \"13\": {\"S\": 1.0}, \"14\": {\"S\": 1.0}, \"15\": {\"S\": 1.0}, \"16\": {\"S\": 1.0}, \"17\": {\"S\": 1.0}, \"18\": {\"S\": 1.0}, \"19\": {\"S\": 1.0}, \"20\": {\"Li\": 1.0}, \"21\": {\"Li\": 1.0}, \"22\": {\"Li\": 1.0}, \"23\": {\"Li\": 1.0}, \"24\": {\"Li\": 1.0}, \"25\": {\"Li\": 1.0}, \"26\": {\"Li\": 1.0}, \"27\": {\"Li\": 1.0}, \"28\": {\"Li\": 1.0}, \"29\": {\"Li\": 1.0}, \"30\": {\"Li\": 1.0}, \"31\": {\"Li\": 1.0}, \"32\": {\"Li\": 1.0}, \"33\": {\"Li\": 1.0}, \"34\": {\"Li\": 1.0}, \"35\": {\"Li\": 1.0}, \"36\": {\"Li\": 1.0}, \"37\": {\"Li\": 1.0}, \"38\": {\"Li\": 1.0}, \"39\": {\"Li\": 1.0}, \"40\": {\"Li\": 1.0}, \"41\": {\"Li\": 1.0}, \"42\": {\"Li\": 1.0}, \"43\": {\"Li\": 1.0}, \"44\": {\"Cl\": 1.0}, \"45\": {\"Cl\": 1.0}, \"46\": {\"Cl\": 1.0}, \"47\": {\"Cl\": 1.0}, \"48\": {\"S\": 1.0}, \"49\": {\"S\": 1.0}, \"50\": {\"S\": 1.0}, \"51\": {\"S\": 1.0}}" charge=0 spin=0 energy=-429.6512814970289 free_energy=-429.6512814970289 stress="-0.000827994308604007 -0.0001327980266848669 -0.0005386849296988706 -0.0001327980266848669 0.0026476205037658067 -0.0012467505102174163 -0.0005386849296988706 -0.0012467505102174163 0.0018573893777536824" pbc="T T T"
P        4.86899311       5.08453237       4.78254330        0      -0.00112368       0.00555590      -0.00670898
P       -0.35215452      10.05223968       5.14967988        1       0.01217370      -0.01009429      -0.01329604
P       -0.26434233       5.06526166      10.12140106        2       0.01236708       0.01615304       0.01640553
P        4.70102378      -0.08458136       9.95055657        3       0.00012150      -0.00214821       0.00566246
S        6.05526515       6.32468978       5.93772640        4       0.00093346       0.00023075       0.00188023
S        0.92391487       1.11961977       6.33393169        5       0.00030377       0.00354267       0.00308986
S        1.10079376       6.16541151       1.11221089        6      -0.01300565      -0.01030502      -0.00819569
S        5.92038019       1.16704816       1.00358095        7       0.00237769       0.00089177       0.00055801
S        3.52578017       4.00954861       5.89732921        8      -0.00089900      -0.00274001      -0.00149728
S        8.38131302       9.05931606       6.35219856        9      -0.00030602       0.00177536       0.00117167
S        8.76746204       3.61134308       1.02428144       10       0.00085630      -0.00016942       0.00057188
S        3.64593248       8.69513469       1.08919539       11       0.00469905       0.00235869      -0.00089143
S        3.77604977       6.26765304       3.49429019       12       0.00674549      -0.00099024      -0.00011260
S        8.57579104       1.41384239       4.02328477       13       0.00016862       0.00125623       0.00250843
S        8.57796140       6.19539590       8.83883300       14       0.00197646       0.00024262       0.00201742
S        3.38111462       1.00346462       8.79242520       15      -0.00043630       0.00367944       0.00027998
S        6.13628874       3.88245269       3.69721154       16       0.00265962      -0.00023986      -0.00066853
S        0.63567902       8.81783565       3.85227403       17      -0.00992764       0.01207147       0.00710465
S        0.82797845       3.83454312       8.85844341       18       0.00211070      -0.00021529      -0.00365398
S        5.89352014       8.86111111       8.71298463       19      -0.00063308       0.00129512      -0.00193948
Li       7.72172897      10.02925461       2.01789913       21       0.00101501       0.00040535       0.00159783
Li       6.60435928       4.95379050       7.90489145       22      -0.00274033       0.00188543       0.00413484
Li       1.88361025       9.43700902       7.72623070       23       0.00299689       0.00010679       0.00269058
Li       9.07850213       7.81019583       0.67362535       24       0.00379047      -0.00027578       0.00270293
Li       1.74975420       1.90491535       0.19033644       25      -0.00385905      -0.00194619       0.00112818
Li       1.98059509       6.89435303       5.02753028       26       0.00205642       0.00286437      -0.00779633
Li       7.88194533       3.45792738       5.43148263       27      -0.00017253       0.00253856       0.00135001
Li       6.69510158       3.07020374       9.80044264       28       0.00048968      -0.00003694       0.00075937
Li       4.70726290       1.96323951      12.98882726       29      -0.00013716       0.00196628      -0.00102816
Li       2.52782611       2.05324535       4.77170302       30      -0.00459316       0.00372698      -0.00117245
Li       7.91454965       7.46479921       4.53402834       31       0.00160862       0.00043029       0.00185209
Li       4.41008942       7.82397628       6.96573853       32       0.00439101      -0.00389747      -0.01036875
Li       7.94742596       0.54590097       8.38468620       33      -0.00094852       0.00205410       0.00061458
Li       7.89931763       5.32778875       2.55287353       34       0.00037821       0.00088144      -0.00041756
Li       2.17047153      -0.02348430       2.48641105       35      -0.00404105       0.00228706      -0.00149670
Li       2.59711551       4.55437198       2.26778194       36      -0.00122848       0.00282621      -0.00030618
Li       5.14061480       8.35742591       3.05854081       37       0.00247374       0.00188462       0.00198989
Li       4.69551685       2.71452320       7.57285529       38       0.00030811       0.00191929       0.00116843
Li       2.59196862       5.42499494       8.72081427       39       0.01804278      -0.02310940      -0.00125661
Li      -0.11674419       6.77257707       7.04127659       40       0.00679504      -0.00087101      -0.00072310
Li       6.75857195       0.88166451       5.75835145       41       0.00122300       0.00026404      -0.00059576
Li       5.75524110       7.12245149       0.39020071       42       0.00544775       0.00288831       0.00137325
Li      -0.12028633       2.18333696       2.29732293       43      -0.00539387       0.00473451      -0.00206185
Cl       9.67172643      10.07254971      10.02432665       44       0.00147038      -0.00118038       0.00017669
Cl       4.94194949       4.80497818      -0.32971265       45       0.00275349       0.00301471      -0.00083316
Cl       4.67848570       0.16818276       4.72333130       46       0.00160642       0.00159462       0.00113736
Cl       9.70910470       4.99179294       4.83553249       47       0.00098759       0.00125806      -0.00012208
S        2.28852418       2.27074679       2.45392472       48      -0.00346251       0.00296635      -0.00034495
S        7.26855188       7.65254971       2.24590641       49       0.00379336       0.00067518       0.00173181
S        7.00990417       2.58413923       7.47756706       50      -0.00015337       0.00193604       0.00121887
S        2.19866913       7.23485160       7.29004208       51       0.00552086      -0.00375800      -0.00634411
P       14.66407243       5.17614824       5.04338586        0      -0.00291022      -0.00419171      -0.00214887
P        9.67239150      10.10863143       5.14136198        1      -0.00456072       0.00345626       0.00299571
P        9.81374980       4.95802432       9.93692799        2      -0.00186175      -0.00077920       0.00130895
P       14.63183887       0.14458785      10.24702844        3      -0.00402229       0.00155390       0.00113969
S       15.80366818       6.37428816       6.27136095        4      -0.00015235       0.00292981       0.00034673
S       11.03662434       1.03612038       6.27228075        5       0.00036611      -0.00007740       0.00122828
S       10.84493425       6.20507088       1.17657589        6       0.00341937      -0.00264766       0.00039991
S       15.74427579       1.35151669       1.45467602        7      -0.00332497      -0.00089584      -0.00153095
S       13.45149776       3.85603224       6.07318709        8       0.00330595      -0.00349613       0.00076906
S       18.60077409       8.95017541       6.42931439        9      -0.00085736      -0.00271725       0.00358445
S       18.58105119       3.93496504       1.22270092       10      -0.00528807      -0.00077286      -0.00191827
S       13.56214252       8.89294520       1.38831829       11      -0.00158922      -0.00126933      -0.00148384
S       13.48833119       6.39490811       3.87793417       12      -0.00183770      -0.00411873       0.00187709
S       18.53353804       1.34138388       4.15452386       13      -0.00530792       0.00350796       0.00157803
S       18.65479266       6.40441980       9.07694250       14      -0.00265644       0.00484072      -0.00339955
S       13.33936998       1.38317968       9.23566638       15      -0.00317353      -0.00160142      -0.00044877
S       15.87700249       3.97884093       3.89074794       16       0.00056724       0.00066582       0.00019099
S       10.55578451       8.80938030       3.82088459       17      -0.00141418      -0.00035225      -0.00189758
S       11.06531475       3.94211933       8.69733347       18      -0.00057400      -0.00302238      -0.00123108
S       15.85546416       9.15656322       8.97860448       19      -0.00153628      -0.00058164      -0.00317531
Li      11.57403517       4.92868666       3.13432310       20      -0.00038537      -0.00335479       0.00040014
Li      17.62407417      10.03442014       2.30178510       21      -0.00382101       0.00080439       0.00270330
Li      16.86535137       4.94812292       8.06973695       22      -0.01056965       0.00237579       0.00720635
Li      14.46784403       8.23007094       7.10259751       23       0.00383745      -0.00536765       0.00041297
Li      19.44834428       7.88769671       1.29215166       24      -0.00186568       0.00914221      -0.00208780
Li      13.90605833       3.16808612       1.06396098       25      -0.00465629      -0.00340816       0.00082750
Li      12.06987935       7.87855710       5.37950172       26      -0.00405587      -0.00239627      -0.00165656
Li      17.85837200       3.43774568       5.47600692       27       0.00006062       0.00433567       0.00069042
Li      17.48215658       2.00348804       9.95640336       28      -0.00254468       0.00375494      -0.00103561
Li      12.62409274       7.22967636       9.93955955       29       0.00135648      -0.00556352      -0.00147839
Li      14.10077087       2.19619750       4.15019098       30       0.00543310      -0.00619576       0.00082382
Li      17.72724517       7.39186797       4.79956763       31      -0.00012392       0.00133215      -0.00196255
Li      13.14650747       5.31171537       7.97179205       32      -0.00175252      -0.00461091      -0.00175657
Li      19.46913165       2.29957062       7.76439289       33       0.00032092       0.00795242      -0.00014996
Li      17.62811190       5.43651999       2.93026883       34      -0.00101387       0.00236244      -0.00080727
Li      12.12829811       0.29157611       2.75957443       35      -0.00212719      -0.00309016      -0.00051187
Li      10.80261697       2.72139227       4.55661730       36       0.00025382      -0.00308469       0.00134286
Li      15.10214179       8.27278918       3.27503344       37      -0.00288956      -0.00334280      -0.00046644
Li      14.84337326       2.67381712       7.76199202       38      -0.00335051      -0.00102671       0.00590277
Li      11.11957050       9.50789227       8.12405656       39       0.00137281      -0.00145419       0.00014611
Li      10.36450445       5.90818963       7.17678937       40      -0.00062558      -0.00329152       0.00057456
Li      16.80794750       0.60830273       6.38869690       41       0.00530700      -0.00058669       0.00021689
Li      16.38299336       7.14511805       0.35421018       42      -0.00185999       0.00012901      -0.00024111
Li      10.96132595       2.19998133       0.62127587       43       0.00121326      -0.00717145       0.00348429
Cl      19.58315300      10.60263282      10.64218639       44       0.00113485       0.00364918       0.00034704
Cl      14.79584054       5.21020063      -0.31948147       45      -0.00036948      -0.00110736       0.00018404
Cl      14.85448442      -0.07314237       5.13299303       46      -0.00158823      -0.00172748      -0.00200474
Cl      19.11603788       5.44484770       5.13340918       47      -0.00013907       0.00159969      -0.00232260
S       12.22765286       2.62999913       2.67239426       48       0.00013397      -0.00313120       0.00088663
S       17.30675526       7.71530320       2.46651332       49      -0.00274309       0.00164684      -0.00151308
S       17.18884455       2.64027140       7.64221151       50      -0.00258207       0.00167320      -0.00000592
S       12.21421649       7.46892306       7.63384660       51       0.00046696      -0.00346123      -0.00137983
103
Lattice="20.110191271466377 0.0 0.0 0.0 10.055095635733188 0.0 0.0 0.0 10.055095635733188" Properties=species:S:1:pos:R:3:spacegroup_kinds:I:1:forces:R:3 spacegroup="P 1" unit_cell=conventional occupancy="_JSON {\"0\": {\"P\": 1.0}, \"1\": {\"P\": 1.0}, \"2\": {\"P\": 1.0}, \"3\": {\"P\": 1.0}, \"4\": {\"S\": 1.0}, \"5\": {\"S\": 1.0}, \"6\": {\"S\": 1.0}, \"7\": {\"S\": 1.0}, \"8\": {\"S\": 1.0}, \"9\": {\"S\": 1.0}, \"10\": {\"S\": 1.0}, \"11\": {\"S\": 1.0}, \"12\": {\"S\": 1.0}, \"13\": {\"S\": 1.0}, \"14\": {\"S\": 1.0}, \"15\": {\"S\": 1.0}, \"16\": {\"S\": 1.0}, \"17\": {\"S\": 1.0}, \"18\": {\"S\": 1.0}, \"19\": {\"S\": 1.0}, \"20\": {\"Li\": 1.0}, \"21\": {\"Li\": 1.0}, \"22\": {\"Li\": 1.0}, \"23\": {\"Li\": 1.0}, \"24\": {\"Li\": 1.0}, \"25\": {\"Li\": 1.0}, \"26\": {\"Li\": 1.0}, \"27\": {\"Li\": 1.0}, \"28\": {\"Li\": 1.0}, \"29\": {\"Li\": 1.0}, \"30\": {\"Li\": 1.0}, \"31\": {\"Li\": 1.0}, \"32\": {\"Li\": 1.0}, \"33\": {\"Li\": 1.0}, \"34\": {\"Li\": 1.0}, \"35\": {\"Li\": 1.0}, \"36\": {\"Li\": 1.0}, \"37\": {\"Li\": 1.0}, \"38\": {\"Li\": 1.0}, \"39\": {\"Li\": 1.0}, \"40\": {\"Li\": 1.0}, \"41\": {\"Li\": 1.0}, \"42\": {\"Li\": 1.0}, \"43\": {\"Li\": 1.0}, \"44\": {\"Cl\": 1.0}, \"45\": {\"Cl\": 1.0}, \"46\": {\"Cl\": 1.0}, \"47\": {\"Cl\": 1.0}, \"48\": {\"S\": 1.0}, \"49\": {\"S\": 1.0}, \"50\": {\"S\": 1.0}, \"51\": {\"S\": 1.0}}" charge=0 spin=0 energy=-429.6512814970289 free_energy=-429.6512814970289 stress="-0.000827994308604007 -0.0001327980266848669 -0.0005386849296988706 -0.0001327980266848669 0.0026476205037658067 -0.0012467505102174163 -0.0005386849296988706 -0.0012467505102174163 0.0018573893777536824" pbc="T T T"
P        4.77093094       5.01852060       4.93651844        0      -0.00112368       0.00555590      -0.00670898
P       -0.26009785      10.01774895       4.97787276        1       0.01217370      -0.01009429      -0.01329604
P       -0.31788965       4.97759400       9.98593036        2       0.01236708       0.01615304       0.01640553
P        4.70086328      -0.03265095      10.04036610        3       0.00012150      -0.00214821       0.00566246
S        5.83933379       6.31283721       6.09148271        4       0.00093346       0.00023075       0.00188023
S        0.88589352       1.22350424       6.13684442        5       0.00030377       0.00354267       0.00308986
S        0.80516613       6.21534561       1.15605508        6      -0.01300565      -0.01030502      -0.00819569
S        5.74302760       1.26620223       1.20827850        7       0.00237769       0.00089177       0.00055801
S        3.52785614       3.90125042       6.14406696        8      -0.00089900      -0.00274001      -0.00149728
S        8.78277203       8.95148956       6.37102100        9      -0.00030602       0.00177536       0.00117167
S        8.59214729       3.91550997       1.18442339       10       0.00085630      -0.00016942       0.00057188
S        3.62741728       8.71147660       1.18800596       11       0.00469905       0.00235869      -0.00089143
S        3.59843121       6.10889908       3.61837969       12       0.00674549      -0.00099024      -0.00011260
S        8.50103381       1.29360282       3.96260303       13       0.00016862       0.00125623       0.00250843
S        8.56133793       6.35775165       8.93051284       14       0.00197646       0.00024262       0.00201742
S        3.39531390       1.05124583       8.85886576       15      -0.00043630       0.00367944       0.00027998
S        5.94374781       3.74967030       3.81753156       16       0.00265962      -0.00023986      -0.00066853
S        0.77440723       8.85452467       3.67707980       17      -0.00992764       0.01207147       0.00710465
S        0.80761871       3.93721936       8.68035132       18       0.00211070      -0.00021529      -0.00365398
S        5.91229101       8.87921809       8.89825516       19      -0.00063308       0.00129512      -0.00193948
Li       7.54564119       9.91575672       2.18152759       21       0.00101501       0.00040535       0.00159783
Li       6.68398202       4.95161794       8.05270993       22      -0.00274033       0.00188543       0.00413484
Li       2.87436803       9.63980000       6.93645194       23       0.00299689       0.00010679       0.00269058
Li       8.97300173       7.85704295       0.92599383       24       0.00379047      -0.00027578       0.00270293
Li       1.92583029       2.42556356       0.12887903       25      -0.00385905      -0.00194619       0.00112818
Li       2.08845382       7.30783786       5.09980653       26       0.00205642       0.00286437      -0.00779633
Li       9.18935103       3.27616200       6.62187760       27      -0.00017253       0.00253856       0.00135001
Li       7.43050935       2.35892258       9.85228580       28       0.00048968      -0.00003694       0.00075937
Li       4.37688897       3.10442054      12.11908224       29      -0.00013716       0.00196628      -0.00102816
Li       2.73322879       2.12032744       4.73349607       30      -0.00459316       0.00372698      -0.00117245
Li       7.85465510       7.34311161       4.78699894       31       0.00160862       0.00043029       0.00185209
Li       3.50979174       5.78099554       7.70606962       32       0.00439101      -0.00389747      -0.01036875
Li       7.67739523       0.29944915       8.04501143       33      -0.00094852       0.00205410       0.00061458
Li       7.59831283       5.31574126       2.88244857       34       0.00037821       0.00088144      -0.00041756
Li       2.61457857       0.18375600       2.79552970       35      -0.00404105       0.00228706      -0.00149670
Li       1.61459368       4.73725984       2.95979165       36      -0.00122848       0.00282621      -0.00030618
Li       5.04026571       8.19616961       3.46381957       37       0.00247374       0.00188462       0.00198989
Li       4.80082576       2.84158846       8.00421362       38       0.00030811       0.00191929       0.00116843
Li       2.14152219       7.48162514       9.64281391       39       0.01804278      -0.02310940      -0.00125661
Li      -0.08840571       6.69348878       7.07576568       40       0.00679504      -0.00087101      -0.00072310
Li       6.47304860       1.78272290       5.36168495       41       0.00122300       0.00026404      -0.00059576
Li       5.69933651       7.15340552       0.64000129       42       0.00544775       0.00288831       0.00137325
Li      -0.14354449       1.93880276       2.14665912       43      -0.00539387       0.00473451      -0.00206185
Cl       9.25349343      10.28261076      10.37281152       44       0.00147038      -0.00118038       0.00017669
Cl       4.80169265       4.98977270      -0.43459041       45       0.00275349       0.00301471      -0.00083316
Cl       4.29190038       0.13898959       4.80494186       46       0.00160642       0.00159462       0.00113736
Cl       9.52859053       5.27921886       5.07912185       47       0.00098759       0.00125806      -0.00012208
S        2.13071740       2.48699485       2.46384245       48      -0.00346251       0.00296635      -0.00034495
S        7.15915841       7.60503322       2.52476949       49       0.00379336       0.00067518       0.00173181
S        7.09874904       2.57480815       7.55543801       50      -0.00015337       0.00193604       0.00121887
S        2.05879034       7.52672853       7.37095316       51       0.00552086      -0.00375800      -0.00634411
P       14.85553198       5.05401387       5.05004552        0      -0.00291022      -0.00419171      -0.00214887
P        9.80194054      10.17626810       5.04965257        1      -0.00456072       0.00345626       0.00299571
P        9.77502082       5.10956097      10.02728816        2      -0.00186175      -0.00077920       0.00130895
P       14.76102063       0.02249581      10.12058113        3      -0.00402229       0.00155390       0.00113969
S       15.99618623       6.31106242       6.20551490        4      -0.00015235       0.00292981       0.00034673
S       10.98205640       1.38907964       6.16116708        5       0.00036611      -0.00007740       0.00122828
S       10.88613996       6.27739335       1.23906297        6       0.00341937      -0.00264766       0.00039991
S       15.76471900       1.33850981       1.24828174        7      -0.00332497      -0.00089584      -0.00153095
S       13.69921163       3.81683681       6.24645174        8       0.00330595      -0.00349613       0.00076906
S       18.70548423       8.90956404       6.29265175        9      -0.00085736      -0.00271725       0.00358445
S       18.64721261       3.76152127       1.15036316       10      -0.00528807      -0.00077286      -0.00191827
S       13.66409212       8.81356389       1.29423961       11      -0.00158922      -0.00126933      -0.00148384
S       13.55291753       6.16347171       3.86489231       12      -0.00183770      -0.00411873       0.00187709
S       18.50700413       1.19064213       3.96655531       13      -0.00530792       0.00350796       0.00157803
S       18.48749185       6.25942051       8.99390681       14      -0.00265644       0.00484072      -0.00339955
S       13.44162393       1.09760004       8.92535598       15      -0.00317353      -0.00160142      -0.00044877
S       15.95548456       3.87810558       3.82061223       16       0.00056724       0.00066582       0.00019099
S       10.86826478       8.98228084       3.77790738       17      -0.00141418      -0.00035225      -0.00189758
S       10.89300689       3.94970976       8.75912320       18      -0.00057400      -0.00302238      -0.00123108
S       16.00219235       8.94633562       8.96337400       19      -0.00153628      -0.00058164      -0.00317531
Li      13.96889164       4.28654469       2.33884482       20      -0.00038537      -0.00335479       0.00040014
Li      17.48789975       9.89451494       2.11810711       21      -0.00382101       0.00080439       0.00270330
Li      17.05551731       4.72086257       7.74395036       22      -0.01056965       0.00237579       0.00720635
Li      14.59977002       8.23599225       7.10187538       23       0.00383745      -0.00536765       0.00041297
Li      19.09027680       7.85909908       0.96128658       24      -0.00186568       0.00914221      -0.00208780
Li      12.69788354       3.00329590       0.21806374       25      -0.00465629      -0.00340816       0.00082750
Li      12.42257926       7.82864747       5.22014200       26      -0.00405587      -0.00239627      -0.00165656
Li      18.83798809       3.08839901       5.67898675       27       0.00006062       0.00433567       0.00069042
Li      17.55981807       2.01674911       9.81759523       28      -0.00254468       0.00375494      -0.00103561
Li      12.70581785       7.17566567       9.87736695       29       0.00135648      -0.00556352      -0.00147839
Li      12.94759373       2.06842416       4.67109074       30       0.00543310      -0.00619576       0.00082382
Li      17.96014829       7.16953918       4.71746469       31      -0.00012392       0.00133215      -0.00196255
Li      12.87445908       5.27948418       7.94742508       32      -0.00175252      -0.00461091      -0.00175657
Li      19.25154655       0.86695757       7.91471352       33       0.00032092       0.00795242      -0.00014996
Li      17.70468544       5.27988092       2.74334915       34      -0.00101387       0.00236244      -0.00080727
Li      12.20584324       0.33157226       2.32620587       35      -0.00212719      -0.00309016      -0.00051187
Li      11.13113027       4.63546810       3.38779490       36       0.00025382      -0.00308469       0.00134286
Li      15.08829540       8.17179598       3.30591741       37      -0.00288956      -0.00334280      -0.00046644
Li      15.06313217       2.30477961       7.57006376       38      -0.00335051      -0.00102671       0.00590277
Li      11.70171572       9.76908742       7.79528818       39       0.00137281      -0.00145419       0.00014611
Li      10.14372627       6.75809428       7.03209804       40      -0.00062558      -0.00329152       0.00057456
Li      16.89495177       0.57918267       5.87149991       41       0.00530700      -0.00058669       0.00021689
Li      16.07267395       7.00713912       0.45549217       42      -0.00185999       0.00012901      -0.00024111
Li       9.94476889       2.03216195       1.88270348       43       0.00121326      -0.00717145       0.00348429
Cl      19.37025289      10.33458564      10.36880872       44       0.00113485       0.00364918       0.00034704
Cl      14.36681760       5.15195751      -0.04416907       45      -0.00036948      -0.00110736       0.00018404
Cl      14.70673223      -0.24498192       5.14978966       46      -0.00158823      -0.00172748      -0.00200474
Cl      19.52604050       5.31230601       4.95357561       47      -0.00013907       0.00159969      -0.00232260
S       12.16926415       2.67010537       2.49923773       48       0.00013397      -0.00313120       0.00088663
S       17.23502216       7.57190343       2.47228842       49      -0.00274309       0.00164684      -0.00151308
S       17.37916860       2.38583093       7.47252920       50      -0.00258207       0.00167320      -0.00000592
S       12.34915883       7.53414718       7.53506435       51       0.00046696      -0.00346123      -0.00137983
103
Lattice="20.110191271466377 0.0 0.0 0.0 10.055095635733188 0.0 0.0 0.0 10.055095635733188" Properties=species:S:1:pos:R:3:spacegroup_kinds:I:1:forces:R:3 spacegroup="P 1" unit_cell=conventional occupancy="_JSON {\"0\": {\"P\": 1.0}, \"1\": {\"P\": 1.0}, \"2\": {\"P\": 1.0}, \"3\": {\"P\": 1.0}, \"4\": {\"S\": 1.0}, \"5\": {\"S\": 1.0}, \"6\": {\"S\": 1.0}, \"7\": {\"S\": 1.0}, \"8\": {\"S\": 1.0}, \"9\": {\"S\": 1.0}, \"10\": {\"S\": 1.0}, \"11\": {\"S\": 1.0}, \"12\": {\"S\": 1.0}, \"13\": {\"S\": 1.0}, \"14\": {\"S\": 1.0}, \"15\": {\"S\": 1.0}, \"16\": {\"S\": 1.0}, \"17\": {\"S\": 1.0}, \"18\": {\"S\": 1.0}, \"19\": {\"S\": 1.0}, \"20\": {\"Li\": 1.0}, \"21\": {\"Li\": 1.0}, \"22\": {\"Li\": 1.0}, \"23\": {\"Li\": 1.0}, \"24\": {\"Li\": 1.0}, \"25\": {\"Li\": 1.0}, \"26\": {\"Li\": 1.0}, \"27\": {\"Li\": 1.0}, \"28\": {\"Li\": 1.0}, \"29\": {\"Li\": 1.0}, \"30\": {\"Li\": 1.0}, \"31\": {\"Li\": 1.0}, \"32\": {\"Li\": 1.0}, \"33\": {\"Li\": 1.0}, \"34\": {\"Li\": 1.0}, \"35\": {\"Li\": 1.0}, \"36\": {\"Li\": 1.0}, \"37\": {\"Li\": 1.0}, \"38\": {\"Li\": 1.0}, \"39\": {\"Li\": 1.0}, \"40\": {\"Li\": 1.0}, \"41\": {\"Li\": 1.0}, \"42\": {\"Li\": 1.0}, \"43\": {\"Li\": 1.0}, \"44\": {\"Cl\": 1.0}, \"45\": {\"Cl\": 1.0}, \"46\": {\"Cl\": 1.0}, \"47\": {\"Cl\": 1.0}, \"48\": {\"S\": 1.0}, \"49\": {\"S\": 1.0}, \"50\": {\"S\": 1.0}, \"51\": {\"S\": 1.0}}" charge=0 spin=0 energy=-429.6512814970289 free_energy=-429.6512814970289 stress="-0.000827994308604007 -0.0001327980266848669 -0.0005386849296988706 -0.0001327980266848669 0.0026476205037658067 -0.0012467505102174163 -0.0005386849296988706 -0.0012467505102174163 0.0018573893777536824" pbc="T T T"
P        4.83649082       5.07827307       4.92754765        0      -0.00112368       0.00555590      -0.00670898
P       -0.12639516      10.06191701       4.93475651        1       0.01217370      -0.01009429      -0.01329604
P       -0.23789154       5.08524345       9.93176935        2       0.01236708       0.01615304       0.01640553
P        4.79360469       0.08037060       9.98502367        3       0.00012150      -0.00214821       0.00566246
S        5.95241843       6.41165396       6.00399357        4       0.00093346       0.00023075       0.00188023
S        1.07091655       1.15021633       6.16266841        5       0.00030377       0.00354267       0.00308986
S        0.92141826       6.37257310       0.98738273        6      -0.01300565      -0.01030502      -0.00819569
S        5.83612994       1.47802104       1.03663179        7       0.00237769       0.00089177       0.00055801
S        3.79151345       3.83922806       6.20803832        8      -0.00089900      -0.00274001      -0.00149728
S        8.82864277       8.84567179       6.31404827        9      -0.00030602       0.00177536       0.00117167
S        8.79922534       3.89278559       1.24233309       10       0.00085630      -0.00016942       0.00057188
S        3.69156850       8.93236284       1.19197848       11       0.00469905       0.00235869      -0.00089143
S        3.57388473       6.07353473       3.64557851       12       0.00674549      -0.00099024      -0.00011260
S        8.51786089       1.34071809       4.04625291       13       0.00016862       0.00125623       0.00250843
S        8.43922628       6.43183182       9.01752240       14       0.00197646       0.00024262       0.00201742
S        3.52941469       1.12535667       8.72051955       15      -0.00043630       0.00367944       0.00027998
S        6.00711232       3.84223154       3.76386674       16       0.00265962      -0.00023986      -0.00066853
S        0.97622312       8.94015000       3.66209459       17      -0.00992764       0.01207147       0.00710465
S        0.94966593       3.95599724       8.68092744       18       0.00211070      -0.00021529      -0.00365398
S        5.99503192       8.91138678       8.90303891       19      -0.00063308       0.00129512      -0.00193948
Li       6.72348552      10.05731321       2.91166226       21       0.00101501       0.00040535       0.00159783
Li       6.72635578       4.99433133       7.93264723       22      -0.00274033       0.00188543       0.00413484
Li       3.04734025       9.61646187       6.77325369       23       0.00299689       0.00010679       0.00269058
Li       8.84199613       8.13310048       0.90599648       24       0.00379047      -0.00027578       0.00270293
Li       2.19185337       2.49929672       0.11958622       25      -0.00385905      -0.00194619       0.00112818
Li       1.76542909       6.95636784       5.11086486       26       0.00205642       0.00286437      -0.00779633
Li       8.98882806       3.05774218       6.08952488       27      -0.00017253       0.00253856       0.00135001
Li       8.01126296       2.07717703       9.79117196       28       0.00048968      -0.00003694       0.00075937
Li       4.14190856       3.91138677      12.16737530       29      -0.00013716       0.00196628      -0.00102816
Li       2.05037496       2.90238500       4.76335839       30      -0.00459316       0.00372698      -0.00117245
Li       8.09407760       7.13873049       4.70157034       31       0.00160862       0.00043029       0.00185209
Li       2.99656162       5.41732184       7.97616115       32       0.00439101      -0.00389747      -0.01036875
Li       7.36898706       0.29382019       7.53713669       33      -0.00094852       0.00205410       0.00061458
Li       7.37760683       5.38772946       2.48386905       34       0.00037821       0.00088144      -0.00041756
Li       2.94682012       0.41625080       3.02284369       35      -0.00404105       0.00228706      -0.00149670
Li       0.72430825       4.57647945       2.65040328       36      -0.00122848       0.00282621      -0.00030618
Li       5.22845992       7.87152580       4.03716568       37       0.00247374       0.00188462       0.00198989
Li       5.25223293       2.81997173       8.93531180       38       0.00030811       0.00191929       0.00116843
Li       2.21079585       7.94394551       9.59317106       39       0.01804278      -0.02310940      -0.00125661
Li      -0.06692633       7.40756156       7.44792886       40       0.00679504      -0.00087101      -0.00072310
Li       5.73688790       2.25196360       5.68981003       41       0.00122300       0.00026404      -0.00059576
Li       5.59700388       7.32036755       0.73261339       42       0.00544775       0.00288831       0.00137325
Li      -0.01932787       1.74591933       1.92216246       43      -0.00539387       0.00473451      -0.00206185
Cl       9.77293079      10.42416976      10.13413826       44       0.00147038      -0.00118038       0.00017669
Cl       4.77910089       5.01887594      -0.22342154       45       0.00275349       0.00301471      -0.00083316
Cl       4.75205175       0.10409004       4.75231927       46       0.00160642       0.00159462       0.00113736
Cl       9.88449116       5.32279735       5.04339355       47       0.00098759       0.00125806      -0.00012208
S        2.13891772       2.61829280       2.43540077       48      -0.00346251       0.00296635      -0.00034495
S        7.13937820       7.71092547       2.56610385       49       0.00379336       0.00067518       0.00173181
S        7.18544153       2.64326709       7.59296050       50      -0.00015337       0.00193604       0.00121887
S        2.20424363       7.51151873       7.34200435       51       0.00552086      -0.00375800      -0.00634411
P       14.85222402       5.12291171       4.88332481        0      -0.00291022      -0.00419171      -0.00214887
P        9.80505763      10.17009636       5.09033281        1      -0.00456072       0.00345626       0.00299571
P        9.74661974       5.22649811      10.04559660        2      -0.00186175      -0.00077920       0.00130895
P       14.65838565       0.14709825      10.01125628        3      -0.00402229       0.00155390       0.00113969
S       16.13700366       6.29390768       5.99740021        4      -0.00015235       0.00292981       0.00034673
S       10.89105582       1.39118647       6.29555529        5       0.00036611      -0.00007740       0.00122828
S       10.81699396       6.47401721       1.22501068        6       0.00341937      -0.00264766       0.00039991
S       15.83700959       1.40302695       1.07078262        7      -0.00332497      -0.00089584      -0.00153095
S       13.74192626       3.92769967       6.16299645        8       0.00330595      -0.00349613       0.00076906
S       18.72219507       8.88444607       6.06802717        9      -0.00085736      -0.00271725       0.00358445
S       18.84361689       3.84624384       1.15200050       10      -0.00528807      -0.00077286      -0.00191827
S       13.65545646       8.92259797       1.22169767       11      -0.00158922      -0.00126933      -0.00148384
S       13.63150668       6.28241142       3.73528204       12      -0.00183770      -0.00411873       0.00187709
S       18.69667571       1.28857944       3.89613844       13      -0.00530792       0.00350796       0.00157803
S       18.51474187       6.23607653       8.90231363       14      -0.00265644       0.00484072      -0.00339955
S       13.37929466       1.25012715       8.83549324       15      -0.00317353      -0.00160142      -0.00044877
S       15.99126105       3.90791782       3.66989112       16       0.00056724       0.00066582       0.00019099
S       10.98230090       9.13241131       3.76490172       17      -0.00141418      -0.00035225      -0.00189758
S       10.89980042       4.17961682       8.71265823       18      -0.00057400      -0.00302238      -0.00123108
S       15.89601106       9.07418200       8.81401916       19      -0.00153628      -0.00058164      -0.00317531
Li      14.34772142       3.37856122       1.78791955       20      -0.00038537      -0.00335479       0.00040014
Li      17.58299450       9.94752733       2.13766867       21      -0.00382101       0.00080439       0.00270330
Li      16.63454735       4.68817069       8.14892144       22      -0.01056965       0.00237579       0.00720635
Li      14.58433518       8.00319184       6.92359134       23       0.00383745      -0.00536765       0.00041297
Li      19.03501862       7.83749819       0.83213442       24      -0.00186568       0.00914221      -0.00208780
Li      11.62768651       2.32514239       0.17134793       25      -0.00465629      -0.00340816       0.00082750
Li      11.89000099       7.25600674       5.17135373       26      -0.00405587      -0.00239627      -0.00165656
Li      18.00641890       3.50090531       5.18695385       27       0.00006062       0.00433567       0.00069042
Li      17.39109646       1.00140016       9.18523310       28      -0.00254468       0.00375494      -0.00103561
Li      12.51141157       7.36847737       9.84093569       29       0.00135648      -0.00556352      -0.00147839
Li      12.16802513       2.76835028       4.78682609       30       0.00543310      -0.00619576       0.00082382
Li      18.38529094       7.06445686       4.40167919       31      -0.00012392       0.00133215      -0.00196255
Li      13.07705892       5.29923443       8.06018923       32      -0.00175252      -0.00461091      -0.00175657
Li      19.60622617       2.32164909       7.61535024       33       0.00032092       0.00795242      -0.00014996
Li      17.14838528       5.32381766       2.05225439       34      -0.00101387       0.00236244      -0.00080727
Li      13.11657417       0.38055786       3.15231221       35      -0.00212719      -0.00309016      -0.00051187
Li      10.86559026       4.53351052       2.74582200       36       0.00025382      -0.00308469       0.00134286
Li      15.46486291       7.97237963       3.88328172       37      -0.00288956      -0.00334280      -0.00046644
Li      14.96356562       1.96805645       7.03728152       38      -0.00335051      -0.00102671       0.00590277
Li      11.55822037       9.75301897       7.97817245       39       0.00137281      -0.00145419       0.00014611
Li      10.23592521       6.41124649       7.31329851       40      -0.00062558      -0.00329152       0.00057456
Li      17.10688086       0.64330253       5.73989697       41       0.00530700      -0.00058669       0.00021689
Li      15.62377990       7.44127455       0.63705246       42      -0.00185999       0.00012901      -0.00024111
Li      10.28190877       1.06660793       2.33436778       43       0.00121326      -0.00717145       0.00348429
Cl      19.35238157      10.19104775      10.33182759       44       0.00113485       0.00364918       0.00034704
Cl      14.82451930       5.26097436      -0.17334288       45      -0.00036948      -0.00110736       0.00018404
Cl      14.87488113      -0.08913671       5.13511787       46      -0.00158823      -0.00172748      -0.00200474
Cl      19.88689223       5.17766891       4.78738869       47      -0.00013907       0.00159969      -0.00232260
S       12.20042889       2.53645822       2.48450771       48       0.00013397      -0.00313120       0.00088663
S       17.25188572       7.62028091       2.38414899       49      -0.00274309       0.00164684      -0.00151308
S       17.29153812       2.49784394       7.28835499       50      -0.00258207       0.00167320      -0.00000592
S       12.35145044       7.51775272       7.50743605       51       0.00046696      -0.00346123      -0.00137983
103
Lattice="20.110191271466377 0.0 0.0 0.0 10.055095635733188 0.0 0.0 0.0 10.055095635733188" Properties=species:S:1:pos:R:3:spacegroup_kinds:I:1:forces:R:3 spacegroup="P 1" unit_cell=conventional occupancy="_JSON {\"0\": {\"P\": 1.0}, \"1\": {\"P\": 1.0}, \"2\": {\"P\": 1.0}, \"3\": {\"P\": 1.0}, \"4\": {\"S\": 1.0}, \"5\": {\"S\": 1.0}, \"6\": {\"S\": 1.0}, \"7\": {\"S\": 1.0}, \"8\": {\"S\": 1.0}, \"9\": {\"S\": 1.0}, \"10\": {\"S\": 1.0}, \"11\": {\"S\": 1.0}, \"12\": {\"S\": 1.0}, \"13\": {\"S\": 1.0}, \"14\": {\"S\": 1.0}, \"15\": {\"S\": 1.0}, \"16\": {\"S\": 1.0}, \"17\": {\"S\": 1.0}, \"18\": {\"S\": 1.0}, \"19\": {\"S\": 1.0}, \"20\": {\"Li\": 1.0}, \"21\": {\"Li\": 1.0}, \"22\": {\"Li\": 1.0}, \"23\": {\"Li\": 1.0}, \"24\": {\"Li\": 1.0}, \"25\": {\"Li\": 1.0}, \"26\": {\"Li\": 1.0}, \"27\": {\"Li\": 1.0}, \"28\": {\"Li\": 1.0}, \"29\": {\"Li\": 1.0}, \"30\": {\"Li\": 1.0}, \"31\": {\"Li\": 1.0}, \"32\": {\"Li\": 1.0}, \"33\": {\"Li\": 1.0}, \"34\": {\"Li\": 1.0}, \"35\": {\"Li\": 1.0}, \"36\": {\"Li\": 1.0}, \"37\": {\"Li\": 1.0}, \"38\": {\"Li\": 1.0}, \"39\": {\"Li\": 1.0}, \"40\": {\"Li\": 1.0}, \"41\": {\"Li\": 1.0}, \"42\": {\"Li\": 1.0}, \"43\": {\"Li\": 1.0}, \"44\": {\"Cl\": 1.0}, \"45\": {\"Cl\": 1.0}, \"46\": {\"Cl\": 1.0}, \"47\": {\"Cl\": 1.0}, \"48\": {\"S\": 1.0}, \"49\": {\"S\": 1.0}, \"50\": {\"S\": 1.0}, \"51\": {\"S\": 1.0}}" charge=0 spin=0 energy=-429.6512814970289 free_energy=-429.6512814970289 stress="-0.000827994308604007 -0.0001327980266848669 -0.0005386849296988706 -0.0001327980266848669 0.0026476205037658067 -0.0012467505102174163 -0.0005386849296988706 -0.0012467505102174163 0.0018573893777536824" pbc="T T T"
P        4.81392364       5.07708322       4.98354208        0      -0.00112368       0.00555590      -0.00670898
P       -0.10630842      10.04874439       5.00886078        1       0.01217370      -0.01009429      -0.01329604
P       -0.15262563       5.08388767      10.04334408        2       0.01236708       0.01615304       0.01640553
P        4.85754435       0.05846779       9.97705240        3       0.00012150      -0.00214821       0.00566246
S        6.05311112       6.35892651       5.97808075        4       0.00093346       0.00023075       0.00188023
S        1.07995746       1.12887324       6.25089848        5       0.00030377       0.00354267       0.00308986
S        0.95268795       6.28226038       1.19398553        6      -0.01300565      -0.01030502      -0.00819569
S        6.09634165       1.34474873       0.94546484        7       0.00237769       0.00089177       0.00055801
S        3.77990487       3.91206313       6.34072787        8      -0.00089900      -0.00274001      -0.00149728
S        8.68024584       8.69611681       5.99138299        9      -0.00030602       0.00177536       0.00117167
S        8.81934673       3.60721856       1.04274676       10       0.00085630      -0.00016942       0.00057188
S        3.74155330       9.00959784       1.27389138       11       0.00469905       0.00235869      -0.00089143
S        3.51416605       6.16285770       3.81239408       12       0.00674549      -0.00099024      -0.00011260
S        8.64623790       1.18192531       3.77595837       13       0.00016862       0.00125623       0.00250843
S        8.54322429       6.14721746       8.83647239       14       0.00197646       0.00024262       0.00201742
S        3.61836226       1.23280170       8.81141980       15      -0.00043630       0.00367944       0.00027998
S        5.82387952       3.78100107       3.74518826       16       0.00265962      -0.00023986      -0.00066853
S        1.03897218       8.89493603       3.79891613       17      -0.00992764       0.01207147       0.00710465
S        1.00028043       3.94889510       8.76742543       18       0.00211070      -0.00021529      -0.00365398
S        5.86938914       8.79397127       8.81377781       19      -0.00063308       0.00129512      -0.00193948
Li       7.13147922       9.79571767       2.48321000       21       0.00101501       0.00040535       0.00159783
Li       7.31929023       4.71847598       7.28347214       22      -0.00274033       0.00188543       0.00413484
Li       3.09960408       9.66778365       6.98393917       23       0.00299689       0.00010679       0.00269058
Li       8.79867016       7.73574311       0.78445770       24       0.00379047      -0.00027578       0.00270293
Li       2.35546669       2.63004892       0.25819220       25      -0.00385905      -0.00194619       0.00112818
Li       1.97725314       7.23244311       5.35619259       26       0.00205642       0.00286437      -0.00779633
Li       8.98708589       2.65131124       5.82761748       27      -0.00017253       0.00253856       0.00135001
Li       8.12035107       1.68716571       9.48557704       28       0.00048968      -0.00003694       0.00075937
Li       3.87175965       4.21539791      12.32051816       29      -0.00013716       0.00196628      -0.00102816
Li       2.11518539       2.84335863       4.90777731       30      -0.00459316       0.00372698      -0.00117245
Li       8.10830254       6.77086514       4.46251644       31       0.00160862       0.00043029       0.00185209
Li       2.98344051       5.46894523       8.20305232       32       0.00439101      -0.00389747      -0.01036875
Li       6.82243593       0.03061281       6.94219950       33      -0.00094852       0.00205410       0.00061458
Li       7.00877632       5.08041575       1.97428525       34       0.00037821       0.00088144      -0.00041756
Li       2.98583724       0.41288164       3.15421963       35      -0.00404105       0.00228706      -0.00149670
Li       0.60118444       4.45706854       2.81651485       36      -0.00122848       0.00282621      -0.00030618
Li       5.32062559       7.85937237       4.00401542       37       0.00247374       0.00188462       0.00198989
Li       5.45531406       2.86487042       8.96417983       38       0.00030811       0.00191929       0.00116843
Li       2.00765840       8.10106918       9.86508894       39       0.01804278      -0.02310940      -0.00125661
Li      -0.03105988       7.64186431       7.63986254       40       0.00679504      -0.00087101      -0.00072310
Li       5.53189338       2.25478992       5.66400831       41       0.00122300       0.00026404      -0.00059576
Li       5.42437520       7.26379634       0.65538701       42       0.00544775       0.00288831       0.00137325
Li       0.11571366       1.58500422       1.93636756       43      -0.00539387       0.00473451      -0.00206185
Cl       9.76476887       9.88940836      10.03068275       44       0.00147038      -0.00118038       0.00017669
Cl       4.74145048       4.92105148       0.09267981       45       0.00275349       0.00301471      -0.00083316
Cl       4.77264331       0.00670578       5.05325218       46       0.00160642       0.00159462       0.00113736
Cl       9.63544566       4.89874272       5.05706509       47       0.00098759       0.00125806      -0.00012208
S        2.15682632       2.60629219       2.58511063       48      -0.00346251       0.00296635      -0.00034495
S        7.08303620       7.43134773       2.40013509       49       0.00379336       0.00067518       0.00173181
S        7.20369469       2.37197244       7.37857147       50      -0.00015337       0.00193604       0.00121887
S        2.22883032       7.59005068       7.61376000       51       0.00552086      -0.00375800      -0.00634411
P       14.92694861       4.99332043       5.12575688        0      -0.00291022      -0.00419171      -0.00214887
P        9.85466743       9.95079774       4.83815077        1      -0.00456072       0.00345626       0.00299571
P        9.84366925       4.97915285       9.92463526        2      -0.00186175      -0.00077920       0.00130895
P       14.96886090      -0.00383038      10.15295006        3      -0.00402229       0.00155390       0.00113969
S       16.07944094       6.28227630       6.19278234        4      -0.00015235       0.00292981       0.00034673
S       10.93553487       1.06683974       6.17787604        5       0.00036611      -0.00007740       0.00122828
S       10.80592065       6.23494981       1.18195527        6       0.00341937      -0.00264766       0.00039991
S       15.96726833       1.24665248       1.36200183        7      -0.00332497      -0.00089584      -0.00153095
S       13.77901857       3.87355138       6.43147727        8       0.00330595      -0.00349613       0.00076906
S       18.70427374       8.90033506       6.14707845        9      -0.00085736      -0.00271725       0.00358445
S       18.87055049       3.78733736       1.19765453       10      -0.00528807      -0.00077286      -0.00191827
S       13.77845021       8.77731853       1.22871270       11      -0.00158922      -0.00126933      -0.00148384
S       13.61360349       5.97708023       3.86493862       12      -0.00183770      -0.00411873       0.00187709
S       18.79357845       1.20789547       3.85183556       13      -0.00530792       0.00350796       0.00157803
S       18.63042115       6.26709694       8.98573573       14      -0.00265644       0.00484072      -0.00339955
S       13.79866304       1.14635269       8.89485530       15      -0.00317353      -0.00160142      -0.00044877
S       15.98653641       3.71066603       3.90868380       16       0.00056724       0.00066582       0.00019099
S       11.02535727       8.87859597       3.58010751       17      -0.00141418      -0.00035225      -0.00189758
S       11.09239790       4.00976221       8.63231098       18      -0.00057400      -0.00302238      -0.00123108
S       16.17948631       8.84977611       9.01489436       19      -0.00153628      -0.00058164      -0.00317531
Li      14.13270071       4.02246420       2.32457217       20      -0.00038537      -0.00335479       0.00040014
Li      17.18446244       9.79301592       2.84286681       21      -0.00382101       0.00080439       0.00270330
Li      17.77509209       4.84887822       7.27280233       22      -0.01056965       0.00237579       0.00720635
Li      13.24216355       9.68977419       7.06561197       23       0.00383745      -0.00536765       0.00041297
Li      18.32479876       8.22459560       0.49109468       24      -0.00186568       0.00914221      -0.00208780
Li      12.63817448       2.89135072       0.18439012       25      -0.00465629      -0.00340816       0.00082750
Li      12.55796389       7.73722216       5.21418484       26      -0.00405587      -0.00239627      -0.00165656
Li      17.91267569       2.93705904       5.27065732       27       0.00006062       0.00433567       0.00069042
Li      17.76298829       1.95981100       9.92650093       28      -0.00254468       0.00375494      -0.00103561
Li      11.92050815       8.01978767       9.88203761       29       0.00135648      -0.00556352      -0.00147839
Li      12.37376176       2.63480503       4.86674775       30       0.00543310      -0.00619576       0.00082382
Li      17.97219888       7.09535412       4.67117215       31      -0.00012392       0.00133215      -0.00196255
Li      13.13144757       5.57670667       8.16708668       32      -0.00175252      -0.00461091      -0.00175657
Li      19.78291806       1.93169890       8.04811826       33       0.00032092       0.00795242      -0.00014996
Li      17.61601444       5.18384672       2.75769718       34      -0.00101387       0.00236244      -0.00080727
Li      13.04779972       0.33060340       3.01796560       35      -0.00212719      -0.00309016      -0.00051187
Li      10.63930881       4.33967768       2.81137603       36       0.00025382      -0.00308469       0.00134286
Li      15.05398329       7.87187847       3.43831589       37      -0.00288956      -0.00334280      -0.00046644
Li      15.28460328       3.06254448       8.22562098       38      -0.00335051      -0.00102671       0.00590277
Li      10.30111912       9.22628455       7.74448106       39       0.00137281      -0.00145419       0.00014611
Li      10.38608645       6.06841702       7.09306914       40      -0.00062558      -0.00329152       0.00057456
Li      16.98794673       0.27658333       7.19577610       41       0.00530700      -0.00058669       0.00021689
Li      15.58990595       7.00281217       0.62957391       42      -0.00185999       0.00012901      -0.00024111
Li      10.28978442       1.35243566       1.91798246       43       0.00121326      -0.00717145       0.00348429
Cl      19.64676574      10.34037965      10.04567434       44       0.00113485       0.00364918       0.00034704
Cl      14.56507423       4.80207221      -0.00424954       45      -0.00036948      -0.00110736       0.00018404
Cl      14.39055680      -0.41517404       4.93795130       46      -0.00158823      -0.00172748      -0.00200474
Cl      19.34865260       5.01595634       4.79153517       47      -0.00013907       0.00159969      -0.00232260
S       12.24919605       2.55024622       2.51426699       48       0.00013397      -0.00313120       0.00088663
S       17.15591591       7.48711588       2.45631130       49      -0.00274309       0.00164684      -0.00151308
S       17.51253117       2.52701917       7.60523018       50      -0.00258207       0.00167320      -0.00000592
S       12.11027096       7.66054071       7.55793514       51       0.00046696      -0.00346123      -0.00137983
