51
Lattice="10.055095635733188 0.0 0.0 0.0 10.055095635733188 0.0 0.0 0.0 10.055095635733188" Properties=species:S:1:pos:R:3:spacegroup_kinds:I:1:forces:R:3 spacegroup="P 1" unit_cell=conventional occupancy="_JSON {\"0\": {\"P\": 1.0}, \"1\": {\"P\": 1.0}, \"2\": {\"P\": 1.0}, \"3\": {\"P\": 1.0}, \"4\": {\"S\": 1.0}, \"5\": {\"S\": 1.0}, \"6\": {\"S\": 1.0}, \"7\": {\"S\": 1.0}, \"8\": {\"S\": 1.0}, \"9\": {\"S\": 1.0}, \"10\": {\"S\": 1.0}, \"11\": {\"S\": 1.0}, \"12\": {\"S\": 1.0}, \"13\": {\"S\": 1.0}, \"14\": {\"S\": 1.0}, \"15\": {\"S\": 1.0}, \"16\": {\"S\": 1.0}, \"17\": {\"S\": 1.0}, \"18\": {\"S\": 1.0}, \"19\": {\"S\": 1.0}, \"20\": {\"Li\": 1.0}, \"21\": {\"Li\": 1.0}, \"22\": {\"Li\": 1.0}, \"23\": {\"Li\": 1.0}, \"24\": {\"Li\": 1.0}, \"25\": {\"Li\": 1.0}, \"26\": {\"Li\": 1.0}, \"27\": {\"Li\": 1.0}, \"28\": {\"Li\": 1.0}, \"29\": {\"Li\": 1.0}, \"30\": {\"Li\": 1.0}, \"31\": {\"Li\": 1.0}, \"32\": {\"Li\": 1.0}, \"33\": {\"Li\": 1.0}, \"34\": {\"Li\": 1.0}, \"35\": {\"Li\": 1.0}, \"36\": {\"Li\": 1.0}, \"37\": {\"Li\": 1.0}, \"38\": {\"Li\": 1.0}, \"39\": {\"Li\": 1.0}, \"40\": {\"Li\": 1.0}, \"41\": {\"Li\": 1.0}, \"42\": {\"Li\": 1.0}, \"43\": {\"Li\": 1.0}, \"44\": {\"Cl\": 1.0}, \"45\": {\"Cl\": 1.0}, \"46\": {\"Cl\": 1.0}, \"47\": {\"Cl\": 1.0}, \"48\": {\"S\": 1.0}, \"49\": {\"S\": 1.0}, \"50\": {\"S\": 1.0}, \"51\": {\"S\": 1.0}}" charge=0 spin=0 energy=-211.82217536745787 free_energy=-211.82217536745787 stress="0.0012169833664156656 -0.001073190796063304 -3.6866845300685116e-05 -0.001073190796063304 0.003073084254236787 -0.001146368596605172 -3.6866845300685116e-05 -0.001146368596605172 0.0028342587483891264" pbc="T T T"
P        4.95301969       4.99076027       5.06535527        0       0.00001731       0.00223473       0.00301082
P       -0.03379560       9.96090032       4.93974009        1       0.00249360      -0.00190691      -0.00216784
P       -0.14082467       4.98544837      10.01265307        2      -0.00116538       0.00273683       0.00071171
P        4.86959576       0.07062682      10.14540264        3       0.00060318      -0.00244275      -0.00254691
S        6.14454529       6.07994782       6.30421656        4      -0.00251636      -0.00201628      -0.00011756
S        0.86618927       1.22368568       6.25734963        5      -0.00204809       0.00215063       0.00027608
S        0.79673388       6.34636855       1.15387244        6      -0.00164321      -0.00052672       0.00119058
S        6.13226218       1.08489042       1.29894481        7       0.00128062      -0.00012994       0.00050042
S        3.68471892       3.82619982       6.20476459        8      -0.00035700      -0.00223956       0.00038448
S        8.75860910       8.81546522       6.11426523        9       0.00213842      -0.00109245      -0.00180572
S        8.64367217       3.83139103       1.10838917       10      -0.00067583      -0.00115784      -0.00102226
S        3.45974736       9.10906531       1.19294218       11       0.00082731      -0.00132205      -0.00166051
S        3.77314854       6.25395305       3.88891322       12      -0.00276691      -0.00174126       0.00268282
S        8.83905507       0.96814526       3.61778905       13       0.00004071      -0.00335097      -0.00391547
S        8.78380828       6.11503970       8.66674339       14      -0.00071052       0.00149177       0.00166603
S        3.85433544       1.39481744       8.89096701       15      -0.00130246      -0.00181310      -0.00094440
S        6.06207899       3.83849111       3.77813342       16       0.00111492      -0.00107676      -0.00060746
S        1.31648250       8.83901098       3.93542910       17       0.00547967       0.00338905       0.00293774
S        1.09374641       3.76066962       8.94714139       18       0.00068367       0.00171450      -0.00118320
S        5.78531601       8.78043602       8.87767086       19       0.00190279       0.00200814      -0.00027506
Li       7.97679514       9.45902509       1.83722108       21      -0.01899802       0.00110932       0.02229287
Li       8.11602704       4.48751455       6.83666786       22      -0.00001663       0.00033820       0.00027854
Li       2.19967989       9.97777684       7.82682306       23      -0.01732702       0.00112235       0.01344193
Li       7.01689144       7.01952670       0.06552547       24      -0.00021250       0.00673785       0.00471916
Li       2.94856937       3.19157119       0.47224250       25       0.00165161       0.00196748      -0.00109438
Li       3.12222724       8.04900691       5.53307714       26       0.00318107       0.00177304       0.00339713
Li       7.18032209       2.07383360       5.04975606       27       0.00469477      -0.00260080       0.00017399
Li       7.69561524       2.07925087       9.73266839       28       0.00043239      -0.00146955      -0.00123472
Li       3.76516552       7.42210557       9.40321470       29      -0.00075333       0.00060964       0.00045349
Li       1.58110317       3.11173010       4.89349448       30      -0.00272976       0.00253253      -0.00012854
Li       6.95751726       7.87654820       4.76045302       31      -0.00257215      -0.00074118       0.00004051
Li       2.57188086       5.32523476       7.79813870       32       0.00104030       0.00154262      -0.00115416
Li       8.96987320       0.70703287       7.64451190       33       0.00145256       0.00061105      -0.00393634
Li       8.28966639       5.35922200       3.10976102       34       0.00096447       0.00069785       0.00093574
Li       2.93671922       0.60538290       3.16872179       35       0.00476772       0.00212829      -0.00339862
Li       1.85489843       5.03966993       2.87514975       36      -0.00084460      -0.00071831      -0.00112727
Li       5.00145131       8.31773242       2.88889396       37      -0.00652875      -0.00664421      -0.00956312
Li       5.27887940       3.47063298       8.07747862       38      -0.00023908      -0.00244432       0.00099972
Li       0.41487527       7.92448395       9.36996463       39       0.00298611      -0.00455336       0.00171371
Li       0.20216550       6.91805167       6.48387554       40       0.00079562      -0.00009652       0.00193696
Li       5.61352681       0.52551879       7.19067816       41       0.00131625       0.00188108      -0.00298222
Li       5.42292128       5.50888025       2.12691298       42       0.00387943      -0.00101230      -0.00396951
Li       0.19451432       2.01836977       1.80627052       43       0.00139264      -0.00043464      -0.00225849
Cl       9.52041669      10.16252053       9.94012166       44       0.00771035       0.00153600      -0.00699466
Cl       4.62765139       5.13870869      -0.15229919       45      -0.00125433      -0.00039989      -0.00054807
Cl       4.94589123      -0.39508851       4.96345325       46       0.01359642       0.00017071      -0.00950899
Cl       9.87906133       4.99451464       5.02601817       47      -0.00006539      -0.00168148      -0.00064217
S        2.23351393       2.76382970       2.65666539       48       0.00028687       0.00009476      -0.00071478
S        7.06277990       7.31355894       2.40474323       49      -0.00206272       0.00077122       0.00081038
S        7.23669514       2.30484329       7.40139588       50       0.00005740      -0.00021681      -0.00076928
S        2.14886074       7.63850712       7.67778555       51       0.00000184       0.00248012       0.00171671
51
Lattice="10.055095635733188 0.0 0.0 0.0 10.055095635733188 0.0 0.0 0.0 10.055095635733188" Properties=species:S:1:pos:R:3:spacegroup_kinds:I:1:forces:R:3 spacegroup="P 1" unit_cell=conventional occupancy="_JSON {\"0\": {\"P\": 1.0}, \"1\": {\"P\": 1.0}, \"2\": {\"P\": 1.0}, \"3\": {\"P\": 1.0}, \"4\": {\"S\": 1.0}, \"5\": {\"S\": 1.0}, \"6\": {\"S\": 1.0}, \"7\": {\"S\": 1.0}, \"8\": {\"S\": 1.0}, \"9\": {\"S\": 1.0}, \"10\": {\"S\": 1.0}, \"11\": {\"S\": 1.0}, \"12\": {\"S\": 1.0}, \"13\": {\"S\": 1.0}, \"14\": {\"S\": 1.0}, \"15\": {\"S\": 1.0}, \"16\": {\"S\": 1.0}, \"17\": {\"S\": 1.0}, \"18\": {\"S\": 1.0}, \"19\": {\"S\": 1.0}, \"20\": {\"Li\": 1.0}, \"21\": {\"Li\": 1.0}, \"22\": {\"Li\": 1.0}, \"23\": {\"Li\": 1.0}, \"24\": {\"Li\": 1.0}, \"25\": {\"Li\": 1.0}, \"26\": {\"Li\": 1.0}, \"27\": {\"Li\": 1.0}, \"28\": {\"Li\": 1.0}, \"29\": {\"Li\": 1.0}, \"30\": {\"Li\": 1.0}, \"31\": {\"Li\": 1.0}, \"32\": {\"Li\": 1.0}, \"33\": {\"Li\": 1.0}, \"34\": {\"Li\": 1.0}, \"35\": {\"Li\": 1.0}, \"36\": {\"Li\": 1.0}, \"37\": {\"Li\": 1.0}, \"38\": {\"Li\": 1.0}, \"39\": {\"Li\": 1.0}, \"40\": {\"Li\": 1.0}, \"41\": {\"Li\": 1.0}, \"42\": {\"Li\": 1.0}, \"43\": {\"Li\": 1.0}, \"44\": {\"Cl\": 1.0}, \"45\": {\"Cl\": 1.0}, \"46\": {\"Cl\": 1.0}, \"47\": {\"Cl\": 1.0}, \"48\": {\"S\": 1.0}, \"49\": {\"S\": 1.0}, \"50\": {\"S\": 1.0}, \"51\": {\"S\": 1.0}}" charge=0 spin=0 energy=-211.82217536745787 free_energy=-211.82217536745787 stress="0.0012169833664156656 -0.001073190796063304 -3.6866845300685116e-05 -0.001073190796063304 0.003073084254236787 -0.001146368596605172 -3.6866845300685116e-05 -0.001146368596605172 0.0028342587483891264" pbc="T T T"
P        4.82260115       4.93563546       5.08738036        0       0.00001731       0.00223473       0.00301082
P       -0.17913502       9.97875852       4.99099064        1       0.00249360      -0.00190691      -0.00216784
P       -0.23318028       4.94389237      10.01873195        2      -0.00116538       0.00273683       0.00071171
P        4.83641289      -0.02728874      10.13434608        3       0.00060318      -0.00244275      -0.00254691
S        5.92401483       6.04481636       6.39425265        4      -0.00251636      -0.00201628      -0.00011756
S        0.84222206       1.18230734       6.27574993        5      -0.00204809       0.00215063       0.00027608
S        0.77651588       6.24924709       1.20917413        6      -0.00164321      -0.00052672       0.00119058
S        5.96595355       1.04697560       1.36951474        7       0.00128062      -0.00012994       0.00050042
S        3.50512671       3.82162098       6.23415431        8      -0.00035700      -0.00223956       0.00038448
S        8.56766788       8.92972150       6.20081798        9       0.00213842      -0.00109245      -0.00180572
S        8.56500916       3.85883650       1.19060946       10      -0.00067583      -0.00115784      -0.00102226
S        3.50593873       8.86332331       1.15382373       11       0.00082731      -0.00132205      -0.00166051
S        3.74221644       6.20365941       3.82515613       12      -0.00276691      -0.00174126       0.00268282
S        8.75989245       1.10921461       3.71788657       13       0.00004071      -0.00335097      -0.00391547
S        8.69376942       6.11345314       8.74267117       14      -0.00071052       0.00149177       0.00166603
S        3.81290893       1.23853502       8.84071025       15      -0.00130246      -0.00181310      -0.00094440
S        5.89453314       3.73973138       3.84905591       16       0.00111492      -0.00107676      -0.00060746
S        1.03340549       8.76381397       3.91728364       17       0.00547967       0.00338905       0.00293774
S        0.95017552       3.69361512       8.94013106       18       0.00068367       0.00171450      -0.00118320
S        5.91296295       8.77820381       8.89284592       19       0.00190279       0.00200814      -0.00027506
Li       7.88876859       9.60390506       2.08154390       21      -0.01899802       0.00110932       0.02229287
Li       7.92694623       4.58955156       6.98534959       22      -0.00001663       0.00033820       0.00027854
Li       2.63716368       9.87054952       7.21532116       23      -0.01732702       0.00112235       0.01344193
Li       7.47439939       7.50632026       0.19730990       24      -0.00021250       0.00673785       0.00471916
Li       2.87896032       2.93475709       0.33820058       25       0.00165161       0.00196748      -0.00109438
Li       2.83821904       7.80778333       5.42940896       26       0.00318107       0.00177304       0.00339713
Li       7.34959172       2.37465853       5.17933847       27       0.00469477      -0.00260080       0.00017399
Li       7.49231272       2.15550933       9.85009076       28       0.00043239      -0.00146955      -0.00123472
Li       4.05752853       7.22394636       9.16472614       29      -0.00075333       0.00060964       0.00045349
Li       1.82733895       2.81805130       4.78470076       30      -0.00272976       0.00253253      -0.00012854
Li       7.57853085       7.08199181       4.85340335       31      -0.00257215      -0.00074118       0.00004051
Li       2.41440245       5.27609452       7.84257923       32       0.00104030       0.00154262      -0.00115416
Li       9.01771809       0.76739065       7.81447318       33       0.00145256       0.00061105      -0.00393634
Li       8.96644465       5.79640905       2.78240144       34       0.00096447       0.00069785       0.00093574
Li       2.80983445       0.37093824       3.09702759       35       0.00476772       0.00212829      -0.00339862
Li       2.30271245       4.83979860       2.45225796       36      -0.00084460      -0.00071831      -0.00112727
Li       5.08734228       8.28734140       3.16317042       37      -0.00652875      -0.00664421      -0.00956312
Li       5.16266406       3.42502867       8.07347447       38      -0.00023908      -0.00244432       0.00099972
Li       1.17456213       8.28405251       9.82583990       39       0.00298611      -0.00455336       0.00171371
Li       0.02549718       7.06498186       6.84007894       40       0.00079562      -0.00009652       0.00193696
Li       5.76687565       0.44991620       7.10732263       41       0.00131625       0.00188108      -0.00298222
Li       5.72789155       5.45827663       2.10073894       42       0.00387943      -0.00101230      -0.00396951
Li       0.08163446       1.94960203       1.78188219       43       0.00139264      -0.00043464      -0.00225849
Cl       9.44979728      10.10892943      10.15592299       44       0.00771035       0.00153600      -0.00699466
Cl       4.45556219       4.93745321      -0.08185803       45      -0.00125433      -0.00039989      -0.00054807
Cl       4.37026003      -0.32940877       5.13593492       46       0.01359642       0.00017071      -0.00950899
Cl       9.39506429       5.37303590       5.14561130       47      -0.00006539      -0.00168148      -0.00064217
S        2.19850176       2.55253961       2.52989770       48       0.00028687       0.00009476      -0.00071478
S        7.16535636       7.36934210       2.50505943       49      -0.00206272       0.00077122       0.00081038
S        7.21453838       2.34514807       7.51191777       50       0.00005740      -0.00021681      -0.00076928
S        2.17433310       7.60182802       7.72115115       51       0.00000184       0.00248012       0.00171671
51
Lattice="10.055095635733188 0.0 0.0 0.0 10.055095635733188 0.0 0.0 0.0 10.055095635733188" Properties=species:S:1:pos:R:3:spacegroup_kinds:I:1:forces:R:3 spacegroup="P 1" unit_cell=conventional occupancy="_JSON {\"0\": {\"P\": 1.0}, \"1\": {\"P\": 1.0}, \"2\": {\"P\": 1.0}, \"3\": {\"P\": 1.0}, \"4\": {\"S\": 1.0}, \"5\": {\"S\": 1.0}, \"6\": {\"S\": 1.0}, \"7\": {\"S\": 1.0}, \"8\": {\"S\": 1.0}, \"9\": {\"S\": 1.0}, \"10\": {\"S\": 1.0}, \"11\": {\"S\": 1.0}, \"12\": {\"S\": 1.0}, \"13\": {\"S\": 1.0}, \"14\": {\"S\": 1.0}, \"15\": {\"S\": 1.0}, \"16\": {\"S\": 1.0}, \"17\": {\"S\": 1.0}, \"18\": {\"S\": 1.0}, \"19\": {\"S\": 1.0}, \"20\": {\"Li\": 1.0}, \"21\": {\"Li\": 1.0}, \"22\": {\"Li\": 1.0}, \"23\": {\"Li\": 1.0}, \"24\": {\"Li\": 1.0}, \"25\": {\"Li\": 1.0}, \"26\": {\"Li\": 1.0}, \"27\": {\"Li\": 1.0}, \"28\": {\"Li\": 1.0}, \"29\": {\"Li\": 1.0}, \"30\": {\"Li\": 1.0}, \"31\": {\"Li\": 1.0}, \"32\": {\"Li\": 1.0}, \"33\": {\"Li\": 1.0}, \"34\": {\"Li\": 1.0}, \"35\": {\"Li\": 1.0}, \"36\": {\"Li\": 1.0}, \"37\": {\"Li\": 1.0}, \"38\": {\"Li\": 1.0}, \"39\": {\"Li\": 1.0}, \"40\": {\"Li\": 1.0}, \"41\": {\"Li\": 1.0}, \"42\": {\"Li\": 1.0}, \"43\": {\"Li\": 1.0}, \"44\": {\"Cl\": 1.0}, \"45\": {\"Cl\": 1.0}, \"46\": {\"Cl\": 1.0}, \"47\": {\"Cl\": 1.0}, \"48\": {\"S\": 1.0}, \"49\": {\"S\": 1.0}, \"50\": {\"S\": 1.0}, \"51\": {\"S\": 1.0}}" charge=0 spin=0 energy=-211.82217536745787 free_energy=-211.82217536745787 stress="0.0012169833664156656 -0.001073190796063304 -3.6866845300685116e-05 -0.001073190796063304 0.003073084254236787 -0.001146368596605172 -3.6866845300685116e-05 -0.001146368596605172 0.0028342587483891264" pbc="T T T"
P        4.89426024       4.96202465       4.97444551        0       0.00001731       0.00223473       0.00301082
P       -0.14070980       9.98723410       5.02415322        1       0.00249360      -0.00190691      -0.00216784
P       -0.17149641       4.98486639       9.99512072        2      -0.00116538       0.00273683       0.00071171
P        4.84497987      -0.08615265      10.10329434        3       0.00060318      -0.00244275      -0.00254691
S        5.88300436       6.15319213       6.27867372        4      -0.00251636      -0.00201628      -0.00011756
S        0.97754871       1.12982700       6.28184091        5      -0.00204809       0.00215063       0.00027608
S        0.88291519       6.26115035       1.14465297        6      -0.00164321      -0.00052672       0.00119058
S        5.87105845       1.13240871       1.31735777        7       0.00128062      -0.00012994       0.00050042
S        3.65258842       3.73766983       6.10072832        8      -0.00035700      -0.00223956       0.00038448
S        8.59773192       8.97256371       6.27619351        9       0.00213842      -0.00109245      -0.00180572
S        8.67736039       3.79503318       1.14791525       10      -0.00067583      -0.00115784      -0.00102226
S        3.53442736       8.81696703       1.20097286       11       0.00082731      -0.00132205      -0.00166051
S        3.66656589       6.11570708       3.74028292       12      -0.00276691      -0.00174126       0.00268282
S        8.77628395       1.15211856       3.79735140       13       0.00004071      -0.00335097      -0.00391547
S        8.61586969       6.14844819       8.85125699       14      -0.00071052       0.00149177       0.00166603
S        3.59354631       1.08740075       8.90776566       15      -0.00130246      -0.00181310      -0.00094440
S        6.06836799       3.87743574       3.69926598       16       0.00111492      -0.00107676      -0.00060746
S        0.98728822       8.74467426       3.90914840       17       0.00547967       0.00338905       0.00293774
S        0.97140420       3.78347449       8.80976715       18       0.00068367       0.00171450      -0.00118320
S        5.97815635       8.77222786       8.92840114       19       0.00190279       0.00200814      -0.00027506
Li       7.43536422       9.71162373       2.50579206       21      -0.01899802       0.00110932       0.02229287
Li       7.76649758       4.68687928       7.14101154       22      -0.00001663       0.00033820       0.00027854
Li       2.97053749       9.78934381       6.97248177       23      -0.01732702       0.00112235       0.01344193
Li       7.95883338       7.92484541       0.31230625       24      -0.00021250       0.00673785       0.00471916
Li       2.82868877       2.96193905       0.32593229       25       0.00165161       0.00196748      -0.00109438
Li       2.73971056       7.68123983       5.38450401       26       0.00318107       0.00177304       0.00339713
Li       7.57139158       2.68525573       5.19330342       27       0.00469477      -0.00260080       0.00017399
Li       7.48786713       2.14850152       9.83885966       28       0.00043239      -0.00146955      -0.00123472
Li       3.01608363       6.83769413       9.85635873       29      -0.00075333       0.00060964       0.00045349
Li       1.93624941       2.71697129       4.76425326       30      -0.00272976       0.00253253      -0.00012854
Li       7.65298371       7.16989084       4.86088290       31      -0.00257215      -0.00074118       0.00004051
Li       2.59395295       5.28929876       7.65525311       32       0.00104030       0.00154262      -0.00115416
Li       9.17733723       1.01440966       7.83781342       33       0.00145256       0.00061105      -0.00393634
Li       8.31584989       5.33269590       3.00376533       34       0.00096447       0.00069785       0.00093574
Li       2.85189979       0.31173010       3.08617640       35       0.00476772       0.00212829      -0.00339862
Li       2.05019654       4.74830750       2.56952276       36      -0.00084460      -0.00071831      -0.00112727
Li       4.99802362       8.09902817       3.20693260       37      -0.00652875      -0.00664421      -0.00956312
Li       5.03490812       3.07830794       8.04066532       38      -0.00023908      -0.00244432       0.00099972
Li       1.64486638       9.27340835       9.50449905       39       0.00298611      -0.00455336       0.00171371
Li      -0.01645373       7.08161442       7.07314891       40       0.00079562      -0.00009652       0.00193696
Li       6.36504676       0.15856159       6.91953439       41       0.00131625       0.00188108      -0.00298222
Li       5.65319231       5.57923038       1.80189614       42       0.00387943      -0.00101230      -0.00396951
Li       0.06803741       1.85314920       1.79750497       43       0.00139264      -0.00043464      -0.00225849
Cl       9.51098012      10.18568682      10.07782205       44       0.00771035       0.00153600      -0.00699466
Cl       4.38651379       4.82709023      -0.18563224       45      -0.00125433      -0.00039989      -0.00054807
Cl       4.44591182      -0.42198633       5.04777804       46       0.01359642       0.00017071      -0.00950899
Cl       9.27829241       5.28367750       5.22678977       47      -0.00006539      -0.00168148      -0.00064217
S        2.18203798       2.47056096       2.51107783       48       0.00028687       0.00009476      -0.00071478
S        7.13942565       7.39436589       2.51710660       49      -0.00206272       0.00077122       0.00081038
S        7.21622783       2.35477344       7.49393709       50       0.00005740      -0.00021681      -0.00076928
S        2.18813757       7.63356700       7.71359093       51       0.00000184       0.00248012       0.00171671
51
Lattice="10.055095635733188 0.0 0.0 0.0 10.055095635733188 0.0 0.0 0.0 10.055095635733188" Properties=species:S:1:pos:R:3:spacegroup_kinds:I:1:forces:R:3 spacegroup="P 1" unit_cell=conventional occupancy="_JSON {\"0\": {\"P\": 1.0}, \"1\": {\"P\": 1.0}, \"2\": {\"P\": 1.0}, \"3\": {\"P\": 1.0}, \"4\": {\"S\": 1.0}, \"5\": {\"S\": 1.0}, \"6\": {\"S\": 1.0}, \"7\": {\"S\": 1.0}, \"8\": {\"S\": 1.0}, \"9\": {\"S\": 1.0}, \"10\": {\"S\": 1.0}, \"11\": {\"S\": 1.0}, \"12\": {\"S\": 1.0}, \"13\": {\"S\": 1.0}, \"14\": {\"S\": 1.0}, \"15\": {\"S\": 1.0}, \"16\": {\"S\": 1.0}, \"17\": {\"S\": 1.0}, \"18\": {\"S\": 1.0}, \"19\": {\"S\": 1.0}, \"20\": {\"Li\": 1.0}, \"21\": {\"Li\": 1.0}, \"22\": {\"Li\": 1.0}, \"23\": {\"Li\": 1.0}, \"24\": {\"Li\": 1.0}, \"25\": {\"Li\": 1.0}, \"26\": {\"Li\": 1.0}, \"27\": {\"Li\": 1.0}, \"28\": {\"Li\": 1.0}, \"29\": {\"Li\": 1.0}, \"30\": {\"Li\": 1.0}, \"31\": {\"Li\": 1.0}, \"32\": {\"Li\": 1.0}, \"33\": {\"Li\": 1.0}, \"34\": {\"Li\": 1.0}, \"35\": {\"Li\": 1.0}, \"36\": {\"Li\": 1.0}, \"37\": {\"Li\": 1.0}, \"38\": {\"Li\": 1.0}, \"39\": {\"Li\": 1.0}, \"40\": {\"Li\": 1.0}, \"41\": {\"Li\": 1.0}, \"42\": {\"Li\": 1.0}, \"43\": {\"Li\": 1.0}, \"44\": {\"Cl\": 1.0}, \"45\": {\"Cl\": 1.0}, \"46\": {\"Cl\": 1.0}, \"47\": {\"Cl\": 1.0}, \"48\": {\"S\": 1.0}, \"49\": {\"S\": 1.0}, \"50\": {\"S\": 1.0}, \"51\": {\"S\": 1.0}}" charge=0 spin=0 energy=-211.82217536745787 free_energy=-211.82217536745787 stress="0.0012169833664156656 -0.001073190796063304 -3.6866845300685116e-05 -0.001073190796063304 0.003073084254236787 -0.001146368596605172 -3.6866845300685116e-05 -0.001146368596605172 0.0028342587483891264" pbc="T T T"
P        4.83191614       4.87806295       5.02553085        0       0.00001731       0.00223473       0.00301082
P       -0.18743201       9.96190069       5.01509392        1       0.00249360      -0.00190691      -0.00216784
P       -0.22091837       4.95314415      10.05131430        2      -0.00116538       0.00273683       0.00071171
P        4.79998502      -0.08994755      10.08756937        3       0.00060318      -0.00244275      -0.00254691
S        5.84479544       6.11105990       6.28926577        4      -0.00251636      -0.00201628      -0.00011756
S        0.93187725       1.10304716       6.27117259        5      -0.00204809       0.00215063       0.00027608
S        0.86821821       6.23660265       1.19182537        6      -0.00164321      -0.00052672       0.00119058
S        5.81211963       1.15977563       1.28122122        7       0.00128062      -0.00012994       0.00050042
S        3.58597942       3.67779149       6.18011301        8      -0.00035700      -0.00223956       0.00038448
S        8.56295420       8.92592300       6.27062874        9       0.00213842      -0.00109245      -0.00180572
S        8.68279051       3.73167822       1.20029921       10      -0.00067583      -0.00115784      -0.00102226
S        3.51534252       8.80770319       1.20400581       11       0.00082731      -0.00132205      -0.00166051
S        3.55592172       6.05137863       3.87019689       12      -0.00276691      -0.00174126       0.00268282
S        8.70937907       1.12653651       3.81299780       13       0.00004071      -0.00335097      -0.00391547
S        8.52223011       6.20068724       9.01695081       14      -0.00071052       0.00149177       0.00166603
S        3.56176528       1.09536198       8.88870610       15      -0.00130246      -0.00181310      -0.00094440
S        5.96382224       3.72134655       3.80801268       16       0.00111492      -0.00107676      -0.00060746
S        0.95061259       8.73259786       3.89003800       17       0.00547967       0.00338905       0.00293774
S        0.92829663       3.84991374       8.80546633       18       0.00068367       0.00171450      -0.00118320
S        5.90762435       8.75701928       8.90235239       19       0.00190279       0.00200814      -0.00027506
Li       7.24012187       9.74109907       2.56587438       21      -0.01899802       0.00110932       0.02229287
Li       7.71064659       4.70452818       7.22623325       22      -0.00001663       0.00033820       0.00027854
Li       2.97126387       9.79395105       6.93114138       23      -0.01732702       0.00112235       0.01344193
Li       9.03856205       7.84727638       0.97957800       24      -0.00021250       0.00673785       0.00471916
Li       2.84314769       2.97663713       0.32574931       25       0.00165161       0.00196748      -0.00109438
Li       2.68138890       7.65769184       5.41314914       26       0.00318107       0.00177304       0.00339713
Li       7.73638217       2.84337776       5.25523863       27       0.00469477      -0.00260080       0.00017399
Li       7.44192062       2.18039247       9.85588268       28       0.00043239      -0.00146955      -0.00123472
Li       2.91084406       6.86600438       9.86995847       29      -0.00075333       0.00060964       0.00045349
Li       1.90049544       2.71477502       4.76805309       30      -0.00272976       0.00253253      -0.00012854
Li       7.64265510       7.11060988       4.85153486       31      -0.00257215      -0.00074118       0.00004051
Li       2.72685176       5.32925824       7.72258165       32       0.00104030       0.00154262      -0.00115416
Li       9.13822072       0.91444015       7.85423985       33       0.00145256       0.00061105      -0.00393634
Li       7.81082107       5.15649266       2.99304417       34       0.00096447       0.00069785       0.00093574
Li       2.90468852       0.30200873       3.12534198       35       0.00476772       0.00212829      -0.00339862
Li       2.08355352       4.71660088       2.59297913       36      -0.00084460      -0.00071831      -0.00112727
Li       4.96434288       7.84996311       3.13355742       37      -0.00652875      -0.00664421      -0.00956312
Li       5.03762484       3.06699696       8.02684237       38      -0.00023908      -0.00244432       0.00099972
Li       1.73343540       9.38782595       9.44433623       39       0.00298611      -0.00455336       0.00171371
Li      -0.07040527       7.08150322       7.18140896       40       0.00079562      -0.00009652       0.00193696
Li       6.35180606       0.16887654       6.85516324       41       0.00131625       0.00188108      -0.00298222
Li       6.31002626       6.66010735       0.30953685       42       0.00387943      -0.00101230      -0.00396951
Li       0.07041447       1.78666342       1.85559926       43       0.00139264      -0.00043464      -0.00225849
Cl       9.62053627      10.12235557      10.12608081       44       0.00771035       0.00153600      -0.00699466
Cl       4.37486670       4.94324681      -0.33614385       45      -0.00125433      -0.00039989      -0.00054807
Cl       4.43838596      -0.48330521       5.01750175       46       0.01359642       0.00017071      -0.00950899
Cl       9.12995952       5.14028304       5.24645039       47      -0.00006539      -0.00168148      -0.00064217
S        2.18488493       2.44338180       2.50595375       48       0.00028687       0.00009476      -0.00071478
S        7.18829999       7.41694677       2.47433674       49      -0.00206272       0.00077122       0.00081038
S        7.23097268       2.33689278       7.53265938       50       0.00005740      -0.00021681      -0.00076928
S        2.13571122       7.66324662       7.73511036       51       0.00000184       0.00248012       0.00171671
51
Lattice="10.055095635733188 0.0 0.0 0.0 10.055095635733188 0.0 0.0 0.0 10.055095635733188" Properties=species:S:1:pos:R:3:spacegroup_kinds:I:1:forces:R:3 spacegroup="P 1" unit_cell=conventional occupancy="_JSON {\"0\": {\"P\": 1.0}, \"1\": {\"P\": 1.0}, \"2\": {\"P\": 1.0}, \"3\": {\"P\": 1.0}, \"4\": {\"S\": 1.0}, \"5\": {\"S\": 1.0}, \"6\": {\"S\": 1.0}, \"7\": {\"S\": 1.0}, \"8\": {\"S\": 1.0}, \"9\": {\"S\": 1.0}, \"10\": {\"S\": 1.0}, \"11\": {\"S\": 1.0}, \"12\": {\"S\": 1.0}, \"13\": {\"S\": 1.0}, \"14\": {\"S\": 1.0}, \"15\": {\"S\": 1.0}, \"16\": {\"S\": 1.0}, \"17\": {\"S\": 1.0}, \"18\": {\"S\": 1.0}, \"19\": {\"S\": 1.0}, \"20\": {\"Li\": 1.0}, \"21\": {\"Li\": 1.0}, \"22\": {\"Li\": 1.0}, \"23\": {\"Li\": 1.0}, \"24\": {\"Li\": 1.0}, \"25\": {\"Li\": 1.0}, \"26\": {\"Li\": 1.0}, \"27\": {\"Li\": 1.0}, \"28\": {\"Li\": 1.0}, \"29\": {\"Li\": 1.0}, \"30\": {\"Li\": 1.0}, \"31\": {\"Li\": 1.0}, \"32\": {\"Li\": 1.0}, \"33\": {\"Li\": 1.0}, \"34\": {\"Li\": 1.0}, \"35\": {\"Li\": 1.0}, \"36\": {\"Li\": 1.0}, \"37\": {\"Li\": 1.0}, \"38\": {\"Li\": 1.0}, \"39\": {\"Li\": 1.0}, \"40\": {\"Li\": 1.0}, \"41\": {\"Li\": 1.0}, \"42\": {\"Li\": 1.0}, \"43\": {\"Li\": 1.0}, \"44\": {\"Cl\": 1.0}, \"45\": {\"Cl\": 1.0}, \"46\": {\"Cl\": 1.0}, \"47\": {\"Cl\": 1.0}, \"48\": {\"S\": 1.0}, \"49\": {\"S\": 1.0}, \"50\": {\"S\": 1.0}, \"51\": {\"S\": 1.0}}" charge=0 spin=0 energy=-211.82217536745787 free_energy=-211.82217536745787 stress="0.0012169833664156656 -0.001073190796063304 -3.6866845300685116e-05 -0.001073190796063304 0.003073084254236787 -0.001146368596605172 -3.6866845300685116e-05 -0.001146368596605172 0.0028342587483891264" pbc="T T T"
P        4.79367945       4.97804178       4.93787907        0       0.00001731       0.00223473       0.00301082
P       -0.22619370       9.99930940       4.96217060        1       0.00249360      -0.00190691      -0.00216784
P       -0.14833061       4.90295900      10.04005373        2      -0.00116538       0.00273683       0.00071171
P        4.82638297      -0.08206350      10.05226351        3       0.00060318      -0.00244275      -0.00254691
S        5.96463582       6.24325868       6.03240589        4      -0.00251636      -0.00201628      -0.00011756
S        0.82586485       1.16747673       6.24383539        5      -0.00204809       0.00215063       0.00027608
S        0.85001833       6.17977349       1.26713142        6      -0.00164321      -0.00052672       0.00119058
S        5.87282676       1.18005512       1.20972499        7       0.00128062      -0.00012994       0.00050042
S        3.52740378       3.98676095       6.25759582        8      -0.00035700      -0.00223956       0.00038448
S        8.53007395       8.91341296       6.19091700        9       0.00213842      -0.00109245      -0.00180572
S        8.72383590       3.65702952       1.13543825       10      -0.00067583      -0.00115784      -0.00102226
S        3.62963087       8.79408627       1.25054445       11       0.00082731      -0.00132205      -0.00166051
S        3.47943829       6.12442391       3.76966048       12      -0.00276691      -0.00174126       0.00268282
S        8.63419162       1.08698835       3.72947274       13       0.00004071      -0.00335097      -0.00391547
S        8.59316674       6.12596452       8.95618321       14      -0.00071052       0.00149177       0.00166603
S        3.50697569       1.10743414       8.95441803       15      -0.00130246      -0.00181310      -0.00094440
S        5.78549605       3.67093561       3.75755038       16       0.00111492      -0.00107676      -0.00060746
S        0.93453265       8.78244501       3.83841837       17       0.00547967       0.00338905       0.00293774
S        1.08725564       3.85412648       8.85209011       18       0.00068367       0.00171450      -0.00118320
S        5.91122358       8.80798697       8.80692692       19       0.00190279       0.00200814      -0.00027506
Li       7.41723061       9.70739414       2.23051265       21      -0.01899802       0.00110932       0.02229287
Li       7.66961309       4.72187712       7.11925846       22      -0.00001663       0.00033820       0.00027854
Li       2.85610220       9.86445099       6.96480527       23      -0.01732702       0.00112235       0.01344193
Li       9.08649230       7.74253027       0.94719922       24      -0.00021250       0.00673785       0.00471916
Li       2.92092624       2.99310343       0.48740116       25       0.00165161       0.00196748      -0.00109438
Li       2.59060789       7.69533413       5.38065475       26       0.00318107       0.00177304       0.00339713
Li       7.71018262       2.85319236       5.10930386       27       0.00469477      -0.00260080       0.00017399
Li       7.21055444       2.48735734       9.74311895       28       0.00043239      -0.00146955      -0.00123472
Li       3.35707846       6.22975507      11.29950989       29      -0.00075333       0.00060964       0.00045349
Li       2.28046055       2.51394464       4.87919274       30      -0.00272976       0.00253253      -0.00012854
Li       7.90001540       7.07928461       4.62344125       31      -0.00257215      -0.00074118       0.00004051
Li       2.88047449       5.57736033       8.07118422       32       0.00104030       0.00154262      -0.00115416
Li       9.07435915       0.87160847       7.89700571       33       0.00145256       0.00061105      -0.00393634
Li       7.58190250       5.07165986       2.80429249       34       0.00096447       0.00069785       0.00093574
Li       2.85875863       0.32752401       3.02444692       35       0.00476772       0.00212829      -0.00339862
Li       1.08108488       4.60319672       3.15339391       36      -0.00084460      -0.00071831      -0.00112727
Li       5.07518657       7.97494256       3.34443284       37      -0.00652875      -0.00664421      -0.00956312
Li       4.94639383       2.87113908       7.82504159       38      -0.00023908      -0.00244432       0.00099972
Li       1.83954355       9.06842666       9.58238001       39       0.00298611      -0.00455336       0.00171371
Li      -0.05291102       7.40536637       7.42568950       40       0.00079562      -0.00009652       0.00193696
Li       6.33205801       0.16305374       6.69645349       41       0.00131625       0.00188108      -0.00298222
Li       6.35353655       6.76154084       0.14980034       42       0.00387943      -0.00101230      -0.00396951
Li       0.08338522       1.68781556       1.82166571       43       0.00139264      -0.00043464      -0.00225849
Cl       9.68675567       9.95574874      10.14106050       44       0.00771035       0.00153600      -0.00699466
Cl       4.59344992       4.92306876      -0.22776077       45      -0.00125433      -0.00039989      -0.00054807
Cl       4.37671442      -0.30095570       5.03648202       46       0.01359642       0.00017071      -0.00950899
Cl       9.15844712       4.94871465       4.80976251       47      -0.00006539      -0.00168148      -0.00064217
S        2.10070458       2.52329088       2.61387399       48       0.00028687       0.00009476      -0.00071478
S        7.17209529       7.39103896       2.34653526       49      -0.00206272       0.00077122       0.00081038
S        7.20056956       2.36214083       7.41652095       50       0.00005740      -0.00021681      -0.00076928
S        2.16593380       7.75118304       7.66545503       51       0.00000184       0.00248012       0.00171671
51
Lattice="10.055095635733188 0.0 0.0 0.0 10.055095635733188 0.0 0.0 0.0 10.055095635733188" Properties=species:S:1:pos:R:3:spacegroup_kinds:I:1:forces:R:3 spacegroup="P 1" unit_cell=conventional occupancy="_JSON {\"0\": {\"P\": 1.0}, \"1\": {\"P\": 1.0}, \"2\": {\"P\": 1.0}, \"3\": {\"P\": 1.0}, \"4\": {\"S\": 1.0}, \"5\": {\"S\": 1.0}, \"6\": {\"S\": 1.0}, \"7\": {\"S\": 1.0}, \"8\": {\"S\": 1.0}, \"9\": {\"S\": 1.0}, \"10\": {\"S\": 1.0}, \"11\": {\"S\": 1.0}, \"12\": {\"S\": 1.0}, \"13\": {\"S\": 1.0}, \"14\": {\"S\": 1.0}, \"15\": {\"S\": 1.0}, \"16\": {\"S\": 1.0}, \"17\": {\"S\": 1.0}, \"18\": {\"S\": 1.0}, \"19\": {\"S\": 1.0}, \"20\": {\"Li\": 1.0}, \"21\": {\"Li\": 1.0}, \"22\": {\"Li\": 1.0}, \"23\": {\"Li\": 1.0}, \"24\": {\"Li\": 1.0}, \"25\": {\"Li\": 1.0}, \"26\": {\"Li\": 1.0}, \"27\": {\"Li\": 1.0}, \"28\": {\"Li\": 1.0}, \"29\": {\"Li\": 1.0}, \"30\": {\"Li\": 1.0}, \"31\": {\"Li\": 1.0}, \"32\": {\"Li\": 1.0}, \"33\": {\"Li\": 1.0}, \"34\": {\"Li\": 1.0}, \"35\": {\"Li\": 1.0}, \"36\": {\"Li\": 1.0}, \"37\": {\"Li\": 1.0}, \"38\": {\"Li\": 1.0}, \"39\": {\"Li\": 1.0}, \"40\": {\"Li\": 1.0}, \"41\": {\"Li\": 1.0}, \"42\": {\"Li\": 1.0}, \"43\": {\"Li\": 1.0}, \"44\": {\"Cl\": 1.0}, \"45\": {\"Cl\": 1.0}, \"46\": {\"Cl\": 1.0}, \"47\": {\"Cl\": 1.0}, \"48\": {\"S\": 1.0}, \"49\": {\"S\": 1.0}, \"50\": {\"S\": 1.0}, \"51\": {\"S\": 1.0}}" charge=0 spin=0 energy=-211.82217536745787 free_energy=-211.82217536745787 stress="0.0012169833664156656 -0.001073190796063304 -3.6866845300685116e-05 -0.001073190796063304 0.003073084254236787 -0.001146368596605172 -3.6866845300685116e-05 -0.001146368596605172 0.0028342587483891264" pbc="T T T"
P        4.90372008       5.04038962       5.06856269        0       0.00001731       0.00223473       0.00301082
P       -0.11996934      10.05656201       4.89086789        1       0.00249360      -0.00190691      -0.00216784
P       -0.11577115       5.00612730       9.97768437        2      -0.00116538       0.00273683       0.00071171
P        4.91362933       0.05288201      10.05145589        3       0.00060318      -0.00244275      -0.00254691
S        6.11451360       6.23907277       6.17296973        4      -0.00251636      -0.00201628      -0.00011756
S        0.93618035       1.22506911       6.16972133        5      -0.00204809       0.00215063       0.00027608
S        0.88298887       6.24839689       1.21257360        6      -0.00164321      -0.00052672       0.00119058
S        5.93965688       1.29803294       1.24836832        7       0.00128062      -0.00012994       0.00050042
S        3.67564369       3.98091450       6.35663590        8      -0.00035700      -0.00223956       0.00038448
S        8.64601083       8.91915220       6.06595441        9       0.00213842      -0.00109245      -0.00180572
S        8.76828822       3.75321954       1.13244730       10      -0.00067583      -0.00115784      -0.00102226
S        3.68564127       8.92289980       1.19354561       11       0.00082731      -0.00132205      -0.00166051
S        3.63192893       6.19148345       3.89206555       12      -0.00276691      -0.00174126       0.00268282
S        8.73603663       1.19013164       3.69197244       13       0.00004071      -0.00335097      -0.00391547
S        8.64617653       6.16869323       8.86223719       14      -0.00071052       0.00149177       0.00166603
S        3.72932214       1.22299863       8.82093724       15      -0.00130246      -0.00181310      -0.00094440
S        5.85781557       3.73069639       3.82668892       16       0.00111492      -0.00107676      -0.00060746
S        1.06331893       8.90985081       3.72196903       17       0.00547967       0.00338905       0.00293774
S        1.05111482       3.87853736       8.77371883       18       0.00068367       0.00171450      -0.00118320
S        6.07890872       8.89544859       8.90987534       19       0.00190279       0.00200814      -0.00027506
Li       7.32748015       9.78168766       2.44229645       21      -0.01899802       0.00110932       0.02229287
Li       7.83588615       4.68446942       7.14188519       22      -0.00001663       0.00033820       0.00027854
Li       2.82252177       9.87729586       7.06394005       23      -0.01732702       0.00112235       0.01344193
Li       8.56990297       7.90715390       0.52747394       24      -0.00021250       0.00673785       0.00471916
Li       2.66355871       2.80118633       0.23176496       25       0.00165161       0.00196748      -0.00109438
Li       2.63200996       7.80023113       5.33543927       26       0.00318107       0.00177304       0.00339713
Li       7.80273426       2.90111610       5.13032683       27       0.00469477      -0.00260080       0.00017399
Li       7.55275512       2.20486869       9.75559869       28       0.00043239      -0.00146955      -0.00123472
Li       3.22147511       4.76710254      12.08478821       29      -0.00075333       0.00060964       0.00045349
Li       2.18692883       2.85254837       4.85039908       30      -0.00272976       0.00253253      -0.00012854
Li       7.89890313       6.97086383       4.54823727       31      -0.00257215      -0.00074118       0.00004051
Li       2.90469930       5.56227488       8.15231448       32       0.00104030       0.00154262      -0.00115416
Li       9.21110876       0.80067403       7.78489801       33       0.00145256       0.00061105      -0.00393634
Li       7.03944082       5.12772576       2.24334241       34       0.00096447       0.00069785       0.00093574
Li       2.99542793       0.50748709       3.03312151       35       0.00476772       0.00212829      -0.00339862
Li       0.34003186       4.41904647       2.91585849       36      -0.00084460      -0.00071831      -0.00112727
Li       5.04121090       8.08261844       3.37417073       37      -0.00652875      -0.00664421      -0.00956312
Li       5.17811369       3.05566725       8.01153832       38      -0.00023908      -0.00244432       0.00099972
Li       1.70661928       8.29531224       9.80300041       39       0.00298611      -0.00455336       0.00171371
Li       0.02760928       7.13089298       7.08133129       40       0.00079562      -0.00009652       0.00193696
Li       6.34931025       0.21674823       6.75186495       41       0.00131625       0.00188108      -0.00298222
Li       5.41237697       7.16354701       0.49085744       42       0.00387943      -0.00101230      -0.00396951
Li       0.13701104       1.62591077       1.75245858       43       0.00139264      -0.00043464      -0.00225849
Cl       9.71382953      10.01962269      10.05775349       44       0.00771035       0.00153600      -0.00699466
Cl       4.50370194       4.92655419      -0.00987860       45      -0.00125433      -0.00039989      -0.00054807
Cl       4.45277937      -0.26858549       5.02960891       46       0.01359642       0.00017071      -0.00950899
Cl       9.35264429       5.00661722       5.03671615       47      -0.00006539      -0.00168148      -0.00064217
S        2.09582929       2.71596427       2.52196995       48       0.00028687       0.00009476      -0.00071478
S        7.07341331       7.46495354       2.33090434       49      -0.00206272       0.00077122       0.00081038
S        7.35457121       2.34708439       7.43219246       50       0.00005740      -0.00021681      -0.00076928
S        2.18070314       7.70859982       7.59916052       51       0.00000184       0.00248012       0.00171671
51
Lattice="10.055095635733188 0.0 0.0 0.0 10.055095635733188 0.0 0.0 0.0 10.055095635733188" Properties=species:S:1:pos:R:3:spacegroup_kinds:I:1:forces:R:3 spacegroup="P 1" unit_cell=conventional occupancy="_JSON {\"0\": {\"P\": 1.0}, \"1\": {\"P\": 1.0}, \"2\": {\"P\": 1.0}, \"3\": {\"P\": 1.0}, \"4\": {\"S\": 1.0}, \"5\": {\"S\": 1.0}, \"6\": {\"S\": 1.0}, \"7\": {\"S\": 1.0}, \"8\": {\"S\": 1.0}, \"9\": {\"S\": 1.0}, \"10\": {\"S\": 1.0}, \"11\": {\"S\": 1.0}, \"12\": {\"S\": 1.0}, \"13\": {\"S\": 1.0}, \"14\": {\"S\": 1.0}, \"15\": {\"S\": 1.0}, \"16\": {\"S\": 1.0}, \"17\": {\"S\": 1.0}, \"18\": {\"S\": 1.0}, \"19\": {\"S\": 1.0}, \"20\": {\"Li\": 1.0}, \"21\": {\"Li\": 1.0}, \"22\": {\"Li\": 1.0}, \"23\": {\"Li\": 1.0}, \"24\": {\"Li\": 1.0}, \"25\": {\"Li\": 1.0}, \"26\": {\"Li\": 1.0}, \"27\": {\"Li\": 1.0}, \"28\": {\"Li\": 1.0}, \"29\": {\"Li\": 1.0}, \"30\": {\"Li\": 1.0}, \"31\": {\"Li\": 1.0}, \"32\": {\"Li\": 1.0}, \"33\": {\"Li\": 1.0}, \"34\": {\"Li\": 1.0}, \"35\": {\"Li\": 1.0}, \"36\": {\"Li\": 1.0}, \"37\": {\"Li\": 1.0}, \"38\": {\"Li\": 1.0}, \"39\": {\"Li\": 1.0}, \"40\": {\"Li\": 1.0}, \"41\": {\"Li\": 1.0}, \"42\": {\"Li\": 1.0}, \"43\": {\"Li\": 1.0}, \"44\": {\"Cl\": 1.0}, \"45\": {\"Cl\": 1.0}, \"46\": {\"Cl\": 1.0}, \"47\": {\"Cl\": 1.0}, \"48\": {\"S\": 1.0}, \"49\": {\"S\": 1.0}, \"50\": {\"S\": 1.0}, \"51\": {\"S\": 1.0}}" charge=0 spin=0 energy=-211.82217536745787 free_energy=-211.82217536745787 stress="0.0012169833664156656 -0.001073190796063304 -3.6866845300685116e-05 -0.001073190796063304 0.003073084254236787 -0.001146368596605172 -3.6866845300685116e-05 -0.001146368596605172 0.0028342587483891264" pbc="T T T"
P        4.99011697       4.94793956       5.12509041        0       0.00001731       0.00223473       0.00301082
P       -0.05573961       9.96508868       4.90339836        1       0.00249360      -0.00190691      -0.00216784
P       -0.03310890       5.00823585      10.05569175        2      -0.00116538       0.00273683       0.00071171
P        5.02868411       0.04850478       9.98824696        3       0.00060318      -0.00244275      -0.00254691
S        6.13936793       6.20244454       6.22537668        4      -0.00251636      -0.00201628      -0.00011756
S        0.76629951       1.23043808       6.24542027        5      -0.00204809       0.00215063       0.00027608
S        1.00416319       6.15130544       1.36133088        6      -0.00164321      -0.00052672       0.00119058
S        6.06119450       1.30780297       1.14598263        7       0.00128062      -0.00012994       0.00050042
S        3.85970161       3.73746553       6.41122141        8      -0.00035700      -0.00223956       0.00038448
S        8.78305947       8.65659617       5.94731340        9       0.00213842      -0.00109245      -0.00180572
S        8.79727732       3.76409768       1.15149523       10      -0.00067583      -0.00115784      -0.00102226
S        3.76528826       8.94153376       1.13044957       11       0.00082731      -0.00132205      -0.00166051
S        3.59737108       6.07371245       4.06751586       12      -0.00276691      -0.00174126       0.00268282
S        8.74482922       1.04547558       3.69516465       13       0.00004071      -0.00335097      -0.00391547
S        8.81725597       6.23323070       8.91645596       14      -0.00071052       0.00149177       0.00166603
S        3.81611339       1.19740804       8.74175183       15      -0.00130246      -0.00181310      -0.00094440
S        6.00979015       3.69742960       3.87952258       16       0.00111492      -0.00107676      -0.00060746
S        1.28625134       8.94674110       3.77637900       17       0.00547967       0.00338905       0.00293774
S        1.14282103       3.88072847       8.84067893       18       0.00068367       0.00171450      -0.00118320
S        6.20111056       8.88171087       8.85438052       19       0.00190279       0.00200814      -0.00027506
Li       6.93559832       9.75393299       2.87048251       21      -0.01899802       0.00110932       0.02229287
Li       7.86237411       4.71191953       7.24380761       22      -0.00001663       0.00033820       0.00027854
Li       1.91802299       9.90108732       7.84277019       23      -0.01732702       0.00112235       0.01344193
Li       8.25600804       8.21357337       0.36492217       24      -0.00021250       0.00673785       0.00471916
Li       2.57761690       2.58847590       0.27879529       25       0.00165161       0.00196748      -0.00109438
Li       3.00035322       8.08132887       5.49263987       26       0.00318107       0.00177304       0.00339713
Li       8.08837030       2.83910115       5.23188496       27       0.00469477      -0.00260080       0.00017399
Li       7.95343632       2.02260653       9.71059075       28       0.00043239      -0.00146955      -0.00123472
Li       3.16058205       4.74438818      12.13503217       29      -0.00075333       0.00060964       0.00045349
Li       2.09548738       2.82059083       4.93960882       30      -0.00272976       0.00253253      -0.00012854
Li       7.89580624       6.81584580       4.47339300       31      -0.00257215      -0.00074118       0.00004051
Li       2.95835593       5.43435549       8.05516182       32       0.00104030       0.00154262      -0.00115416
Li       8.22233274       0.23532124       7.66501179       33       0.00145256       0.00061105      -0.00393634
Li       6.83245029       5.07514282       1.99740439       34       0.00096447       0.00069785       0.00093574
Li       3.08598073       0.50981854       3.01960374       35       0.00476772       0.00212829      -0.00339862
Li       0.33925545       4.35202481       2.96343804       36      -0.00084460      -0.00071831      -0.00112727
Li       4.97832791       7.86949727       3.24477948       37      -0.00652875      -0.00664421      -0.00956312
Li       5.30416647       3.23590587       8.52740685       38      -0.00023908      -0.00244432       0.00099972
Li       1.98081423       7.80716934       9.93731180       39       0.00298611      -0.00455336       0.00171371
Li       0.20814231       6.91577667       6.94688418       40       0.00079562      -0.00009652       0.00193696
Li       5.31131219       1.57654586       6.29963015       41       0.00131625       0.00188108      -0.00298222
Li       5.48030107       7.21485437       0.42641822       42       0.00387943      -0.00101230      -0.00396951
Li       0.12610413       1.54465565       1.81414378       43       0.00139264      -0.00043464      -0.00225849
Cl       9.64430501      10.19768829       9.87170706       44       0.00771035       0.00153600      -0.00699466
Cl       4.68049194       4.95395053       0.12800974       45      -0.00125433      -0.00039989      -0.00054807
Cl       4.77240668      -0.21000894       4.65805104       46       0.01359642       0.00017071      -0.00950899
Cl       9.50287079       4.93001124       5.14577882       47      -0.00006539      -0.00168148      -0.00064217
S        2.10103224       2.66000501       2.57727446       48       0.00028687       0.00009476      -0.00071478
S        7.05579423       7.41931105       2.28965717       49      -0.00206272       0.00077122       0.00081038
S        7.26234870       2.42127196       7.46170992       50       0.00005740      -0.00021681      -0.00076928
S        2.29852663       7.63133193       7.67043152       51       0.00000184       0.00248012       0.00171671
