103
Lattice="20.110191271466377 0.0 0.0 0.0 10.055095635733188 0.0 0.0 0.0 10.055095635733188" Properties=species:S:1:pos:R:3:spacegroup_kinds:I:1:forces:R:3 spacegroup="P 1" unit_cell=conventional occupancy="_JSON {\"0\": {\"P\": 1.0}, \"1\": {\"P\": 1.0}, \"2\": {\"P\": 1.0}, \"3\": {\"P\": 1.0}, \"4\": {\"S\": 1.0}, \"5\": {\"S\": 1.0}, \"6\": {\"S\": 1.0}, \"7\": {\"S\": 1.0}, \"8\": {\"S\": 1.0}, \"9\": {\"S\": 1.0}, \"10\": {\"S\": 1.0}, \"11\": {\"S\": 1.0}, \"12\": {\"S\": 1.0}, \"13\": {\"S\": 1.0}, \"14\": {\"S\": 1.0}, \"15\": {\"S\": 1.0}, \"16\": {\"S\": 1.0}, \"17\": {\"S\": 1.0}, \"18\": {\"S\": 1.0}, \"19\": {\"S\": 1.0}, \"20\": {\"Li\": 1.0}, \"21\": {\"Li\": 1.0}, \"22\": {\"Li\": 1.0}, \"23\": {\"Li\": 1.0}, \"24\": {\"Li\": 1.0}, \"25\": {\"Li\": 1.0}, \"26\": {\"Li\": 1.0}, \"27\": {\"Li\": 1.0}, \"28\": {\"Li\": 1.0}, \"29\": {\"Li\": 1.0}, \"30\": {\"Li\": 1.0}, \"31\": {\"Li\": 1.0}, \"32\": {\"Li\": 1.0}, \"33\": {\"Li\": 1.0}, \"34\": {\"Li\": 1.0}, \"35\": {\"Li\": 1.0}, \"36\": {\"Li\": 1.0}, \"37\": {\"Li\": 1.0}, \"38\": {\"Li\": 1.0}, \"39\": {\"Li\": 1.0}, \"40\": {\"Li\": 1.0}, \"41\": {\"Li\": 1.0}, \"42\": {\"Li\": 1.0}, \"43\": {\"Li\": 1.0}, \"44\": {\"Cl\": 1.0}, \"45\": {\"Cl\": 1.0}, \"46\": {\"Cl\": 1.0}, \"47\": {\"Cl\": 1.0}, \"48\": {\"S\": 1.0}, \"49\": {\"S\": 1.0}, \"50\": {\"S\": 1.0}, \"51\": {\"S\": 1.0}}" charge=0 spin=0 energy=-429.53851003368715 free_energy=-429.53851003368715 stress="-0.00209873364215755 -0.0007246906989583102 -0.0003528115049079727 -0.0007246906989583102 0.002384774040910022 -0.0008669807693301514 -0.0003528115049079727 -0.0008669807693301514 0.0022161480463037146" pbc="T T T"
P        4.83950747       4.94935328       5.09955720        0       0.00358252       0.00797561       0.00645526
P       -0.12115157      10.02255217       5.01975283        1       0.02031497      -0.01053621      -0.00835915
P       -0.17217790       5.00523715      10.10857984        2       0.01946325      -0.01082821      -0.00834578
P        4.80393580      -0.04215336      10.11477315        3      -0.00038644      -0.00372062       0.00361488
S        6.07152137       5.98124881       6.38576827        4      -0.00088378      -0.00146174      -0.00184533
S        1.06188196       1.20762064       6.16257959        5       0.00395330       0.00840524       0.00593249
S        0.92220968       6.20947281       1.26366187        6       0.00374774       0.00778969       0.00714107
S        6.03786458       0.95556346       1.34381124        7       0.00207714       0.00537942       0.00663963
S        3.61352360       3.77426301       6.27973017        8       0.00054167      -0.00016247       0.00257629
S        8.64472379       8.80461139       6.19731566        9      -0.00032608       0.00598930       0.00363977
S        8.52484470       3.82237755       1.11310671       10       0.00400766       0.00201552       0.00553671
S        3.50626222       8.83468256       1.14111171       11       0.00325788       0.00432251      -0.00012494
S        3.71320476       6.29566493       3.99853349       12       0.00116777      -0.00149249       0.00210065
S        8.66903374       0.97932795       3.67352263       13       0.00364032       0.00507225       0.00291903
S        8.80310866       6.08791786       8.63464829       14       0.00681317       0.00433392       0.00690312
S        3.76680555       1.31769538       8.95311928       15       0.00118180       0.00567649       0.00165294
S        5.85352432       3.79327541       3.77558353       16       0.00342650      -0.00184236      -0.00008694
S        1.02966396       8.81255004       3.87212079       17      -0.00817265       0.01333923       0.01572281
S        0.99165442       3.73071752       8.98280327       18      -0.00349800       0.01342439       0.01107955
S        5.81766224       8.78006342       8.81776208       19       0.00264134       0.00572297       0.00459045
Li       8.09086048       9.49164399       1.76599484       21       0.00200771       0.00332413       0.00424954
Li       8.09768025       4.46845708       6.72323898       22       0.00507818       0.00630480       0.00862595
Li       2.08446899       9.93631961       7.90351898       23       0.00424961       0.00230317       0.00113015
Li       6.97869255       6.99461769       0.06212977       24       0.00278121       0.00522969       0.00530527
Li       2.98212449       3.17050869       0.46506810       25      -0.29470268      -0.34613577      -0.29944268
Li       2.96387989       8.17861840       5.45487251       26       0.00445605       0.00359398       0.00128240
Li       6.81165180       1.92267348       5.06618218       27       0.01303188       0.01307472       0.00403349
Li       7.34666314       2.21560922       9.75128179       28       0.00091213       0.00419381       0.00502844
Li       3.86794030       7.29724884       9.24143769       29       0.00416609       0.00213669       0.00131052
Li       3.08682908       1.95063269       4.66019219       30       0.00196771      -0.00055379      -0.00012178
Li       7.10458602       7.51872927       4.77642661       31      -0.00310643       0.00698457       0.00452178
Li       2.35210387       5.28466717       7.67526753       32       0.00092229       0.00167725       0.00146017
Li       8.97841161       0.79533886       7.66215015       33      -0.00032661       0.00288510       0.00828407
Li       8.77867874       5.82683687       2.70996529       34       0.00338446       0.00174944       0.00519268
Li       1.98297225       0.31848283       2.22661541       35      -0.00040483      -0.00001825       0.00226246
Li       1.97856853       4.82793655       3.08369960       36      -0.00249741       0.00387764       0.00203655
Li       5.30624904       9.04495001       2.84390499       37      -0.00141046       0.00074524       0.00252224
Li       5.44781409       3.92866706       7.91532718       38       0.00042733       0.00430008       0.00227710
Li       0.58476482       7.82842508       9.49568786       39       0.00463166       0.00401438       0.00117589
Li       0.10055786       6.95877966       6.62327304       40       0.00478438       0.00603041      -0.00378304
Li       5.51951914       0.64564165       7.29287844       41       0.00211833       0.00350941       0.00158002
Li       5.39532767       5.69287497       2.25199797       42       0.00043359       0.00333912       0.00497867
Li      -0.04917533       2.58788069       2.58432545       43       0.00249336       0.00216524      -0.00022955
Cl       9.59297730      10.10497972       9.92789208       44       0.00436576       0.00581587       0.00719691
Cl       4.73177413       5.13025797      -0.09470607       45       0.00441400       0.00214716       0.00356649
Cl       4.76745034       0.02954560       5.04331571       46      -0.00254773      -0.00348350       0.00372765
Cl       9.74071645       5.01176864       4.86573843       47       0.00551546       0.00119783       0.00592135
S        2.21253498       2.57795331       2.57925322       48       0.00055809       0.00165073       0.00339656
S        7.05934502       7.43333973       2.41365971       49       0.00281546       0.00259682       0.00518963
S        7.19786181       2.35351934       7.40664903       50       0.00251359       0.00536414       0.00429301
S        2.14120190       7.61124333       7.64744966       51       0.00290636       0.00253186       0.00155542
P       14.94982167       5.12289524       5.01409459        0       0.00377400       0.00142122      -0.00151013
P        9.84964959       9.87197628       4.91252547        1      -0.00006347      -0.00109249       0.00557571
P        9.82651669       4.91120693      10.00381704        2       0.00342131       0.00788806       0.00379392
P       14.91050996       0.10134995      10.01392765        3      -0.00169398      -0.00198348       0.00336532
S       15.95560668       6.37926636       6.26605712        4       0.00740640       0.00219639      -0.00464604
S       10.93612584       1.15220593       6.08603356        5       0.00297777       0.00322616       0.00638569
S       10.78728257       6.22495548       1.20476238        6       0.00558493       0.00316017       0.00244130
S       16.06536496       1.15410964       1.25731178        7       0.00111013       0.00246874       0.00365130
S       13.77180329       3.87096075       6.16416628        8       0.00098554      -0.00244109      -0.00626871
S       18.77091963       8.86831134       6.22829929        9      -0.00238977       0.00539630       0.00904177
S       18.60651710       3.94755995       1.23115946       10      -0.00443006       0.00047761       0.00698219
S       13.59247604       8.89343087       0.93533579       11       0.00140844       0.00394912       0.00851599
S       13.76658108       6.26136885       3.73904635       12      -0.00044470       0.00385096       0.00762106
S       18.69529365       1.10391891       3.86352902       13      -0.00051732       0.00673938      -0.00034001
S       18.85505567       6.21143634       8.80609726       14      -0.00037930       0.00778635      -0.00265048
S       13.76622577       1.41629363       8.90097325       15       0.00031408       0.00101240       0.00285784
S       16.15174841       3.97764150       3.81190845       16       0.01196515       0.00516720       0.00015131
S       11.01424736       8.62294852       3.82352054       17       0.00170750       0.00524074       0.00707733
S       11.07611563       3.61926562       9.03283123       18       0.00563887       0.00395542       0.00267395
S       15.97158986       8.94474010       8.72861349       19      -0.00138318      -0.00055053       0.00485100
Li      11.90913830       4.86683047       2.97894662       20       0.00368451       0.00736104       0.00243649
Li      17.97050384       9.68853649       2.04872495       21       0.00137755       0.00336316       0.00122284
Li      17.76385041       4.88627902       6.94846504       22       0.01453870      -0.00268226       0.00031226
Li      12.39441804       9.89916181       7.63683424       23       0.00342508       0.00361831       0.00110324
Li      17.59638936       7.77274117       0.14320937       24       0.00651199       0.00480069       0.00365600
Li      13.11273454       3.15708319       0.54278945       25       0.00708112       0.00682592      -0.00117278
Li      13.01340431       8.04284068       5.33896408       26       0.00658344       0.00397596      -0.00039966
Li      19.77469522       3.01297278       6.96381353       27       0.00556347      -0.01197816       0.02326809
Li      17.70884648       2.27107327       9.85967455       28      -0.01470835       0.01695624       0.00483263
Li      14.12567918       7.35275367       9.03430461       29       0.00125746      -0.00218058       0.00646331
Li      13.21753336       2.03494679       4.65854687       30       0.00805194      -0.01168366      -0.02291885
Li      17.14881510       7.88182136       4.75515831       31       0.00765699       0.00937919      -0.00289840
Li      12.61816683       5.21978833       7.90802155       32      -0.02175281       0.00956257      -0.00418056
Li      17.91864819       0.24209682       7.96724977       33      -0.00274900       0.00618792       0.00645609
Li      18.30614156       5.51500096       3.18709724       34       0.00726085       0.00585740       0.00716991
Li      12.54556596       0.19792209       2.69350517       35       0.00394111       0.00582164       0.00989405
Li      10.29037366       2.73089845       4.20139950       36       0.01155768       0.00232857       0.00634716
Li      15.04124886       8.48215340       2.82628602       37       0.00543617       0.00905376       0.00348751
Li      15.26810000       3.21482443       8.06497031       38      -0.00270941       0.00544300       0.00369295
Li      10.63781142       7.86443333       9.37426977       39       0.00264103       0.00310533       0.00244355
Li      10.25587440       6.93219535       6.41970101       40       0.00111628       0.00746691      -0.00390884
Li      16.96526095       2.14609621       5.28829426       41       0.00808763       0.00634165       0.00472449
Li      15.57265335       5.65985750       1.96877551       42       0.00975359      -0.00226784       0.00488903
Li      10.36849178       2.08086282       1.03402055       43       0.01171747       0.00526187       0.00543334
Cl      19.34475352       9.80176944      10.03223010       44       0.00370510       0.00309338       0.00222693
Cl      14.55512912       5.02934357      -0.23531341       45       0.01662842      -0.00310817       0.01350067
Cl      14.37852691      -0.08815733       4.60744847       46       0.00722005       0.00546084       0.00376059
Cl      19.63374733       5.01318445       5.31045355       47       0.00034091       0.01183814      -0.01108343
S       12.09574619       2.54180148       2.62609092       48       0.00310163       0.00690743      -0.00334057
S       17.13816160       7.48194746       2.44932092       49       0.00153522       0.00310148       0.00053107
S       17.49469162       2.57183851       7.53683416       50       0.00231476       0.00258900       0.00534215
S       12.23525119       7.54931550       7.57028041       51       0.00234874       0.00837529       0.00086897
103
Lattice="20.110191271466377 0.0 0.0 0.0 10.055095635733188 0.0 0.0 0.0 10.055095635733188" Properties=species:S:1:pos:R:3:spacegroup_kinds:I:1:forces:R:3 spacegroup="P 1" unit_cell=conventional occupancy="_JSON {\"0\": {\"P\": 1.0}, \"1\": {\"P\": 1.0}, \"2\": {\"P\": 1.0}, \"3\": {\"P\": 1.0}, \"4\": {\"S\": 1.0}, \"5\": {\"S\": 1.0}, \"6\": {\"S\": 1.0}, \"7\": {\"S\": 1.0}, \"8\": {\"S\": 1.0}, \"9\": {\"S\": 1.0}, \"10\": {\"S\": 1.0}, \"11\": {\"S\": 1.0}, \"12\": {\"S\": 1.0}, \"13\": {\"S\": 1.0}, \"14\": {\"S\": 1.0}, \"15\": {\"S\": 1.0}, \"16\": {\"S\": 1.0}, \"17\": {\"S\": 1.0}, \"18\": {\"S\": 1.0}, \"19\": {\"S\": 1.0}, \"20\": {\"Li\": 1.0}, \"21\": {\"Li\": 1.0}, \"22\": {\"Li\": 1.0}, \"23\": {\"Li\": 1.0}, \"24\": {\"Li\": 1.0}, \"25\": {\"Li\": 1.0}, \"26\": {\"Li\": 1.0}, \"27\": {\"Li\": 1.0}, \"28\": {\"Li\": 1.0}, \"29\": {\"Li\": 1.0}, \"30\": {\"Li\": 1.0}, \"31\": {\"Li\": 1.0}, \"32\": {\"Li\": 1.0}, \"33\": {\"Li\": 1.0}, \"34\": {\"Li\": 1.0}, \"35\": {\"Li\": 1.0}, \"36\": {\"Li\": 1.0}, \"37\": {\"Li\": 1.0}, \"38\": {\"Li\": 1.0}, \"39\": {\"Li\": 1.0}, \"40\": {\"Li\": 1.0}, \"41\": {\"Li\": 1.0}, \"42\": {\"Li\": 1.0}, \"43\": {\"Li\": 1.0}, \"44\": {\"Cl\": 1.0}, \"45\": {\"Cl\": 1.0}, \"46\": {\"Cl\": 1.0}, \"47\": {\"Cl\": 1.0}, \"48\": {\"S\": 1.0}, \"49\": {\"S\": 1.0}, \"50\": {\"S\": 1.0}, \"51\": {\"S\": 1.0}}" charge=0 spin=0 energy=-429.53851003368715 free_energy=-429.53851003368715 stress="-0.00209873364215755 -0.0007246906989583102 -0.0003528115049079727 -0.0007246906989583102 0.002384774040910022 -0.0008669807693301514 -0.0003528115049079727 -0.0008669807693301514 0.0022161480463037146" pbc="T T T"
P        4.83874455       4.94927692       5.10034175        0       0.00358252       0.00797561       0.00645526
P       -0.12160476      10.02354347       5.02076377        1       0.02031497      -0.01053621      -0.00835915
P       -0.17212486       5.00513676      10.10915279        2       0.01946325      -0.01082821      -0.00834578
P        4.80347046      -0.04092661      10.11474027        3      -0.00038644      -0.00372062       0.00361488
S        6.07178064       5.98088849       6.38577201        4      -0.00088378      -0.00146174      -0.00184533
S        1.06176821       1.20772222       6.16286628        5       0.00395330       0.00840524       0.00593249
S        0.92233505       6.21015893       1.26389537        6       0.00374774       0.00778969       0.00714107
S        6.03599568       0.95806500       1.34373134        7       0.00207714       0.00537942       0.00663963
S        3.61207290       3.77476524       6.27988280        8       0.00054167      -0.00016247       0.00257629
S        8.64490374       8.80538849       6.19804983        9      -0.00032608       0.00598930       0.00363977
S        8.52491600       3.82340003       1.11239614       10       0.00400766       0.00201552       0.00553671
S        3.50718517       8.83478924       1.14168447       11       0.00325788       0.00432251      -0.00012494
S        3.71289576       6.29612790       3.99936083       12       0.00116777      -0.00149249       0.00210065
S        8.66757925       0.97889839       3.67354570       13       0.00364032       0.00507225       0.00291903
S        8.80307270       6.08777109       8.63513679       14       0.00681317       0.00433392       0.00690312
S        3.76628838       1.31731617       8.95178806       15       0.00118180       0.00567649       0.00165294
S        5.85228236       3.79266425       3.77701819       16       0.00342650      -0.00184236      -0.00008694
S        1.02930588       8.81335481       3.87222220       17      -0.00817265       0.01333923       0.01572281
S        0.99312472       3.73309269       8.98321324       18      -0.00349800       0.01342439       0.01107955
S        5.81751815       8.78132684       8.81762173       19       0.00264134       0.00572297       0.00459045
Li       8.09227770       9.49270709       1.76241434       21       0.00200771       0.00332413       0.00424954
Li       8.09685106       4.46881277       6.72200156       22       0.00507818       0.00630480       0.00862595
Li       2.08351472       9.93527988       7.90291692       23       0.00424961       0.00230317       0.00113015
Li       6.97895176       6.99447851       0.06265825       24       0.00278121       0.00522969       0.00530527
Li       2.98016757       3.17021344       0.46227088       25      -0.29470268      -0.34613577      -0.29944268
Li       2.96374371       8.18085542       5.45590620       26       0.00445605       0.00359398       0.00128240
Li       6.81023257       1.92237073       5.06635890       27       0.01303188       0.01307472       0.00403349
Li       7.34825637       2.21559898       9.75080879       28       0.00091213       0.00419381       0.00502844
Li       3.86869420       7.29813409       9.24168573       29       0.00416609       0.00213669       0.00131052
Li       3.08472243       1.95219767       4.65801856       30       0.00196771      -0.00055379      -0.00012178
Li       7.10584810       7.51757392       4.77726503       31      -0.00310643       0.00698457       0.00452178
Li       2.35194090       5.28321561       7.67513138       32       0.00092229       0.00167725       0.00146017
Li       8.97781538       0.79564534       7.66235422       33      -0.00032661       0.00288510       0.00828407
Li       8.77936053       5.82342601       2.71108651       34       0.00338446       0.00174944       0.00519268
Li       1.98190269       0.31850488       2.22752722       35      -0.00040483      -0.00001825       0.00226246
Li       1.97969428       4.82853109       3.08610770       36      -0.00249741       0.00387764       0.00203655
Li       5.30628473       9.04496536       2.84272752       37      -0.00141046       0.00074524       0.00252224
Li       5.44849242       3.92904172       7.91605734       38       0.00042733       0.00430008       0.00227710
Li       0.58406304       7.82956738       9.49426623       39       0.00463166       0.00401438       0.00117589
Li       0.10014434       6.95731633       6.62372850       40       0.00478438       0.00603041      -0.00378304
Li       5.51849953       0.64594801       7.29307627       41       0.00211833       0.00350941       0.00158002
Li       5.39690770       5.69327474       2.25275216       42       0.00043359       0.00333912       0.00497867
Li      -0.04771012       2.58783471       2.58376337       43       0.00249336       0.00216524      -0.00022955
Cl       9.59521787      10.10636968       9.92798238       44       0.00436576       0.00581587       0.00719691
Cl       4.73168219       5.13005931      -0.09412413       45       0.00441400       0.00214716       0.00356649
Cl       4.76662245       0.02812767       5.04441342       46      -0.00254773      -0.00348350       0.00372765
Cl       9.74070074       5.01301773       4.86696171       47       0.00551546       0.00119783       0.00592135
S        2.21355976       2.57758390       2.57714171       48       0.00055809       0.00165073       0.00339656
S        7.05933660       7.43332531       2.41407912       49       0.00281546       0.00259682       0.00518963
S        7.19872976       2.35344189       7.40616423       50       0.00251359       0.00536414       0.00429301
S        2.13984007       7.61102204       7.64885664       51       0.00290636       0.00253186       0.00155542
P       14.95009857       5.12192702       5.01368620        0       0.00377400       0.00142122      -0.00151013
P        9.84903523       9.87247471       4.91208896        1      -0.00006347      -0.00109249       0.00557571
P        9.82732895       4.91083058      10.00378488        2       0.00342131       0.00788806       0.00379392
P       14.91192136       0.10170681      10.01209057        3      -0.00169398      -0.00198348       0.00336532
S       15.95480664       6.37966005       6.26499278        4       0.00740640       0.00219639      -0.00464604
S       10.93562150       1.15290302       6.08563389        5       0.00297777       0.00322616       0.00638569
S       10.78858948       6.22349346       1.20611737        6       0.00558493       0.00316017       0.00244130
S       16.06502638       1.15450579       1.25702256        7       0.00111013       0.00246874       0.00365130
S       13.77201566       3.87047740       6.16390929        8       0.00098554      -0.00244109      -0.00626871
S       18.77116664       8.86747843       6.22815497        9      -0.00238977       0.00539630       0.00904177
S       18.60580711       3.94735647       1.23082038       10      -0.00443006       0.00047761       0.00698219
S       13.59321561       8.89497587       0.93334938       11       0.00140844       0.00394912       0.00851599
S       13.76526715       6.26007114       3.74015605       12      -0.00044470       0.00385096       0.00762106
S       18.69509487       1.10501309       3.86444840       13      -0.00051732       0.00673938      -0.00034001
S       18.85320972       6.20927758       8.80639094       14      -0.00037930       0.00778635      -0.00265048
S       13.76839110       1.41699588       8.89887675       15       0.00031408       0.00101240       0.00285784
S       16.15492935       3.97878878       3.81253001       16       0.01196515       0.00516720       0.00015131
S       11.01444817       8.62441056       3.82344189       17       0.00170750       0.00524074       0.00707733
S       11.07688513       3.61983307       9.03215246       18       0.00563887       0.00395542       0.00267395
S       15.97260325       8.94439852       8.72731286       19      -0.00138318      -0.00055053       0.00485100
Li      11.91010122       4.86544365       2.97884899       20       0.00368451       0.00736104       0.00243649
Li      17.97151848       9.68894481       2.05031059       21       0.00137755       0.00336316       0.00122284
Li      17.75827826       4.88777833       6.95188998       22       0.01453870      -0.00268226       0.00031226
Li      12.39525996       9.89925014       7.63609320       23       0.00342508       0.00361831       0.00110324
Li      17.59646544       7.77250577       0.14299352       24       0.00651199       0.00480069       0.00365600
Li      13.11297314       3.15580724       0.54235095       25       0.00708112       0.00682592      -0.00117278
Li      13.01382709       8.04388157       5.33828696       26       0.00658344       0.00397596      -0.00039966
Li      19.77424498       3.01119354       6.96458995       27       0.00556347      -0.01197816       0.02326809
Li      17.70921635       2.27117106       9.86140055       28      -0.01470835       0.01695624       0.00483263
Li      14.12598693       7.35347585       9.03344763       29       0.00125746      -0.00218058       0.00646331
Li      13.21039565       2.03344749       4.66380159       30       0.00805194      -0.01168366      -0.02291885
Li      17.15045949       7.87924285       4.75437951       31       0.00765699       0.00937919      -0.00289840
Li      12.61999331       5.21928526       7.90778441       32      -0.02175281       0.00956257      -0.00418056
Li      17.91799912       0.24039022       7.96558264       33      -0.00274900       0.00618792       0.00645609
Li      18.30878885       5.51502924       3.18847111       34       0.00726085       0.00585740       0.00716991
Li      12.54682053       0.19997332       2.69248579       35       0.00394111       0.00582164       0.00989405
Li      10.28845168       2.73175512       4.19963464       36       0.01155768       0.00232857       0.00634716
Li      15.04135426       8.48035353       2.82585378       37       0.00543617       0.00905376       0.00348751
Li      15.26809540       3.21307450       8.06671214       38      -0.00270941       0.00544300       0.00369295
Li      10.63674237       7.86447081       9.37361577       39       0.00264103       0.00310533       0.00244355
Li      10.25507208       6.93096646       6.42323181       40       0.00111628       0.00746691      -0.00390884
Li      16.96439096       2.14400648       5.28650179       41       0.00808763       0.00634165       0.00472449
Li      15.57117156       5.66003342       1.96955514       42       0.00975359      -0.00226784       0.00488903
Li      10.37056860       2.08031835       1.03655736       43       0.01171747       0.00526187       0.00543334
Cl      19.34344147       9.80302861      10.03155917       44       0.00370510       0.00309338       0.00222693
Cl      14.55576074       5.02875910      -0.23524105       45       0.01662842      -0.00310817       0.01350067
Cl      14.37830517      -0.08878337       4.60808885       46       0.00722005       0.00546084       0.00376059
Cl      19.64169479       5.01435520       5.30411642       47       0.00034091       0.01183814      -0.01108343
S       12.09469534       2.54174904       2.62680662       48       0.00310163       0.00690743      -0.00334057
S       17.13764891       7.48174002       2.44864088       49       0.00153522       0.00310148       0.00053107
S       17.49451984       2.57120000       7.53629224       50       0.00231476       0.00258900       0.00534215
S       12.23562027       7.54978160       7.57103756       51       0.00234874       0.00837529       0.00086897
103
Lattice="20.110191271466377 0.0 0.0 0.0 10.055095635733188 0.0 0.0 0.0 10.055095635733188" Properties=species:S:1:pos:R:3:spacegroup_kinds:I:1:forces:R:3 spacegroup="P 1" unit_cell=conventional occupancy="_JSON {\"0\": {\"P\": 1.0}, \"1\": {\"P\": 1.0}, \"2\": {\"P\": 1.0}, \"3\": {\"P\": 1.0}, \"4\": {\"S\": 1.0}, \"5\": {\"S\": 1.0}, \"6\": {\"S\": 1.0}, \"7\": {\"S\": 1.0}, \"8\": {\"S\": 1.0}, \"9\": {\"S\": 1.0}, \"10\": {\"S\": 1.0}, \"11\": {\"S\": 1.0}, \"12\": {\"S\": 1.0}, \"13\": {\"S\": 1.0}, \"14\": {\"S\": 1.0}, \"15\": {\"S\": 1.0}, \"16\": {\"S\": 1.0}, \"17\": {\"S\": 1.0}, \"18\": {\"S\": 1.0}, \"19\": {\"S\": 1.0}, \"20\": {\"Li\": 1.0}, \"21\": {\"Li\": 1.0}, \"22\": {\"Li\": 1.0}, \"23\": {\"Li\": 1.0}, \"24\": {\"Li\": 1.0}, \"25\": {\"Li\": 1.0}, \"26\": {\"Li\": 1.0}, \"27\": {\"Li\": 1.0}, \"28\": {\"Li\": 1.0}, \"29\": {\"Li\": 1.0}, \"30\": {\"Li\": 1.0}, \"31\": {\"Li\": 1.0}, \"32\": {\"Li\": 1.0}, \"33\": {\"Li\": 1.0}, \"34\": {\"Li\": 1.0}, \"35\": {\"Li\": 1.0}, \"36\": {\"Li\": 1.0}, \"37\": {\"Li\": 1.0}, \"38\": {\"Li\": 1.0}, \"39\": {\"Li\": 1.0}, \"40\": {\"Li\": 1.0}, \"41\": {\"Li\": 1.0}, \"42\": {\"Li\": 1.0}, \"43\": {\"Li\": 1.0}, \"44\": {\"Cl\": 1.0}, \"45\": {\"Cl\": 1.0}, \"46\": {\"Cl\": 1.0}, \"47\": {\"Cl\": 1.0}, \"48\": {\"S\": 1.0}, \"49\": {\"S\": 1.0}, \"50\": {\"S\": 1.0}, \"51\": {\"S\": 1.0}}" charge=0 spin=0 energy=-429.53851003368715 free_energy=-429.53851003368715 stress="-0.00209873364215755 -0.0007246906989583102 -0.0003528115049079727 -0.0007246906989583102 0.002384774040910022 -0.0008669807693301514 -0.0003528115049079727 -0.0008669807693301514 0.0022161480463037146" pbc="T T T"
P        4.83414459       4.94347364       5.10324572        0       0.00358252       0.00797561       0.00645526
P       -0.13223027      10.01791875       5.02963033        1       0.02031497      -0.01053621      -0.00835915
P       -0.20700174       4.99108850      10.12300291        2       0.01946325      -0.01082821      -0.00834578
P        4.79489412      -0.05157400      10.11309613        3      -0.00038644      -0.00372062       0.00361488
S        6.06777019       5.96797384       6.39001822        4      -0.00088378      -0.00146174      -0.00184533
S        1.05323137       1.20378436       6.16703628        5       0.00395330       0.00840524       0.00593249
S        0.83214084       6.20719571       1.33512960        6       0.00374774       0.00778969       0.00714107
S        6.01942525       0.95617427       1.34135572        7       0.00207714       0.00537942       0.00663963
S        3.59738413       3.77304741       6.27763310        8       0.00054167      -0.00016247       0.00257629
S        8.58985357       8.79182836       6.20874901        9      -0.00032608       0.00598930       0.00363977
S        8.52283965       3.82824444       1.11929680       10       0.00400766       0.00201552       0.00553671
S        3.50319872       8.81850822       1.14124133       11       0.00325788       0.00432251      -0.00012494
S        3.72246545       6.29979101       3.99754519       12       0.00116777      -0.00149249       0.00210065
S        8.67040274       0.99088629       3.68461591       13       0.00364032       0.00507225       0.00291903
S        8.79979313       6.09071056       8.63329506       14       0.00681317       0.00433392       0.00690312
S        3.75361052       1.29728215       8.94163367       15       0.00118180       0.00567649       0.00165294
S        5.83734199       3.77972179       3.77900184       16       0.00342650      -0.00184236      -0.00008694
S        1.02052499       8.79892135       3.89026105       17      -0.00817265       0.01333923       0.01572281
S        0.99007687       3.74583001       9.00840350       18      -0.00349800       0.01342439       0.01107955
S        5.81530469       8.77352621       8.81832618       19       0.00264134       0.00572297       0.00459045
Li       8.09823736       9.50610261       1.78295946       21       0.00200771       0.00332413       0.00424954
Li       8.11277226       4.46034400       6.73074480       22       0.00507818       0.00630480       0.00862595
Li       2.06841995       9.92400344       7.90508584       23       0.00424961       0.00230317       0.00113015
Li       7.02232462       7.03105750       0.06701643       24       0.00278121       0.00522969       0.00530527
Li       3.00178799       3.13821187       0.45043147       25      -0.29470268      -0.34613577      -0.29944268
Li       2.97307702       8.17831318       5.46866598       26       0.00445605       0.00359398       0.00128240
Li       6.83426531       1.93657224       5.07420091       27       0.01303188       0.01307472       0.00403349
Li       7.34493418       2.22230343       9.75868157       28       0.00091213       0.00419381       0.00502844
Li       3.88063554       7.28713768       9.23465860       29       0.00416609       0.00213669       0.00131052
Li       3.09846070       1.94802030       4.64979423       30       0.00196771      -0.00055379      -0.00012178
Li       7.10429267       7.49619096       4.77593085       31      -0.00310643       0.00698457       0.00452178
Li       2.34413991       5.28000061       7.67220424       32       0.00092229       0.00167725       0.00146017
Li       8.95588753       0.78374612       7.67719666       33      -0.00032661       0.00288510       0.00828407
Li       8.79684675       5.82670342       2.71446535       34       0.00338446       0.00174944       0.00519268
Li       1.97429768       0.29703287       2.22850287       35      -0.00040483      -0.00001825       0.00226246
Li       2.05653826       4.80973359       3.04204066       36      -0.00249741       0.00387764       0.00203655
Li       5.30966305       9.04127257       2.84353377       37      -0.00141046       0.00074524       0.00252224
Li       5.44178871       3.93266218       7.91662947       38       0.00042733       0.00430008       0.00227710
Li       0.57630413       7.82332377       9.51276061       39       0.00463166       0.00401438       0.00117589
Li       0.09318959       6.96199177       6.61871175       40       0.00478438       0.00603041      -0.00378304
Li       5.51997323       0.63500943       7.28665398       41       0.00211833       0.00350941       0.00158002
Li       5.42225630       5.68712823       2.25077398       42       0.00043359       0.00333912       0.00497867
Li      -0.04407327       2.59859267       2.60378985       43       0.00249336       0.00216524      -0.00022955
Cl       9.57710596      10.10750468       9.94465323       44       0.00436576       0.00581587       0.00719691
Cl       4.69370291       5.10722239      -0.08592703       45       0.00441400       0.00214716       0.00356649
Cl       4.73994443       0.01449523       5.04557300       46      -0.00254773      -0.00348350       0.00372765
Cl       9.74371702       5.00156847       4.86301845       47       0.00551546       0.00119783       0.00592135
S        2.21698765       2.55828948       2.56407708       48       0.00055809       0.00165073       0.00339656
S        7.06817258       7.43467863       2.41541057       49       0.00281546       0.00259682       0.00518963
S        7.18239431       2.35434381       7.41633226       50       0.00251359       0.00536414       0.00429301
S        2.12734415       7.60052314       7.66277529       51       0.00290636       0.00253186       0.00155542
P       14.88295309       5.09796718       5.03741957        0       0.00377400       0.00142122      -0.00151013
P        9.81339947       9.87175560       4.95016948        1      -0.00006347      -0.00109249       0.00557571
P        9.81973446       4.91428982      10.00312918        2       0.00342131       0.00788806       0.00379392
P       14.89411886       0.09808392      10.01957841        3      -0.00169398      -0.00198348       0.00336532
S       15.94330657       6.33636910       6.26237844        4       0.00740640       0.00219639      -0.00464604
S       10.88163049       1.13488478       6.13092519        5       0.00297777       0.00322616       0.00638569
S       10.79045470       6.22921747       1.19610998        6       0.00558493       0.00316017       0.00244130
S       16.05989567       1.14132698       1.26703923        7       0.00111013       0.00246874       0.00365130
S       13.67521089       3.87806245       6.17888680        8       0.00098554      -0.00244109      -0.00626871
S       18.75118419       8.86953223       6.23472542        9      -0.00238977       0.00539630       0.00904177
S       18.57778795       3.93846041       1.25032764       10      -0.00443006       0.00047761       0.00698219
S       13.57462405       8.90187563       0.94676748       11       0.00140844       0.00394912       0.00851599
S       13.75186305       6.26964298       3.74589234       12      -0.00044470       0.00385096       0.00762106
S       18.69947757       1.10311827       3.86252847       13      -0.00051732       0.00673938      -0.00034001
S       18.83912557       6.20448205       8.81845918       14      -0.00037930       0.00778635      -0.00265048
S       13.76925373       1.41556439       8.89625216       15       0.00031408       0.00101240       0.00285784
S       15.98506517       3.85523944       3.83068256       16       0.01196515       0.00516720       0.00015131
S       10.98174919       8.60839174       3.86858425       17       0.00170750       0.00524074       0.00707733
S       11.06160846       3.61969047       9.02682219       18       0.00563887       0.00395542       0.00267395
S       15.95943057       8.93940704       8.73670914       19      -0.00138318      -0.00055053       0.00485100
Li      11.90060459       4.86889441       2.96555192       20       0.00368451       0.00736104       0.00243649
Li      17.96335770       9.68753878       2.05503427       21       0.00137755       0.00336316       0.00122284
Li      17.75047261       4.88457137       6.96133440       22       0.01453870      -0.00268226       0.00031226
Li      12.40668157       9.91403451       7.59789743       23       0.00342508       0.00361831       0.00110324
Li      17.57781950       7.77941177       0.14576349       24       0.00651199       0.00480069       0.00365600
Li      13.09817885       3.16620259       0.51409159       25       0.00708112       0.00682592      -0.00117278
Li      13.00451191       8.05830396       5.33411831       26       0.00658344       0.00397596      -0.00039966
Li      19.77146038       3.00794357       6.98666595       27       0.00556347      -0.01197816       0.02326809
Li      17.63783780       2.30449812       9.87194837       28      -0.01470835       0.01695624       0.00483263
Li      14.10687008       7.35104812       9.04897595       29       0.00125746      -0.00218058       0.00646331
Li      13.70865548       2.25078769       4.32616473       30       0.00805194      -0.01168366      -0.02291885
Li      17.14099928       7.83032192       4.76394124       31       0.00765699       0.00937919      -0.00289840
Li      12.57696830       5.23554727       7.91228183       32      -0.02175281       0.00956257      -0.00418056
Li      17.90732462       0.24090152       7.98900091       33      -0.00274900       0.00618792       0.00645609
Li      18.68955891       5.74741504       3.00740261       34       0.00726085       0.00585740       0.00716991
Li      12.51373225       0.19481711       2.76022467       35       0.00394111       0.00582164       0.00989405
Li      10.37599325       2.69872749       4.24961172       36       0.01155768       0.00232857       0.00634716
Li      15.04017809       8.47709249       2.82178901       37       0.00543617       0.00905376       0.00348751
Li      15.23621338       3.22224909       8.03973748       38      -0.00270941       0.00544300       0.00369295
Li      10.62603858       7.87251839       9.35524342       39       0.00264103       0.00310533       0.00244355
Li      10.27157615       6.96590687       6.35394650       40       0.00111628       0.00746691      -0.00390884
Li      17.01863730       2.16036981       5.29974531       41       0.00808763       0.00634165       0.00472449
Li      15.61118090       5.61499199       2.00343788       42       0.00975359      -0.00226784       0.00488903
Li      10.37289958       2.08437911       1.03312400       43       0.01171747       0.00526187       0.00543334
Cl      19.34320438       9.78136950      10.04186983       44       0.00370510       0.00309338       0.00222693
Cl      14.56293132       5.02610662      -0.22789427       45       0.01662842      -0.00310817       0.01350067
Cl      14.38838806      -0.07898979       4.58731483       46       0.00722005       0.00546084       0.00376059
Cl      19.61983417       5.02699471       5.29840302       47       0.00034091       0.01183814      -0.01108343
S       12.11414027       2.54639642       2.60207555       48       0.00310163       0.00690743      -0.00334057
S       17.14260596       7.47387928       2.45344083       49       0.00153522       0.00310148       0.00053107
S       17.48744738       2.57687714       7.55036767       50       0.00231476       0.00258900       0.00534215
S       12.23283882       7.56200668       7.56555736       51       0.00234874       0.00837529       0.00086897
103
Lattice="20.110191271466377 0.0 0.0 0.0 10.055095635733188 0.0 0.0 0.0 10.055095635733188" Properties=species:S:1:pos:R:3:spacegroup_kinds:I:1:forces:R:3 spacegroup="P 1" unit_cell=conventional occupancy="_JSON {\"0\": {\"P\": 1.0}, \"1\": {\"P\": 1.0}, \"2\": {\"P\": 1.0}, \"3\": {\"P\": 1.0}, \"4\": {\"S\": 1.0}, \"5\": {\"S\": 1.0}, \"6\": {\"S\": 1.0}, \"7\": {\"S\": 1.0}, \"8\": {\"S\": 1.0}, \"9\": {\"S\": 1.0}, \"10\": {\"S\": 1.0}, \"11\": {\"S\": 1.0}, \"12\": {\"S\": 1.0}, \"13\": {\"S\": 1.0}, \"14\": {\"S\": 1.0}, \"15\": {\"S\": 1.0}, \"16\": {\"S\": 1.0}, \"17\": {\"S\": 1.0}, \"18\": {\"S\": 1.0}, \"19\": {\"S\": 1.0}, \"20\": {\"Li\": 1.0}, \"21\": {\"Li\": 1.0}, \"22\": {\"Li\": 1.0}, \"23\": {\"Li\": 1.0}, \"24\": {\"Li\": 1.0}, \"25\": {\"Li\": 1.0}, \"26\": {\"Li\": 1.0}, \"27\": {\"Li\": 1.0}, \"28\": {\"Li\": 1.0}, \"29\": {\"Li\": 1.0}, \"30\": {\"Li\": 1.0}, \"31\": {\"Li\": 1.0}, \"32\": {\"Li\": 1.0}, \"33\": {\"Li\": 1.0}, \"34\": {\"Li\": 1.0}, \"35\": {\"Li\": 1.0}, \"36\": {\"Li\": 1.0}, \"37\": {\"Li\": 1.0}, \"38\": {\"Li\": 1.0}, \"39\": {\"Li\": 1.0}, \"40\": {\"Li\": 1.0}, \"41\": {\"Li\": 1.0}, \"42\": {\"Li\": 1.0}, \"43\": {\"Li\": 1.0}, \"44\": {\"Cl\": 1.0}, \"45\": {\"Cl\": 1.0}, \"46\": {\"Cl\": 1.0}, \"47\": {\"Cl\": 1.0}, \"48\": {\"S\": 1.0}, \"49\": {\"S\": 1.0}, \"50\": {\"S\": 1.0}, \"51\": {\"S\": 1.0}}" charge=0 spin=0 energy=-429.53851003368715 free_energy=-429.53851003368715 stress="-0.00209873364215755 -0.0007246906989583102 -0.0003528115049079727 -0.0007246906989583102 0.002384774040910022 -0.0008669807693301514 -0.0003528115049079727 -0.0008669807693301514 0.0022161480463037146" pbc="T T T"
P        4.83450823       4.93915796       5.11136543        0       0.00358252       0.00797561       0.00645526
P       -0.16249807      10.02041696       5.06401684        1       0.02031497      -0.01053621      -0.00835915
P       -0.20378199       4.98794889      10.13551494        2       0.01946325      -0.01082821      -0.00834578
P        4.78267365      -0.06436497      10.12489896        3      -0.00038644      -0.00372062       0.00361488
S        6.06404864       5.95757035       6.40575753        4      -0.00088378      -0.00146174      -0.00184533
S        1.04148568       1.20454834       6.18285358        5       0.00395330       0.00840524       0.00593249
S        0.89408884       6.19576751       1.32411752        6       0.00374774       0.00778969       0.00714107
S        5.99728781       0.95365826       1.35641938        7       0.00207714       0.00537942       0.00663963
S        3.58695788       3.76828001       6.27283022        8       0.00054167      -0.00016247       0.00257629
S        8.55624955       8.80388953       6.24258153        9      -0.00032608       0.00598930       0.00363977
S        8.53991867       3.82265385       1.16731731       10       0.00400766       0.00201552       0.00553671
S        3.49415412       8.80070611       1.15080645       11       0.00325788       0.00432251      -0.00012494
S        3.74117804       6.30234782       3.99516189       12       0.00116777      -0.00149249       0.00210065
S        8.69627183       1.02396961       3.71462356       13       0.00364032       0.00507225       0.00291903
S        8.78356760       6.09101169       8.67399572       14       0.00681317       0.00433392       0.00690312
S        3.74280517       1.27351489       8.94097926       15       0.00118180       0.00567649       0.00165294
S        5.83514667       3.77169492       3.78703458       16       0.00342650      -0.00184236      -0.00008694
S        0.97010621       8.77064753       3.93013275       17      -0.00817265       0.01333923       0.01572281
S        0.97490609       3.72755030       9.02556669       18      -0.00349800       0.01342439       0.01107955
S        5.81320163       8.76368247       8.83456264       19       0.00264134       0.00572297       0.00459045
Li       8.09742580       9.53846741       1.83062553       21       0.00200771       0.00332413       0.00424954
Li       8.14066332       4.47697137       6.78297163       22       0.00507818       0.00630480       0.00862595
Li       2.05007927       9.90901444       7.91451394       23       0.00424961       0.00230317       0.00113015
Li       7.10012936       7.12663470       0.10271555       24       0.00278121       0.00522969       0.00530527
Li       3.00715323       3.09444907       0.44519378       25      -0.29470268      -0.34613577      -0.29944268
Li       2.97390329       8.17352583       5.47750966       26       0.00445605       0.00359398       0.00128240
Li       6.88639410       1.99280764       5.10633432       27       0.01303188       0.01307472       0.00403349
Li       7.29412189       2.27971291       9.79875973       28       0.00091213       0.00419381       0.00502844
Li       3.88920483       7.25388854       9.24184864       29       0.00416609       0.00213669       0.00131052
Li       3.10758438       1.92610842       4.64407102       30       0.00196771      -0.00055379      -0.00012178
Li       7.07553764       7.50870038       4.80553697       31      -0.00310643       0.00698457       0.00452178
Li       2.30044040       5.26417274       7.65077890       32       0.00092229       0.00167725       0.00146017
Li       8.92211733       0.77907828       7.74165559       33      -0.00032661       0.00288510       0.00828407
Li       8.81630065       5.83621007       2.74250186       34       0.00338446       0.00174944       0.00519268
Li       1.89643326       0.25618320       2.20738564       35      -0.00040483      -0.00001825       0.00226246
Li       2.17560111       4.77463309       2.96512762       36      -0.00249741       0.00387764       0.00203655
Li       5.29296850       9.03437513       2.85886261       37      -0.00141046       0.00074524       0.00252224
Li       5.42165991       3.94552143       7.92561168       38       0.00042733       0.00430008       0.00227710
Li       0.60000226       7.80912188       9.51743348       39       0.00463166       0.00401438       0.00117589
Li       0.08923777       7.00426185       6.61446631       40       0.00478438       0.00603041      -0.00378304
Li       5.52248810       0.62887242       7.29288356       41       0.00211833       0.00350941       0.00158002
Li       5.46319534       5.68381034       2.24946868       42       0.00043359       0.00333912       0.00497867
Li      -0.04539188       2.65038840       2.68374899       43       0.00249336       0.00216524      -0.00022955
Cl       9.57237044      10.08477026       9.98178924       44       0.00436576       0.00581587       0.00719691
Cl       4.65603088       5.05879650      -0.05698504       45       0.00441400       0.00214716       0.00356649
Cl       4.71629586      -0.01594691       5.06344516       46      -0.00254773      -0.00348350       0.00372765
Cl       9.77062358       5.00314291       4.87810897       47       0.00551546       0.00119783       0.00592135
S        2.21155456       2.51423444       2.55835453       48       0.00055809       0.00165073       0.00339656
S        7.08536879       7.45148544       2.44813416       49       0.00281546       0.00259682       0.00518963
S        7.17064043       2.36903029       7.45205250       50       0.00251359       0.00536414       0.00429301
S        2.13373410       7.58769544       7.66709897       51       0.00290636       0.00253186       0.00155542
P       14.84939358       5.09308158       5.03754050        0       0.00377400       0.00142122      -0.00151013
P        9.79017910       9.89620571       5.00939412        1      -0.00006347      -0.00109249       0.00557571
P        9.81036654       4.92167445      10.03402267        2       0.00342131       0.00788806       0.00379392
P       14.88339901       0.09789474      10.03315070        3      -0.00169398      -0.00198348       0.00336532
S       15.89871449       6.31826655       6.28557511        4       0.00740640       0.00219639      -0.00464604
S       10.84682651       1.14807145       6.20290350        5       0.00297777       0.00322616       0.00638569
S       10.79829398       6.24105771       1.20795015        6       0.00558493       0.00316017       0.00244130
S       16.05044100       1.14379356       1.28528711        7       0.00111013       0.00246874       0.00365130
S       13.61046050       3.85793326       6.12150059        8       0.00098554      -0.00244109      -0.00626871
S       18.71039704       8.90585952       6.28738572        9      -0.00238977       0.00539630       0.00904177
S       18.58807574       3.99732110       1.31654053       10      -0.00443006       0.00047761       0.00698219
S       13.56972846       8.90252440       0.96342864       11       0.00140844       0.00394912       0.00851599
S       13.76712218       6.28241908       3.72621402       12      -0.00044470       0.00385096       0.00762106
S       18.69164243       1.11785242       3.88634352       13      -0.00051732       0.00673938      -0.00034001
S       18.84595161       6.20821514       8.84043272       14      -0.00037930       0.00778635      -0.00265048
S       13.76818674       1.41457283       8.89954762       15       0.00031408       0.00101240       0.00285784
S       15.97850273       3.84054779       3.85454833       16       0.01196515       0.00516720       0.00015131
S       10.97453800       8.60795333       3.95759085       17       0.00170750       0.00524074       0.00707733
S       11.04825966       3.63029903       9.04005802       18       0.00563887       0.00395542       0.00267395
S       15.96486359       8.94344740       8.76222156       19      -0.00138318      -0.00055053       0.00485100
Li      11.92728303       4.86707543       2.93721723       20       0.00368451       0.00736104       0.00243649
Li      17.98012113       9.72070085       2.06165406       21       0.00137755       0.00336316       0.00122284
Li      17.74735290       4.90707751       6.96263384       22       0.01453870      -0.00268226       0.00031226
Li      12.40388869       9.91943284       7.60752254       23       0.00342508       0.00361831       0.00110324
Li      17.60812887       7.80836187       0.16427528       24       0.00651199       0.00480069       0.00365600
Li      13.10300448       3.18947236       0.49094057       25       0.00708112       0.00682592      -0.00117278
Li      13.10219041       8.07987833       5.35631396       26       0.00658344       0.00397596      -0.00039966
Li      19.75364497       3.00869575       7.01940544       27       0.00556347      -0.01197816       0.02326809
Li      17.38605362       2.56998637       9.90833306       28      -0.01470835       0.01695624       0.00483263
Li      14.10536057       7.31355078       9.05801070       29       0.00125746      -0.00218058       0.00646331
Li      13.95081786       2.32771067       4.09499782       30       0.00805194      -0.01168366      -0.02291885
Li      17.16970983       7.76408792       4.79703518       31       0.00765699       0.00937919      -0.00289840
Li      12.43926254       5.23361560       7.78376643       32      -0.02175281       0.00956257      -0.00418056
Li      17.93003210       0.29397925       8.10589270       33      -0.00274900       0.00618792       0.00645609
Li      18.99507207       6.00988724       2.92494315       34       0.00726085       0.00585740       0.00716991
Li      12.52109747       0.19040448       2.82310493       35       0.00394111       0.00582164       0.00989405
Li      10.47387312       2.69705143       4.29421903       36       0.01155768       0.00232857       0.00634716
Li      15.08224233       8.49752268       2.81285957       37       0.00543617       0.00905376       0.00348751
Li      15.17475092       3.24285286       7.97014964       38      -0.00270941       0.00544300       0.00369295
Li      10.59760821       7.85108348       9.31319419       39       0.00264103       0.00310533       0.00244355
Li      10.37741916       7.09703627       6.09665047       40       0.00111628       0.00746691      -0.00390884
Li      17.03034915       2.15761406       5.33639177       41       0.00808763       0.00634165       0.00472449
Li      15.73788117       5.59431146       2.01758180       42       0.00975359      -0.00226784       0.00488903
Li      10.39167261       2.07925969       1.02956646       43       0.01171747       0.00526187       0.00543334
Cl      19.39843017       9.73089232      10.08653609       44       0.00370510       0.00309338       0.00222693
Cl      14.64471417       4.99153233      -0.19408245       45       0.01662842      -0.00310817       0.01350067
Cl      14.41185225      -0.05357508       4.56786499       46       0.00722005       0.00546084       0.00376059
Cl      19.61006519       5.07437043       5.31613579       47       0.00034091       0.01183814      -0.01108343
S       12.14431240       2.54252100       2.58419761       48       0.00310163       0.00690743      -0.00334057
S       17.19235804       7.49977155       2.47604392       49       0.00153522       0.00310148       0.00053107
S       17.45954736       2.61400867       7.57984379       50       0.00231476       0.00258900       0.00534215
S       12.23541169       7.56851355       7.54902451       51       0.00234874       0.00837529       0.00086897
103
Lattice="20.110191271466377 0.0 0.0 0.0 10.055095635733188 0.0 0.0 0.0 10.055095635733188" Properties=species:S:1:pos:R:3:spacegroup_kinds:I:1:forces:R:3 spacegroup="P 1" unit_cell=conventional occupancy="_JSON {\"0\": {\"P\": 1.0}, \"1\": {\"P\": 1.0}, \"2\": {\"P\": 1.0}, \"3\": {\"P\": 1.0}, \"4\": {\"S\": 1.0}, \"5\": {\"S\": 1.0}, \"6\": {\"S\": 1.0}, \"7\": {\"S\": 1.0}, \"8\": {\"S\": 1.0}, \"9\": {\"S\": 1.0}, \"10\": {\"S\": 1.0}, \"11\": {\"S\": 1.0}, \"12\": {\"S\": 1.0}, \"13\": {\"S\": 1.0}, \"14\": {\"S\": 1.0}, \"15\": {\"S\": 1.0}, \"16\": {\"S\": 1.0}, \"17\": {\"S\": 1.0}, \"18\": {\"S\": 1.0}, \"19\": {\"S\": 1.0}, \"20\": {\"Li\": 1.0}, \"21\": {\"Li\": 1.0}, \"22\": {\"Li\": 1.0}, \"23\": {\"Li\": 1.0}, \"24\": {\"Li\": 1.0}, \"25\": {\"Li\": 1.0}, \"26\": {\"Li\": 1.0}, \"27\": {\"Li\": 1.0}, \"28\": {\"Li\": 1.0}, \"29\": {\"Li\": 1.0}, \"30\": {\"Li\": 1.0}, \"31\": {\"Li\": 1.0}, \"32\": {\"Li\": 1.0}, \"33\": {\"Li\": 1.0}, \"34\": {\"Li\": 1.0}, \"35\": {\"Li\": 1.0}, \"36\": {\"Li\": 1.0}, \"37\": {\"Li\": 1.0}, \"38\": {\"Li\": 1.0}, \"39\": {\"Li\": 1.0}, \"40\": {\"Li\": 1.0}, \"41\": {\"Li\": 1.0}, \"42\": {\"Li\": 1.0}, \"43\": {\"Li\": 1.0}, \"44\": {\"Cl\": 1.0}, \"45\": {\"Cl\": 1.0}, \"46\": {\"Cl\": 1.0}, \"47\": {\"Cl\": 1.0}, \"48\": {\"S\": 1.0}, \"49\": {\"S\": 1.0}, \"50\": {\"S\": 1.0}, \"51\": {\"S\": 1.0}}" charge=0 spin=0 energy=-429.53851003368715 free_energy=-429.53851003368715 stress="-0.00209873364215755 -0.0007246906989583102 -0.0003528115049079727 -0.0007246906989583102 0.002384774040910022 -0.0008669807693301514 -0.0003528115049079727 -0.0008669807693301514 0.0022161480463037146" pbc="T T T"
P        4.86081799       4.98885433       5.17285405        0       0.00358252       0.00797561       0.00645526
P       -0.14399537      10.06356765       5.14017651        1       0.02031497      -0.01053621      -0.00835915
P       -0.17655722       5.02926289      10.20046286        2       0.01946325      -0.01082821      -0.00834578
P        4.80839781      -0.01148846      10.19114128        3      -0.00038644      -0.00372062       0.00361488
S        6.08665566       6.01004455       6.46965955        4      -0.00088378      -0.00146174      -0.00184533
S        1.06371238       1.24981311       6.25402647        5       0.00395330       0.00840524       0.00593249
S        0.94113025       6.22682024       1.38268460        6       0.00374774       0.00778969       0.00714107
S        6.02493772       1.00679796       1.42183447        7       0.00207714       0.00537942       0.00663963
S        3.61310783       3.81496004       6.33118759        8       0.00054167      -0.00016247       0.00257629
S        8.58198959       8.86771410       6.28823014        9      -0.00032608       0.00598930       0.00363977
S        8.58875952       3.86498250       1.22874784       10       0.00400766       0.00201552       0.00553671
S        3.52307629       8.85088284       1.21765812       11       0.00325788       0.00432251      -0.00012494
S        3.76434368       6.34861735       4.05628380       12       0.00116777      -0.00149249       0.00210065
S        8.72911293       1.09452273       3.76469395       13       0.00364032       0.00507225       0.00291903
S        8.81259945       6.13773008       8.73589435       14       0.00681317       0.00433392       0.00690312
S        3.76567499       1.32553640       9.01014410       15       0.00118180       0.00567649       0.00165294
S        5.86904716       3.82767540       3.84848671       16       0.00342650      -0.00184236      -0.00008694
S        0.98750093       8.80469144       4.01268814       17      -0.00817265       0.01333923       0.01572281
S        0.99910738       3.75957340       9.09744182       18      -0.00349800       0.01342439       0.01107955
S        5.84165815       8.81895048       8.89978636       19       0.00264134       0.00572297       0.00459045
Li       8.12568401       9.59440342       1.89244631       21       0.00200771       0.00332413       0.00424954
Li       8.16132561       4.53399168       6.84293866       22       0.00507818       0.00630480       0.00862595
Li       2.06678419       9.95290200       7.99296684       23       0.00424961       0.00230317       0.00113015
Li       7.14185149       7.19434244       0.16653685       24       0.00278121       0.00522969       0.00530527
Li       3.02495701       3.14561679       0.52676718       25      -0.29470268      -0.34613577      -0.29944268
Li       3.01066038       8.22071826       5.54584449       26       0.00445605       0.00359398       0.00128240
Li       6.91982639       2.05238025       5.16879808       27       0.01303188       0.01307472       0.00403349
Li       7.31432626       2.33910794       9.86344044       28       0.00091213       0.00419381       0.00502844
Li       3.92219712       7.30416449       9.30872669       29       0.00416609       0.00213669       0.00131052
Li       3.11909772       1.95699006       4.71699102       30       0.00196771      -0.00055379      -0.00012178
Li       7.08614698       7.56704171       4.86872511       31      -0.00310643       0.00698457       0.00452178
Li       2.33367546       5.30433149       7.73453984       32       0.00092229       0.00167725       0.00146017
Li       8.95130980       0.83381184       7.79967724       33      -0.00032661       0.00288510       0.00828407
Li       8.85205951       5.88714698       2.80640813       34       0.00338446       0.00174944       0.00519268
Li       1.89351257       0.29064584       2.26470140       35      -0.00040483      -0.00001825       0.00226246
Li       2.17415462       4.80297323       3.08276283       36      -0.00249741       0.00387764       0.00203655
Li       5.32031143       9.08858605       2.92065509       37      -0.00141046       0.00074524       0.00252224
Li       5.44306682       3.99403596       7.98775505       38       0.00042733       0.00430008       0.00227710
Li       0.63964274       7.83658885       9.57704147       39       0.00463166       0.00401438       0.00117589
Li       0.13413530       7.06864478       6.64933384       40       0.00478438       0.00603041      -0.00378304
Li       5.54420848       0.68554643       7.35854174       41       0.00211833       0.00350941       0.00158002
Li       5.48290502       5.73890984       2.30795906       42       0.00043359       0.00333912       0.00497867
Li      -0.03354527       2.69145730       2.74292535       43       0.00249336       0.00216524      -0.00022955
Cl       9.60383978      10.12302084      10.03300987       44       0.00436576       0.00581587       0.00719691
Cl       4.67861039       5.10292407       0.00227193       45       0.00441400       0.00214716       0.00356649
Cl       4.74585846       0.02608701       5.12959651       46      -0.00254773      -0.00348350       0.00372765
Cl       9.81481907       5.05504174       4.95548177       47       0.00551546       0.00119783       0.00592135
S        2.22468251       2.54820835       2.63366034       48       0.00055809       0.00165073       0.00339656
S        7.11643004       7.50282829       2.51204962       49       0.00281546       0.00259682       0.00518963
S        7.19823919       2.42279046       7.51580545       50       0.00251359       0.00536414       0.00429301
S        2.17109320       7.63113127       7.73030382       51       0.00290636       0.00253186       0.00155542
P       14.88016362       5.13564331       5.06784337        0       0.00377400       0.00142122      -0.00151013
P        9.81660780       9.96119790       5.05623851        1      -0.00006347      -0.00109249       0.00557571
P        9.84684236       4.97167783      10.09053546        2       0.00342131       0.00788806       0.00379392
P       14.91051738       0.12316029      10.06268048        3      -0.00169398      -0.00198348       0.00336532
S       15.91139806       6.36143250       6.33043500        4       0.00740640       0.00219639      -0.00464604
S       10.87860637       1.20326283       6.25436474        5       0.00297777       0.00322616       0.00638569
S       10.83457846       6.29388985       1.26127601        6       0.00558493       0.00316017       0.00244130
S       16.06778850       1.18232542       1.31359928        7       0.00111013       0.00246874       0.00365130
S       13.62699956       3.89040779       6.12785608        8       0.00098554      -0.00244109      -0.00626871
S       18.72711160       8.96607064       6.37420344        9      -0.00238977       0.00539630       0.00904177
S       18.60878477       4.05513487       1.38800245       10      -0.00443006       0.00047761       0.00698219
S       13.59741035       8.92083223       0.98480981       11       0.00140844       0.00394912       0.00851599
S       13.81095297       6.32201189       3.74717536       12      -0.00044470       0.00385096       0.00762106
S       18.71489364       1.15748717       3.95303716       13      -0.00051732       0.00673938      -0.00034001
S       18.88346417       6.24955371       8.89828958       14      -0.00037930       0.00778635      -0.00265048
S       13.79581753       1.43623123       8.92122141       15       0.00031408       0.00101240       0.00285784
S       16.03216977       3.88105970       3.91001989       16       0.01196515       0.00516720       0.00015131
S       10.99686435       8.66998608       3.99892255       17       0.00170750       0.00524074       0.00707733
S       11.09075914       3.68687572       9.09088548       18       0.00563887       0.00395542       0.00267395
S       16.00894978       8.97212224       8.80518479       19      -0.00138318      -0.00055053       0.00485100
Li      12.00157139       4.90198167       2.93130230       20       0.00368451       0.00736104       0.00243649
Li      18.01188123       9.78494063       2.10609470       21       0.00137755       0.00336316       0.00122284
Li      17.78042384       4.96347861       6.99921082       22       0.01453870      -0.00268226       0.00031226
Li      12.43330626       9.94902828       7.63195983       23       0.00342508       0.00361831       0.00110324
Li      17.66142655       7.85915984       0.22146893       24       0.00651199       0.00480069       0.00365600
Li      13.17210512       3.21752158       0.51950130       25       0.00708112       0.00682592      -0.00117278
Li      13.14901442       8.11524109       5.38289625       26       0.00658344       0.00397596      -0.00039966
Li      19.77502864       3.04479399       7.10899759       27       0.00556347      -0.01197816       0.02326809
Li      17.20042845       2.82235113       9.96467465       28      -0.01470835       0.01695624       0.00483263
Li      14.15939936       7.28952318       9.05602236       29       0.00125746      -0.00218058       0.00646331
Li      14.01701538       2.35893729       4.09336343       30       0.00805194      -0.01168366      -0.02291885
Li      17.18433433       7.84407144       4.85974574       31       0.00765699       0.00937919      -0.00289840
Li      12.29040648       5.25879635       7.64037895       32      -0.02175281       0.00956257      -0.00418056
Li      17.97201847       0.37856205       8.22980209       33      -0.00274900       0.00618792       0.00645609
Li      19.06684199       6.10172734       2.99301834       34       0.00726085       0.00585740       0.00716991
Li      12.56274777       0.22302913       2.84541974       35       0.00394111       0.00582164       0.00989405
Li      10.53141754       2.75158653       4.33445238       36       0.01155768       0.00232857       0.00634716
Li      15.11252898       8.51332724       2.83441436       37       0.00543617       0.00905376       0.00348751
Li      15.17255276       3.27939511       7.96340317       38      -0.00270941       0.00544300       0.00369295
Li      10.63674210       7.89155014       9.35066385       39       0.00264103       0.00310533       0.00244355
Li      10.40655488       7.19268778       6.07957311       40       0.00111628       0.00746691      -0.00390884
Li      17.06775335       2.19871057       5.40467137       41       0.00808763       0.00634165       0.00472449
Li      15.87787310       5.61024393       2.05885458       42       0.00975359      -0.00226784       0.00488903
Li      10.43476433       2.11853227       1.06108480       43       0.01171747       0.00526187       0.00543334
Cl      19.46368395       9.75684067      10.16207238       44       0.00370510       0.00309338       0.00222693
Cl      14.81654625       4.95269017      -0.10801741       45       0.01662842      -0.00310817       0.01350067
Cl      14.45027750      -0.02486750       4.59161270       46       0.00722005       0.00546084       0.00376059
Cl      19.65402773       5.13326224       5.36133149       47       0.00034091       0.01183814      -0.01108343
S       12.19059081       2.57683472       2.61014140       48       0.00310163       0.00690743      -0.00334057
S       17.24407197       7.56102854       2.53689018       49       0.00153522       0.00310148       0.00053107
S       17.47295142       2.68131676       7.64203958       50       0.00231476       0.00258900       0.00534215
S       12.26076391       7.59837343       7.56760303       51       0.00234874       0.00837529       0.00086897
103
Lattice="20.110191271466377 0.0 0.0 0.0 10.055095635733188 0.0 0.0 0.0 10.055095635733188" Properties=species:S:1:pos:R:3:spacegroup_kinds:I:1:forces:R:3 spacegroup="P 1" unit_cell=conventional occupancy="_JSON {\"0\": {\"P\": 1.0}, \"1\": {\"P\": 1.0}, \"2\": {\"P\": 1.0}, \"3\": {\"P\": 1.0}, \"4\": {\"S\": 1.0}, \"5\": {\"S\": 1.0}, \"6\": {\"S\": 1.0}, \"7\": {\"S\": 1.0}, \"8\": {\"S\": 1.0}, \"9\": {\"S\": 1.0}, \"10\": {\"S\": 1.0}, \"11\": {\"S\": 1.0}, \"12\": {\"S\": 1.0}, \"13\": {\"S\": 1.0}, \"14\": {\"S\": 1.0}, \"15\": {\"S\": 1.0}, \"16\": {\"S\": 1.0}, \"17\": {\"S\": 1.0}, \"18\": {\"S\": 1.0}, \"19\": {\"S\": 1.0}, \"20\": {\"Li\": 1.0}, \"21\": {\"Li\": 1.0}, \"22\": {\"Li\": 1.0}, \"23\": {\"Li\": 1.0}, \"24\": {\"Li\": 1.0}, \"25\": {\"Li\": 1.0}, \"26\": {\"Li\": 1.0}, \"27\": {\"Li\": 1.0}, \"28\": {\"Li\": 1.0}, \"29\": {\"Li\": 1.0}, \"30\": {\"Li\": 1.0}, \"31\": {\"Li\": 1.0}, \"32\": {\"Li\": 1.0}, \"33\": {\"Li\": 1.0}, \"34\": {\"Li\": 1.0}, \"35\": {\"Li\": 1.0}, \"36\": {\"Li\": 1.0}, \"37\": {\"Li\": 1.0}, \"38\": {\"Li\": 1.0}, \"39\": {\"Li\": 1.0}, \"40\": {\"Li\": 1.0}, \"41\": {\"Li\": 1.0}, \"42\": {\"Li\": 1.0}, \"43\": {\"Li\": 1.0}, \"44\": {\"Cl\": 1.0}, \"45\": {\"Cl\": 1.0}, \"46\": {\"Cl\": 1.0}, \"47\": {\"Cl\": 1.0}, \"48\": {\"S\": 1.0}, \"49\": {\"S\": 1.0}, \"50\": {\"S\": 1.0}, \"51\": {\"S\": 1.0}}" charge=0 spin=0 energy=-429.53851003368715 free_energy=-429.53851003368715 stress="-0.00209873364215755 -0.0007246906989583102 -0.0003528115049079727 -0.0007246906989583102 0.002384774040910022 -0.0008669807693301514 -0.0003528115049079727 -0.0008669807693301514 0.0022161480463037146" pbc="T T T"
P        4.85879768       5.00865500       5.15343816        0       0.00358252       0.00797561       0.00645526
P       -0.13663385      10.04456815       5.12408659        1       0.02031497      -0.01053621      -0.00835915
P       -0.18134358       5.05151106      10.17613382        2       0.01946325      -0.01082821      -0.00834578
P        4.80582912       0.02269453      10.20490683        3      -0.00038644      -0.00372062       0.00361488
S        6.06551529       6.02038829       6.47432524        4      -0.00088378      -0.00146174      -0.00184533
S        1.06712093       1.21718820       6.26208338        5       0.00395330       0.00840524       0.00593249
S        0.94169884       6.23153640       1.34001346        6       0.00374774       0.00778969       0.00714107
S        6.03264281       1.02531788       1.43754058        7       0.00207714       0.00537942       0.00663963
S        3.57670776       3.83171168       6.28571877        8       0.00054167      -0.00016247       0.00257629
S        8.58230991       8.86519151       6.28364160        9      -0.00032608       0.00598930       0.00363977
S        8.58557989       3.86326275       1.21816784       10       0.00400766       0.00201552       0.00553671
S        3.51931961       8.88295311       1.22752017       11       0.00325788       0.00432251      -0.00012494
S        3.73453657       6.33940011       4.04008794       12       0.00116777      -0.00149249       0.00210065
S        8.72956586       1.09445687       3.76310427       13       0.00364032       0.00507225       0.00291903
S        8.80975675       6.14269696       8.73017377       14       0.00681317       0.00433392       0.00690312
S        3.75822580       1.37249978       9.04553022       15       0.00118180       0.00567649       0.00165294
S        5.89592381       3.85818050       3.84402382       16       0.00342650      -0.00184236      -0.00008694
S        1.00789676       8.79981823       3.99783561       17      -0.00817265       0.01333923       0.01572281
S        1.00286220       3.74850364       9.11190455       18      -0.00349800       0.01342439       0.01107955
S        5.83477925       8.85269980       8.90752990       19       0.00264134       0.00572297       0.00459045
Li       8.12123788       9.59490961       1.89562799       21       0.00200771       0.00332413       0.00424954
Li       8.14421533       4.54594647       6.83584754       22       0.00507818       0.00630480       0.00862595
Li       2.10078342       9.95091341       8.00853566       23       0.00424961       0.00230317       0.00113015
Li       7.15259966       7.22357790       0.15874285       24       0.00278121       0.00522969       0.00530527
Li       2.98599299       3.25294813       0.63763014       25      -0.29470268      -0.34613577      -0.29944268
Li       3.03260185       8.20514202       5.54725001       26       0.00445605       0.00359398       0.00128240
Li       6.91953756       2.06195255       5.16095696       27       0.01303188       0.01307472       0.00403349
Li       7.29865815       2.35325666       9.85787619       28       0.00091213       0.00419381       0.00502844
Li       3.91985240       7.34480450       9.32824956       29       0.00416609       0.00213669       0.00131052
Li       3.11554781       1.88966916       4.75030699       30       0.00196771      -0.00055379      -0.00012178
Li       7.08954378       7.55964448       4.86460222       31      -0.00310643       0.00698457       0.00452178
Li       2.41337742       5.30357165       7.83696118       32       0.00092229       0.00167725       0.00146017
Li       8.93939370       0.83323247       7.79690888       33      -0.00032661       0.00288510       0.00828407
Li       8.82471158       5.87056361       2.80030224       34       0.00338446       0.00174944       0.00519268
Li       1.92280771       0.32945304       2.30734595       35      -0.00040483      -0.00001825       0.00226246
Li       1.93315411       4.65767966       3.80486351       36      -0.00249741       0.00387764       0.00203655
Li       5.32079066       9.09639122       2.92056342       37      -0.00141046       0.00074524       0.00252224
Li       5.41434744       3.97747169       7.96893070       38       0.00042733       0.00430008       0.00227710
Li       0.62377211       7.83493339       9.55145313       39       0.00463166       0.00401438       0.00117589
Li       0.18035222       7.05459760       6.62047497       40       0.00478438       0.00603041      -0.00378304
Li       5.52607604       0.70679607       7.37055828       41       0.00211833       0.00350941       0.00158002
Li       5.42545192       5.74791889       2.28368515       42       0.00043359       0.00333912       0.00497867
Li      -0.07253545       2.68344527       2.67159485       43       0.00249336       0.00216524      -0.00022955
Cl       9.59961314      10.11847741      10.02906331       44       0.00436576       0.00581587       0.00719691
Cl       4.64290461       5.11963688      -0.04480473       45       0.00441400       0.00214716       0.00356649
Cl       4.74929391       0.02218766       5.13968342       46      -0.00254773      -0.00348350       0.00372765
Cl       9.80405953       5.05750085       4.95265202       47       0.00551546       0.00119783       0.00592135
S        2.18736282       2.58641243       2.72226465       48       0.00055809       0.00165073       0.00339656
S        7.09728687       7.50028003       2.50565440       49       0.00281546       0.00259682       0.00518963
S        7.18805466       2.43044211       7.50825661       50       0.00251359       0.00536414       0.00429301
S        2.18937326       7.63173929       7.73062801       51       0.00290636       0.00253186       0.00155542
P       14.89903088       5.12812663       5.05007087        0       0.00377400       0.00142122      -0.00151013
P        9.81734647       9.96195090       5.05498960        1      -0.00006347      -0.00109249       0.00557571
P        9.84362556       4.97521493      10.08460083        2       0.00342131       0.00788806       0.00379392
P       14.90504770       0.12614703      10.04824288        3      -0.00169398      -0.00198348       0.00336532
S       15.96339992       6.33879424       6.29998380        4       0.00740640       0.00219639      -0.00464604
S       10.87487678       1.20497731       6.25556147        5       0.00297777       0.00322616       0.00638569
S       10.82349029       6.29732746       1.26146168        6       0.00558493       0.00316017       0.00244130
S       16.06785556       1.18402941       1.29519374        7       0.00111013       0.00246874       0.00365130
S       13.64730218       3.89117004       6.12257050        8       0.00098554      -0.00244109      -0.00626871
S       18.73593618       8.93151708       6.34506474        9      -0.00238977       0.00539630       0.00904177
S       18.57640544       4.08672509       1.35071106       10      -0.00443006       0.00047761       0.00698219
S       13.58752074       8.93097450       0.97484493       11       0.00140844       0.00394912       0.00851599
S       13.82039620       6.32052832       3.74560336       12      -0.00044470       0.00385096       0.00762106
S       18.72164219       1.14055146       3.93945904       13      -0.00051732       0.00673938      -0.00034001
S       18.88593548       6.23857439       8.82748590       14      -0.00037930       0.00778635      -0.00265048
S       13.79480663       1.44350259       8.90852547       15       0.00031408       0.00101240       0.00285784
S       16.03643195       3.86270316       3.88867973       16       0.01196515       0.00516720       0.00015131
S       10.99999381       8.67336458       3.99684192       17       0.00170750       0.00524074       0.00707733
S       11.08999188       3.69231881       9.08557216       18       0.00563887       0.00395542       0.00267395
S       15.98824874       8.96527837       8.78650006       19      -0.00138318      -0.00055053       0.00485100
Li      12.00667515       4.90706999       2.92313556       20       0.00368451       0.00736104       0.00243649
Li      18.00482086       9.78126704       2.07901992       21       0.00137755       0.00336316       0.00122284
Li      17.81921491       4.92635611       6.95510056       22       0.01453870      -0.00268226       0.00031226
Li      12.42969657       9.94862976       7.63095350       23       0.00342508       0.00361831       0.00110324
Li      17.66527168       7.85243858       0.17729866       24       0.00651199       0.00480069       0.00365600
Li      13.17044738       3.21937370       0.51399011       25       0.00708112       0.00682592      -0.00117278
Li      13.14866330       8.11569411       5.37634184       26       0.00658344       0.00397596      -0.00039966
Li      19.78944002       2.91706592       7.23028555       27       0.00556347      -0.01197816       0.02326809
Li      17.25272426       2.76617863       9.93837835       28      -0.01470835       0.01695624       0.00483263
Li      14.14284288       7.29074348       9.07236791       29       0.00125746      -0.00218058       0.00646331
Li      14.01429673       2.35632398       4.08863383       30       0.00805194      -0.01168366      -0.02291885
Li      17.17850503       7.85669921       4.81897221       31       0.00765699       0.00937919      -0.00289840
Li      12.30634308       5.25727798       7.63794698       32      -0.02175281       0.00956257      -0.00418056
Li      17.94884065       0.33745646       8.18840200       33      -0.00274900       0.00618792       0.00645609
Li      19.11539067       6.15886863       2.93710128       34       0.00726085       0.00585740       0.00716991
Li      12.56256236       0.22606160       2.83956196       35       0.00394111       0.00582164       0.00989405
Li      10.52884573       2.75530789       4.33277388       36       0.01155768       0.00232857       0.00634716
Li      15.10104739       8.47806537       2.81324819       37       0.00543617       0.00905376       0.00348751
Li      15.18217568       3.29555187       7.97092316       38      -0.00270941       0.00544300       0.00369295
Li      10.63868440       7.89107930       9.34604989       39       0.00264103       0.00310533       0.00244355
Li      10.40666001       7.18889887       6.07847809       40       0.00111628       0.00746691      -0.00390884
Li      17.05325068       2.15980957       5.37660036       41       0.00808763       0.00634165       0.00472449
Li      15.96309927       5.56440383       2.00939824       42       0.00975359      -0.00226784       0.00488903
Li      10.43183135       2.11862959       1.05439571       43       0.01171747       0.00526187       0.00543334
Cl      19.43525768       9.76292902      10.11810606       44       0.00370510       0.00309338       0.00222693
Cl      14.80144474       4.96232112      -0.12819557       45       0.01662842      -0.00310817       0.01350067
Cl      14.46496353      -0.03213019       4.57533079       46       0.00722005       0.00546084       0.00376059
Cl      19.82765323       5.14117689       5.20700289       47       0.00034091       0.01183814      -0.01108343
S       12.18771651       2.57939523       2.60649113       48       0.00310163       0.00690743      -0.00334057
S       17.24566404       7.56102977       2.49955048       49       0.00153522       0.00310148       0.00053107
S       17.47562672       2.65673710       7.61066594       50       0.00231476       0.00258900       0.00534215
S       12.26374930       7.59670295       7.56155241       51       0.00234874       0.00837529       0.00086897
103
Lattice="20.110191271466377 0.0 0.0 0.0 10.055095635733188 0.0 0.0 0.0 10.055095635733188" Properties=species:S:1:pos:R:3:spacegroup_kinds:I:1:forces:R:3 spacegroup="P 1" unit_cell=conventional occupancy="_JSON {\"0\": {\"P\": 1.0}, \"1\": {\"P\": 1.0}, \"2\": {\"P\": 1.0}, \"3\": {\"P\": 1.0}, \"4\": {\"S\": 1.0}, \"5\": {\"S\": 1.0}, \"6\": {\"S\": 1.0}, \"7\": {\"S\": 1.0}, \"8\": {\"S\": 1.0}, \"9\": {\"S\": 1.0}, \"10\": {\"S\": 1.0}, \"11\": {\"S\": 1.0}, \"12\": {\"S\": 1.0}, \"13\": {\"S\": 1.0}, \"14\": {\"S\": 1.0}, \"15\": {\"S\": 1.0}, \"16\": {\"S\": 1.0}, \"17\": {\"S\": 1.0}, \"18\": {\"S\": 1.0}, \"19\": {\"S\": 1.0}, \"20\": {\"Li\": 1.0}, \"21\": {\"Li\": 1.0}, \"22\": {\"Li\": 1.0}, \"23\": {\"Li\": 1.0}, \"24\": {\"Li\": 1.0}, \"25\": {\"Li\": 1.0}, \"26\": {\"Li\": 1.0}, \"27\": {\"Li\": 1.0}, \"28\": {\"Li\": 1.0}, \"29\": {\"Li\": 1.0}, \"30\": {\"Li\": 1.0}, \"31\": {\"Li\": 1.0}, \"32\": {\"Li\": 1.0}, \"33\": {\"Li\": 1.0}, \"34\": {\"Li\": 1.0}, \"35\": {\"Li\": 1.0}, \"36\": {\"Li\": 1.0}, \"37\": {\"Li\": 1.0}, \"38\": {\"Li\": 1.0}, \"39\": {\"Li\": 1.0}, \"40\": {\"Li\": 1.0}, \"41\": {\"Li\": 1.0}, \"42\": {\"Li\": 1.0}, \"43\": {\"Li\": 1.0}, \"44\": {\"Cl\": 1.0}, \"45\": {\"Cl\": 1.0}, \"46\": {\"Cl\": 1.0}, \"47\": {\"Cl\": 1.0}, \"48\": {\"S\": 1.0}, \"49\": {\"S\": 1.0}, \"50\": {\"S\": 1.0}, \"51\": {\"S\": 1.0}}" charge=0 spin=0 energy=-429.53851003368715 free_energy=-429.53851003368715 stress="-0.00209873364215755 -0.0007246906989583102 -0.0003528115049079727 -0.0007246906989583102 0.002384774040910022 -0.0008669807693301514 -0.0003528115049079727 -0.0008669807693301514 0.0022161480463037146" pbc="T T T"
P        4.83040788       5.01511079       5.18197400        0       0.00358252       0.00797561       0.00645526
P       -0.16182435      10.04844646       5.12792481        1       0.02031497      -0.01053621      -0.00835915
P       -0.20554252       5.08471510      10.15662685        2       0.01946325      -0.01082821      -0.00834578
P        4.78940288       0.03753648      10.21422525        3      -0.00038644      -0.00372062       0.00361488
S        6.08641044       5.99530139       6.46614164        4      -0.00088378      -0.00146174      -0.00184533
S        1.05454144       1.20662889       6.23882881        5       0.00395330       0.00840524       0.00593249
S        0.94272696       6.27467398       1.27526132        6       0.00374774       0.00778969       0.00714107
S        6.03629821       1.01827721       1.44819080        7       0.00207714       0.00537942       0.00663963
S        3.52769380       3.84916813       6.29792901        8       0.00054167      -0.00016247       0.00257629
S        8.58161268       8.86416738       6.28665336        9      -0.00032608       0.00598930       0.00363977
S        8.58311651       3.86476117       1.23276702       10       0.00400766       0.00201552       0.00553671
S        3.49058747       8.91976092       1.24431253       11       0.00325788       0.00432251      -0.00012494
S        3.72464671       6.33534875       4.05215388       12       0.00116777      -0.00149249       0.00210065
S        8.74024447       1.08429557       3.75415697       13       0.00364032       0.00507225       0.00291903
S        8.79568812       6.14634331       8.74564188       14       0.00681317       0.00433392       0.00690312
S        3.76207255       1.39573047       9.04753118       15       0.00118180       0.00567649       0.00165294
S        5.78942068       3.76761013       3.87642008       16       0.00342650      -0.00184236      -0.00008694
S        0.96117652       8.77386747       3.99508223       17      -0.00817265       0.01333923       0.01572281
S        0.97795419       3.76113801       9.10907495       18      -0.00349800       0.01342439       0.01107955
S        5.80609670       8.85050862       8.92263899       19       0.00264134       0.00572297       0.00459045
Li       8.11658091       9.56537371       1.89650166       21       0.00200771       0.00332413       0.00424954
Li       8.17056128       4.53389457       6.87337761       22       0.00507818       0.00630480       0.00862595
Li       2.10078876       9.97579917       7.98652713       23       0.00424961       0.00230317       0.00113015
Li       7.09498813       7.17718713       0.16097815       24       0.00278121       0.00522969       0.00530527
Li       2.93769491       3.29688757       0.63653933       25      -0.29470268      -0.34613577      -0.29944268
Li       2.98665302       8.24076574       5.52283934       26       0.00445605       0.00359398       0.00128240
Li       6.99478902       2.05915445       5.18671389       27       0.01303188       0.01307472       0.00403349
Li       7.33529305       2.32003270       9.87335993       28       0.00091213       0.00419381       0.00502844
Li       3.86714774       7.36453868       9.35783608       29       0.00416609       0.00213669       0.00131052
Li       3.68622346       2.11274659       4.43331710       30       0.00196771      -0.00055379      -0.00012178
Li       7.07627129       7.57717384       4.86809177       31      -0.00310643       0.00698457       0.00452178
Li       2.36424746       5.32777891       7.84594077       32       0.00092229       0.00167725       0.00146017
Li       8.94752700       0.82740350       7.79624314       33      -0.00032661       0.00288510       0.00828407
Li       8.85427965       5.88445024       2.80828211       34       0.00338446       0.00174944       0.00519268
Li       1.92089741       0.36020351       2.39981089       35      -0.00040483      -0.00001825       0.00226246
Li       1.94348376       4.54969600       4.09939297       36      -0.00249741       0.00387764       0.00203655
Li       5.32238123       9.06698823       2.90435023       37      -0.00141046       0.00074524       0.00252224
Li       5.39886399       3.95288455       7.99401752       38       0.00042733       0.00430008       0.00227710
Li       0.57615467       7.86621572       9.50385321       39       0.00463166       0.00401438       0.00117589
Li       0.16510613       7.08294019       6.59505314       40       0.00478438       0.00603041      -0.00378304
Li       5.52945426       0.69815029       7.37541535       41       0.00211833       0.00350941       0.00158002
Li       5.40726034       5.70508321       2.29390916       42       0.00043359       0.00333912       0.00497867
Li      -0.07867583       2.75981265       2.73348557       43       0.00249336       0.00216524      -0.00022955
Cl       9.58015597      10.12679348      10.03310974       44       0.00436576       0.00581587       0.00719691
Cl       4.64508606       5.14306027      -0.04001839       45       0.00441400       0.00214716       0.00356649
Cl       4.81296103       0.01915763       5.11347497       46      -0.00254773      -0.00348350       0.00372765
Cl       9.76814925       5.04288203       4.97061979       47       0.00551546       0.00119783       0.00592135
S        2.18526328       2.63130783       2.73109740       48       0.00055809       0.00165073       0.00339656
S        7.08230663       7.46416811       2.51103149       49       0.00281546       0.00259682       0.00518963
S        7.18904880       2.42521944       7.52503626       50       0.00251359       0.00536414       0.00429301
S        2.17745501       7.65278113       7.71477523       51       0.00290636       0.00253186       0.00155542
P       14.89343144       5.12246202       5.04572282        0       0.00377400       0.00142122      -0.00151013
P        9.82112606       9.95331811       5.05441114        1      -0.00006347      -0.00109249       0.00557571
P        9.83657275       4.97540446      10.09273137        2       0.00342131       0.00788806       0.00379392
P       14.88591153       0.12937258      10.04501737        3      -0.00169398      -0.00198348       0.00336532
S       15.97176645       6.32288838       6.29269924        4       0.00740640       0.00219639      -0.00464604
S       10.87747487       1.19856079       6.25264198        5       0.00297777       0.00322616       0.00638569
S       10.82621863       6.29713546       1.26319331        6       0.00558493       0.00316017       0.00244130
S       16.04808825       1.19177462       1.28831907        7       0.00111013       0.00246874       0.00365130
S       13.65333287       3.87776670       6.12600201        8       0.00098554      -0.00244109      -0.00626871
S       18.69242776       8.92667569       6.32614531        9      -0.00238977       0.00539630       0.00904177
S       18.56329149       4.11649130       1.34549300       10      -0.00443006       0.00047761       0.00698219
S       13.56770429       8.93631092       0.97473710       11       0.00140844       0.00394912       0.00851599
S       13.79689402       6.32234489       3.76910660       12      -0.00044470       0.00385096       0.00762106
S       18.71354374       1.14884852       3.92515367       13      -0.00051732       0.00673938      -0.00034001
S       18.85180567       6.24756856       8.79741186       14      -0.00037930       0.00778635      -0.00265048
S       13.77801294       1.44530593       8.90212255       15       0.00031408       0.00101240       0.00285784
S       16.02451184       3.85501053       3.87834953       16       0.01196515       0.00516720       0.00015131
S       10.99826486       8.65878864       4.00146492       17       0.00170750       0.00524074       0.00707733
S       11.07707256       3.69290529       9.08797134       18       0.00563887       0.00395542       0.00267395
S       15.95738305       8.96072103       8.78149146       19      -0.00138318      -0.00055053       0.00485100
Li      12.05059970       4.89771579       2.87951700       20       0.00368451       0.00736104       0.00243649
Li      17.98008458       9.79506764       2.07440756       21       0.00137755       0.00336316       0.00122284
Li      17.83133191       4.90399685       6.93332285       22       0.01453870      -0.00268226       0.00031226
Li      12.43677767       9.93971729       7.62440915       23       0.00342508       0.00361831       0.00110324
Li      17.65548782       7.87765317       0.16094997       24       0.00651199       0.00480069       0.00365600
Li      13.18280154       3.20687397       0.51412169       25       0.00708112       0.00682592      -0.00117278
Li      13.15247884       8.10174809       5.39071038       26       0.00658344       0.00397596      -0.00039966
Li      19.77066917       2.81188083       7.30582912       27       0.00556347      -0.01197816       0.02326809
Li      17.32659279       2.69814018       9.93734681       28      -0.01470835       0.01695624       0.00483263
Li      14.12465626       7.28669826       9.09736587       29       0.00125746      -0.00218058       0.00646331
Li      14.01885241       2.34495995       4.09042362       30       0.00805194      -0.01168366      -0.02291885
Li      17.13767145       7.86357281       4.80373662       31       0.00765699       0.00937919      -0.00289840
Li      12.32888482       5.24939393       7.64984912       32      -0.02175281       0.00956257      -0.00418056
Li      17.90402889       0.31510377       8.15562462       33      -0.00274900       0.00618792       0.00645609
Li      19.23324945       6.33087863       2.96936675       34       0.00726085       0.00585740       0.00716991
Li      12.57165854       0.21651466       2.84950431       35       0.00394111       0.00582164       0.00989405
Li      10.54143695       2.75905802       4.33247766       36       0.01155768       0.00232857       0.00634716
Li      15.07600182       8.40621088       2.79781477       37       0.00543617       0.00905376       0.00348751
Li      15.18332850       3.30947773       7.99628263       38      -0.00270941       0.00544300       0.00369295
Li      10.63286391       7.89319315       9.35008796       39       0.00264103       0.00310533       0.00244355
Li      10.40504902       7.17464494       6.08196853       40       0.00111628       0.00746691      -0.00390884
Li      17.04512175       2.15478914       5.36595404       41       0.00808763       0.00634165       0.00472449
Li      16.17226033       5.47654493       1.93336177       42       0.00975359      -0.00226784       0.00488903
Li      10.43590320       2.11778605       1.05814625       43       0.01171747       0.00526187       0.00543334
Cl      19.38583314       9.78640615      10.08561954       44       0.00370510       0.00309338       0.00222693
Cl      14.78588959       4.96741381      -0.13021594       45       0.01662842      -0.00310817       0.01350067
Cl      14.46632829      -0.05425206       4.56605468       46       0.00722005       0.00546084       0.00376059
Cl      19.84597417       5.16339603       5.18014649       47       0.00034091       0.01183814      -0.01108343
S       12.19196509       2.56982476       2.60521480       48       0.00310163       0.00690743      -0.00334057
S       17.25364659       7.56555306       2.48599760       49       0.00153522       0.00310148       0.00053107
S       17.45899170       2.64152550       7.60567748       50       0.00231476       0.00258900       0.00534215
S       12.25349117       7.58920161       7.57016990       51       0.00234874       0.00837529       0.00086897
103
Lattice="20.110191271466377 0.0 0.0 0.0 10.055095635733188 0.0 0.0 0.0 10.055095635733188" Properties=species:S:1:pos:R:3:spacegroup_kinds:I:1:forces:R:3 spacegroup="P 1" unit_cell=conventional occupancy="_JSON {\"0\": {\"P\": 1.0}, \"1\": {\"P\": 1.0}, \"2\": {\"P\": 1.0}, \"3\": {\"P\": 1.0}, \"4\": {\"S\": 1.0}, \"5\": {\"S\": 1.0}, \"6\": {\"S\": 1.0}, \"7\": {\"S\": 1.0}, \"8\": {\"S\": 1.0}, \"9\": {\"S\": 1.0}, \"10\": {\"S\": 1.0}, \"11\": {\"S\": 1.0}, \"12\": {\"S\": 1.0}, \"13\": {\"S\": 1.0}, \"14\": {\"S\": 1.0}, \"15\": {\"S\": 1.0}, \"16\": {\"S\": 1.0}, \"17\": {\"S\": 1.0}, \"18\": {\"S\": 1.0}, \"19\": {\"S\": 1.0}, \"20\": {\"Li\": 1.0}, \"21\": {\"Li\": 1.0}, \"22\": {\"Li\": 1.0}, \"23\": {\"Li\": 1.0}, \"24\": {\"Li\": 1.0}, \"25\": {\"Li\": 1.0}, \"26\": {\"Li\": 1.0}, \"27\": {\"Li\": 1.0}, \"28\": {\"Li\": 1.0}, \"29\": {\"Li\": 1.0}, \"30\": {\"Li\": 1.0}, \"31\": {\"Li\": 1.0}, \"32\": {\"Li\": 1.0}, \"33\": {\"Li\": 1.0}, \"34\": {\"Li\": 1.0}, \"35\": {\"Li\": 1.0}, \"36\": {\"Li\": 1.0}, \"37\": {\"Li\": 1.0}, \"38\": {\"Li\": 1.0}, \"39\": {\"Li\": 1.0}, \"40\": {\"Li\": 1.0}, \"41\": {\"Li\": 1.0}, \"42\": {\"Li\": 1.0}, \"43\": {\"Li\": 1.0}, \"44\": {\"Cl\": 1.0}, \"45\": {\"Cl\": 1.0}, \"46\": {\"Cl\": 1.0}, \"47\": {\"Cl\": 1.0}, \"48\": {\"S\": 1.0}, \"49\": {\"S\": 1.0}, \"50\": {\"S\": 1.0}, \"51\": {\"S\": 1.0}}" charge=0 spin=0 energy=-429.53851003368715 free_energy=-429.53851003368715 stress="-0.00209873364215755 -0.0007246906989583102 -0.0003528115049079727 -0.0007246906989583102 0.002384774040910022 -0.0008669807693301514 -0.0003528115049079727 -0.0008669807693301514 0.0022161480463037146" pbc="T T T"
P        4.85204717       5.02071884       5.21107534        0       0.00358252       0.00797561       0.00645526
P       -0.20318166      10.04293633       5.11221985        1       0.02031497      -0.01053621      -0.00835915
P       -0.22859560       5.08865161      10.15090804        2       0.01946325      -0.01082821      -0.00834578
P        4.76622103       0.05957403      10.21901951        3      -0.00038644      -0.00372062       0.00361488
S        6.08776140       6.00877897       6.49983501        4      -0.00088378      -0.00146174      -0.00184533
S        1.02327914       1.17359049       6.22841224        5       0.00395330       0.00840524       0.00593249
S        0.92901980       6.28425252       1.25658184        6       0.00374774       0.00778969       0.00714107
S        6.01394022       1.02622847       1.46490372        7       0.00207714       0.00537942       0.00663963
S        3.56510855       3.81495473       6.30026501        8       0.00054167      -0.00016247       0.00257629
S        8.58730715       8.87250559       6.28741462        9      -0.00032608       0.00598930       0.00363977
S        8.58232318       3.86396441       1.25180740       10       0.00400766       0.00201552       0.00553671
S        3.45015034       8.95543406       1.24622654       11       0.00325788       0.00432251      -0.00012494
S        3.72324913       6.31542286       4.07687970       12       0.00116777      -0.00149249       0.00210065
S        8.76330502       1.09082200       3.75072406       13       0.00364032       0.00507225       0.00291903
S        8.78225957       6.16026301       8.77764236       14       0.00681317       0.00433392       0.00690312
S        3.75528620       1.42570904       9.04775856       15       0.00118180       0.00567649       0.00165294
S        5.85299741       3.79712625       3.90056974       16       0.00342650      -0.00184236      -0.00008694
S        0.94155291       8.78075510       3.96189542       17      -0.00817265       0.01333923       0.01572281
S        0.98272561       3.79556736       9.08965262       18      -0.00349800       0.01342439       0.01107955
S        5.77487736       8.86158031       8.93385896       19       0.00264134       0.00572297       0.00459045
Li       8.09529231       9.56325466       1.91202071       21       0.00200771       0.00332413       0.00424954
Li       8.17677236       4.55180059       6.92663813       22       0.00507818       0.00630480       0.00862595
Li       2.11651710       9.98254483       7.97578727       23       0.00424961       0.00230317       0.00113015
Li       7.04356718       7.15797645       0.17407645       24       0.00278121       0.00522969       0.00530527
Li       2.89753414       3.35355668       0.65157278       25      -0.29470268      -0.34613577      -0.29944268
Li       2.97141611       8.23592980       5.52176493       26       0.00445605       0.00359398       0.00128240
Li       7.10988692       2.13575831       5.21462091       27       0.01303188       0.01307472       0.00403349
Li       7.42167017       2.23669160       9.89501984       28       0.00091213       0.00419381       0.00502844
Li       3.82224901       7.37461602       9.38307860       29       0.00416609       0.00213669       0.00131052
Li       3.90863516       2.15926765       4.24869332       30       0.00196771      -0.00055379      -0.00012178
Li       7.03707855       7.61661064       4.88578694       31      -0.00310643       0.00698457       0.00452178
Li       2.35733207       5.33314788       7.79303618       32       0.00092229       0.00167725       0.00146017
Li       8.96199438       0.82877146       7.78433500       33      -0.00032661       0.00288510       0.00828407
Li       8.84601857       5.88319318       2.84118356       34       0.00338446       0.00174944       0.00519268
Li       1.90022787       0.41371776       2.41028515       35      -0.00040483      -0.00001825       0.00226246
Li       1.98263242       4.48134389       4.27513030       36      -0.00249741       0.00387764       0.00203655
Li       5.29790229       9.05310640       2.89685616       37      -0.00141046       0.00074524       0.00252224
Li       5.39548132       3.91743328       8.05395339       38       0.00042733       0.00430008       0.00227710
Li       0.54746149       7.88453451       9.50282740       39       0.00463166       0.00401438       0.00117589
Li       0.10925852       7.05214912       6.68823492       40       0.00478438       0.00603041      -0.00378304
Li       5.52972401       0.70840005       7.36005928       41       0.00211833       0.00350941       0.00158002
Li       5.40035900       5.70294663       2.30947716       42       0.00043359       0.00333912       0.00497867
Li      -0.07535236       2.88900426       2.85306198       43       0.00249336       0.00216524      -0.00022955
Cl       9.53837918      10.16372434      10.04071513       44       0.00436576       0.00581587       0.00719691
Cl       4.64746018       5.17213594      -0.01403582       45       0.00441400       0.00214716       0.00356649
Cl       4.80062196      -0.00697429       5.09828938       46      -0.00254773      -0.00348350       0.00372765
Cl       9.73402567       5.03012241       5.01175425       47       0.00551546       0.00119783       0.00592135
S        2.19277622       2.67075775       2.75914460       48       0.00055809       0.00165073       0.00339656
S        7.06750621       7.46472207       2.52527751       49       0.00281546       0.00259682       0.00518963
S        7.20358640       2.42611845       7.55114909       50       0.00251359       0.00536414       0.00429301
S        2.15322750       7.66043777       7.71408144       51       0.00290636       0.00253186       0.00155542
P       14.88867562       5.11103876       5.05037241        0       0.00377400       0.00142122      -0.00151013
P        9.83348071       9.95462243       5.05544467        1      -0.00006347      -0.00109249       0.00557571
P        9.83003955       4.98308444      10.11485080        2       0.00342131       0.00788806       0.00379392
P       14.86090990       0.13197039      10.03112566        3      -0.00169398      -0.00198348       0.00336532
S       15.97701994       6.29950114       6.29963654        4       0.00740640       0.00219639      -0.00464604
S       10.89319746       1.19798624       6.25291429        5       0.00297777       0.00322616       0.00638569
S       10.81520269       6.30652984       1.28801896        6       0.00558493       0.00316017       0.00244130
S       16.01325578       1.21134080       1.26912988        7       0.00111013       0.00246874       0.00365130
S       13.66885667       3.85130533       6.13616150        8       0.00098554      -0.00244109      -0.00626871
S       18.65165760       8.88997491       6.27439625        9      -0.00238977       0.00539630       0.00904177
S       18.56446637       4.04728096       1.29289031       10      -0.00443006       0.00047761       0.00698219
S       13.54145013       8.94092755       0.96398034       11       0.00140844       0.00394912       0.00851599
S       13.76762837       6.32462485       3.81155045       12      -0.00044470       0.00385096       0.00762106
S       18.70394702       1.16263465       3.90488228       13      -0.00051732       0.00673938      -0.00034001
S       18.81018847       6.24930713       8.80176178       14      -0.00037930       0.00778635      -0.00265048
S       13.76407960       1.44558564       8.88002813       15       0.00031408       0.00101240       0.00285784
S       16.01561715       3.85641682       3.86476115       16       0.01196515       0.00516720       0.00015131
S       11.00878041       8.65448114       4.01008645       17       0.00170750       0.00524074       0.00707733
S       11.07265776       3.70661043       9.10583112       18       0.00563887       0.00395542       0.00267395
S       15.92889072       8.94967675       8.77730202       19      -0.00138318      -0.00055053       0.00485100
Li      12.11832441       4.89021698       2.80488494       20       0.00368451       0.00736104       0.00243649
Li      17.91259226       9.83528879       2.05661922       21       0.00137755       0.00336316       0.00122284
Li      17.85609949       4.87944842       6.89272762       22       0.01453870      -0.00268226       0.00031226
Li      12.42212537       9.92646187       7.63768978       23       0.00342508       0.00361831       0.00110324
Li      17.63752311       7.90109795       0.15706856       24       0.00651199       0.00480069       0.00365600
Li      13.22156545       3.18892012       0.51544461       25       0.00708112       0.00682592      -0.00117278
Li      13.15305296       8.09974624       5.41525098       26       0.00658344       0.00397596      -0.00039966
Li      19.76689251       2.76603309       7.34257137       27       0.00556347      -0.01197816       0.02326809
Li      17.45644921       2.53867040       9.90139114       28      -0.01470835       0.01695624       0.00483263
Li      14.10756976       7.26554617       9.11784938       29       0.00125746      -0.00218058       0.00646331
Li      14.03601330       2.32925294       4.09353302       30       0.00805194      -0.01168366      -0.02291885
Li      16.99555501       7.92037768       4.79464909       31       0.00765699       0.00937919      -0.00289840
Li      12.34408087       5.23766000       7.65499301       32      -0.02175281       0.00956257      -0.00418056
Li      17.85396700       0.27704184       8.07871795       33      -0.00274900       0.00618792       0.00645609
Li      19.48891369       6.87577892       3.11074807       34       0.00726085       0.00585740       0.00716991
Li      12.58716097       0.20492829       2.85544103       35       0.00394111       0.00582164       0.00989405
Li      10.57397541       2.77863448       4.34133050       36       0.01155768       0.00232857       0.00634716
Li      15.04986804       8.30382170       2.74649284       37       0.00543617       0.00905376       0.00348751
Li      15.20664538       3.34218412       8.03935392       38      -0.00270941       0.00544300       0.00369295
Li      10.62288857       7.88929891       9.36550066       39       0.00264103       0.00310533       0.00244355
Li      10.40042129       7.16260100       6.08623620       40       0.00111628       0.00746691      -0.00390884
Li      17.01795572       2.15095395       5.34284878       41       0.00808763       0.00634165       0.00472449
Li      16.44806851       5.39727234       1.89138600       42       0.00975359      -0.00226784       0.00488903
Li      10.44890324       2.13158128       1.06993667       43       0.01171747       0.00526187       0.00543334
Cl      19.32970753       9.81496737      10.04622635       44       0.00370510       0.00309338       0.00222693
Cl      14.77736407       4.97893160      -0.12316395       45       0.01662842      -0.00310817       0.01350067
Cl      14.51581425      -0.09836313       4.54839838       46       0.00722005       0.00546084       0.00376059
Cl      19.89373835       5.17141926       5.22174608       47       0.00034091       0.01183814      -0.01108343
S       12.21379875       2.55889962       2.60627377       48       0.00310163       0.00690743      -0.00334057
S       17.28555982       7.58437298       2.48915167       49       0.00153522       0.00310148       0.00053107
S       17.45671514       2.61498610       7.57642219       50       0.00231476       0.00258900       0.00534215
S       12.23945587       7.58013705       7.58492938       51       0.00234874       0.00837529       0.00086897
103
Lattice="20.110191271466377 0.0 0.0 0.0 10.055095635733188 0.0 0.0 0.0 10.055095635733188" Properties=species:S:1:pos:R:3:spacegroup_kinds:I:1:forces:R:3 spacegroup="P 1" unit_cell=conventional occupancy="_JSON {\"0\": {\"P\": 1.0}, \"1\": {\"P\": 1.0}, \"2\": {\"P\": 1.0}, \"3\": {\"P\": 1.0}, \"4\": {\"S\": 1.0}, \"5\": {\"S\": 1.0}, \"6\": {\"S\": 1.0}, \"7\": {\"S\": 1.0}, \"8\": {\"S\": 1.0}, \"9\": {\"S\": 1.0}, \"10\": {\"S\": 1.0}, \"11\": {\"S\": 1.0}, \"12\": {\"S\": 1.0}, \"13\": {\"S\": 1.0}, \"14\": {\"S\": 1.0}, \"15\": {\"S\": 1.0}, \"16\": {\"S\": 1.0}, \"17\": {\"S\": 1.0}, \"18\": {\"S\": 1.0}, \"19\": {\"S\": 1.0}, \"20\": {\"Li\": 1.0}, \"21\": {\"Li\": 1.0}, \"22\": {\"Li\": 1.0}, \"23\": {\"Li\": 1.0}, \"24\": {\"Li\": 1.0}, \"25\": {\"Li\": 1.0}, \"26\": {\"Li\": 1.0}, \"27\": {\"Li\": 1.0}, \"28\": {\"Li\": 1.0}, \"29\": {\"Li\": 1.0}, \"30\": {\"Li\": 1.0}, \"31\": {\"Li\": 1.0}, \"32\": {\"Li\": 1.0}, \"33\": {\"Li\": 1.0}, \"34\": {\"Li\": 1.0}, \"35\": {\"Li\": 1.0}, \"36\": {\"Li\": 1.0}, \"37\": {\"Li\": 1.0}, \"38\": {\"Li\": 1.0}, \"39\": {\"Li\": 1.0}, \"40\": {\"Li\": 1.0}, \"41\": {\"Li\": 1.0}, \"42\": {\"Li\": 1.0}, \"43\": {\"Li\": 1.0}, \"44\": {\"Cl\": 1.0}, \"45\": {\"Cl\": 1.0}, \"46\": {\"Cl\": 1.0}, \"47\": {\"Cl\": 1.0}, \"48\": {\"S\": 1.0}, \"49\": {\"S\": 1.0}, \"50\": {\"S\": 1.0}, \"51\": {\"S\": 1.0}}" charge=0 spin=0 energy=-429.53851003368715 free_energy=-429.53851003368715 stress="-0.00209873364215755 -0.0007246906989583102 -0.0003528115049079727 -0.0007246906989583102 0.002384774040910022 -0.0008669807693301514 -0.0003528115049079727 -0.0008669807693301514 0.0022161480463037146" pbc="T T T"
P        4.88911910       5.06844243       5.26853462        0       0.00358252       0.00797561       0.00645526
P       -0.18506103      10.05084250       5.13668079        1       0.02031497      -0.01053621      -0.00835915
P       -0.22077466       5.09183455      10.17442314        2       0.01946325      -0.01082821      -0.00834578
P        4.79693365       0.11344237      10.20400080        3      -0.00038644      -0.00372062       0.00361488
S        6.09692347       6.11947185       6.51502520        4      -0.00088378      -0.00146174      -0.00184533
S        1.03122097       1.17843464       6.26006308        5       0.00395330       0.00840524       0.00593249
S        0.97748977       6.26720481       1.27162193        6       0.00374774       0.00778969       0.00714107
S        6.01686036       1.08285724       1.47162383        7       0.00207714       0.00537942       0.00663963
S        3.62254881       3.83421152       6.35890401        8       0.00054167      -0.00016247       0.00257629
S        8.59518809       8.93755294       6.30276997        9      -0.00032608       0.00598930       0.00363977
S        8.59567983       3.91558001       1.29709288       10       0.00400766       0.00201552       0.00553671
S        3.44392243       9.02340549       1.20430548       11       0.00325788       0.00432251      -0.00012494
S        3.71199696       6.30117160       4.10837809       12       0.00116777      -0.00149249       0.00210065
S        8.80450690       1.15910717       3.77253931       13       0.00364032       0.00507225       0.00291903
S        8.81678724       6.22418103       8.83435435       14       0.00681317       0.00433392       0.00690312
S        3.80566203       1.46172721       8.99783773       15       0.00118180       0.00567649       0.00165294
S        5.90186593       3.84557671       3.95721673       16       0.00342650      -0.00184236      -0.00008694
S        0.96112665       8.80049937       3.96858852       17      -0.00817265       0.01333923       0.01572281
S        0.97329867       3.78964445       9.11626502       18      -0.00349800       0.01342439       0.01107955
S        5.82519826       8.88878857       8.95781828       19       0.00264134       0.00572297       0.00459045
Li       8.08798939       9.62106070       1.96387850       21       0.00200771       0.00332413       0.00424954
Li       8.09219753       4.64590734       7.03612641       22       0.00507818       0.00630480       0.00862595
Li       2.16248024       9.99099593       7.97490041       23       0.00424961       0.00230317       0.00113015
Li       7.09458291       7.22412655       0.22176516       24       0.00278121       0.00522969       0.00530527
Li       2.77941220       3.66261797       0.81464920       25      -0.29470268      -0.34613577      -0.29944268
Li       2.99058311       8.22431581       5.53190955       26       0.00445605       0.00359398       0.00128240
Li       7.26597413       2.31111033       5.26467263       27       0.01303188       0.01307472       0.00403349
Li       7.58017534       2.17331027       9.93584808       28       0.00091213       0.00419381       0.00502844
Li       3.87282760       7.40803308       9.36977017       29       0.00416609       0.00213669       0.00131052
Li       3.97985403       2.18152838       4.26177143       30       0.00196771      -0.00055379      -0.00012178
Li       6.92119320       7.79534255       4.91742977       31      -0.00310643       0.00698457       0.00452178
Li       2.40742516       5.33658887       7.86435632       32       0.00092229       0.00167725       0.00146017
Li       9.00860143       0.86982447       7.79413945       33      -0.00032661       0.00288510       0.00828407
Li       8.84581687       5.93592730       2.92827518       34       0.00338446       0.00174944       0.00519268
Li       1.89508859       0.46218541       2.40895066       35      -0.00040483      -0.00001825       0.00226246
Li       2.02344265       4.44530731       4.42220962       36      -0.00249741       0.00387764       0.00203655
Li       5.27468741       9.09200521       2.86164859       37      -0.00141046       0.00074524       0.00252224
Li       5.23726758       3.56456490       8.27967368       38       0.00042733       0.00430008       0.00227710
Li       0.58830627       7.89932448       9.53250337       39       0.00463166       0.00401438       0.00117589
Li       0.12318843       7.02576384       6.74241751       40       0.00478438       0.00603041      -0.00378304
Li       5.63196915       0.66941691       7.32033882       41       0.00211833       0.00350941       0.00158002
Li       5.42442091       5.73154775       2.35452065       42       0.00043359       0.00333912       0.00497867
Li      -0.06877711       2.95563648       2.96095261       43       0.00249336       0.00216524      -0.00022955
Cl       9.51756055      10.25693087      10.08324226       44       0.00436576       0.00581587       0.00719691
Cl       4.60882140       5.18706489       0.03069210       45       0.00441400       0.00214716       0.00356649
Cl       4.82247562      -0.06161364       5.09478505       46      -0.00254773      -0.00348350       0.00372765
Cl       9.73833109       5.04827430       5.10129397       47       0.00551546       0.00119783       0.00592135
S        2.20113585       2.70104983       2.83867065       48       0.00055809       0.00165073       0.00339656
S        7.06535046       7.52019107       2.56122697       49       0.00281546       0.00259682       0.00518963
S        7.24061240       2.45223285       7.60302599       50       0.00251359       0.00536414       0.00429301
S        2.17302456       7.66465172       7.73056674       51       0.00290636       0.00253186       0.00155542
P       14.90777584       5.13349353       5.08291171        0       0.00377400       0.00142122      -0.00151013
P        9.85723845      10.00528191       5.07464381        1      -0.00006347      -0.00109249       0.00557571
P        9.85132513       5.03454809      10.17147920        2       0.00342131       0.00788806       0.00379392
P       14.87627232       0.14776402      10.04724680        3      -0.00169398      -0.00198348       0.00336532
S       15.98607303       6.32882221       6.33494909        4       0.00740640       0.00219639      -0.00464604
S       10.93556296       1.23175518       6.27484736        5       0.00297777       0.00322616       0.00638569
S       10.82781059       6.35739022       1.35320129        6       0.00558493       0.00316017       0.00244130
S       16.02396514       1.22567010       1.29131200        7       0.00111013       0.00246874       0.00365130
S       13.68602076       3.87417450       6.16684607        8       0.00098554      -0.00244109      -0.00626871
S       18.68088980       8.88050225       6.29471486        9      -0.00238977       0.00539630       0.00904177
S       18.57946220       4.07139220       1.33970207       10      -0.00443006       0.00047761       0.00698219
S       13.55602950       8.95304054       0.97641432       11       0.00140844       0.00394912       0.00851599
S       13.79563937       6.34764538       3.83624667       12      -0.00044470       0.00385096       0.00762106
S       18.71395152       1.17411815       3.93911863       13      -0.00051732       0.00673938      -0.00034001
S       18.81974005       6.27535561       8.84806027       14      -0.00037930       0.00778635      -0.00265048
S       13.77743560       1.46501236       8.90125129       15       0.00031408       0.00101240       0.00285784
S       16.04280669       3.88052895       3.90476830       16       0.01196515       0.00516720       0.00015131
S       11.01486459       8.69144184       4.02709486       17       0.00170750       0.00524074       0.00707733
S       11.09722884       3.75880732       9.16450869       18       0.00563887       0.00395542       0.00267395
S       15.94803071       8.97523819       8.78875729       19      -0.00138318      -0.00055053       0.00485100
Li      12.18358842       4.92199394       2.78263743       20       0.00368451       0.00736104       0.00243649
Li      17.92410615       9.86309213       2.08014110       21       0.00137755       0.00336316       0.00122284
Li      17.83476113       4.90305166       6.97163729       22       0.01453870      -0.00268226       0.00031226
Li      12.47031247       9.94552523       7.63081528       23       0.00342508       0.00361831       0.00110324
Li      17.64311066       7.93208787       0.17950183       24       0.00651199       0.00480069       0.00365600
Li      13.26124406       3.20355675       0.53989777       25       0.00708112       0.00682592      -0.00117278
Li      13.15097667       8.11682790       5.42341267       26       0.00658344       0.00397596      -0.00039966
Li      19.79305620       2.92580071       7.19835544       27       0.00556347      -0.01197816       0.02326809
Li      17.48740780       2.55612025       9.93531197       28      -0.01470835       0.01695624       0.00483263
Li      14.13438378       7.25766834       9.10602385       29       0.00125746      -0.00218058       0.00646331
Li      14.06582932       2.35047076       4.12989126       30       0.00805194      -0.01168366      -0.02291885
Li      17.01575338       7.93192874       4.81971155       31       0.00765699       0.00937919      -0.00289840
Li      12.25457823       5.25582371       7.59114480       32      -0.02175281       0.00956257      -0.00418056
Li      17.91184690       0.30035495       8.10099871       33      -0.00274900       0.00618792       0.00645609
Li      19.52183450       6.99497872       3.02193975       34       0.00726085       0.00585740       0.00716991
Li      12.61178048       0.23205650       2.87098146       35       0.00394111       0.00582164       0.00989405
Li      10.63537824       2.83978798       4.38736706       36       0.01155768       0.00232857       0.00634716
Li      15.06554572       8.33939179       2.76765821       37       0.00543617       0.00905376       0.00348751
Li      15.22837827       3.35480055       8.07210362       38      -0.00270941       0.00544300       0.00369295
Li      10.67654917       7.91815874       9.41278288       39       0.00264103       0.00310533       0.00244355
Li      10.37801242       7.21049085       6.11102678       40       0.00111628       0.00746691      -0.00390884
Li      17.03622320       2.16969807       5.38498504       41       0.00808763       0.00634165       0.00472449
Li      16.45113622       5.41710838       1.91405198       42       0.00975359      -0.00226784       0.00488903
Li      10.46936561       2.19295797       1.13363365       43       0.01171747       0.00526187       0.00543334
Cl      19.34988388       9.81338144      10.09135827       44       0.00370510       0.00309338       0.00222693
Cl      14.82880666       4.99193806      -0.06848717       45       0.01662842      -0.00310817       0.01350067
Cl      14.52543780      -0.07865846       4.57489370       46       0.00722005       0.00546084       0.00376059
Cl      19.92450674       5.02910133       5.40663046       47       0.00034091       0.01183814      -0.01108343
S       12.25573073       2.59129917       2.63661402       48       0.00310163       0.00690743      -0.00334057
S       17.29563224       7.60905204       2.51003733       49       0.00153522       0.00310148       0.00053107
S       17.48315347       2.63300159       7.61199374       50       0.00231476       0.00258900       0.00534215
S       12.24574598       7.60352841       7.59499438       51       0.00234874       0.00837529       0.00086897
103
Lattice="20.110191271466377 0.0 0.0 0.0 10.055095635733188 0.0 0.0 0.0 10.055095635733188" Properties=species:S:1:pos:R:3:spacegroup_kinds:I:1:forces:R:3 spacegroup="P 1" unit_cell=conventional occupancy="_JSON {\"0\": {\"P\": 1.0}, \"1\": {\"P\": 1.0}, \"2\": {\"P\": 1.0}, \"3\": {\"P\": 1.0}, \"4\": {\"S\": 1.0}, \"5\": {\"S\": 1.0}, \"6\": {\"S\": 1.0}, \"7\": {\"S\": 1.0}, \"8\": {\"S\": 1.0}, \"9\": {\"S\": 1.0}, \"10\": {\"S\": 1.0}, \"11\": {\"S\": 1.0}, \"12\": {\"S\": 1.0}, \"13\": {\"S\": 1.0}, \"14\": {\"S\": 1.0}, \"15\": {\"S\": 1.0}, \"16\": {\"S\": 1.0}, \"17\": {\"S\": 1.0}, \"18\": {\"S\": 1.0}, \"19\": {\"S\": 1.0}, \"20\": {\"Li\": 1.0}, \"21\": {\"Li\": 1.0}, \"22\": {\"Li\": 1.0}, \"23\": {\"Li\": 1.0}, \"24\": {\"Li\": 1.0}, \"25\": {\"Li\": 1.0}, \"26\": {\"Li\": 1.0}, \"27\": {\"Li\": 1.0}, \"28\": {\"Li\": 1.0}, \"29\": {\"Li\": 1.0}, \"30\": {\"Li\": 1.0}, \"31\": {\"Li\": 1.0}, \"32\": {\"Li\": 1.0}, \"33\": {\"Li\": 1.0}, \"34\": {\"Li\": 1.0}, \"35\": {\"Li\": 1.0}, \"36\": {\"Li\": 1.0}, \"37\": {\"Li\": 1.0}, \"38\": {\"Li\": 1.0}, \"39\": {\"Li\": 1.0}, \"40\": {\"Li\": 1.0}, \"41\": {\"Li\": 1.0}, \"42\": {\"Li\": 1.0}, \"43\": {\"Li\": 1.0}, \"44\": {\"Cl\": 1.0}, \"45\": {\"Cl\": 1.0}, \"46\": {\"Cl\": 1.0}, \"47\": {\"Cl\": 1.0}, \"48\": {\"S\": 1.0}, \"49\": {\"S\": 1.0}, \"50\": {\"S\": 1.0}, \"51\": {\"S\": 1.0}}" charge=0 spin=0 energy=-429.53851003368715 free_energy=-429.53851003368715 stress="-0.00209873364215755 -0.0007246906989583102 -0.0003528115049079727 -0.0007246906989583102 0.002384774040910022 -0.0008669807693301514 -0.0003528115049079727 -0.0008669807693301514 0.0022161480463037146" pbc="T T T"
P        4.90055574       5.08819304       5.27554891        0       0.00358252       0.00797561       0.00645526
P       -0.17392361      10.09455740       5.14598649        1       0.02031497      -0.01053621      -0.00835915
P       -0.22395420       5.09651748      10.17395161        2       0.01946325      -0.01082821      -0.00834578
P        4.82021121       0.12147870      10.18288477        3      -0.00038644      -0.00372062       0.00361488
S        6.10721813       6.14545576       6.51655218        4      -0.00088378      -0.00146174      -0.00184533
S        1.03832784       1.23041072       6.27470763        5       0.00395330       0.00840524       0.00593249
S        0.97764106       6.27599288       1.27907677        6       0.00374774       0.00778969       0.00714107
S        6.02540885       1.10452320       1.45713901        7       0.00207714       0.00537942       0.00663963
S        3.62671219       3.86584002       6.37184605        8       0.00054167      -0.00016247       0.00257629
S        8.59354289       8.96646246       6.31775838        9      -0.00032608       0.00598930       0.00363977
S        8.61611280       3.93632760       1.31608704       10       0.00400766       0.00201552       0.00553671
S        3.45708343       9.04775167       1.19127404       11       0.00325788       0.00432251      -0.00012494
S        3.73184461       6.31695729       4.09999902       12       0.00116777      -0.00149249       0.00210065
S        8.81021206       1.17777777       3.78078778       13       0.00364032       0.00507225       0.00291903
S        8.83626432       6.23476966       8.84851808       14       0.00681317       0.00433392       0.00690312
S        3.84451489       1.43672431       8.94005826       15       0.00118180       0.00567649       0.00165294
S        5.91077739       3.85574614       3.97155681       16       0.00342650      -0.00184236      -0.00008694
S        0.98044755       8.86097038       3.97376461       17      -0.00817265       0.01333923       0.01572281
S        1.02456158       3.80307298       9.17142739       18      -0.00349800       0.01342439       0.01107955
S        5.87525611       8.88376647       8.96957676       19       0.00264134       0.00572297       0.00459045
Li       8.09498747       9.64822877       1.95388653       21       0.00200771       0.00332413       0.00424954
Li       8.09317826       4.66521352       7.04296150       22       0.00507818       0.00630480       0.00862595
Li       2.22064744       9.98766157       7.92028671       23       0.00424961       0.00230317       0.00113015
Li       7.10677367       7.21749234       0.24146279       24       0.00278121       0.00522969       0.00530527
Li       2.62658778       4.13748751       1.06128608       25      -0.29470268      -0.34613577      -0.29944268
Li       3.01077226       8.23824909       5.51068189       26       0.00445605       0.00359398       0.00128240
Li       7.25836929       2.30968334       5.27736540       27       0.01303188       0.01307472       0.00403349
Li       7.57909132       2.21738889       9.94560553       28       0.00091213       0.00419381       0.00502844
Li       3.91524189       7.43775040       9.34980296       29       0.00416609       0.00213669       0.00131052
Li       3.96839263       2.21789185       4.28204869       30       0.00196771      -0.00055379      -0.00012178
Li       6.91615414       7.83294251       4.92712853       31      -0.00310643       0.00698457       0.00452178
Li       2.43581606       5.34762498       7.89342269       32       0.00092229       0.00167725       0.00146017
Li       9.02259144       0.89684664       7.81256453       33      -0.00032661       0.00288510       0.00828407
Li       8.88711596       5.97898762       2.94509866       34       0.00338446       0.00174944       0.00519268
Li       1.90991399       0.52998272       2.37764167       35      -0.00040483      -0.00001825       0.00226246
Li       2.01305860       4.48838095       4.46952294       36      -0.00249741       0.00387764       0.00203655
Li       5.29116970       9.11899742       2.84911569       37      -0.00141046       0.00074524       0.00252224
Li       5.22151674       3.54466334       8.31159379       38       0.00042733       0.00430008       0.00227710
Li       0.62140463       7.91022454       9.51722296       39       0.00463166       0.00401438       0.00117589
Li       0.15394679       7.08783516       6.69351293       40       0.00478438       0.00603041      -0.00378304
Li       5.66859186       0.66016094       7.32623303       41       0.00211833       0.00350941       0.00158002
Li       5.47595292       5.75263017       2.37762849       42       0.00043359       0.00333912       0.00497867
Li      -0.08073609       3.03335783       3.03479334       43       0.00249336       0.00216524      -0.00022955
Cl       9.54717291      10.26591357      10.09178294       44       0.00436576       0.00581587       0.00719691
Cl       4.62344589       5.23898961       0.06289339       45       0.00441400       0.00214716       0.00356649
Cl       4.84283878      -0.04244744       5.09073860       46      -0.00254773      -0.00348350       0.00372765
Cl       9.77372344       5.07222296       5.12761809       47       0.00551546       0.00119783       0.00592135
S        2.18895376       2.76390178       2.87345173       48       0.00055809       0.00165073       0.00339656
S        7.09360944       7.54632752       2.57619016       49       0.00281546       0.00259682       0.00518963
S        7.25152605       2.47523454       7.61372485       50       0.00251359       0.00536414       0.00429301
S        2.20181333       7.66597530       7.71508854       51       0.00290636       0.00253186       0.00155542
P       14.93185437       5.12940753       5.10181094        0       0.00377400       0.00142122      -0.00151013
P        9.85946377      10.02406633       5.08494048        1      -0.00006347      -0.00109249       0.00557571
P        9.87327201       5.04582392      10.18337491        2       0.00342131       0.00788806       0.00379392
P       14.86916217       0.12028260      10.07588742        3      -0.00169398      -0.00198348       0.00336532
S       16.03103887       6.28359270       6.37152887        4       0.00740640       0.00219639      -0.00464604
S       10.94542955       1.24675417       6.28218246        5       0.00297777       0.00322616       0.00638569
S       10.86234523       6.36519820       1.35939092        6       0.00558493       0.00316017       0.00244130
S       16.02615835       1.18161865       1.32456162        7       0.00111013       0.00246874       0.00365130
S       13.67252513       3.88541672       6.16404994        8       0.00098554      -0.00244109      -0.00626871
S       18.69242772       8.93121881       6.31493705        9      -0.00238977       0.00539630       0.00904177
S       18.57739437       4.08016177       1.33713884       10      -0.00443006       0.00047761       0.00698219
S       13.55109168       8.93213986       1.01204127       11       0.00140844       0.00394912       0.00851599
S       13.84909653       6.36134531       3.84690950       12      -0.00044470       0.00385096       0.00762106
S       18.72029366       1.20821692       3.94661897       13      -0.00051732       0.00673938      -0.00034001
S       18.84461055       6.26712395       8.82301370       14      -0.00037930       0.00778635      -0.00265048
S       13.78668294       1.44704148       8.92441815       15       0.00031408       0.00101240       0.00285784
S       16.05989340       3.86162127       3.93256275       16       0.01196515       0.00516720       0.00015131
S       11.01174890       8.70208280       4.03967669       17       0.00170750       0.00524074       0.00707733
S       11.11372500       3.76622904       9.17336924       18       0.00563887       0.00395542       0.00267395
S       15.92898875       8.92900602       8.82259702       19      -0.00138318      -0.00055053       0.00485100
Li      12.21901584       4.93580004       2.80126840       20       0.00368451       0.00736104       0.00243649
Li      17.99123107       9.86131050       2.08594089       21       0.00137755       0.00336316       0.00122284
Li      17.94336970       4.84258640       6.88834800       22       0.01453870      -0.00268226       0.00031226
Li      12.48113853       9.94870960       7.62739534       23       0.00342508       0.00361831       0.00110324
Li      17.66745424       7.91030334       0.19603906       24       0.00651199       0.00480069       0.00365600
Li      13.26213141       3.19665638       0.54891991       25       0.00708112       0.00682592      -0.00117278
Li      13.15055529       8.12274182       5.42535022       26       0.00658344       0.00397596      -0.00039966
Li      19.75900544       2.55004961       7.66607887       27       0.00556347      -0.01197816       0.02326809
Li      17.25469605       2.71572879       9.96996253       28      -0.01470835       0.01695624       0.00483263
Li      14.11855815       7.22250356       9.13167960       29       0.00125746      -0.00218058       0.00646331
Li      14.06698063       2.35403327       4.14206108       30       0.00805194      -0.01168366      -0.02291885
Li      17.08803502       7.86442573       4.84918991       31       0.00765699       0.00937919      -0.00289840
Li      12.18152874       5.25865865       7.53149325       32      -0.02175281       0.00956257      -0.00418056
Li      17.82317599       0.27425634       8.16176575       33      -0.00274900       0.00618792       0.00645609
Li      19.55108485       6.89433054       3.16512682       34       0.00726085       0.00585740       0.00716991
Li      12.61304601       0.24009968       2.88928700       35       0.00394111       0.00582164       0.00989405
Li      10.63914242       2.85465370       4.39290007       36       0.01155768       0.00232857       0.00634716
Li      15.12330453       8.39621958       2.79533610       37       0.00543617       0.00905376       0.00348751
Li      15.19464072       3.37386011       8.04519998       38      -0.00270941       0.00544300       0.00369295
Li      10.69019123       7.93795588       9.42828328       39       0.00264103       0.00310533       0.00244355
Li      10.37097552       7.24552980       6.12751811       40       0.00111628       0.00746691      -0.00390884
Li      17.03007059       2.12413690       5.41253785       41       0.00808763       0.00634165       0.00472449
Li      16.46694616       5.43952574       1.97502957       42       0.00975359      -0.00226784       0.00488903
Li      10.47544554       2.20013622       1.14726348       43       0.01171747       0.00526187       0.00543334
Cl      19.36756886       9.80419139      10.06752510       44       0.00370510       0.00309338       0.00222693
Cl      14.89102942       4.93747419      -0.03521125       45       0.01662842      -0.00310817       0.01350067
Cl      14.51424035      -0.05360533       4.60634868       46       0.00722005       0.00546084       0.00376059
Cl      19.88226877       5.26523023       5.16097603       47       0.00034091       0.01183814      -0.01108343
S       12.26258793       2.60240278       2.64686632       48       0.00310163       0.00690743      -0.00334057
S       17.34464101       7.61396641       2.53504229       49       0.00153522       0.00310148       0.00053107
S       17.44900320       2.61410418       7.64952839       50       0.00231476       0.00258900       0.00534215
S       12.25250310       7.60558993       7.60064272       51       0.00234874       0.00837529       0.00086897
103
Lattice="20.110191271466377 0.0 0.0 0.0 10.055095635733188 0.0 0.0 0.0 10.055095635733188" Properties=species:S:1:pos:R:3:spacegroup_kinds:I:1:forces:R:3 spacegroup="P 1" unit_cell=conventional occupancy="_JSON {\"0\": {\"P\": 1.0}, \"1\": {\"P\": 1.0}, \"2\": {\"P\": 1.0}, \"3\": {\"P\": 1.0}, \"4\": {\"S\": 1.0}, \"5\": {\"S\": 1.0}, \"6\": {\"S\": 1.0}, \"7\": {\"S\": 1.0}, \"8\": {\"S\": 1.0}, \"9\": {\"S\": 1.0}, \"10\": {\"S\": 1.0}, \"11\": {\"S\": 1.0}, \"12\": {\"S\": 1.0}, \"13\": {\"S\": 1.0}, \"14\": {\"S\": 1.0}, \"15\": {\"S\": 1.0}, \"16\": {\"S\": 1.0}, \"17\": {\"S\": 1.0}, \"18\": {\"S\": 1.0}, \"19\": {\"S\": 1.0}, \"20\": {\"Li\": 1.0}, \"21\": {\"Li\": 1.0}, \"22\": {\"Li\": 1.0}, \"23\": {\"Li\": 1.0}, \"24\": {\"Li\": 1.0}, \"25\": {\"Li\": 1.0}, \"26\": {\"Li\": 1.0}, \"27\": {\"Li\": 1.0}, \"28\": {\"Li\": 1.0}, \"29\": {\"Li\": 1.0}, \"30\": {\"Li\": 1.0}, \"31\": {\"Li\": 1.0}, \"32\": {\"Li\": 1.0}, \"33\": {\"Li\": 1.0}, \"34\": {\"Li\": 1.0}, \"35\": {\"Li\": 1.0}, \"36\": {\"Li\": 1.0}, \"37\": {\"Li\": 1.0}, \"38\": {\"Li\": 1.0}, \"39\": {\"Li\": 1.0}, \"40\": {\"Li\": 1.0}, \"41\": {\"Li\": 1.0}, \"42\": {\"Li\": 1.0}, \"43\": {\"Li\": 1.0}, \"44\": {\"Cl\": 1.0}, \"45\": {\"Cl\": 1.0}, \"46\": {\"Cl\": 1.0}, \"47\": {\"Cl\": 1.0}, \"48\": {\"S\": 1.0}, \"49\": {\"S\": 1.0}, \"50\": {\"S\": 1.0}, \"51\": {\"S\": 1.0}}" charge=0 spin=0 energy=-429.53851003368715 free_energy=-429.53851003368715 stress="-0.00209873364215755 -0.0007246906989583102 -0.0003528115049079727 -0.0007246906989583102 0.002384774040910022 -0.0008669807693301514 -0.0003528115049079727 -0.0008669807693301514 0.0022161480463037146" pbc="T T T"
P        4.91167487       5.10563280       5.31388201        0       0.00358252       0.00797561       0.00645526
P       -0.17250466      10.17160944       5.20688456        1       0.02031497      -0.01053621      -0.00835915
P       -0.19429009       5.14528867      10.21885130        2       0.01946325      -0.01082821      -0.00834578
P        4.83566412       0.12632603      10.20812384        3      -0.00038644      -0.00372062       0.00361488
S        6.09673354       6.18098061       6.56171407        4      -0.00088378      -0.00146174      -0.00184533
S        1.01248397       1.32493353       6.34309117        5       0.00395330       0.00840524       0.00593249
S        1.00783398       6.30796485       1.34067404        6       0.00374774       0.00778969       0.00714107
S        6.02994835       1.11131253       1.49488413        7       0.00207714       0.00537942       0.00663963
S        3.64042231       3.86775555       6.39116633        8       0.00054167      -0.00016247       0.00257629
S        8.57294700       9.02630045       6.35746848        9      -0.00032608       0.00598930       0.00363977
S        8.66512685       3.96476749       1.37339153       10       0.00400766       0.00201552       0.00553671
S        3.47964878       9.03105750       1.20337514       11       0.00325788       0.00432251      -0.00012494
S        3.73806382       6.31513105       4.12533525       12       0.00116777      -0.00149249       0.00210065
S        8.81404582       1.22381561       3.80694705       13       0.00364032       0.00507225       0.00291903
S        8.85932868       6.27326884       8.91129909       14       0.00681317       0.00433392       0.00690312
S        3.86624762       1.45029893       8.96959231       15       0.00118180       0.00567649       0.00165294
S        5.96113046       3.88739035       4.02510634       16       0.00342650      -0.00184236      -0.00008694
S        0.99546509       8.91046794       4.07227251       17      -0.00817265       0.01333923       0.01572281
S        1.06281400       3.86501124       9.20731722       18      -0.00349800       0.01342439       0.01107955
S        5.90625686       8.89904602       9.00064920       19       0.00264134       0.00572297       0.00459045
Li       8.11240391       9.66595273       1.97151246       21       0.00200771       0.00332413       0.00424954
Li       8.09148943       4.71988732       7.12214336       22       0.00507818       0.00630480       0.00862595
Li       2.25427299      10.03036375       7.90373235       23       0.00424961       0.00230317       0.00113015
Li       7.06161766       7.17164637       0.29608530       24       0.00278121       0.00522969       0.00530527
Li       2.69962211       4.17388753       1.07050593       25      -0.29470268      -0.34613577      -0.29944268
Li       3.04941571       8.24221563       5.54091992       26       0.00445605       0.00359398       0.00128240
Li       7.33334839       2.38753337       5.34092433       27       0.01303188       0.01307472       0.00403349
Li       7.56237260       2.28704062      10.00790835       28       0.00091213       0.00419381       0.00502844
Li       3.95479355       7.40291057       9.32904179       29       0.00416609       0.00213669       0.00131052
Li       4.05595682       2.23035676       4.25627920       30       0.00196771      -0.00055379      -0.00012178
Li       6.86819288       7.90920857       4.97746717       31      -0.00310643       0.00698457       0.00452178
Li       2.24097528       5.37476282       7.69235776       32       0.00092229       0.00167725       0.00146017
Li       9.04440409       0.94280386       7.87099998       33      -0.00032661       0.00288510       0.00828407
Li       8.94574376       6.04362757       3.00161053       34       0.00338446       0.00174944       0.00519268
Li       1.98026728       0.50126255       2.43430126       35      -0.00040483      -0.00001825       0.00226246
Li       2.00966608       4.45435998       4.46992587       36      -0.00249741       0.00387764       0.00203655
Li       5.31053354       9.12445800       2.86102323       37      -0.00141046       0.00074524       0.00252224
Li       5.22021566       3.58795049       8.35077638       38       0.00042733       0.00430008       0.00227710
Li       0.68195583       7.95914859       9.57679725       39       0.00463166       0.00401438       0.00117589
Li       0.15140911       7.24594156       6.69511146       40       0.00478438       0.00603041      -0.00378304
Li       5.70822760       0.68739296       7.36235842       41       0.00211833       0.00350941       0.00158002
Li       5.52327531       5.77490461       2.44399662       42       0.00043359       0.00333912       0.00497867
Li      -0.00702525       2.93219429       2.86935878       43       0.00249336       0.00216524      -0.00022955
Cl       9.58327748      10.28110969      10.12952679       44       0.00436576       0.00581587       0.00719691
Cl       4.75757178       5.27022043       0.15059431       45       0.00441400       0.00214716       0.00356649
Cl       4.86883658      -0.05663683       5.11865387       46      -0.00254773      -0.00348350       0.00372765
Cl       9.83658917       5.09044674       5.24116378       47       0.00551546       0.00119783       0.00592135
S        2.26144397       2.75160694       2.85825635       48       0.00055809       0.00165073       0.00339656
S        7.12460286       7.57086209       2.63229629       49       0.00281546       0.00259682       0.00518963
S        7.26757424       2.52231645       7.67296121       50       0.00251359       0.00536414       0.00429301
S        2.21691644       7.70751843       7.73535067       51       0.00290636       0.00253186       0.00155542
P       14.94436140       5.14588627       5.11452560        0       0.00377400       0.00142122      -0.00151013
P        9.84557785      10.06131126       5.11193068        1      -0.00006347      -0.00109249       0.00557571
P        9.90887991       5.07376964      10.22588451        2       0.00342131       0.00788806       0.00379392
P       14.86496673       0.10342769      10.09289773        3      -0.00169398      -0.00198348       0.00336532
S       16.01945511       6.29924830       6.40630015        4       0.00740640       0.00219639      -0.00464604
S       10.95300852       1.26916411       6.30510636        5       0.00297777       0.00322616       0.00638569
S       10.91348836       6.38373925       1.40029993        6       0.00558493       0.00316017       0.00244130
S       16.01119310       1.20829463       1.31137721        7       0.00111013       0.00246874       0.00365130
S       13.64695338       3.89927257       6.12719223        8       0.00098554      -0.00244109      -0.00626871
S       18.65969895       9.04731946       6.37677434        9      -0.00238977       0.00539630       0.00904177
S       18.60456766       4.10160688       1.35468348       10      -0.00443006       0.00047761       0.00698219
S       13.56326622       8.90152369       1.02789595       11       0.00140844       0.00394912       0.00851599
S       13.89133294       6.36899322       3.82739245       12      -0.00044470       0.00385096       0.00762106
S       18.75233734       1.26856989       3.96096872       13      -0.00051732       0.00673938      -0.00034001
S       18.88096538       6.33039725       8.87843753       14      -0.00037930       0.00778635      -0.00265048
S       13.75862160       1.39872807       8.92235153       15       0.00031408       0.00101240       0.00285784
S       16.10656211       3.88368501       3.97188107       16       0.01196515       0.00516720       0.00015131
S       10.97369235       8.71885316       4.06225032       17       0.00170750       0.00524074       0.00707733
S       11.14469110       3.80191667       9.19962316       18       0.00563887       0.00395542       0.00267395
S       15.95494270       8.91498063       8.86079688       19      -0.00138318      -0.00055053       0.00485100
Li      12.29268355       4.92442454       2.77311777       20       0.00368451       0.00736104       0.00243649
Li      17.99943246       9.93287251       2.10573348       21       0.00137755       0.00336316       0.00122284
Li      17.98356061       4.89536994       6.97531482       22       0.01453870      -0.00268226       0.00031226
Li      12.49302825       9.92529540       7.57776178       23       0.00342508       0.00361831       0.00110324
Li      17.71516073       7.95265929       0.25531373       24       0.00651199       0.00480069       0.00365600
Li      13.30939328       3.14542999       0.55586389       25       0.00708112       0.00682592      -0.00117278
Li      13.12557626       8.09869439       5.40349541       26       0.00658344       0.00397596      -0.00039966
Li      19.73181145       2.47246341       7.91374009       27       0.00556347      -0.01197816       0.02326809
Li      16.90393797       3.11111971      10.00550521       28      -0.01470835       0.01695624       0.00483263
Li      14.16470350       7.18211510       9.02947921       29       0.00125746      -0.00218058       0.00646331
Li      14.12842506       2.33963799       4.11670532       30       0.00805194      -0.01168366      -0.02291885
Li      17.08455710       7.92637963       4.91257926       31       0.00765699       0.00937919      -0.00289840
Li      12.00132703       5.24307735       7.37253897       32      -0.02175281       0.00956257      -0.00418056
Li      17.77689065       0.36106242       8.29434740       33      -0.00274900       0.00618792       0.00645609
Li      19.59310991       6.94574251       3.23742452       34       0.00726085       0.00585740       0.00716991
Li      12.61134006       0.22568679       2.90004350       35       0.00394111       0.00582164       0.00989405
Li      10.68573583       2.86848771       4.40486009       36       0.01155768       0.00232857       0.00634716
Li      15.15045621       8.42682857       2.81702079       37       0.00543617       0.00905376       0.00348751
Li      15.13018637       3.24746009       7.93918445       38      -0.00270941       0.00544300       0.00369295
Li      10.74718932       7.96630639       9.47458114       39       0.00264103       0.00310533       0.00244355
Li      10.33419490       7.31585508       6.16159959       40       0.00111628       0.00746691      -0.00390884
Li      17.17299961       2.25474870       5.46814655       41       0.00808763       0.00634165       0.00472449
Li      16.56702596       5.49419018       2.09212350       42       0.00975359      -0.00226784       0.00488903
Li      10.50511271       2.21772921       1.14789978       43       0.01171747       0.00526187       0.00543334
Cl      19.40835412       9.85146359      10.11302777       44       0.00370510       0.00309338       0.00222693
Cl      15.03276174       4.81135924      -0.00048397       45       0.01662842      -0.00310817       0.01350067
Cl      14.48428393      -0.07090437       4.62327286       46       0.00722005       0.00546084       0.00376059
Cl      19.94799344       5.36307842       5.26373167       47       0.00034091       0.01183814      -0.01108343
S       12.29517672       2.59338099       2.65152081       48       0.00310163       0.00690743      -0.00334057
S       17.38975665       7.67851663       2.59800071       49       0.00153522       0.00310148       0.00053107
S       17.43557228       2.67966214       7.72781374       50       0.00231476       0.00258900       0.00534215
S       12.25132823       7.58964679       7.58991693       51       0.00234874       0.00837529       0.00086897
103
Lattice="20.110191271466377 0.0 0.0 0.0 10.055095635733188 0.0 0.0 0.0 10.055095635733188" Properties=species:S:1:pos:R:3:spacegroup_kinds:I:1:forces:R:3 spacegroup="P 1" unit_cell=conventional occupancy="_JSON {\"0\": {\"P\": 1.0}, \"1\": {\"P\": 1.0}, \"2\": {\"P\": 1.0}, \"3\": {\"P\": 1.0}, \"4\": {\"S\": 1.0}, \"5\": {\"S\": 1.0}, \"6\": {\"S\": 1.0}, \"7\": {\"S\": 1.0}, \"8\": {\"S\": 1.0}, \"9\": {\"S\": 1.0}, \"10\": {\"S\": 1.0}, \"11\": {\"S\": 1.0}, \"12\": {\"S\": 1.0}, \"13\": {\"S\": 1.0}, \"14\": {\"S\": 1.0}, \"15\": {\"S\": 1.0}, \"16\": {\"S\": 1.0}, \"17\": {\"S\": 1.0}, \"18\": {\"S\": 1.0}, \"19\": {\"S\": 1.0}, \"20\": {\"Li\": 1.0}, \"21\": {\"Li\": 1.0}, \"22\": {\"Li\": 1.0}, \"23\": {\"Li\": 1.0}, \"24\": {\"Li\": 1.0}, \"25\": {\"Li\": 1.0}, \"26\": {\"Li\": 1.0}, \"27\": {\"Li\": 1.0}, \"28\": {\"Li\": 1.0}, \"29\": {\"Li\": 1.0}, \"30\": {\"Li\": 1.0}, \"31\": {\"Li\": 1.0}, \"32\": {\"Li\": 1.0}, \"33\": {\"Li\": 1.0}, \"34\": {\"Li\": 1.0}, \"35\": {\"Li\": 1.0}, \"36\": {\"Li\": 1.0}, \"37\": {\"Li\": 1.0}, \"38\": {\"Li\": 1.0}, \"39\": {\"Li\": 1.0}, \"40\": {\"Li\": 1.0}, \"41\": {\"Li\": 1.0}, \"42\": {\"Li\": 1.0}, \"43\": {\"Li\": 1.0}, \"44\": {\"Cl\": 1.0}, \"45\": {\"Cl\": 1.0}, \"46\": {\"Cl\": 1.0}, \"47\": {\"Cl\": 1.0}, \"48\": {\"S\": 1.0}, \"49\": {\"S\": 1.0}, \"50\": {\"S\": 1.0}, \"51\": {\"S\": 1.0}}" charge=0 spin=0 energy=-429.53851003368715 free_energy=-429.53851003368715 stress="-0.00209873364215755 -0.0007246906989583102 -0.0003528115049079727 -0.0007246906989583102 0.002384774040910022 -0.0008669807693301514 -0.0003528115049079727 -0.0008669807693301514 0.0022161480463037146" pbc="T T T"
P        4.88028671       5.08064682       5.34116179        0       0.00358252       0.00797561       0.00645526
P       -0.19101023      10.17688400       5.19972238        1       0.02031497      -0.01053621      -0.00835915
P       -0.22390018       5.15254085      10.20464486        2       0.01946325      -0.01082821      -0.00834578
P        4.78404934       0.11127774      10.21813127        3      -0.00038644      -0.00372062       0.00361488
S        6.06828685       6.19689406       6.55571580        4      -0.00088378      -0.00146174      -0.00184533
S        1.00694594       1.34657361       6.30082216        5       0.00395330       0.00840524       0.00593249
S        0.98961243       6.31882286       1.31410620        6       0.00374774       0.00778969       0.00714107
S        5.97264125       1.09592483       1.54123115        7       0.00207714       0.00537942       0.00663963
S        3.63901624       3.86997624       6.45630739        8       0.00054167      -0.00016247       0.00257629
S        8.57690544       9.01820974       6.37761617        9      -0.00032608       0.00598930       0.00363977
S        8.64787178       3.95785916       1.38055132       10       0.00400766       0.00201552       0.00553671
S        3.44609543       8.98610059       1.19112149       11       0.00325788       0.00432251      -0.00012494
S        3.69227575       6.23250052       4.11255218       12       0.00116777      -0.00149249       0.00210065
S        8.80206020       1.21825332       3.82807421       13       0.00364032       0.00507225       0.00291903
S        8.83832722       6.26696995       8.91628024       14       0.00681317       0.00433392       0.00690312
S        3.83609617       1.44478374       8.98556712       15       0.00118180       0.00567649       0.00165294
S        6.01557252       3.90384445       4.06419608       16       0.00342650      -0.00184236      -0.00008694
S        0.96447956       8.85106692       4.11638630       17      -0.00817265       0.01333923       0.01572281
S        1.03528379       3.87208547       9.19510420       18      -0.00349800       0.01342439       0.01107955
S        5.91331727       8.92561264       9.03043849       19       0.00264134       0.00572297       0.00459045
Li       8.11503586       9.63865799       2.01742902       21       0.00200771       0.00332413       0.00424954
Li       8.05739312       4.72523628       7.11945544       22       0.00507818       0.00630480       0.00862595
Li       2.24096401      10.04314264       7.86177120       23       0.00424961       0.00230317       0.00113015
Li       7.02397328       7.13178277       0.30760495       24       0.00278121       0.00522969       0.00530527
Li       2.64991579       4.23978430       1.05468103       25      -0.29470268      -0.34613577      -0.29944268
Li       3.15523248       8.20470810       5.53586352       26       0.00445605       0.00359398       0.00128240
Li       7.32570197       2.36353341       5.37744633       27       0.01303188       0.01307472       0.00403349
Li       7.57024792       2.24608337      10.03042264       28       0.00091213       0.00419381       0.00502844
Li       3.96677676       7.37888844       9.26446773       29       0.00416609       0.00213669       0.00131052
Li       4.43773838       2.14432482       3.39200777       30       0.00196771      -0.00055379      -0.00012178
Li       6.81048164       7.97605325       4.98933790       31      -0.00310643       0.00698457       0.00452178
Li       2.13470623       5.38888412       7.61471839       32       0.00092229       0.00167725       0.00146017
Li       9.03323609       0.94784568       7.87729597       33      -0.00032661       0.00288510       0.00828407
Li       8.92857125       6.01304696       3.02387974       34       0.00338446       0.00174944       0.00519268
Li       1.92468819       0.41196478       2.43680117       35      -0.00040483      -0.00001825       0.00226246
Li       2.04764281       4.20370514       4.53378649       36      -0.00249741       0.00387764       0.00203655
Li       5.27364193       8.99833186       2.84157556       37      -0.00141046       0.00074524       0.00252224
Li       5.21217806       3.61108101       8.37826166       38       0.00042733       0.00430008       0.00227710
Li       0.62919825       7.93900910       9.49174281       39       0.00463166       0.00401438       0.00117589
Li       0.29016372       7.37110276       6.37702371       40       0.00478438       0.00603041      -0.00378304
Li       5.66988904       0.70363652       7.35759540       41       0.00211833       0.00350941       0.00158002
Li       5.53339756       5.75685839       2.47647888       42       0.00043359       0.00333912       0.00497867
Li       0.01749480       2.86065377       2.73781399       43       0.00249336       0.00216524      -0.00022955
Cl       9.52944909      10.30524022      10.15469765       44       0.00436576       0.00581587       0.00719691
Cl       4.77511890       5.28205065       0.17872640       45       0.00441400       0.00214716       0.00356649
Cl       4.95370471      -0.17868119       5.08192904       46      -0.00254773      -0.00348350       0.00372765
Cl       9.83030009       5.08199293       5.24375778       47       0.00551546       0.00119783       0.00592135
S        2.28315946       2.67613766       2.75524853       48       0.00055809       0.00165073       0.00339656
S        7.12792359       7.54691638       2.63993671       49       0.00281546       0.00259682       0.00518963
S        7.24983639       2.52057079       7.70125793       50       0.00251359       0.00536414       0.00429301
S        2.21752769       7.72375739       7.69761235       51       0.00290636       0.00253186       0.00155542
P       14.94058883       5.14417298       5.11592247        0       0.00377400       0.00142122      -0.00151013
P        9.84115506      10.05595488       5.12999977        1      -0.00006347      -0.00109249       0.00557571
P        9.88940982       5.06955678      10.23150696        2       0.00342131       0.00788806       0.00379392
P       14.85394643       0.11118386      10.09612165        3      -0.00169398      -0.00198348       0.00336532
S       16.02700846       6.29563304       6.39780423        4       0.00740640       0.00219639      -0.00464604
S       10.94984851       1.26797338       6.31748199        5       0.00297777       0.00322616       0.00638569
S       10.89354198       6.38061374       1.40472306        6       0.00558493       0.00316017       0.00244130
S       16.00401991       1.20836065       1.31788456        7       0.00111013       0.00246874       0.00365130
S       13.64946466       3.90011761       6.14038723        8       0.00098554      -0.00244109      -0.00626871
S       18.64400566       9.06568701       6.38022703        9      -0.00238977       0.00539630       0.00904177
S       18.59075713       4.11355374       1.36769390       10      -0.00443006       0.00047761       0.00698219
S       13.54597459       8.91294501       1.03020682       11       0.00140844       0.00394912       0.00851599
S       13.87377542       6.36457315       3.83555871       12      -0.00044470       0.00385096       0.00762106
S       18.76076024       1.26414047       3.92306005       13      -0.00051732       0.00673938      -0.00034001
S       18.85118418       6.33078822       8.87512873       14      -0.00037930       0.00778635      -0.00265048
S       13.75647023       1.41321582       8.92638389       15       0.00031408       0.00101240       0.00285784
S       16.08894430       3.88046704       3.96110320       16       0.01196515       0.00516720       0.00015131
S       10.96574763       8.71855093       4.07015223       17       0.00170750       0.00524074       0.00707733
S       11.12759943       3.79784064       9.20728407       18       0.00563887       0.00395542       0.00267395
S       15.93808154       8.91928547       8.86324347       19      -0.00138318      -0.00055053       0.00485100
Li      12.26754152       4.92449645       2.78918505       20       0.00368451       0.00736104       0.00243649
Li      17.97184118       9.91016439       2.10032269       21       0.00137755       0.00336316       0.00122284
Li      18.01324264       4.91111846       6.96897609       22       0.01453870      -0.00268226       0.00031226
Li      12.50614864       9.92820971       7.57812066       23       0.00342508       0.00361831       0.00110324
Li      17.69311522       7.93916022       0.25481285       24       0.00651199       0.00480069       0.00365600
Li      13.29037843       3.15597228       0.56215238       25       0.00708112       0.00682592      -0.00117278
Li      13.11203628       8.09326974       5.40960568       26       0.00658344       0.00397596      -0.00039966
Li      19.73031722       2.48398927       7.87928754       27       0.00556347      -0.01197816       0.02326809
Li      16.93528963       3.07793803      10.00620845       28      -0.01470835       0.01695624       0.00483263
Li      14.14345947       7.19363010       9.06144546       29       0.00125746      -0.00218058       0.00646331
Li      14.11608757       2.33766392       4.13313810       30       0.00805194      -0.01168366      -0.02291885
Li      17.06165145       7.94569106       4.91132890       31       0.00765699       0.00937919      -0.00289840
Li      12.01791804       5.24331645       7.40000471       32      -0.02175281       0.00956257      -0.00418056
Li      17.76487776       0.36673651       8.29606952       33      -0.00274900       0.00618792       0.00645609
Li      19.55120825       6.85240770       3.20330709       34       0.00726085       0.00585740       0.00716991
Li      12.60037268       0.22771274       2.91084520       35       0.00394111       0.00582164       0.00989405
Li      10.67552853       2.86562490       4.41885432       36       0.01155768       0.00232857       0.00634716
Li      15.12396513       8.40839729       2.81963635       37       0.00543617       0.00905376       0.00348751
Li      15.14032707       3.27860408       7.95603125       38      -0.00270941       0.00544300       0.00369295
Li      10.72233663       7.95410755       9.46926956       39       0.00264103       0.00310533       0.00244355
Li      10.32702487       7.30169467       6.16645456       40       0.00111628       0.00746691      -0.00390884
Li      17.19631355       2.27968643       5.44815526       41       0.00808763       0.00634165       0.00472449
Li      16.51472155       5.48683683       2.06913677       42       0.00975359      -0.00226784       0.00488903
Li      10.49181908       2.22331656       1.16355457       43       0.01171747       0.00526187       0.00543334
Cl      19.39094074       9.84463328      10.11665666       44       0.00370510       0.00309338       0.00222693
Cl      15.01807598       4.82114367       0.00210115       45       0.01662842      -0.00310817       0.01350067
Cl      14.47478502      -0.08019615       4.62843746       46       0.00722005       0.00546084       0.00376059
Cl      19.98695111       5.31078390       5.27475732       47       0.00034091       0.01183814      -0.01108343
S       12.28414191       2.59391102       2.66261028       48       0.00310163       0.00690743      -0.00334057
S       17.36374364       7.66159366       2.59872925       49       0.00153522       0.00310148       0.00053107
S       17.43685110       2.68551798       7.71667890       50       0.00231476       0.00258900       0.00534215
S       12.24270048       7.59139942       7.60003621       51       0.00234874       0.00837529       0.00086897
103
Lattice="20.110191271466377 0.0 0.0 0.0 10.055095635733188 0.0 0.0 0.0 10.055095635733188" Properties=species:S:1:pos:R:3:spacegroup_kinds:I:1:forces:R:3 spacegroup="P 1" unit_cell=conventional occupancy="_JSON {\"0\": {\"P\": 1.0}, \"1\": {\"P\": 1.0}, \"2\": {\"P\": 1.0}, \"3\": {\"P\": 1.0}, \"4\": {\"S\": 1.0}, \"5\": {\"S\": 1.0}, \"6\": {\"S\": 1.0}, \"7\": {\"S\": 1.0}, \"8\": {\"S\": 1.0}, \"9\": {\"S\": 1.0}, \"10\": {\"S\": 1.0}, \"11\": {\"S\": 1.0}, \"12\": {\"S\": 1.0}, \"13\": {\"S\": 1.0}, \"14\": {\"S\": 1.0}, \"15\": {\"S\": 1.0}, \"16\": {\"S\": 1.0}, \"17\": {\"S\": 1.0}, \"18\": {\"S\": 1.0}, \"19\": {\"S\": 1.0}, \"20\": {\"Li\": 1.0}, \"21\": {\"Li\": 1.0}, \"22\": {\"Li\": 1.0}, \"23\": {\"Li\": 1.0}, \"24\": {\"Li\": 1.0}, \"25\": {\"Li\": 1.0}, \"26\": {\"Li\": 1.0}, \"27\": {\"Li\": 1.0}, \"28\": {\"Li\": 1.0}, \"29\": {\"Li\": 1.0}, \"30\": {\"Li\": 1.0}, \"31\": {\"Li\": 1.0}, \"32\": {\"Li\": 1.0}, \"33\": {\"Li\": 1.0}, \"34\": {\"Li\": 1.0}, \"35\": {\"Li\": 1.0}, \"36\": {\"Li\": 1.0}, \"37\": {\"Li\": 1.0}, \"38\": {\"Li\": 1.0}, \"39\": {\"Li\": 1.0}, \"40\": {\"Li\": 1.0}, \"41\": {\"Li\": 1.0}, \"42\": {\"Li\": 1.0}, \"43\": {\"Li\": 1.0}, \"44\": {\"Cl\": 1.0}, \"45\": {\"Cl\": 1.0}, \"46\": {\"Cl\": 1.0}, \"47\": {\"Cl\": 1.0}, \"48\": {\"S\": 1.0}, \"49\": {\"S\": 1.0}, \"50\": {\"S\": 1.0}, \"51\": {\"S\": 1.0}}" charge=0 spin=0 energy=-429.53851003368715 free_energy=-429.53851003368715 stress="-0.00209873364215755 -0.0007246906989583102 -0.0003528115049079727 -0.0007246906989583102 0.002384774040910022 -0.0008669807693301514 -0.0003528115049079727 -0.0008669807693301514 0.0022161480463037146" pbc="T T T"
P        4.83526503       5.09545131       5.28179862        0       0.00358252       0.00797561       0.00645526
P       -0.18705541      10.20557769       5.15623270        1       0.02031497      -0.01053621      -0.00835915
P       -0.23585952       5.18743433      10.19319644        2       0.01946325      -0.01082821      -0.00834578
P        4.79069351       0.07759617      10.18074539        3      -0.00038644      -0.00372062       0.00361488
S        6.03927153       6.16097846       6.54049371        4      -0.00088378      -0.00146174      -0.00184533
S        0.99591951       1.40087257       6.28866857        5       0.00395330       0.00840524       0.00593249
S        0.96937042       6.35583656       1.30198777        6       0.00374774       0.00778969       0.00714107
S        5.98485148       1.06179915       1.50216471        7       0.00207714       0.00537942       0.00663963
S        3.59547419       3.89856608       6.42820803        8       0.00054167      -0.00016247       0.00257629
S        8.57344198       9.00293143       6.35986302        9      -0.00032608       0.00598930       0.00363977
S        8.64561131       3.94121991       1.36547270       10       0.00400766       0.00201552       0.00553671
S        3.46779955       8.93319708       1.14787026       11       0.00325788       0.00432251      -0.00012494
S        3.73167611       6.29394683       4.04673200       12       0.00116777      -0.00149249       0.00210065
S        8.79603120       1.21066657       3.81619651       13       0.00364032       0.00507225       0.00291903
S        8.83331756       6.23863114       8.89031864       14       0.00681317       0.00433392       0.00690312
S        3.83907500       1.42149501       8.96244162       15       0.00118180       0.00567649       0.00165294
S        5.98601666       3.89625146       4.03302956       16       0.00342650      -0.00184236      -0.00008694
S        0.96464251       8.86671859       4.11325446       17      -0.00817265       0.01333923       0.01572281
S        1.01671439       3.88427993       9.20877455       18      -0.00349800       0.01342439       0.01107955
S        5.92316586       8.90053429       8.98927188       19       0.00264134       0.00572297       0.00459045
Li       8.12620455       9.63331192       2.00350713       21       0.00200771       0.00332413       0.00424954
Li       8.03944879       4.70454521       7.07625819       22       0.00507818       0.00630480       0.00862595
Li       2.26845525      10.04679600       7.80572899       23       0.00424961       0.00230317       0.00113015
Li       7.04583048       7.13973072       0.28893988       24       0.00278121       0.00522969       0.00530527
Li       2.62972130       4.31852982       1.11948280       25      -0.29470268      -0.34613577      -0.29944268
Li       3.21690796       8.18861273       5.52923319       26       0.00445605       0.00359398       0.00128240
Li       7.25265764       2.31212198       5.34504822       27       0.01303188       0.01307472       0.00403349
Li       7.53023252       2.27303732      10.00136790       28       0.00091213       0.00419381       0.00502844
Li       3.98185987       7.33134230       9.18198194       29       0.00416609       0.00213669       0.00131052
Li       4.46836188       2.18930002       3.20021176       30       0.00196771      -0.00055379      -0.00012178
Li       6.79995246       7.94191702       4.97810358       31      -0.00310643       0.00698457       0.00452178
Li       2.01089762       5.39725209       7.50686584       32       0.00092229       0.00167725       0.00146017
Li       9.01991940       0.93582220       7.86408515       33      -0.00032661       0.00288510       0.00828407
Li       8.93995844       6.00225444       3.00201583       34       0.00338446       0.00174944       0.00519268
Li       1.98713678       0.32509732       2.42373596       35      -0.00040483      -0.00001825       0.00226246
Li       1.76598989       3.42036926       4.82503254       36      -0.00249741       0.00387764       0.00203655
Li       5.25969947       8.92991227       2.84018191       37      -0.00141046       0.00074524       0.00252224
Li       5.19901333       3.63876025       8.31952799       38       0.00042733       0.00430008       0.00227710
Li       0.61497517       7.96141856       9.44971275       39       0.00463166       0.00401438       0.00117589
Li       0.33292256       7.42099322       6.21995109       40       0.00478438       0.00603041      -0.00378304
Li       5.66988222       0.68429793       7.34005961       41       0.00211833       0.00350941       0.00158002
Li       5.56275613       5.76216377       2.45246189       42       0.00043359       0.00333912       0.00497867
Li       0.02352544       2.67222317       2.40053374       43       0.00249336       0.00216524      -0.00022955
Cl       9.54439982      10.27354206      10.13294991       44       0.00436576       0.00581587       0.00719691
Cl       4.76943139       5.25992117       0.17110451       45       0.00441400       0.00214716       0.00356649
Cl       4.98094154      -0.19043490       5.07668274       46      -0.00254773      -0.00348350       0.00372765
Cl       9.85376569       5.07835393       5.22058832       47       0.00551546       0.00119783       0.00592135
S        2.26663016       2.59774867       2.69286113       48       0.00055809       0.00165073       0.00339656
S        7.16014228       7.54199408       2.61893056       49       0.00281546       0.00259682       0.00518963
S        7.23600289       2.50772550       7.67102949       50       0.00251359       0.00536414       0.00429301
S        2.19762219       7.73095450       7.65637177       51       0.00290636       0.00253186       0.00155542
P       14.94000703       5.14229639       5.10980411        0       0.00377400       0.00142122      -0.00151013
P        9.83576774      10.04600608       5.11674302        1      -0.00006347      -0.00109249       0.00557571
P        9.88584263       5.04870856      10.21056427        2       0.00342131       0.00788806       0.00379392
P       14.85446149       0.10362228      10.09368048        3      -0.00169398      -0.00198348       0.00336532
S       16.02474917       6.30020340       6.38636565        4       0.00740640       0.00219639      -0.00464604
S       10.94280347       1.25720007       6.30735466        5       0.00297777       0.00322616       0.00638569
S       10.89558733       6.36144222       1.37747467        6       0.00558493       0.00316017       0.00244130
S       16.01387800       1.19546500       1.31216769        7       0.00111013       0.00246874       0.00365130
S       13.64790673       3.90144314       6.13518310        8       0.00098554      -0.00244109      -0.00626871
S       18.66412073       9.11638062       6.36881096        9      -0.00238977       0.00539630       0.00904177
S       18.57535119       4.18260610       1.39623674       10      -0.00443006       0.00047761       0.00698219
S       13.54976754       8.90459116       1.02891852       11       0.00140844       0.00394912       0.00851599
S       13.87525076       6.35354609       3.81658560       12      -0.00044470       0.00385096       0.00762106
S       18.77415082       1.30390142       3.88695341       13      -0.00051732       0.00673938      -0.00034001
S       18.83220709       6.35025380       8.86485652       14      -0.00037930       0.00778635      -0.00265048
S       13.75188276       1.40481660       8.92801904       15       0.00031408       0.00101240       0.00285784
S       16.08790029       3.87566461       3.95669886       16       0.01196515       0.00516720       0.00015131
S       10.96690447       8.71424976       4.05447388       17       0.00170750       0.00524074       0.00707733
S       11.12144364       3.77357773       9.18729360       18       0.00563887       0.00395542       0.00267395
S       15.93309881       8.91009070       8.85566931       19      -0.00138318      -0.00055053       0.00485100
Li      12.23494929       4.91494661       2.80894358       20       0.00368451       0.00736104       0.00243649
Li      17.97381284       9.88070888       2.11585827       21       0.00137755       0.00336316       0.00122284
Li      18.01746459       4.91752621       6.96788770       22       0.01453870      -0.00268226       0.00031226
Li      12.48262839       9.91974188       7.58804008       23       0.00342508       0.00361831       0.00110324
Li      17.67342916       7.93055608       0.25838244       24       0.00651199       0.00480069       0.00365600
Li      13.25309598       3.15869455       0.54937142       25       0.00708112       0.00682592      -0.00117278
Li      13.11165592       8.09210210       5.39983115       26       0.00658344       0.00397596      -0.00039966
Li      19.71059360       2.47345566       7.92581314       27       0.00556347      -0.01197816       0.02326809
Li      16.92021841       3.10475852      10.02378037       28      -0.01470835       0.01695624       0.00483263
Li      14.12409595       7.19323148       9.05262904       29       0.00125746      -0.00218058       0.00646331
Li      14.10685517       2.33509505       4.12963954       30       0.00805194      -0.01168366      -0.02291885
Li      17.08858477       7.94827456       4.91178578       31       0.00765699       0.00937919      -0.00289840
Li      11.98668135       5.23315233       7.37443272       32      -0.02175281       0.00956257      -0.00418056
Li      17.74015503       0.37693597       8.30395906       33      -0.00274900       0.00618792       0.00645609
Li      19.38548327       6.44450565       3.12562867       34       0.00726085       0.00585740       0.00716991
Li      12.59569556       0.22263252       2.90283726       35       0.00394111       0.00582164       0.00989405
Li      10.65834133       2.84756247       4.40924314       36       0.01155768       0.00232857       0.00634716
Li      15.11938577       8.41581526       2.82943993       37       0.00543617       0.00905376       0.00348751
Li      15.12738329       3.25937747       7.95006878       38      -0.00270941       0.00544300       0.00369295
Li      10.69512935       7.94063774       9.44609219       39       0.00264103       0.00310533       0.00244355
Li      10.32774225       7.29993441       6.14117928       40       0.00111628       0.00746691      -0.00390884
Li      17.21456901       2.29632294       5.44852534       41       0.00808763       0.00634165       0.00472449
Li      16.35945501       5.51274302       2.06329324       42       0.00975359      -0.00226784       0.00488903
Li      10.47822895       2.19795925       1.15704751       43       0.01171747       0.00526187       0.00543334
Cl      19.38442362       9.87842463      10.11590733       44       0.00370510       0.00309338       0.00222693
Cl      14.99697152       4.82120250       0.00520781       45       0.01662842      -0.00310817       0.01350067
Cl      14.47491647      -0.08065928       4.62343456       46       0.00722005       0.00546084       0.00376059
Cl      19.95624584       5.25465658       5.34831818       47       0.00034091       0.01183814      -0.01108343
S       12.27439098       2.58586343       2.65621924       48       0.00310163       0.00690743      -0.00334057
S       17.34606342       7.63656364       2.59964904       49       0.00153522       0.00310148       0.00053107
S       17.42617364       2.69339199       7.72904129       50       0.00231476       0.00258900       0.00534215
S       12.23440602       7.58181613       7.58655844       51       0.00234874       0.00837529       0.00086897
103
Lattice="20.110191271466377 0.0 0.0 0.0 10.055095635733188 0.0 0.0 0.0 10.055095635733188" Properties=species:S:1:pos:R:3:spacegroup_kinds:I:1:forces:R:3 spacegroup="P 1" unit_cell=conventional occupancy="_JSON {\"0\": {\"P\": 1.0}, \"1\": {\"P\": 1.0}, \"2\": {\"P\": 1.0}, \"3\": {\"P\": 1.0}, \"4\": {\"S\": 1.0}, \"5\": {\"S\": 1.0}, \"6\": {\"S\": 1.0}, \"7\": {\"S\": 1.0}, \"8\": {\"S\": 1.0}, \"9\": {\"S\": 1.0}, \"10\": {\"S\": 1.0}, \"11\": {\"S\": 1.0}, \"12\": {\"S\": 1.0}, \"13\": {\"S\": 1.0}, \"14\": {\"S\": 1.0}, \"15\": {\"S\": 1.0}, \"16\": {\"S\": 1.0}, \"17\": {\"S\": 1.0}, \"18\": {\"S\": 1.0}, \"19\": {\"S\": 1.0}, \"20\": {\"Li\": 1.0}, \"21\": {\"Li\": 1.0}, \"22\": {\"Li\": 1.0}, \"23\": {\"Li\": 1.0}, \"24\": {\"Li\": 1.0}, \"25\": {\"Li\": 1.0}, \"26\": {\"Li\": 1.0}, \"27\": {\"Li\": 1.0}, \"28\": {\"Li\": 1.0}, \"29\": {\"Li\": 1.0}, \"30\": {\"Li\": 1.0}, \"31\": {\"Li\": 1.0}, \"32\": {\"Li\": 1.0}, \"33\": {\"Li\": 1.0}, \"34\": {\"Li\": 1.0}, \"35\": {\"Li\": 1.0}, \"36\": {\"Li\": 1.0}, \"37\": {\"Li\": 1.0}, \"38\": {\"Li\": 1.0}, \"39\": {\"Li\": 1.0}, \"40\": {\"Li\": 1.0}, \"41\": {\"Li\": 1.0}, \"42\": {\"Li\": 1.0}, \"43\": {\"Li\": 1.0}, \"44\": {\"Cl\": 1.0}, \"45\": {\"Cl\": 1.0}, \"46\": {\"Cl\": 1.0}, \"47\": {\"Cl\": 1.0}, \"48\": {\"S\": 1.0}, \"49\": {\"S\": 1.0}, \"50\": {\"S\": 1.0}, \"51\": {\"S\": 1.0}}" charge=0 spin=0 energy=-429.53851003368715 free_energy=-429.53851003368715 stress="-0.00209873364215755 -0.0007246906989583102 -0.0003528115049079727 -0.0007246906989583102 0.002384774040910022 -0.0008669807693301514 -0.0003528115049079727 -0.0008669807693301514 0.0022161480463037146" pbc="T T T"
P        4.87287907       5.16717295       5.34417497        0       0.00358252       0.00797561       0.00645526
P       -0.13793183      10.26517567       5.24380931        1       0.02031497      -0.01053621      -0.00835915
P       -0.17809320       5.25442893      10.27980222        2       0.01946325      -0.01082821      -0.00834578
P        4.84043215       0.16506731      10.25894712        3      -0.00038644      -0.00372062       0.00361488
S        6.07879664       6.22667653       6.60947013        4      -0.00088378      -0.00146174      -0.00184533
S        1.01293138       1.47059358       6.39958353        5       0.00395330       0.00840524       0.00593249
S        1.00287286       6.43441755       1.39789337        6       0.00374774       0.00778969       0.00714107
S        6.02007543       1.15105196       1.58528366        7       0.00207714       0.00537942       0.00663963
S        3.62430038       3.97291651       6.48597234        8       0.00054167      -0.00016247       0.00257629
S        8.59444979       9.07402813       6.41548260        9      -0.00032608       0.00598930       0.00363977
S        8.69578528       4.02369652       1.41970997       10       0.00400766       0.00201552       0.00553671
S        3.51695803       9.01452366       1.22106955       11       0.00325788       0.00432251      -0.00012494
S        3.78993947       6.38495470       4.10917748       12       0.00116777      -0.00149249       0.00210065
S        8.82840300       1.27488511       3.86761994       13       0.00364032       0.00507225       0.00291903
S        8.88480622       6.31646873       8.94118647       14       0.00681317       0.00433392       0.00690312
S        3.88592846       1.50183303       9.03271490       15       0.00118180       0.00567649       0.00165294
S        6.00874233       3.95586979       4.09796804       16       0.00342650      -0.00184236      -0.00008694
S        1.02870951       8.94014861       4.20763783       17      -0.00817265       0.01333923       0.01572281
S        1.08073026       3.94005023       9.32064342       18      -0.00349800       0.01342439       0.01107955
S        5.97433197       8.98922226       9.06340560       19       0.00264134       0.00572297       0.00459045
Li       8.15305322       9.71265389       2.03505864       21       0.00200771       0.00332413       0.00424954
Li       8.08172819       4.77729863       7.13819277       22       0.00507818       0.00630480       0.00862595
Li       2.32801514      10.11601849       7.87517601       23       0.00424961       0.00230317       0.00113015
Li       7.07656832       7.19140829       0.33929485       24       0.00278121       0.00522969       0.00530527
Li       2.68930824       4.40106449       1.26929657       25      -0.29470268      -0.34613577      -0.29944268
Li       3.23132375       8.27471887       5.58776860       26       0.00445605       0.00359398       0.00128240
Li       7.31058698       2.39895416       5.40706867       27       0.01303188       0.01307472       0.00403349
Li       7.53642943       2.37827848      10.07045923       28       0.00091213       0.00419381       0.00502844
Li       4.03091538       7.43455226       9.27195224       29       0.00416609       0.00213669       0.00131052
Li       4.46965183       2.15180652       3.48547607       30       0.00196771      -0.00055379      -0.00012178
Li       6.88680664       7.94497625       5.02482559       31      -0.00310643       0.00698457       0.00452178
Li       2.13744543       5.46475018       7.68020256       32       0.00092229       0.00167725       0.00146017
Li       9.06186986       1.00656338       7.93195743       33      -0.00032661       0.00288510       0.00828407
Li       9.02237525       6.10470577       3.04351826       34       0.00338446       0.00174944       0.00519268
Li       2.05480072       0.39219719       2.53390420       35      -0.00040483      -0.00001825       0.00226246
Li       1.73136064       3.48599989       4.93040376       36      -0.00249741       0.00387764       0.00203655
Li       5.31662678       9.00964742       2.90805902       37      -0.00141046       0.00074524       0.00252224
Li       5.23455963       3.71096171       8.37037334       38       0.00042733       0.00430008       0.00227710
Li       0.66541675       8.04034113       9.53256145       39       0.00463166       0.00401438       0.00117589
Li       0.37743024       7.45093850       6.29338492       40       0.00478438       0.00603041      -0.00378304
Li       5.71248276       0.76433669       7.40495851       41       0.00211833       0.00350941       0.00158002
Li       5.61679651       5.82529398       2.51712881       42       0.00043359       0.00333912       0.00497867
Li       0.07596946       2.70312004       2.44283826       43       0.00249336       0.00216524      -0.00022955
Cl       9.60221277      10.32899066      10.18913308       44       0.00436576       0.00581587       0.00719691
Cl       4.81323116       5.34708276       0.23136680       45       0.00441400       0.00214716       0.00356649
Cl       4.97123231      -0.03743965       5.11369438       46      -0.00254773      -0.00348350       0.00372765
Cl       9.88669633       5.14763221       5.26890841       47       0.00551546       0.00119783       0.00592135
S        2.31154618       2.66197565       2.81454435       48       0.00055809       0.00165073       0.00339656
S        7.21115156       7.61132615       2.66915197       49       0.00281546       0.00259682       0.00518963
S        7.27973545       2.58398746       7.73444087       50       0.00251359       0.00536414       0.00429301
S        2.24788473       7.79861825       7.73446611       51       0.00290636       0.00253186       0.00155542
P       14.99025859       5.18942004       5.17238825        0       0.00377400       0.00142122      -0.00151013
P        9.86291014      10.10647920       5.16779321        1      -0.00006347      -0.00109249       0.00557571
P        9.93694990       5.11901059      10.25509592        2       0.00342131       0.00788806       0.00379392
P       14.89058939       0.15742103      10.16021389        3      -0.00169398      -0.00198348       0.00336532
S       16.06839422       6.34744033       6.45247186        4       0.00740640       0.00219639      -0.00464604
S       10.97646675       1.31398894       6.35568021        5       0.00297777       0.00322616       0.00638569
S       10.96691337       6.42461661       1.41351527        6       0.00558493       0.00316017       0.00244130
S       16.04543613       1.24417127       1.38811500        7       0.00111013       0.00246874       0.00365130
S       13.68852971       3.95483940       6.19109906        8       0.00098554      -0.00244109      -0.00626871
S       18.70844163       9.16206381       6.44038234        9      -0.00238977       0.00539630       0.00904177
S       18.62183285       4.25633555       1.48153525       10      -0.00443006       0.00047761       0.00698219
S       13.58464226       8.95883628       1.09397427       11       0.00140844       0.00394912       0.00851599
S       13.94231051       6.39872363       3.85888553       12      -0.00044470       0.00385096       0.00762106
S       18.82628643       1.35653032       3.96233195       13      -0.00051732       0.00673938      -0.00034001
S       18.89988222       6.41040011       8.93563243       14      -0.00037930       0.00778635      -0.00265048
S       13.79254308       1.45817782       8.98900162       15       0.00031408       0.00101240       0.00285784
S       16.13922398       3.92225674       4.02192020       16       0.01196515       0.00516720       0.00015131
S       10.98203023       8.76382015       4.10575044       17       0.00170750       0.00524074       0.00707733
S       11.15780420       3.83351565       9.22719512       18       0.00563887       0.00395542       0.00267395
S       15.96884165       8.96300762       8.92242538       19      -0.00138318      -0.00055053       0.00485100
Li      12.28676374       4.97165856       2.85656290       20       0.00368451       0.00736104       0.00243649
Li      18.02463276       9.93219247       2.18777364       21       0.00137755       0.00336316       0.00122284
Li      18.06866419       4.97214513       7.05909556       22       0.01453870      -0.00268226       0.00031226
Li      12.56928193       9.98360210       7.58637588       23       0.00342508       0.00361831       0.00110324
Li      17.70992463       7.97872722       0.31967874       24       0.00651199       0.00480069       0.00365600
Li      13.27632007       3.21570220       0.59487049       25       0.00708112       0.00682592      -0.00117278
Li      13.12833177       8.12697813       5.43070131       26       0.00658344       0.00397596      -0.00039966
Li      19.75102605       2.48775272       8.09885724       27       0.00556347      -0.01197816       0.02326809
Li      16.94930658       3.17422364      10.11304229       28      -0.01470835       0.01695624       0.00483263
Li      14.15141835       7.25886503       9.11950340       29       0.00125746      -0.00218058       0.00646331
Li      14.14966312       2.38616105       4.17577835       30       0.00805194      -0.01168366      -0.02291885
Li      17.17669428       7.95980847       4.97278075       31       0.00765699       0.00937919      -0.00289840
Li      12.04145401       5.29795934       7.42940958       32      -0.02175281       0.00956257      -0.00418056
Li      17.76548984       0.42690114       8.35300850       33      -0.00274900       0.00618792       0.00645609
Li      19.32430713       6.33147405       3.14601055       34       0.00726085       0.00585740       0.00716991
Li      12.61143251       0.27923377       2.96073727       35       0.00394111       0.00582164       0.00989405
Li      10.69238652       2.90955887       4.45777530       36       0.01155768       0.00232857       0.00634716
Li      15.16874287       8.52216158       2.90335831       37       0.00543617       0.00905376       0.00348751
Li      15.17064256       3.30419704       8.00773926       38      -0.00270941       0.00544300       0.00369295
Li      10.75294360       8.03133763       9.50168151       39       0.00264103       0.00310533       0.00244355
Li      10.34779934       7.36137967       6.22547859       40       0.00111628       0.00746691      -0.00390884
Li      17.30848959       2.39101932       5.52773484       41       0.00808763       0.00634165       0.00472449
Li      16.28229111       5.60714813       2.15190017       42       0.00975359      -0.00226784       0.00488903
Li      10.51280523       2.26226935       1.20550711       43       0.01171747       0.00526187       0.00543334
Cl      19.42107553       9.96391369      10.17352170       44       0.00370510       0.00309338       0.00222693
Cl      15.02114306       4.88223670       0.07326655       45       0.01662842      -0.00310817       0.01350067
Cl      14.46685831      -0.01982319       4.69693595       46       0.00722005       0.00546084       0.00376059
Cl      19.93712020       5.30404618       5.38823959       47       0.00034091       0.01183814      -0.01108343
S       12.31031217       2.64528678       2.70638928       48       0.00310163       0.00690743      -0.00334057
S       17.37478869       7.69022931       2.65599372       49       0.00153522       0.00310148       0.00053107
S       17.47262719       2.75376982       7.82037277       50       0.00231476       0.00258900       0.00534215
S       12.27946762       7.64642512       7.63225782       51       0.00234874       0.00837529       0.00086897
103
Lattice="20.110191271466377 0.0 0.0 0.0 10.055095635733188 0.0 0.0 0.0 10.055095635733188" Properties=species:S:1:pos:R:3:spacegroup_kinds:I:1:forces:R:3 spacegroup="P 1" unit_cell=conventional occupancy="_JSON {\"0\": {\"P\": 1.0}, \"1\": {\"P\": 1.0}, \"2\": {\"P\": 1.0}, \"3\": {\"P\": 1.0}, \"4\": {\"S\": 1.0}, \"5\": {\"S\": 1.0}, \"6\": {\"S\": 1.0}, \"7\": {\"S\": 1.0}, \"8\": {\"S\": 1.0}, \"9\": {\"S\": 1.0}, \"10\": {\"S\": 1.0}, \"11\": {\"S\": 1.0}, \"12\": {\"S\": 1.0}, \"13\": {\"S\": 1.0}, \"14\": {\"S\": 1.0}, \"15\": {\"S\": 1.0}, \"16\": {\"S\": 1.0}, \"17\": {\"S\": 1.0}, \"18\": {\"S\": 1.0}, \"19\": {\"S\": 1.0}, \"20\": {\"Li\": 1.0}, \"21\": {\"Li\": 1.0}, \"22\": {\"Li\": 1.0}, \"23\": {\"Li\": 1.0}, \"24\": {\"Li\": 1.0}, \"25\": {\"Li\": 1.0}, \"26\": {\"Li\": 1.0}, \"27\": {\"Li\": 1.0}, \"28\": {\"Li\": 1.0}, \"29\": {\"Li\": 1.0}, \"30\": {\"Li\": 1.0}, \"31\": {\"Li\": 1.0}, \"32\": {\"Li\": 1.0}, \"33\": {\"Li\": 1.0}, \"34\": {\"Li\": 1.0}, \"35\": {\"Li\": 1.0}, \"36\": {\"Li\": 1.0}, \"37\": {\"Li\": 1.0}, \"38\": {\"Li\": 1.0}, \"39\": {\"Li\": 1.0}, \"40\": {\"Li\": 1.0}, \"41\": {\"Li\": 1.0}, \"42\": {\"Li\": 1.0}, \"43\": {\"Li\": 1.0}, \"44\": {\"Cl\": 1.0}, \"45\": {\"Cl\": 1.0}, \"46\": {\"Cl\": 1.0}, \"47\": {\"Cl\": 1.0}, \"48\": {\"S\": 1.0}, \"49\": {\"S\": 1.0}, \"50\": {\"S\": 1.0}, \"51\": {\"S\": 1.0}}" charge=0 spin=0 energy=-429.53851003368715 free_energy=-429.53851003368715 stress="-0.00209873364215755 -0.0007246906989583102 -0.0003528115049079727 -0.0007246906989583102 0.002384774040910022 -0.0008669807693301514 -0.0003528115049079727 -0.0008669807693301514 0.0022161480463037146" pbc="T T T"
P        4.89097201       5.16156755       5.31293713        0       0.00358252       0.00797561       0.00645526
P       -0.11802113      10.25187622       5.24066972        1       0.02031497      -0.01053621      -0.00835915
P       -0.15020557       5.25432742      10.28110788        2       0.01946325      -0.01082821      -0.00834578
P        4.89558139       0.17613018      10.24924270        3      -0.00038644      -0.00372062       0.00361488
S        6.08182393       6.20709311       6.59815793        4      -0.00088378      -0.00146174      -0.00184533
S        1.02568672       1.45528922       6.41284600        5       0.00395330       0.00840524       0.00593249
S        0.99671443       6.45375864       1.41795830        6       0.00374774       0.00778969       0.00714107
S        6.08514720       1.16547657       1.53687485        7       0.00207714       0.00537942       0.00663963
S        3.63455745       3.93349839       6.43373232        8       0.00054167      -0.00016247       0.00257629
S        8.60275482       9.05359519       6.39003296        9      -0.00032608       0.00598930       0.00363977
S        8.69589197       4.03605991       1.38195237       10       0.00400766       0.00201552       0.00553671
S        3.56311550       9.05489249       1.24393897       11       0.00325788       0.00432251      -0.00012494
S        3.80686450       6.39259671       4.09453790       12       0.00116777      -0.00149249       0.00210065
S        8.83647366       1.24715113       3.83984504       13       0.00364032       0.00507225       0.00291903
S        8.89728806       6.31843774       8.90086729       14       0.00681317       0.00433392       0.00690312
S        3.91466534       1.49839871       9.01871249       15       0.00118180       0.00567649       0.00165294
S        5.97856960       3.92631693       4.06250723       16       0.00342650      -0.00184236      -0.00008694
S        1.05000093       8.95376844       4.18789524       17      -0.00817265       0.01333923       0.01572281
S        1.11710986       3.93174786       9.35646737       18      -0.00349800       0.01342439       0.01107955
S        5.97555847       8.96252102       9.03491280       19       0.00264134       0.00572297       0.00459045
Li       8.15982097       9.72086355       1.97205290       21       0.00200771       0.00332413       0.00424954
Li       8.09150180       4.75719979       7.10107926       22       0.00507818       0.00630480       0.00862595
Li       2.35294187      10.10420649       7.88734879       23       0.00424961       0.00230317       0.00113015
Li       7.07446662       7.17746580       0.31003944       24       0.00278121       0.00522969       0.00530527
Li       2.73665382       4.51656418       1.47921714       25      -0.29470268      -0.34613577      -0.29944268
Li       3.15238892       8.25586152       5.57941020       26       0.00445605       0.00359398       0.00128240
Li       7.30147189       2.36494287       5.36431992       27       0.01303188       0.01307472       0.00403349
Li       7.58693128       2.34965327      10.02735561       28       0.00091213       0.00419381       0.00502844
Li       4.02052008       7.48043086       9.35181115       29       0.00416609       0.00213669       0.00131052
Li       4.15552749       2.27184486       4.20935918       30       0.00196771      -0.00055379      -0.00012178
Li       6.97538874       7.83930125       4.99649139       31      -0.00310643       0.00698457       0.00452178
Li       2.31902815       5.44172576       7.82398724       32       0.00092229       0.00167725       0.00146017
Li       9.07570772       0.98984411       7.89198294       33      -0.00032661       0.00288510       0.00828407
Li       9.05068205       6.14041975       3.00188091       34       0.00338446       0.00174944       0.00519268
Li       2.14372295       0.45075052       2.58020008       35      -0.00040483      -0.00001825       0.00226246
Li       1.55900301       3.57479121       4.97839889       36      -0.00249741       0.00387764       0.00203655
Li       5.38526571       9.14284098       2.91729092       37      -0.00141046       0.00074524       0.00252224
Li       5.24333299       3.64944883       8.37067800       38       0.00042733       0.00430008       0.00227710
Li       0.69705267       8.06421469       9.58743069       39       0.00463166       0.00401438       0.00117589
Li       0.27928794       7.33803112       6.54161250       40       0.00478438       0.00603041      -0.00378304
Li       5.73129381       0.73986808       7.40401232       41       0.00211833       0.00350941       0.00158002
Li       5.64184133       5.83426330       2.50207151       42       0.00043359       0.00333912       0.00497867
Li       0.06402252       2.69015304       2.43757466       43       0.00249336       0.00216524      -0.00022955
Cl       9.63198521      10.33708713      10.15099053       44       0.00436576       0.00581587       0.00719691
Cl       4.79919233       5.36493192       0.22369854       45       0.00441400       0.00214716       0.00356649
Cl       4.89551460       0.04516913       5.14951132       46      -0.00254773      -0.00348350       0.00372765
Cl       9.85426785       5.15240926       5.19625136       47       0.00551546       0.00119783       0.00592135
S        2.27742367       2.71995637       2.91429939       48       0.00055809       0.00165073       0.00339656
S        7.21867592       7.62596997       2.64367442       49       0.00281546       0.00259682       0.00518963
S        7.29620013       2.56665340       7.69386711       50       0.00251359       0.00536414       0.00429301
S        2.26239884       7.77801879       7.77118747       51       0.00290636       0.00253186       0.00155542
P       14.98893138       5.19457595       5.16181323        0       0.00377400       0.00142122      -0.00151013
P        9.87474088      10.08302746       5.14035078        1      -0.00006347      -0.00109249       0.00557571
P        9.94463111       5.12318722      10.22182858        2       0.00342131       0.00788806       0.00379392
P       14.90456537       0.17816485      10.16044297        3      -0.00169398      -0.00198348       0.00336532
S       16.05320978       6.36772763       6.43981671        4       0.00740640       0.00219639      -0.00464604
S       10.98571956       1.29604372       6.32578799        5       0.00297777       0.00322616       0.00638569
S       10.98171458       6.42979732       1.37408763        6       0.00558493       0.00316017       0.00244130
S       16.05309973       1.25834286       1.39939851        7       0.00111013       0.00246874       0.00365130
S       13.69292658       3.95996285       6.18717176        8       0.00098554      -0.00244109      -0.00626871
S       18.72265569       9.14796336       6.43704238        9      -0.00238977       0.00539630       0.00904177
S       18.62868023       4.27005997       1.46934525       10      -0.00443006       0.00047761       0.00698219
S       13.59666872       8.97698451       1.09073931       11       0.00140844       0.00394912       0.00851599
S       13.94110811       6.39574625       3.83925883       12      -0.00044470       0.00385096       0.00762106
S       18.82584290       1.34891838       3.97873063       13      -0.00051732       0.00673938      -0.00034001
S       18.93536287       6.41588919       8.92234684       14      -0.00037930       0.00778635      -0.00265048
S       13.80276128       1.47906464       8.99324049       15       0.00031408       0.00101240       0.00285784
S       16.13917823       3.92852057       4.01348346       16       0.01196515       0.00516720       0.00015131
S       10.99635739       8.73910201       4.08567375       17       0.00170750       0.00524074       0.00707733
S       11.16543398       3.82840581       9.20434054       18       0.00563887       0.00395542       0.00267395
S       15.98385963       8.99034003       8.91791933       19      -0.00138318      -0.00055053       0.00485100
Li      12.24182508       4.97990337       2.88360698       20       0.00368451       0.00736104       0.00243649
Li      18.03349515       9.92860748       2.19714909       21       0.00137755       0.00336316       0.00122284
Li      18.01266124       4.98276862       7.07520908       22       0.01453870      -0.00268226       0.00031226
Li      12.61328012      10.00044436       7.55799722       23       0.00342508       0.00361831       0.00110324
Li      17.72462105       7.98758888       0.31133013       24       0.00651199       0.00480069       0.00365600
Li      13.26962117       3.24194200       0.59464203       25       0.00708112       0.00682592      -0.00117278
Li      13.12396410       8.12239875       5.41627408       26       0.00658344       0.00397596      -0.00039966
Li      19.76821660       2.58654840       8.02775282       27       0.00556347      -0.01197816       0.02326809
Li      16.98012680       3.15409976      10.11337154       28      -0.01470835       0.01695624       0.00483263
Li      14.15848279       7.30523926       9.15134770       29       0.00125746      -0.00218058       0.00646331
Li      14.14464401       2.39325107       4.16735357       30       0.00805194      -0.01168366      -0.02291885
Li      17.19544921       7.95802049       4.96217564       31       0.00765699       0.00937919      -0.00289840
Li      12.16366744       5.31878350       7.52089774       32      -0.02175281       0.00956257      -0.00418056
Li      17.81429465       0.43163019       8.34532851       33      -0.00274900       0.00618792       0.00645609
Li      19.28550657       6.31240018       3.13429439       34       0.00726085       0.00585740       0.00716991
Li      12.60220343       0.28695007       2.95563489       35       0.00394111       0.00582164       0.00989405
Li      10.66975676       2.90186808       4.44337350       36       0.01155768       0.00232857       0.00634716
Li      15.16832123       8.55072434       2.90934463       37       0.00543617       0.00905376       0.00348751
Li      15.17711244       3.32362860       8.01562801       38      -0.00270941       0.00544300       0.00369295
Li      10.75485045       8.05222973       9.48058131       39       0.00264103       0.00310533       0.00244355
Li      10.35265864       7.31994821       6.25683550       40       0.00111628       0.00746691      -0.00390884
Li      17.30270839       2.39290320       5.52336896       41       0.00808763       0.00634165       0.00472449
Li      16.20343495       5.63729459       2.15439170       42       0.00975359      -0.00226784       0.00488903
Li      10.51790393       2.27217204       1.19187977       43       0.01171747       0.00526187       0.00543334
Cl      19.41681180       9.95261826      10.19148145       44       0.00370510       0.00309338       0.00222693
Cl      15.00794807       4.90959658       0.05104105       45       0.01662842      -0.00310817       0.01350067
Cl      14.45555732      -0.00857264       4.70321115       46       0.00722005       0.00546084       0.00376059
Cl      19.85943160       5.29391663       5.39167728       47       0.00034091       0.01183814      -0.01108343
S       12.30415369       2.65533172       2.70166711       48       0.00310163       0.00690743      -0.00334057
S       17.35753843       7.69111717       2.64495855       49       0.00153522       0.00310148       0.00053107
S       17.47517341       2.75784663       7.81620142       50       0.00231476       0.00258900       0.00534215
S       12.30130851       7.66330662       7.63219827       51       0.00234874       0.00837529       0.00086897
103
Lattice="20.110191271466377 0.0 0.0 0.0 10.055095635733188 0.0 0.0 0.0 10.055095635733188" Properties=species:S:1:pos:R:3:spacegroup_kinds:I:1:forces:R:3 spacegroup="P 1" unit_cell=conventional occupancy="_JSON {\"0\": {\"P\": 1.0}, \"1\": {\"P\": 1.0}, \"2\": {\"P\": 1.0}, \"3\": {\"P\": 1.0}, \"4\": {\"S\": 1.0}, \"5\": {\"S\": 1.0}, \"6\": {\"S\": 1.0}, \"7\": {\"S\": 1.0}, \"8\": {\"S\": 1.0}, \"9\": {\"S\": 1.0}, \"10\": {\"S\": 1.0}, \"11\": {\"S\": 1.0}, \"12\": {\"S\": 1.0}, \"13\": {\"S\": 1.0}, \"14\": {\"S\": 1.0}, \"15\": {\"S\": 1.0}, \"16\": {\"S\": 1.0}, \"17\": {\"S\": 1.0}, \"18\": {\"S\": 1.0}, \"19\": {\"S\": 1.0}, \"20\": {\"Li\": 1.0}, \"21\": {\"Li\": 1.0}, \"22\": {\"Li\": 1.0}, \"23\": {\"Li\": 1.0}, \"24\": {\"Li\": 1.0}, \"25\": {\"Li\": 1.0}, \"26\": {\"Li\": 1.0}, \"27\": {\"Li\": 1.0}, \"28\": {\"Li\": 1.0}, \"29\": {\"Li\": 1.0}, \"30\": {\"Li\": 1.0}, \"31\": {\"Li\": 1.0}, \"32\": {\"Li\": 1.0}, \"33\": {\"Li\": 1.0}, \"34\": {\"Li\": 1.0}, \"35\": {\"Li\": 1.0}, \"36\": {\"Li\": 1.0}, \"37\": {\"Li\": 1.0}, \"38\": {\"Li\": 1.0}, \"39\": {\"Li\": 1.0}, \"40\": {\"Li\": 1.0}, \"41\": {\"Li\": 1.0}, \"42\": {\"Li\": 1.0}, \"43\": {\"Li\": 1.0}, \"44\": {\"Cl\": 1.0}, \"45\": {\"Cl\": 1.0}, \"46\": {\"Cl\": 1.0}, \"47\": {\"Cl\": 1.0}, \"48\": {\"S\": 1.0}, \"49\": {\"S\": 1.0}, \"50\": {\"S\": 1.0}, \"51\": {\"S\": 1.0}}" charge=0 spin=0 energy=-429.53851003368715 free_energy=-429.53851003368715 stress="-0.00209873364215755 -0.0007246906989583102 -0.0003528115049079727 -0.0007246906989583102 0.002384774040910022 -0.0008669807693301514 -0.0003528115049079727 -0.0008669807693301514 0.0022161480463037146" pbc="T T T"
P        4.90459239       5.14766729       5.30605697        0       0.00358252       0.00797561       0.00645526
P       -0.09173222      10.23259031       5.20655112        1       0.02031497      -0.01053621      -0.00835915
P       -0.13799427       5.22414563      10.25371195        2       0.01946325      -0.01082821      -0.00834578
P        4.90316900       0.18814942      10.25194893        3      -0.00038644      -0.00372062       0.00361488
S        6.08968695       6.21382610       6.57123114        4      -0.00088378      -0.00146174      -0.00184533
S        1.04342593       1.42353577       6.40361775        5       0.00395330       0.00840524       0.00593249
S        0.97092432       6.44988223       1.41184037        6       0.00374774       0.00778969       0.00714107
S        6.10847392       1.17605383       1.52330571        7       0.00207714       0.00537942       0.00663963
S        3.64354371       3.94931828       6.44765329        8       0.00054167      -0.00016247       0.00257629
S        8.62107621       9.02616645       6.37778524        9      -0.00032608       0.00598930       0.00363977
S        8.67477184       4.04810083       1.34717419       10       0.00400766       0.00201552       0.00553671
S        3.57052335       9.08659929       1.26974891       11       0.00325788       0.00432251      -0.00012494
S        3.83217985       6.38623673       4.06119290       12       0.00116777      -0.00149249       0.00210065
S        8.82890072       1.21790587       3.83122227       13       0.00364032       0.00507225       0.00291903
S        8.89186203       6.31644615       8.85742321       14       0.00681317       0.00433392       0.00690312
S        3.90570269       1.50690087       9.03209308       15       0.00118180       0.00567649       0.00165294
S        5.97692079       3.89902209       4.06371873       16       0.00342650      -0.00184236      -0.00008694
S        1.08814084       8.98137373       4.12190379       17      -0.00817265       0.01333923       0.01572281
S        1.09526744       3.90947426       9.30660193       18      -0.00349800       0.01342439       0.01107955
S        5.96353734       8.96514007       9.03208996       19       0.00264134       0.00572297       0.00459045
Li       8.17563591       9.72094027       1.94155134       21       0.00200771       0.00332413       0.00424954
Li       8.09223202       4.71854271       7.04852742       22       0.00507818       0.00630480       0.00862595
Li       2.31630573      10.10317184       7.94901177       23       0.00424961       0.00230317       0.00113015
Li       7.02732335       7.13201044       0.28190027       24       0.00278121       0.00522969       0.00530527
Li       2.86380438       4.84454282       2.02075934       25      -0.29470268      -0.34613577      -0.29944268
Li       3.09700945       8.26245156       5.57221389       26       0.00445605       0.00359398       0.00128240
Li       7.23169975       2.24999509       5.35063141       27       0.01303188       0.01307472       0.00403349
Li       7.62995422       2.30634535       9.99855107       28       0.00091213       0.00419381       0.00502844
Li       4.00321995       7.51214505       9.39841853       29       0.00416609       0.00213669       0.00131052
Li       4.12054130       2.28514914       4.28852340       30       0.00196771      -0.00055379      -0.00012178
Li       7.05426747       7.78890175       4.96847952       31      -0.00310643       0.00698457       0.00452178
Li       2.39197608       5.44394991       7.91150122       32       0.00092229       0.00167725       0.00146017
Li       9.07770213       0.97847691       7.85260561       33      -0.00032661       0.00288510       0.00828407
Li       9.09449126       6.18348486       2.97641189       34       0.00338446       0.00174944       0.00519268
Li       2.18053644       0.52597547       2.57787222       35      -0.00040483      -0.00001825       0.00226246
Li       1.54235188       3.55702119       5.03329651       36      -0.00249741       0.00387764       0.00203655
Li       5.42069292       9.16880941       2.92310243       37      -0.00141046       0.00074524       0.00252224
Li       5.25137698       3.62896734       8.41200813       38       0.00042733       0.00430008       0.00227710
Li       0.68369408       8.06329199       9.61292112       39       0.00463166       0.00401438       0.00117589
Li       0.21064715       7.22629883       6.71363550       40       0.00478438       0.00603041      -0.00378304
Li       5.69489657       0.73599176       7.41525482       41       0.00211833       0.00350941       0.00158002
Li       5.75331651       5.81004530       2.50651606       42       0.00043359       0.00333912       0.00497867
Li       0.07808048       2.73393788       2.46714741       43       0.00249336       0.00216524      -0.00022955
Cl       9.62653606      10.35440890      10.12594450       44       0.00436576       0.00581587       0.00719691
Cl       4.84343880       5.42602240       0.25898874       45       0.00441400       0.00214716       0.00356649
Cl       4.90593961       0.08563013       5.14819005       46      -0.00254773      -0.00348350       0.00372765
Cl       9.81767652       5.15287865       5.13757187       47       0.00551546       0.00119783       0.00592135
S        2.28576740       2.78701062       2.95539495       48       0.00055809       0.00165073       0.00339656
S        7.24410518       7.63668376       2.61959189       49       0.00281546       0.00259682       0.00518963
S        7.28412275       2.54429805       7.67408588       50       0.00251359       0.00536414       0.00429301
S        2.25589890       7.77500546       7.79079777       51       0.00290636       0.00253186       0.00155542
P       14.97957186       5.19222566       5.14840532        0       0.00377400       0.00142122      -0.00151013
P        9.88748059      10.05316013       5.11848287        1      -0.00006347      -0.00109249       0.00557571
P        9.93326396       5.11934531      10.18484965        2       0.00342131       0.00788806       0.00379392
P       14.91079244       0.19645723      10.15259430        3      -0.00169398      -0.00198348       0.00336532
S       16.04563661       6.37789165       6.41402153        4       0.00740640       0.00219639      -0.00464604
S       10.99580820       1.27418325       6.29873516        5       0.00297777       0.00322616       0.00638569
S       10.98750654       6.42086695       1.32942932        6       0.00558493       0.00316017       0.00244130
S       16.05782528       1.25506523       1.41431027        7       0.00111013       0.00246874       0.00365130
S       13.70256065       3.96159965       6.19912214        8       0.00098554      -0.00244109      -0.00626871
S       18.75590463       9.10439593       6.39105517        9      -0.00238977       0.00539630       0.00904177
S       18.62725427       4.25693363       1.44448177       10      -0.00443006       0.00047761       0.00698219
S       13.59821022       8.99878028       1.08235958       11       0.00140844       0.00394912       0.00851599
S       13.92080576       6.38964922       3.82912297       12      -0.00044470       0.00385096       0.00762106
S       18.83575743       1.34098663       3.96850256       13      -0.00051732       0.00673938      -0.00034001
S       18.92707841       6.41037017       8.91588828       14      -0.00037930       0.00778635      -0.00265048
S       13.81283051       1.50829643       8.99751703       15       0.00031408       0.00101240       0.00285784
S       16.11268199       3.92730142       3.98264192       16       0.01196515       0.00516720       0.00015131
S       11.00275681       8.72041545       4.05067870       17       0.00170750       0.00524074       0.00707733
S       11.14095189       3.80853142       9.17423466       18       0.00563887       0.00395542       0.00267395
S       15.98538832       9.01814725       8.89842814       19      -0.00138318      -0.00055053       0.00485100
Li      12.19639449       4.98209020       2.90263235       20       0.00368451       0.00736104       0.00243649
Li      18.03729929       9.90329658       2.19839516       21       0.00137755       0.00336316       0.00122284
Li      17.95595008       4.98740522       7.07808373       22       0.01453870      -0.00268226       0.00031226
Li      12.65474404      10.01361152       7.53833420       23       0.00342508       0.00361831       0.00110324
Li      17.70483292       7.98672973       0.29450185       24       0.00651199       0.00480069       0.00365600
Li      13.23163487       3.27326386       0.58826933       25       0.00708112       0.00682592      -0.00117278
Li      13.08154263       8.11118755       5.40292604       26       0.00658344       0.00397596      -0.00039966
Li      19.76427858       2.73442568       7.82717458       27       0.00556347      -0.01197816       0.02326809
Li      17.20214981       2.91732877      10.09516591       28      -0.01470835       0.01695624       0.00483263
Li      14.15419328       7.34475597       9.19489043       29       0.00125746      -0.00218058       0.00646331
Li      14.10706729       2.39631826       4.18502779       30       0.00805194      -0.01168366      -0.02291885
Li      17.19277331       7.94892162       4.93398406       31       0.00765699       0.00937919      -0.00289840
Li      12.34173480       5.33587148       7.67574163       32      -0.02175281       0.00956257      -0.00418056
Li      17.87069749       0.40455913       8.27325791       33      -0.00274900       0.00618792       0.00645609
Li      19.22347694       6.25715028       3.10207073       34       0.00726085       0.00585740       0.00716991
Li      12.58593151       0.29405211       2.94477866       35       0.00394111       0.00582164       0.00989405
Li      10.63140497       2.89372205       4.43633728       36       0.01155768       0.00232857       0.00634716
Li      15.14963517       8.55906692       2.91065789       37       0.00543617       0.00905376       0.00348751
Li      15.19348015       3.38435091       8.07279471       38      -0.00270941       0.00544300       0.00369295
Li      10.75455693       8.06718126       9.47324654       39       0.00264103       0.00310533       0.00244355
Li      10.32042489       7.22718102       6.38169776       40       0.00111628       0.00746691      -0.00390884
Li      17.26203278       2.37224269       5.48061610       41       0.00808763       0.00634165       0.00472449
Li      16.08267240       5.65154265       2.11926104       42       0.00975359      -0.00226784       0.00488903
Li      10.50330250       2.28221281       1.18778027       43       0.01171747       0.00526187       0.00543334
Cl      19.39383300       9.93638238      10.18382914       44       0.00370510       0.00309338       0.00222693
Cl      14.87366954       5.01275906      -0.00404462       45       0.01662842      -0.00310817       0.01350067
Cl      14.44107184      -0.00707837       4.70583242       46       0.00722005       0.00546084       0.00376059
Cl      19.83307271       5.24493358       5.41596780       47       0.00034091       0.01183814      -0.01108343
S       12.28256540       2.66167985       2.69950940       48       0.00310163       0.00690743      -0.00334057
S       17.32407436       7.66954272       2.62135443       49       0.00153522       0.00310148       0.00053107
S       17.46491661       2.73717257       7.77139116       50       0.00231476       0.00258900       0.00534215
S       12.31407072       7.67758541       7.64388196       51       0.00234874       0.00837529       0.00086897
103
Lattice="20.110191271466377 0.0 0.0 0.0 10.055095635733188 0.0 0.0 0.0 10.055095635733188" Properties=species:S:1:pos:R:3:spacegroup_kinds:I:1:forces:R:3 spacegroup="P 1" unit_cell=conventional occupancy="_JSON {\"0\": {\"P\": 1.0}, \"1\": {\"P\": 1.0}, \"2\": {\"P\": 1.0}, \"3\": {\"P\": 1.0}, \"4\": {\"S\": 1.0}, \"5\": {\"S\": 1.0}, \"6\": {\"S\": 1.0}, \"7\": {\"S\": 1.0}, \"8\": {\"S\": 1.0}, \"9\": {\"S\": 1.0}, \"10\": {\"S\": 1.0}, \"11\": {\"S\": 1.0}, \"12\": {\"S\": 1.0}, \"13\": {\"S\": 1.0}, \"14\": {\"S\": 1.0}, \"15\": {\"S\": 1.0}, \"16\": {\"S\": 1.0}, \"17\": {\"S\": 1.0}, \"18\": {\"S\": 1.0}, \"19\": {\"S\": 1.0}, \"20\": {\"Li\": 1.0}, \"21\": {\"Li\": 1.0}, \"22\": {\"Li\": 1.0}, \"23\": {\"Li\": 1.0}, \"24\": {\"Li\": 1.0}, \"25\": {\"Li\": 1.0}, \"26\": {\"Li\": 1.0}, \"27\": {\"Li\": 1.0}, \"28\": {\"Li\": 1.0}, \"29\": {\"Li\": 1.0}, \"30\": {\"Li\": 1.0}, \"31\": {\"Li\": 1.0}, \"32\": {\"Li\": 1.0}, \"33\": {\"Li\": 1.0}, \"34\": {\"Li\": 1.0}, \"35\": {\"Li\": 1.0}, \"36\": {\"Li\": 1.0}, \"37\": {\"Li\": 1.0}, \"38\": {\"Li\": 1.0}, \"39\": {\"Li\": 1.0}, \"40\": {\"Li\": 1.0}, \"41\": {\"Li\": 1.0}, \"42\": {\"Li\": 1.0}, \"43\": {\"Li\": 1.0}, \"44\": {\"Cl\": 1.0}, \"45\": {\"Cl\": 1.0}, \"46\": {\"Cl\": 1.0}, \"47\": {\"Cl\": 1.0}, \"48\": {\"S\": 1.0}, \"49\": {\"S\": 1.0}, \"50\": {\"S\": 1.0}, \"51\": {\"S\": 1.0}}" charge=0 spin=0 energy=-429.53851003368715 free_energy=-429.53851003368715 stress="-0.00209873364215755 -0.0007246906989583102 -0.0003528115049079727 -0.0007246906989583102 0.002384774040910022 -0.0008669807693301514 -0.0003528115049079727 -0.0008669807693301514 0.0022161480463037146" pbc="T T T"
P        4.95676216       5.17782703       5.35978188        0       0.00358252       0.00797561       0.00645526
P       -0.07344881      10.22543298       5.17928907        1       0.02031497      -0.01053621      -0.00835915
P       -0.13329106       5.20304711      10.24961370        2       0.01946325      -0.01082821      -0.00834578
P        4.90227359       0.19925265      10.25748097        3      -0.00038644      -0.00372062       0.00361488
S        6.16355193       6.19839365       6.62887323        4      -0.00088378      -0.00146174      -0.00184533
S        1.04537185       1.40406475       6.40457238        5       0.00395330       0.00840524       0.00593249
S        0.95671722       6.44086890       1.41735980        6       0.00374774       0.00778969       0.00714107
S        6.12702569       1.18161522       1.51214843        7       0.00207714       0.00537942       0.00663963
S        3.65939931       3.99471960       6.47093014        8       0.00054167      -0.00016247       0.00257629
S        8.64222229       8.98478467       6.34953742        9      -0.00032608       0.00598930       0.00363977
S        8.65383752       4.04247391       1.31868884       10       0.00400766       0.00201552       0.00553671
S        3.56760017       9.12030175       1.29975006       11       0.00325788       0.00432251      -0.00012494
S        3.94803232       6.51468237       4.14937440       12       0.00116777      -0.00149249       0.00210065
S        8.80723373       1.19290284       3.81986540       13       0.00364032       0.00507225       0.00291903
S        8.88925921       6.29912143       8.82605303       14       0.00681317       0.00433392       0.00690312
S        3.89233978       1.51957544       9.04924267       15       0.00118180       0.00567649       0.00165294
S        5.98557758       3.92681891       4.08827687       16       0.00342650      -0.00184236      -0.00008694
S        1.13353051       9.01909227       4.07634861       17      -0.00817265       0.01333923       0.01572281
S        1.06859819       3.89122814       9.26934382       18      -0.00349800       0.01342439       0.01107955
S        5.93834591       8.96598328       9.02962191       19       0.00264134       0.00572297       0.00459045
Li       8.19205523       9.71650110       1.91626457       21       0.00200771       0.00332413       0.00424954
Li       8.12017407       4.65044184       7.00787678       22       0.00507818       0.00630480       0.00862595
Li       2.25487945      10.11791729       8.03231114       23       0.00424961       0.00230317       0.00113015
Li       6.99685812       7.10462166       0.25400785       24       0.00278121       0.00522969       0.00530527
Li       2.98432790       5.13016509       2.42352968       25      -0.29470268      -0.34613577      -0.29944268
Li       3.05263210       8.33085921       5.61629805       26       0.00445605       0.00359398       0.00128240
Li       7.12761395       2.11628257       5.33215908       27       0.01303188       0.01307472       0.00403349
Li       7.65555357       2.26729748       9.96753242       28       0.00091213       0.00419381       0.00502844
Li       3.98239211       7.53092254       9.44030154       29       0.00416609       0.00213669       0.00131052
Li       4.11803880       2.34485111       4.31917017       30       0.00196771      -0.00055379      -0.00012178
Li       7.11180774       7.71692097       4.95055602       31      -0.00310643       0.00698457       0.00452178
Li       2.41349047       5.45597274       7.97004755       32       0.00092229       0.00167725       0.00146017
Li       9.07324597       0.94856273       7.80830674       33      -0.00032661       0.00288510       0.00828407
Li       9.13255106       6.21895144       2.95655829       34       0.00338446       0.00174944       0.00519268
Li       2.23385708       0.63115391       2.59069784       35      -0.00040483      -0.00001825       0.00226246
Li       1.56178900       3.53609861       5.07324050       36      -0.00249741       0.00387764       0.00203655
Li       5.45309406       9.17937291       2.93227630       37      -0.00141046       0.00074524       0.00252224
Li       5.27277994       3.62538522       8.43846750       38       0.00042733       0.00430008       0.00227710
Li       0.65357299       8.05693686       9.64184418       39       0.00463166       0.00401438       0.00117589
Li       0.18230816       7.16481229       6.79346991       40       0.00478438       0.00603041      -0.00378304
Li       5.65728281       0.73508808       7.43339047       41       0.00211833       0.00350941       0.00158002
Li       5.85052330       5.78757823       2.49629066       42       0.00043359       0.00333912       0.00497867
Li       0.10603279       2.79343474       2.51130948       43       0.00249336       0.00216524      -0.00022955
Cl       9.62179007      10.34606133      10.09550700       44       0.00436576       0.00581587       0.00719691
Cl       4.88858020       5.47490197       0.28120089       45       0.00441400       0.00214716       0.00356649
Cl       4.94288567       0.18132785       5.14214757       46      -0.00254773      -0.00348350       0.00372765
Cl       9.80130451       5.14548630       5.09354196       47       0.00551546       0.00119783       0.00592135
S        2.32113408       2.91009320       2.96865881       48       0.00055809       0.00165073       0.00339656
S        7.27055996       7.64260037       2.59599230       49       0.00281546       0.00259682       0.00518963
S        7.27317917       2.50751971       7.65221468       50       0.00251359       0.00536414       0.00429301
S        2.23510681       7.78675625       7.82188047       51       0.00290636       0.00253186       0.00155542
P       14.96200193       5.18322143       5.13887936        0       0.00377400       0.00142122      -0.00151013
P        9.89322484      10.02309508       5.08321608        1      -0.00006347      -0.00109249       0.00557571
P        9.92464162       5.09928864      10.15817879        2       0.00342131       0.00788806       0.00379392
P       14.91823802       0.20408796      10.13226396        3      -0.00169398      -0.00198348       0.00336532
S       16.02546634       6.38890456       6.39091851        4       0.00740640       0.00219639      -0.00464604
S       10.99834503       1.24897253       6.26313782        5       0.00297777       0.00322616       0.00638569
S       10.99272513       6.39568362       1.29677362        6       0.00558493       0.00316017       0.00244130
S       16.06038159       1.25786094       1.40174927        7       0.00111013       0.00246874       0.00365130
S       13.70294367       3.96121989       6.21535527        8       0.00098554      -0.00244109      -0.00626871
S       18.78044328       9.06325122       6.33868060        9      -0.00238977       0.00539630       0.00904177
S       18.62268309       4.23401680       1.42988064       10      -0.00443006       0.00047761       0.00698219
S       13.60529056       9.00289981       1.05864251       11       0.00140844       0.00394912       0.00851599
S       13.89716644       6.37259225       3.81469641       12      -0.00044470       0.00385096       0.00762106
S       18.84934821       1.33987358       3.95253142       13      -0.00051732       0.00673938      -0.00034001
S       18.91289768       6.40375397       8.92967924       14      -0.00037930       0.00778635      -0.00265048
S       13.80909620       1.51186872       8.98573579       15       0.00031408       0.00101240       0.00285784
S       16.08018651       3.91768056       3.96040130       16       0.01196515       0.00516720       0.00015131
S       11.00462331       8.71580886       3.98579399       17       0.00170750       0.00524074       0.00707733
S       11.11658889       3.77750384       9.14766605       18       0.00563887       0.00395542       0.00267395
S       15.99497713       9.03771586       8.86776698       19      -0.00138318      -0.00055053       0.00485100
Li      12.15730393       4.96536872       2.91396132       20       0.00368451       0.00736104       0.00243649
Li      18.02312819       9.88713437       2.19709557       21       0.00137755       0.00336316       0.00122284
Li      17.87633129       5.00001203       7.11556453       22       0.01453870      -0.00268226       0.00031226
Li      12.65089585      10.00521503       7.52716114       23       0.00342508       0.00361831       0.00110324
Li      17.67557170       7.98521064       0.27993132       24       0.00651199       0.00480069       0.00365600
Li      13.19041013       3.26593191       0.57783913       25       0.00708112       0.00682592      -0.00117278
Li      13.02585320       8.09250157       5.38145463       26       0.00658344       0.00397596      -0.00039966
Li      19.76009457       2.93182084       7.59577266       27       0.00556347      -0.01197816       0.02326809
Li      17.44040361       2.69143093      10.06954442       28      -0.01470835       0.01695624       0.00483263
Li      14.15288476       7.39494694       9.18162417       29       0.00125746      -0.00218058       0.00646331
Li      14.05166536       2.39257858       4.22750173       30       0.00805194      -0.01168366      -0.02291885
Li      17.15912318       7.95244761       4.91009525       31       0.00765699       0.00937919      -0.00289840
Li      12.50753630       5.33428132       7.83726423       32      -0.02175281       0.00956257      -0.00418056
Li      17.92126971       0.38370438       8.19432496       33      -0.00274900       0.00618792       0.00645609
Li      19.16308412       6.21405605       3.04964962       34       0.00726085       0.00585740       0.00716991
Li      12.57807251       0.29012305       2.91396121       35       0.00394111       0.00582164       0.00989405
Li      10.58293649       2.87728458       4.41717936       36       0.01155768       0.00232857       0.00634716
Li      15.11982909       8.54392833       2.90297835       37       0.00543617       0.00905376       0.00348751
Li      15.21168043       3.37426873       8.10768466       38      -0.00270941       0.00544300       0.00369295
Li      10.75453826       8.06059939       9.46960757       39       0.00264103       0.00310533       0.00244355
Li      10.27969687       7.11791627       6.51219273       40       0.00111628       0.00746691      -0.00390884
Li      17.23373699       2.35996524       5.44632176       41       0.00808763       0.00634165       0.00472449
Li      15.97991100       5.65520151       2.09496217       42       0.00975359      -0.00226784       0.00488903
Li      10.47934497       2.27086429       1.18251616       43       0.01171747       0.00526187       0.00543334
Cl      19.36540343       9.94208032      10.17115513       44       0.00370510       0.00309338       0.00222693
Cl      14.73213800       5.08082496      -0.07706971       45       0.01662842      -0.00310817       0.01350067
Cl      14.43090677      -0.02275283       4.69377692       46       0.00722005       0.00546084       0.00376059
Cl      19.83014070       5.15213156       5.50456477       47       0.00034091       0.01183814      -0.01108343
S       12.25978133       2.65105420       2.69485978       48       0.00310163       0.00690743      -0.00334057
S       17.29119917       7.65042652       2.60106550       49       0.00153522       0.00310148       0.00053107
S       17.46683095       2.71881765       7.73602686       50       0.00231476       0.00258900       0.00534215
S       12.31203793       7.67057912       7.64205316       51       0.00234874       0.00837529       0.00086897
