103
Lattice="20.110191271466377 0.0 0.0 0.0 10.055095635733188 0.0 0.0 0.0 10.055095635733188" Properties=species:S:1:pos:R:3:spacegroup_kinds:I:1:forces:R:3 spacegroup="P 1" unit_cell=conventional occupancy="_JSON {\"0\": {\"P\": 1.0}, \"1\": {\"P\": 1.0}, \"2\": {\"P\": 1.0}, \"3\": {\"P\": 1.0}, \"4\": {\"S\": 1.0}, \"5\": {\"S\": 1.0}, \"6\": {\"S\": 1.0}, \"7\": {\"S\": 1.0}, \"8\": {\"S\": 1.0}, \"9\": {\"S\": 1.0}, \"10\": {\"S\": 1.0}, \"11\": {\"S\": 1.0}, \"12\": {\"S\": 1.0}, \"13\": {\"S\": 1.0}, \"14\": {\"S\": 1.0}, \"15\": {\"S\": 1.0}, \"16\": {\"S\": 1.0}, \"17\": {\"S\": 1.0}, \"18\": {\"S\": 1.0}, \"19\": {\"S\": 1.0}, \"20\": {\"Li\": 1.0}, \"21\": {\"Li\": 1.0}, \"22\": {\"Li\": 1.0}, \"23\": {\"Li\": 1.0}, \"24\": {\"Li\": 1.0}, \"25\": {\"Li\": 1.0}, \"26\": {\"Li\": 1.0}, \"27\": {\"Li\": 1.0}, \"28\": {\"Li\": 1.0}, \"29\": {\"Li\": 1.0}, \"30\": {\"Li\": 1.0}, \"31\": {\"Li\": 1.0}, \"32\": {\"Li\": 1.0}, \"33\": {\"Li\": 1.0}, \"34\": {\"Li\": 1.0}, \"35\": {\"Li\": 1.0}, \"36\": {\"Li\": 1.0}, \"37\": {\"Li\": 1.0}, \"38\": {\"Li\": 1.0}, \"39\": {\"Li\": 1.0}, \"40\": {\"Li\": 1.0}, \"41\": {\"Li\": 1.0}, \"42\": {\"Li\": 1.0}, \"43\": {\"Li\": 1.0}, \"44\": {\"Cl\": 1.0}, \"45\": {\"Cl\": 1.0}, \"46\": {\"Cl\": 1.0}, \"47\": {\"Cl\": 1.0}, \"48\": {\"S\": 1.0}, \"49\": {\"S\": 1.0}, \"50\": {\"S\": 1.0}, \"51\": {\"S\": 1.0}}" charge=0 spin=0 energy=-429.65126601387607 free_energy=-429.65126601387607 stress="-0.0008276770359297728 -0.00013300920489431342 -0.0005386703334569056 -0.00013300920489431342 0.0026480544639468596 -0.0012467482924070007 -0.0005386703334569056 -0.0012467482924070007 0.0018576528289230869" pbc="T T T"
P        4.87350083       4.96200095       5.08047644        0      -0.00113817       0.00557277      -0.00674030
P       -0.10606837      10.04595491       5.01090508        1       0.01222760      -0.01003839      -0.01333797
P       -0.13968823       5.01440173      10.08280519        2       0.01248250       0.01626513       0.01660108
P        4.81585260      -0.03132501      10.08996416        3       0.00011539      -0.00211058       0.00570192
S        6.08498167       5.98851433       6.38519048        4       0.00093348       0.00023571       0.00188990
S        1.06325818       1.23943476       6.15355540        5       0.00029485       0.00352312       0.00307590
S        0.98292726       6.20795336       1.21363976        6      -0.01310437      -0.01039420      -0.00830061
S        6.04830245       0.94938530       1.33142950        7       0.00236999       0.00086946       0.00054809
S        3.62372903       3.77957057       6.22997217        8      -0.00090468      -0.00273555      -0.00148138
S        8.66895919       8.79548336       6.18162491        9      -0.00032235       0.00176757       0.00117419
S        8.53083859       3.79383545       1.10363846       10       0.00084688      -0.00017299       0.00058272
S        3.49263230       8.85880571       1.09972225       11       0.00469846       0.00236382      -0.00089686
S        3.75405046       6.30165768       3.96288954       12       0.00676063      -0.00100275      -0.00009843
S        8.71083417       0.97451306       3.66256509       13       0.00015594       0.00126883       0.00249895
S        8.82505113       6.06410093       8.63748620       14       0.00195856       0.00025341       0.00200894
S        3.79868478       1.33761618       8.91903465       15      -0.00044160       0.00368682       0.00027154
S        5.91451754       3.80968031       3.77129876       16       0.00265517      -0.00023800      -0.00065687
S        1.04279319       8.85311863       3.84357710       17      -0.00993916       0.01207588       0.00710833
S        0.98232445       3.73710920       8.92128750       18       0.00212896      -0.00023607      -0.00369333
S        5.82743860       8.77533570       8.80281754       19      -0.00062655       0.00127341      -0.00196569
Li       8.09535616       9.48508151       1.75951766       21       0.00101852       0.00040245       0.00159999
Li       8.07237100       4.46096495       6.72282072       22      -0.00274605       0.00188633       0.00413556
Li       2.14020276       9.94478610       7.83851988       23       0.00299504       0.00011672       0.00268932
Li       7.01830978       7.01330661       0.04235101       24       0.00378664      -0.00027646       0.00270610
Li       2.94685916       3.23130722       0.43930327       25      -0.00385615      -0.00193232       0.00113344
Li       2.99425798       8.17857099       5.40882396       26       0.00205519       0.00286857      -0.00780560
Li       6.82329421       1.90527985       5.04211629       27      -0.00016525       0.00254047       0.00135918
Li       7.36937635       2.19107896       9.73325945       28       0.00049598      -0.00003628       0.00075420
Li       3.87191311       7.28855951       9.21569861       29      -0.00013218       0.00196379      -0.00102277
Li       3.08545312       1.95476697       4.61991815       30      -0.00459573       0.00373015      -0.00117702
Li       7.13485955       7.49868389       4.75857397       31       0.00161516       0.00042913       0.00184590
Li       2.37070131       5.28546157       7.63290362       32       0.00438663      -0.00388655      -0.01036137
Li       8.98360489       0.77335091       7.66096607       33      -0.00095093       0.00205838       0.00061042
Li       8.75003381       5.76040177       2.71198678       34       0.00037173       0.00087823      -0.00042217
Li       1.96029044       0.36901277       2.17387476       35      -0.00403702       0.00228896      -0.00149277
Li       1.88902522       4.84971805       3.23933243       36      -0.00122279       0.00284582      -0.00031520
Li       5.28989375       8.99207279       2.81431002       37       0.00247656       0.00188016       0.00200252
Li       5.39673400       3.81261179       7.92693172       38       0.00031271       0.00192193       0.00117423
Li       0.62249953       7.85107574       9.45525390       39       0.01808422      -0.02317685      -0.00125116
Li       0.14027788       6.93884400       6.53207426       40       0.00680138      -0.00089389      -0.00074282
Li       5.54184457       0.60853688       7.25832847       41       0.00121902       0.00026767      -0.00059024
Li       5.41074129       5.66040464       2.21023252       42       0.00544423       0.00289112       0.00137798
Li      -0.04475101       2.68059472       2.68487702       43      -0.00540515       0.00477518      -0.00203807
Cl       9.61824727      10.09087906       9.92952019       44       0.00146998      -0.00118338       0.00017962
Cl       4.71885861       5.10944848      -0.13010329       45       0.00275337       0.00301350      -0.00083206
Cl       4.77453966       0.02502113       5.01291956       46       0.00160826       0.00159670       0.00114140
Cl       9.75841810       5.01409416       4.87353755       47       0.00098510       0.00126062      -0.00012599
S        2.21317941       2.62142740       2.55952998       48      -0.00345924       0.00297069      -0.00034698
S        7.07529841       7.41742453       2.39211500       49       0.00379711       0.00067524       0.00173160
S        7.20943665       2.32706759       7.38701088       50      -0.00015531       0.00193809       0.00121862
S        2.16097637       7.61620621       7.59883114       51       0.00551129      -0.00375155      -0.00635295
P       14.97872743       5.13173300       5.02626997        0      -0.00305299      -0.00435355      -0.00227449
P        9.88568745       9.86942087       4.91305562        1      -0.00453217       0.00348617       0.00304655
P        9.84564767       4.88805623      10.01288366        2      -0.00182634      -0.00084380       0.00123946
P       14.93078888       0.09075265      10.03805733        3      -0.00406419       0.00169915       0.00121844
S       15.97942970       6.40640196       6.26918834        4      -0.00005172       0.00303574       0.00043914
S       10.94874762       1.15237462       6.10839942        5       0.00034440      -0.00009746       0.00120598
S       10.78588939       6.20206599       1.22874466        6       0.00342993      -0.00263197       0.00042014
S       16.09758193       1.15810221       1.25598724        7      -0.00335270      -0.00093498      -0.00158274
S       13.80868878       3.88007177       6.18693090        8       0.00335039      -0.00347421       0.00075530
S       18.80889414       8.86623548       6.22111308        9      -0.00088742      -0.00274906       0.00361394
S       18.63341441       3.96308917       1.20411652       10      -0.00529591      -0.00077146      -0.00193290
S       13.63124072       8.88272530       0.98098203       11      -0.00159043      -0.00128255      -0.00147911
S       13.78687675       6.27463067       3.76678684       12      -0.00180402      -0.00413775       0.00191149
S       18.69132380       1.12563744       3.87422673       13      -0.00529994       0.00349868       0.00159985
S       18.88888403       6.24217163       8.78606234       14      -0.00271454       0.00487333      -0.00344448
S       13.74606586       1.39124582       8.94749848       15      -0.00314482      -0.00162576      -0.00043764
S       16.18384276       3.99765194       3.82089976       16       0.00054620       0.00070424       0.00022551
S       11.07713916       8.63567438       3.84116801       17      -0.00141102      -0.00036624      -0.00191594
S       11.10573439       3.60479874       9.05051395       18      -0.00061410      -0.00298892      -0.00119542
S       15.97548105       8.93912438       8.73531824       19      -0.00147059      -0.00065721      -0.00324104
Li      11.90678095       4.87906711       3.03521409       20      -0.00037723      -0.00335401       0.00040412
Li      18.00441335       9.69567755       2.06436638       21      -0.00383485       0.00080918       0.00269943
Li      17.54359988       4.89272254       7.29330419       22      -0.01056953       0.00236667       0.00720692
Li      12.33660812       9.89282088       7.71402099       23       0.00383375      -0.00536725       0.00041342
Li      17.62708822       7.79540570       0.14295505       24      -0.00189448       0.00913581      -0.00208690
Li      13.10687273       3.16199669       0.57451018       25      -0.00465504      -0.00340834       0.00082165
Li      13.06694899       8.06809142       5.38960615       26      -0.00405141      -0.00239551      -0.00165973
Li      19.74760564       3.08616015       6.84766538       27       0.00005339       0.00432842       0.00069461
Li      17.82084801       2.20528173       9.86747371       28      -0.00248865       0.00364143      -0.00103551
Li      14.12822842       7.35513789       9.07614147       29       0.00136263      -0.00556306      -0.00148489
Li      13.21208375       2.03618289       4.71347372       30       0.00544388      -0.00619489       0.00082564
Li      17.22229631       7.84882978       4.75011282       31      -0.00012545       0.00132704      -0.00196947
Li      12.65351935       5.21676471       7.94595099       32      -0.00175468      -0.00461998      -0.00175986
Li      17.91811680       0.22301065       7.95025354       33       0.00033121       0.00799804      -0.00019246
Li      18.35761032       5.52261992       3.16048704       34      -0.00101982       0.00236024      -0.00081261
Li      12.60759199       0.21892070       2.72547593       35      -0.00212384      -0.00308789      -0.00051708
Li      10.30799150       2.73537024       4.24447040       36       0.00025906      -0.00308480       0.00134343
Li      15.09017538       8.49883306       2.86475522       37      -0.00289930      -0.00334341      -0.00047460
Li      15.24435808       3.10371781       8.08787656       38      -0.00333489      -0.00102997       0.00593640
Li      10.63160706       7.83134080       9.39876769       39       0.00137503      -0.00145476       0.00014616
Li      10.27469556       6.91764957       6.44910494       40      -0.00061778      -0.00330400       0.00057946
Li      16.92931432       2.13765236       5.28895311       41       0.00530678      -0.00057861       0.00021439
Li      15.58330804       5.67547438       1.98325882       42      -0.00186755       0.00012162      -0.00023753
Li      10.35473526       2.04313153       1.13453277       43       0.00121758      -0.00716703       0.00348307
Cl      19.34355889       9.82103864      10.02232918       44       0.00107421       0.00368902       0.00035755
Cl      14.58285444       5.02237391      -0.23275637       45      -0.00037417      -0.00109630       0.00018644
Cl      14.43235160      -0.05443202       4.63506484       46      -0.00158689      -0.00173323      -0.00200937
Cl      19.84824175       5.00674107       5.10778675       47      -0.00013691       0.00160670      -0.00231035
S       12.11455746       2.55343600       2.66976808       48       0.00012730      -0.00313505       0.00088186
S       17.17139852       7.48600791       2.44677018       49      -0.00274412       0.00164648      -0.00151207
S       17.49341626       2.55906307       7.54271676       50      -0.00256560       0.00167907      -0.00000235
S       12.24744965       7.54605651       7.60582227       51       0.00046658      -0.00346385      -0.00137587
103
Lattice="20.110191271466377 0.0 0.0 0.0 10.055095635733188 0.0 0.0 0.0 10.055095635733188" Properties=species:S:1:pos:R:3:spacegroup_kinds:I:1:forces:R:3 spacegroup="P 1" unit_cell=conventional occupancy="_JSON {\"0\": {\"P\": 1.0}, \"1\": {\"P\": 1.0}, \"2\": {\"P\": 1.0}, \"3\": {\"P\": 1.0}, \"4\": {\"S\": 1.0}, \"5\": {\"S\": 1.0}, \"6\": {\"S\": 1.0}, \"7\": {\"S\": 1.0}, \"8\": {\"S\": 1.0}, \"9\": {\"S\": 1.0}, \"10\": {\"S\": 1.0}, \"11\": {\"S\": 1.0}, \"12\": {\"S\": 1.0}, \"13\": {\"S\": 1.0}, \"14\": {\"S\": 1.0}, \"15\": {\"S\": 1.0}, \"16\": {\"S\": 1.0}, \"17\": {\"S\": 1.0}, \"18\": {\"S\": 1.0}, \"19\": {\"S\": 1.0}, \"20\": {\"Li\": 1.0}, \"21\": {\"Li\": 1.0}, \"22\": {\"Li\": 1.0}, \"23\": {\"Li\": 1.0}, \"24\": {\"Li\": 1.0}, \"25\": {\"Li\": 1.0}, \"26\": {\"Li\": 1.0}, \"27\": {\"Li\": 1.0}, \"28\": {\"Li\": 1.0}, \"29\": {\"Li\": 1.0}, \"30\": {\"Li\": 1.0}, \"31\": {\"Li\": 1.0}, \"32\": {\"Li\": 1.0}, \"33\": {\"Li\": 1.0}, \"34\": {\"Li\": 1.0}, \"35\": {\"Li\": 1.0}, \"36\": {\"Li\": 1.0}, \"37\": {\"Li\": 1.0}, \"38\": {\"Li\": 1.0}, \"39\": {\"Li\": 1.0}, \"40\": {\"Li\": 1.0}, \"41\": {\"Li\": 1.0}, \"42\": {\"Li\": 1.0}, \"43\": {\"Li\": 1.0}, \"44\": {\"Cl\": 1.0}, \"45\": {\"Cl\": 1.0}, \"46\": {\"Cl\": 1.0}, \"47\": {\"Cl\": 1.0}, \"48\": {\"S\": 1.0}, \"49\": {\"S\": 1.0}, \"50\": {\"S\": 1.0}, \"51\": {\"S\": 1.0}}" charge=0 spin=0 energy=-429.65126601387607 free_energy=-429.65126601387607 stress="-0.0008276770359297728 -0.00013300920489431342 -0.0005386703334569056 -0.00013300920489431342 0.0026480544639468596 -0.0012467482924070007 -0.0005386703334569056 -0.0012467482924070007 0.0018576528289230869" pbc="T T T"
P        4.76935377       4.99493151       5.03179504        0      -0.00113817       0.00557277      -0.00674030
P       -0.18135842       9.90975610       4.95950129        1       0.01222760      -0.01003839      -0.01333797
P       -0.25739702       4.90374501       9.98230794        2       0.01248250       0.01626513       0.01660108
P        4.77258052      -0.02053361      10.07733958        3       0.00011539      -0.00211058       0.00570192
S        5.67792229       6.27967168       6.35725286        4       0.00093348       0.00023571       0.00188990
S        0.91475643       1.12172800       6.16630522        5       0.00029485       0.00352312       0.00307590
S        0.79250137       6.11967852       1.21916709        6      -0.01310437      -0.01039420      -0.00830061
S        5.81875618       1.09475505       1.35889632        7       0.00236999       0.00086946       0.00054809
S        3.46237153       3.77220690       6.07321144        8      -0.00090468      -0.00273555      -0.00148138
S        8.52764670       8.99429464       6.32578122        9      -0.00032235       0.00176757       0.00117419
S        8.46070448       4.07831315       1.30693887       10       0.00084688      -0.00017299       0.00058272
S        3.54628947       8.67390817       0.99931383       11       0.00469846       0.00236382      -0.00089686
S        3.66775447       6.15060960       3.69230290       12       0.00676063      -0.00100275      -0.00009843
S        8.70818053       1.36741815       4.00036201       13       0.00015594       0.00126883       0.00249895
S        8.65257282       6.39742145       8.92216393       14       0.00195856       0.00025341       0.00200894
S        3.60531543       1.20336955       8.89332437       15      -0.00044160       0.00368682       0.00027154
S        6.02313902       3.86603247       3.92035501       16       0.00265517      -0.00023800      -0.00065687
S        0.90442715       8.64237251       3.82421760       17      -0.00993916       0.01207588       0.00710833
S        0.92614832       3.65055464       8.90588301       18       0.00212896      -0.00023607      -0.00369333
S        5.96466346       8.89260628       8.83626687       19      -0.00062655       0.00127341      -0.00196569
Li       7.64302095       9.86387789       2.47963023       21       0.00101852       0.00040245       0.00159999
Li       7.19473818       4.94730144       7.68626189       22      -0.00274605       0.00188633       0.00413556
Li       2.78935478       9.77214970       7.14353417       23       0.00299504       0.00011672       0.00268932
Li       7.56038944       7.95599607       0.35335780       24       0.00378664      -0.00027646       0.00270610
Li       2.87742781       2.99796350       0.40489211       25      -0.00385615      -0.00193232       0.00113344
Li       2.80305503       7.79183442       5.29533275       26       0.00205519       0.00286857      -0.00780560
Li       7.88982053       3.24764710       5.42810972       27      -0.00016525       0.00254047       0.00135918
Li       6.72028344       2.92601661      10.01000784       28       0.00049598      -0.00003628       0.00075420
Li       4.25934931       7.09095004       8.75191972       29      -0.00013218       0.00196379      -0.00102277
Li       3.03466676       1.83310653       4.55357469       30      -0.00459573       0.00373015      -0.00117702
Li       7.47062336       7.21150883       4.93083815       31       0.00161516       0.00042913       0.00184590
Li       2.26274486       5.17526014       7.60886319       32       0.00438663      -0.00388655      -0.01036137
Li       9.43125593       1.81364179       8.36170429       33      -0.00095093       0.00205838       0.00061042
Li       8.97509413       6.07649240       2.88015052       34       0.00037173       0.00087823      -0.00042217
Li       2.06430529       0.09604720       2.23368612       35      -0.00403702       0.00228896      -0.00149277
Li       1.92479379       4.61888902       2.89285842       36      -0.00122279       0.00284582      -0.00031520
Li       4.92574359       8.37807035       3.12212811       37       0.00247656       0.00188016       0.00200252
Li       4.93131659       2.99446766       7.83951469       38       0.00031271       0.00192193       0.00117423
Li       1.23934438       8.09431128       9.72961417       39       0.01808422      -0.02317685      -0.00125116
Li       0.00702529       6.96213592       6.81505920       40       0.00680138      -0.00089389      -0.00074282
Li       6.67714600       0.40008404       7.05604172       41       0.00121902       0.00026767      -0.00059024
Li       5.77396507       5.58721926       2.11953630       42       0.00544423       0.00289112       0.00137798
Li      -0.09667537       2.01354448       1.78800715       43      -0.00540515       0.00477518      -0.00203807
Cl       9.78212899      10.24584285      10.48154472       44       0.00146998      -0.00118338       0.00017962
Cl       4.82725400       4.73636100      -0.20583769       45       0.00275337       0.00301350      -0.00083206
Cl       4.26911629      -0.26248058       5.11390192       46       0.00160826       0.00159670       0.00114140
Cl       9.27970582       5.40713879       5.19886954       47       0.00098510       0.00126062      -0.00012599
S        2.07299761       2.37280414       2.49543083       48      -0.00345924       0.00297069      -0.00034698
S        7.11080388       7.57104270       2.60871269       49       0.00379711       0.00067524       0.00173160
S        7.25539662       2.61615116       7.68657648       50      -0.00015531       0.00193809       0.00121862
S        2.17789227       7.50014256       7.58971919       51       0.00551129      -0.00375155      -0.00635295
P       14.80162858       5.02091479       5.04977652        0      -0.00305299      -0.00435355      -0.00227449
P        9.81294975      10.11518509       5.16569955        1      -0.00453217       0.00348617       0.00304655
P        9.74236905       5.12108656      10.13282014        2      -0.00182634      -0.00084380       0.00123946
P       14.84809230      -0.01594581      10.08408033        3      -0.00406419       0.00169915       0.00121844
S       15.85988218       6.19235932       6.33200893        4      -0.00005172       0.00303574       0.00043914
S       10.98094291       1.19751058       6.42961680        5       0.00034440      -0.00009746       0.00120598
S       10.85976613       6.34800939       1.27938173        6       0.00342993      -0.00263197       0.00042014
S       16.02271018       1.10646995       1.28907059        7      -0.00335270      -0.00093498      -0.00158274
S       13.49604405       3.85531354       6.16432966        8       0.00335039      -0.00347421       0.00075530
S       18.66127684       8.86437670       6.23342227        9      -0.00088742      -0.00274906       0.00361394
S       18.51786017       3.85003596       1.10629564       10      -0.00529591      -0.00077146      -0.00193290
S       13.54863537       8.88859417       1.16302100       11      -0.00159043      -0.00128255      -0.00147911
S       13.70557905       6.28731906       3.79795475       12      -0.00180402      -0.00413775       0.00191149
S       18.68586159       1.07261164       3.82849763       13      -0.00529994       0.00349868       0.00159985
S       18.74684712       6.12684762       8.72743371       14      -0.00271454       0.00487333      -0.00344448
S       13.74709372       1.24437923       8.86015519       15      -0.00314482      -0.00162576      -0.00043764
S       15.94259780       3.83655722       3.85559103       16       0.00054620       0.00070424       0.00022551
S       10.92258057       8.88663103       3.97552680       17      -0.00141102      -0.00036624      -0.00191594
S       10.86153735       3.84073593       8.98644176       18      -0.00061410      -0.00298892      -0.00119542
S       15.90850936       8.79810615       8.87458874       19      -0.00147059      -0.00065721      -0.00324104
Li      12.61299491       4.87936328       2.15039110       20      -0.00037723      -0.00335401       0.00040412
Li      17.96383837       9.61744909       2.01307170       21      -0.00383485       0.00080918       0.00269943
Li      17.58986792       4.66964066       7.09497522       22      -0.01056953       0.00236667       0.00720692
Li      12.90607813       9.77858498       7.11324063       23       0.00383375      -0.00536725       0.00041342
Li      17.43081723       7.48525142       0.17992375       24      -0.00189448       0.00913581      -0.00208690
Li      12.83682445       2.94711313       0.24869102       25      -0.00465504      -0.00340834       0.00082165
Li      12.37877731       7.50859838       5.35120610       26      -0.00405141      -0.00239551      -0.00165973
Li      19.17306393       2.81380085       5.59736146       27       0.00005339       0.00432842       0.00069461
Li      17.18518597       2.47591068       9.64565334       28      -0.00248865       0.00364143      -0.00103551
Li      13.98209415       7.32238446       9.28461217       29       0.00136263      -0.00556306      -0.00148489
Li      14.46868027       1.92251890       3.22204598       30       0.00544388      -0.00619489       0.00082564
Li      17.58209043       7.07268875       4.82326221       31      -0.00012545       0.00132704      -0.00196947
Li      12.61736800       5.26172168       7.95888740       32      -0.00175468      -0.00461998      -0.00175986
Li      19.21804982       0.74161319       7.97350690       33       0.00033121       0.00799804      -0.00019246
Li      18.90724693       5.81033284       2.67759299       34      -0.00101982       0.00236024      -0.00081261
Li      11.78648012       0.23789771       2.11172409       35      -0.00212384      -0.00308789      -0.00051708
Li      11.77633152       2.81253319       4.76834486       36       0.00025906      -0.00308480       0.00134343
Li      15.06948375       8.42263870       3.19868357       37      -0.00289930      -0.00334341      -0.00047460
Li      15.13240240       2.23773117       7.06777187       38      -0.00333489      -0.00102997       0.00593640
Li      10.99808000       8.25472584       9.64894527       39       0.00137503      -0.00145476       0.00014616
Li       9.96254148       7.01033555       6.93589822       40      -0.00061778      -0.00330400       0.00057946
Li      17.00853477       0.58531323       5.68719844       41       0.00530678      -0.00057861       0.00021439
Li      15.66143211       5.59396789       2.14156057       42      -0.00186755       0.00012162      -0.00023753
Li       9.94957563       2.25948518       1.98365186       43       0.00121758      -0.00716703       0.00348307
Cl      19.69138502       9.97096485      10.27483088       44       0.00107421       0.00368902       0.00035755
Cl      14.23285955       5.06166709       0.16667720       45      -0.00037417      -0.00109630       0.00018644
Cl      14.75060171       0.16824583       5.01585195       46      -0.00158689      -0.00173323      -0.00200937
Cl      19.39086966       5.22942219       5.09678054       47      -0.00013691       0.00160670      -0.00231035
S       12.25147176       2.54517091       2.49507222       48       0.00012730      -0.00313505       0.00088186
S       17.15393408       7.43361076       2.50676906       49      -0.00274412       0.00164648      -0.00151207
S       17.47706770       2.32299513       7.31965283       50      -0.00256560       0.00167907      -0.00000235
S       12.17930507       7.56183258       7.67230309       51       0.00046658      -0.00346385      -0.00137587
103
Lattice="20.110191271466377 0.0 0.0 0.0 10.055095635733188 0.0 0.0 0.0 10.055095635733188" Properties=species:S:1:pos:R:3:spacegroup_kinds:I:1:forces:R:3 spacegroup="P 1" unit_cell=conventional occupancy="_JSON {\"0\": {\"P\": 1.0}, \"1\": {\"P\": 1.0}, \"2\": {\"P\": 1.0}, \"3\": {\"P\": 1.0}, \"4\": {\"S\": 1.0}, \"5\": {\"S\": 1.0}, \"6\": {\"S\": 1.0}, \"7\": {\"S\": 1.0}, \"8\": {\"S\": 1.0}, \"9\": {\"S\": 1.0}, \"10\": {\"S\": 1.0}, \"11\": {\"S\": 1.0}, \"12\": {\"S\": 1.0}, \"13\": {\"S\": 1.0}, \"14\": {\"S\": 1.0}, \"15\": {\"S\": 1.0}, \"16\": {\"S\": 1.0}, \"17\": {\"S\": 1.0}, \"18\": {\"S\": 1.0}, \"19\": {\"S\": 1.0}, \"20\": {\"Li\": 1.0}, \"21\": {\"Li\": 1.0}, \"22\": {\"Li\": 1.0}, \"23\": {\"Li\": 1.0}, \"24\": {\"Li\": 1.0}, \"25\": {\"Li\": 1.0}, \"26\": {\"Li\": 1.0}, \"27\": {\"Li\": 1.0}, \"28\": {\"Li\": 1.0}, \"29\": {\"Li\": 1.0}, \"30\": {\"Li\": 1.0}, \"31\": {\"Li\": 1.0}, \"32\": {\"Li\": 1.0}, \"33\": {\"Li\": 1.0}, \"34\": {\"Li\": 1.0}, \"35\": {\"Li\": 1.0}, \"36\": {\"Li\": 1.0}, \"37\": {\"Li\": 1.0}, \"38\": {\"Li\": 1.0}, \"39\": {\"Li\": 1.0}, \"40\": {\"Li\": 1.0}, \"41\": {\"Li\": 1.0}, \"42\": {\"Li\": 1.0}, \"43\": {\"Li\": 1.0}, \"44\": {\"Cl\": 1.0}, \"45\": {\"Cl\": 1.0}, \"46\": {\"Cl\": 1.0}, \"47\": {\"Cl\": 1.0}, \"48\": {\"S\": 1.0}, \"49\": {\"S\": 1.0}, \"50\": {\"S\": 1.0}, \"51\": {\"S\": 1.0}}" charge=0 spin=0 energy=-429.65126601387607 free_energy=-429.65126601387607 stress="-0.0008276770359297728 -0.00013300920489431342 -0.0005386703334569056 -0.00013300920489431342 0.0026480544639468596 -0.0012467482924070007 -0.0005386703334569056 -0.0012467482924070007 0.0018576528289230869" pbc="T T T"
P        4.80926959       4.69783025       5.07782839        0      -0.00113817       0.00557277      -0.00674030
P       -0.09825108       9.57710918       4.75457605        1       0.01222760      -0.01003839      -0.01333797
P       -0.22677977       4.60366274       9.71162693        2       0.01248250       0.01626513       0.01660108
P        4.51765335      -0.01234001      10.07194425        3       0.00011539      -0.00211058       0.00570192
S        5.51877935       6.07703024       6.42921024        4       0.00093348       0.00023571       0.00188990
S        0.90857110       0.94391020       5.88543419        5       0.00029485       0.00352312       0.00307590
S        0.74543716       5.81172161       0.96560246        6      -0.01310437      -0.01039420      -0.00830061
S        5.47887581       1.13256823       1.45161766        7       0.00236999       0.00086946       0.00054809
S        3.48688950       3.37721802       5.94582678        8      -0.00090468      -0.00273555      -0.00148138
S        8.52138185       9.06898613       6.35801185        9      -0.00032235       0.00176757       0.00117419
S        8.32643303       4.24557303       1.46966105       10       0.00084688      -0.00017299       0.00058272
S        3.45293441       8.50796453       0.82064779       11       0.00469846       0.00236382      -0.00089686
S        3.79740983       5.63297233       3.53472579       12       0.00676063      -0.00100275      -0.00009843
S        8.47294687       1.48915132       4.31313882       13       0.00015594       0.00126883       0.00249895
S        8.36079077       6.53192104       9.06918520       14       0.00195856       0.00025341       0.00200894
S        3.29961261       1.11177771       8.88624880       15      -0.00044160       0.00368682       0.00027154
S        6.33326277       3.58006566       4.32599585       16       0.00265517      -0.00023800      -0.00065687
S        1.06708252       8.34669991       3.67176890       17      -0.00993916       0.01207588       0.00710833
S        0.93922451       3.39092799       8.62635554       18       0.00212896      -0.00023607      -0.00369333
S        5.88287544       9.16668910       8.75291564       19      -0.00062655       0.00127341      -0.00196569
Li       6.72863556       9.99391392       3.39433070       21       0.00101852       0.00040245       0.00159999
Li       6.50755227       4.95742106       8.62538126       22      -0.00274605       0.00188633       0.00413556
Li       2.50987368       9.74226228       6.91781620       23       0.00299504       0.00011672       0.00268932
Li       7.06364039       8.13303085       0.30022732       24       0.00378664      -0.00027646       0.00270610
Li       3.44826201       3.52250556       1.08821180       25      -0.00385615      -0.00193232       0.00113344
Li       3.01413559       7.37411404       5.12986840       26       0.00205519       0.00286857      -0.00780560
Li       8.11761111       3.56185774       5.98194329       27      -0.00016525       0.00254047       0.00135918
Li       7.20264999       2.38121387      10.31698388       28       0.00049598      -0.00003628       0.00075420
Li       4.13632801       8.14534488       7.57111563       29      -0.00013218       0.00196379      -0.00102277
Li       3.62935290       1.28240111       3.86737454       30      -0.00459573       0.00373015      -0.00117702
Li       6.66150995       7.79336072       5.11064526       31       0.00161516       0.00042913       0.00184590
Li       2.72243558       5.01975410       7.83138834       32       0.00438663      -0.00388655      -0.01036137
Li       9.49573909       2.18043128       8.63199162       33      -0.00095093       0.00205838       0.00061042
Li       9.86209759       7.46077718       3.35299943       34       0.00037173       0.00087823      -0.00042217
Li       1.56626061      -0.20796793       1.61662557       35      -0.00403702       0.00228896      -0.00149277
Li       1.73298376       3.63436778       4.16935659       36      -0.00122279       0.00284582      -0.00031520
Li       4.81248896       7.83547520       2.67222604       37       0.00247656       0.00188016       0.00200252
Li       4.93311297       2.49223012       7.75049813       38       0.00031271       0.00192193       0.00117423
Li       0.47991666       7.51468045       9.16848142       39       0.01808422      -0.02317685      -0.00125116
Li       0.10022631       6.45706401       6.38761554       40       0.00680138      -0.00089389      -0.00074282
Li       7.45789752       0.53429481       7.82790023       41       0.00121902       0.00026767      -0.00059024
Li       6.56758132       5.37572127       2.98709147       42       0.00544423       0.00289112       0.00137798
Li      -0.07603328       1.93265399       1.55115916       43      -0.00540515       0.00477518      -0.00203807
Cl       9.44285669      10.50172068      10.08016341       44       0.00146998      -0.00118338       0.00017962
Cl       4.38133560       4.83642197      -0.53136992       45       0.00275337       0.00301350      -0.00083206
Cl       4.60290457      -0.64515358       5.04569901       46       0.00160826       0.00159670       0.00114140
Cl      10.13468094       5.70316951       5.14341201       47       0.00098510       0.00126062      -0.00012599
S        2.01733191       2.07681248       2.42848703       48      -0.00345924       0.00297069      -0.00034698
S        7.14765604       7.73425385       2.81741706       49       0.00379711       0.00067524       0.00173160
S        7.24991911       2.78324468       8.00989231       50      -0.00015531       0.00193809       0.00121862
S        2.04343867       7.36097158       7.27887400       51       0.00551129      -0.00375155      -0.00635295
P       14.93814697       5.00803295       4.97763632        0      -0.00305299      -0.00435355      -0.00227449
P        9.77134724      10.36088217       5.35586660        1      -0.00453217       0.00348617       0.00304655
P        9.56064208       5.35129369      10.26660195        2      -0.00182634      -0.00084380       0.00123946
P       14.79000932      -0.15341285       9.99284320        3      -0.00406419       0.00169915       0.00121844
S       16.16550318       6.08704219       6.21945256        4      -0.00005172       0.00303574       0.00043914
S       10.88618440       1.51843829       6.57057219        5       0.00034440      -0.00009746       0.00120598
S       10.83124138       6.57106737       1.29077840        6       0.00342993      -0.00263197       0.00042014
S       16.08234071       0.78646670       1.19222484        7      -0.00335270      -0.00093498      -0.00158274
S       13.69305572       3.86674518       6.14877356        8       0.00335039      -0.00347421       0.00075530
S       18.78675597       8.53144453       6.06259821        9      -0.00088742      -0.00274906       0.00361394
S       18.45988019       3.53503623       0.74810047       10      -0.00529591      -0.00077146      -0.00193290
S       13.39151670       8.91960766       1.15326380       11      -0.00159043      -0.00128255      -0.00147911
S       13.79994797       6.38487833       3.90273321       12      -0.00180402      -0.00413775       0.00191149
S       18.70999975       0.66086563       3.59933860       13      -0.00529994       0.00349868       0.00159985
S       18.79458968       5.89610401       8.44761468       14      -0.00271454       0.00487333      -0.00344448
S       13.70647033       1.22457259       8.87154757       15      -0.00314482      -0.00162576      -0.00043764
S       15.99993104       3.81850324       3.73173149       16       0.00054620       0.00070424       0.00022551
S       11.10000600       9.26846487       4.20389679       17      -0.00141102      -0.00036624      -0.00191594
S       10.70338625       4.20850844       9.01580260       18      -0.00061410      -0.00298892      -0.00119542
S       15.71528334       8.55939310       8.76740216       19      -0.00147059      -0.00065721      -0.00324104
Li      12.54922949       5.07715907       2.19510593       20      -0.00037723      -0.00335401       0.00040412
Li      18.00899311       9.27894351       1.76772996       21      -0.00383485       0.00080918       0.00269943
Li      17.78322327       4.34964123       6.89895131       22      -0.01056953       0.00236667       0.00720692
Li      12.89494418      10.00332156       6.67014494       23       0.00383375      -0.00536725       0.00041342
Li      17.33736844       7.12684575      -0.07799382       24      -0.00189448       0.00913581      -0.00208690
Li      12.22489668       3.05462210       0.33040165       25      -0.00465504      -0.00340834       0.00082165
Li      12.00165621       7.21477490       5.43385227       26      -0.00405141      -0.00239551      -0.00165973
Li      19.13981524       2.39063499       5.32200518       27       0.00005339       0.00432842       0.00069461
Li      17.20183717       2.01512192       9.47062402       28      -0.00248865       0.00364143      -0.00103551
Li      13.00884536       6.92094669       9.66591331       29       0.00136263      -0.00556306      -0.00148489
Li      14.07826372       2.37023990       3.98217113       30       0.00544388      -0.00619489       0.00082564
Li      17.71430335       6.98878604       4.52974238       31      -0.00012545       0.00132704      -0.00196947
Li      14.22560280       7.09525454       7.35624428       32      -0.00175468      -0.00461998      -0.00175986
Li      19.52718397       0.72859482       7.86507358       33       0.00033121       0.00799804      -0.00019246
Li      18.84968686       5.35893839       2.34224669       34      -0.00101982       0.00236024      -0.00081261
Li      12.25866483       0.53887467       2.60397164       35      -0.00212384      -0.00308789      -0.00051708
Li      11.52046978       3.66633400       5.01085502       36       0.00025906      -0.00308480       0.00134343
Li      15.16978170       8.41554206       2.92656373       37      -0.00289930      -0.00334341      -0.00047460
Li      15.23561181       2.28081834       7.17991780       38      -0.00333489      -0.00102997       0.00593640
Li      11.74679875       9.51440793       9.58248880       39       0.00137503      -0.00145476       0.00014616
Li       9.87328944       7.45484977       7.32552536       40      -0.00061778      -0.00330400       0.00057946
Li      17.05137261       0.25359993       5.60166680       41       0.00530678      -0.00057861       0.00021439
Li      15.52079466       5.49128372       2.04982843       42      -0.00186755       0.00012162      -0.00023753
Li       9.69726645       2.69803583       2.76805279       43       0.00121758      -0.00716703       0.00348307
Cl      19.71476644       9.56833834      10.07876908       44       0.00107421       0.00368902       0.00035755
Cl      14.08729113       4.97193870       0.30340643       45      -0.00037417      -0.00109630       0.00018644
Cl      14.71812150       0.15124445       4.87079141       46      -0.00158689      -0.00173323      -0.00200937
Cl      19.64740084       4.69844093       4.76561227       47      -0.00013691       0.00160670      -0.00231035
S       12.04300710       2.82144593       2.75882244       48       0.00012730      -0.00313505       0.00088186
S       17.16835975       7.15467621       2.26705553       49      -0.00274412       0.00164648      -0.00151207
S       17.55245343       2.02051177       7.15388802       50      -0.00256560       0.00167907      -0.00000235
S       12.16202960       7.95877447       7.66872707       51       0.00046658      -0.00346385      -0.00137587
103
Lattice="20.110191271466377 0.0 0.0 0.0 10.055095635733188 0.0 0.0 0.0 10.055095635733188" Properties=species:S:1:pos:R:3:spacegroup_kinds:I:1:forces:R:3 spacegroup="P 1" unit_cell=conventional occupancy="_JSON {\"0\": {\"P\": 1.0}, \"1\": {\"P\": 1.0}, \"2\": {\"P\": 1.0}, \"3\": {\"P\": 1.0}, \"4\": {\"S\": 1.0}, \"5\": {\"S\": 1.0}, \"6\": {\"S\": 1.0}, \"7\": {\"S\": 1.0}, \"8\": {\"S\": 1.0}, \"9\": {\"S\": 1.0}, \"10\": {\"S\": 1.0}, \"11\": {\"S\": 1.0}, \"12\": {\"S\": 1.0}, \"13\": {\"S\": 1.0}, \"14\": {\"S\": 1.0}, \"15\": {\"S\": 1.0}, \"16\": {\"S\": 1.0}, \"17\": {\"S\": 1.0}, \"18\": {\"S\": 1.0}, \"19\": {\"S\": 1.0}, \"20\": {\"Li\": 1.0}, \"21\": {\"Li\": 1.0}, \"22\": {\"Li\": 1.0}, \"23\": {\"Li\": 1.0}, \"24\": {\"Li\": 1.0}, \"25\": {\"Li\": 1.0}, \"26\": {\"Li\": 1.0}, \"27\": {\"Li\": 1.0}, \"28\": {\"Li\": 1.0}, \"29\": {\"Li\": 1.0}, \"30\": {\"Li\": 1.0}, \"31\": {\"Li\": 1.0}, \"32\": {\"Li\": 1.0}, \"33\": {\"Li\": 1.0}, \"34\": {\"Li\": 1.0}, \"35\": {\"Li\": 1.0}, \"36\": {\"Li\": 1.0}, \"37\": {\"Li\": 1.0}, \"38\": {\"Li\": 1.0}, \"39\": {\"Li\": 1.0}, \"40\": {\"Li\": 1.0}, \"41\": {\"Li\": 1.0}, \"42\": {\"Li\": 1.0}, \"43\": {\"Li\": 1.0}, \"44\": {\"Cl\": 1.0}, \"45\": {\"Cl\": 1.0}, \"46\": {\"Cl\": 1.0}, \"47\": {\"Cl\": 1.0}, \"48\": {\"S\": 1.0}, \"49\": {\"S\": 1.0}, \"50\": {\"S\": 1.0}, \"51\": {\"S\": 1.0}}" charge=0 spin=0 energy=-429.65126601387607 free_energy=-429.65126601387607 stress="-0.0008276770359297728 -0.00013300920489431342 -0.0005386703334569056 -0.00013300920489431342 0.0026480544639468596 -0.0012467482924070007 -0.0005386703334569056 -0.0012467482924070007 0.0018576528289230869" pbc="T T T"
P        4.71341149       5.07852505       4.99046689        0      -0.00113817       0.00557277      -0.00674030
P       -0.28740396      10.02695663       4.93261685        1       0.01222760      -0.01003839      -0.01333797
P       -0.30209866       5.10703425       9.96476044        2       0.01248250       0.01626513       0.01660108
P        4.73700882       0.02955746       9.99433519        3       0.00011539      -0.00211058       0.00570192
S        5.76434120       6.32608559       6.19744078        4       0.00093348       0.00023571       0.00188990
S        0.82975370       1.24333318       6.12304158        5       0.00029485       0.00352312       0.00307590
S        0.77722867       6.36311847       1.14379355        6      -0.01310437      -0.01039420      -0.00830061
S        5.86923387       1.20782688       1.20249679        7       0.00236999       0.00086946       0.00054809
S        3.43852175       3.93940803       6.16171843        8      -0.00090468      -0.00273555      -0.00148138
S        8.57011033       8.87531097       6.38307733        9      -0.00032235       0.00176757       0.00117419
S        8.61666221       3.89714756       1.32431224       10       0.00084688      -0.00017299       0.00058272
S        3.54390794       8.84785669       1.08381629       11       0.00469846       0.00236382      -0.00089686
S        3.58725362       6.22673462       3.69196698       12       0.00676063      -0.00100275      -0.00009843
S        8.63288623       1.20871968       3.94427475       13       0.00015594       0.00126883       0.00249895
S        8.57596091       6.37196883       9.00206512       14       0.00195856       0.00025341       0.00200894
S        3.55664464       1.28799317       8.84083521       15      -0.00044160       0.00368682       0.00027154
S        5.83918225       3.77513413       3.85920437       16       0.00265517      -0.00023800      -0.00065687
S        0.73327719       8.80449275       3.69908476       17      -0.00993916       0.01207588       0.00710833
S        0.88984278       3.95044188       8.79286016       18       0.00212896      -0.00023607      -0.00369333
S        5.85048735       8.90900585       8.78375191       19      -0.00062655       0.00127341      -0.00196569
Li       7.65913489       9.91361322       2.07419168       21       0.00101852       0.00040245       0.00159999
Li       7.46005140       4.97333485       7.30114752       22      -0.00274605       0.00188633       0.00413556
Li       2.81961424       9.85492592       7.03971542       23       0.00299504       0.00011672       0.00268932
Li       9.41039397       7.84047223       2.12537347       24       0.00378664      -0.00027646       0.00270610
Li       1.78272841       2.17731802       0.14748717       25      -0.00385615      -0.00193232       0.00113344
Li       2.56748395       7.85941221       5.18360397       26       0.00205519       0.00286857      -0.00780560
Li       7.75475456       3.07496852       5.26530837       27      -0.00016525       0.00254047       0.00135918
Li       6.92337456       2.97480540       9.88459995       28       0.00049598      -0.00003628       0.00075420
Li       4.41921266       3.11779706      11.71422784       29      -0.00013218       0.00196379      -0.00102277
Li       2.80797203       2.11575042       4.68106252       30      -0.00459573       0.00373015      -0.00117702
Li       7.66590866       7.10968974       4.83265122       31       0.00161516       0.00042913       0.00184590
Li       2.54486528       5.53257977       7.77691308       32       0.00438663      -0.00388655      -0.01036137
Li       9.47077602       2.27292908       7.86556759       33      -0.00095093       0.00205838       0.00061042
Li       7.02321558       5.32065095       2.42871109       34       0.00037173       0.00087823      -0.00042217
Li       2.50177918       0.19443888       2.73951731       35      -0.00403702       0.00228896      -0.00149277
Li       2.09241719       4.81495633       2.47879828       36      -0.00122279       0.00284582      -0.00031520
Li       4.96443067       8.25577161       3.13680958       37       0.00247656       0.00188016       0.00200252
Li       4.92994771       3.07780092       7.86185696       38       0.00031271       0.00192193       0.00117423
Li       1.67979008       8.07421834       9.66338861       39       0.01808422      -0.02317685      -0.00125116
Li      -0.10002579       7.00279112       6.84598141       40       0.00680138      -0.00089389      -0.00074282
Li       6.86874936       0.36003322       7.20170416       41       0.00121902       0.00026767      -0.00059024
Li       6.32696515       7.02763924       0.31711523       42       0.00544423       0.00289112       0.00137798
Li      -0.14647007       2.24551035       2.13696157       43      -0.00540515       0.00477518      -0.00203807
Cl       9.79747407      10.05873663      10.52327202       44       0.00146998      -0.00118338       0.00017962
Cl       5.19167706       4.75428632       0.09532715       45       0.00275337       0.00301350      -0.00083206
Cl       4.01667704      -0.11550828       4.80916606       46       0.00160826       0.00159670       0.00114140
Cl       9.25460090       5.09939997       5.42341074       47       0.00098510       0.00126062      -0.00012599
S        2.19037976       2.51513642       2.41847235       48      -0.00345924       0.00297069      -0.00034698
S        7.15645740       7.62130553       2.52112201       49       0.00379711       0.00067524       0.00173160
S        7.21279851       2.64271310       7.56240890       50      -0.00015531       0.00193809       0.00121862
S        2.00420628       7.72122918       7.42463367       51       0.00551129      -0.00375155      -0.00635295
P       14.75040454       4.97341075       4.99701220        0      -0.00305299      -0.00435355      -0.00227449
P        9.72691752      10.03110530       5.13462144        1      -0.00453217       0.00348617       0.00304655
P        9.72656974       5.10012971      10.14406515        2      -0.00182634      -0.00084380       0.00123946
P       14.82753657      -0.02643052      10.04816840        3      -0.00406419       0.00169915       0.00121844
S       15.78023349       6.18423691       6.30423020        4      -0.00005172       0.00303574       0.00043914
S       10.98280559       1.09323125       6.34741898        5       0.00034440      -0.00009746       0.00120598
S       10.94897186       6.28413803       1.24257785        6       0.00342993      -0.00263197       0.00042014
S       15.91284215       1.26041386       1.21494867        7      -0.00335270      -0.00093498      -0.00158274
S       13.45527663       3.86606850       6.15997926        8       0.00335039      -0.00347421       0.00075530
S       18.58155465       8.96593127       6.21054206        9      -0.00088742      -0.00274906       0.00361394
S       18.57285757       4.04275510       1.17975618       10      -0.00529591      -0.00077146      -0.00193290
S       13.65151406       8.88778776       1.26513773       11      -0.00159043      -0.00128255      -0.00147911
S       13.66304641       6.25626349       3.76734084       12      -0.00180402      -0.00413775       0.00191149
S       18.54837500       1.22317162       3.86477786       13      -0.00529994       0.00349868       0.00159985
S       18.60274041       6.27062477       8.76078179       14      -0.00271454       0.00487333      -0.00344448
S       13.58444673       1.16343562       8.88521096       15      -0.00314482      -0.00162576      -0.00043764
S       15.93485389       3.82863306       3.82455316       16       0.00054620       0.00070424       0.00022551
S       10.87161309       8.79868841       3.93042682       17      -0.00141102      -0.00036624      -0.00191594
S       10.89375009       3.89037576       8.97590682       18      -0.00061410      -0.00298892      -0.00119542
S       15.96456060       8.89828302       8.84359339       19      -0.00147059      -0.00065721      -0.00324104
Li      12.50853140       4.77420239       2.23453535       20      -0.00037723      -0.00335401       0.00040412
Li      17.92393489       9.75672211       1.98502020       21      -0.00383485       0.00080918       0.00269943
Li      17.50304099       4.72554710       7.22978055       22      -0.01056953       0.00236667       0.00720692
Li      12.96245279       9.66043000       7.07783947       23       0.00383375      -0.00536725       0.00041342
Li      17.15575322       7.42824211       0.22162514       24      -0.00189448       0.00913581      -0.00208690
Li      13.76267771       2.83409985       0.55544642       25      -0.00465504      -0.00340834       0.00082165
Li      12.13408044       7.30577555       5.32603774       26      -0.00405141      -0.00239551      -0.00165973
Li      19.05816109       2.93956902       5.67261636       27       0.00005339       0.00432842       0.00069461
Li      17.61670242       2.28133396       9.75578683       28      -0.00248865       0.00364143      -0.00103551
Li      12.79989691       7.12889905       9.89983749       29       0.00136263      -0.00556306      -0.00148489
Li      14.49073230       1.84696389       3.33094156       30       0.00544388      -0.00619489       0.00082564
Li      17.54016707       7.13218575       4.85310030       31      -0.00012545       0.00132704      -0.00196947
Li      13.83626307       5.80500146       7.74766662       32      -0.00175468      -0.00461998      -0.00175986
Li      19.12794234       0.74582334       7.88652164       33       0.00033121       0.00799804      -0.00019246
Li      19.01557341       6.05442481       2.73436713       34      -0.00101982       0.00236024      -0.00081261
Li      11.82652343       0.17011789       2.12671377       35      -0.00212384      -0.00308789      -0.00051708
Li      11.72688407       2.74273879       4.69924769       36       0.00025906      -0.00308480       0.00134343
Li      15.05972149       8.43718845       3.26506490       37      -0.00289930      -0.00334341      -0.00047460
Li      15.05860179       2.29162769       7.27759539       38      -0.00333489      -0.00102997       0.00593640
Li      10.13870619       8.55806605       8.52155788       39       0.00137503      -0.00145476       0.00014616
Li      10.42711465       5.83387775       7.33101938       40      -0.00061778      -0.00330400       0.00057946
Li      16.91983300       0.68279062       5.74767290       41       0.00530678      -0.00057861       0.00021439
Li      15.71999639       5.64227751       2.16354679       42      -0.00186755       0.00012162      -0.00023753
Li      10.42452449       2.30628439       1.09053273       43       0.00121758      -0.00716703       0.00348307
Cl      19.59931357      10.64677038      10.26156324       44       0.00107421       0.00368902       0.00035755
Cl      14.37048253       5.14847558       0.13881906       45      -0.00037417      -0.00109630       0.00018644
Cl      14.71474994       0.13264542       5.04425431       46      -0.00158689      -0.00173323      -0.00200937
Cl      19.26675731       5.33290178       5.12746475       47      -0.00013691       0.00160670      -0.00231035
S       12.34957236       2.46719887       2.45411439       48       0.00012730      -0.00313505       0.00088186
S       17.14842693       7.54061962       2.54938069       49      -0.00274412       0.00164648      -0.00151207
S       17.40556514       2.39466055       7.38362943       50      -0.00256560       0.00167907      -0.00000235
S       12.12736322       7.48029862       7.64182705       51       0.00046658      -0.00346385      -0.00137587
103
Lattice="20.110191271466377 0.0 0.0 0.0 10.055095635733188 0.0 0.0 0.0 10.055095635733188" Properties=species:S:1:pos:R:3:spacegroup_kinds:I:1:forces:R:3 spacegroup="P 1" unit_cell=conventional occupancy="_JSON {\"0\": {\"P\": 1.0}, \"1\": {\"P\": 1.0}, \"2\": {\"P\": 1.0}, \"3\": {\"P\": 1.0}, \"4\": {\"S\": 1.0}, \"5\": {\"S\": 1.0}, \"6\": {\"S\": 1.0}, \"7\": {\"S\": 1.0}, \"8\": {\"S\": 1.0}, \"9\": {\"S\": 1.0}, \"10\": {\"S\": 1.0}, \"11\": {\"S\": 1.0}, \"12\": {\"S\": 1.0}, \"13\": {\"S\": 1.0}, \"14\": {\"S\": 1.0}, \"15\": {\"S\": 1.0}, \"16\": {\"S\": 1.0}, \"17\": {\"S\": 1.0}, \"18\": {\"S\": 1.0}, \"19\": {\"S\": 1.0}, \"20\": {\"Li\": 1.0}, \"21\": {\"Li\": 1.0}, \"22\": {\"Li\": 1.0}, \"23\": {\"Li\": 1.0}, \"24\": {\"Li\": 1.0}, \"25\": {\"Li\": 1.0}, \"26\": {\"Li\": 1.0}, \"27\": {\"Li\": 1.0}, \"28\": {\"Li\": 1.0}, \"29\": {\"Li\": 1.0}, \"30\": {\"Li\": 1.0}, \"31\": {\"Li\": 1.0}, \"32\": {\"Li\": 1.0}, \"33\": {\"Li\": 1.0}, \"34\": {\"Li\": 1.0}, \"35\": {\"Li\": 1.0}, \"36\": {\"Li\": 1.0}, \"37\": {\"Li\": 1.0}, \"38\": {\"Li\": 1.0}, \"39\": {\"Li\": 1.0}, \"40\": {\"Li\": 1.0}, \"41\": {\"Li\": 1.0}, \"42\": {\"Li\": 1.0}, \"43\": {\"Li\": 1.0}, \"44\": {\"Cl\": 1.0}, \"45\": {\"Cl\": 1.0}, \"46\": {\"Cl\": 1.0}, \"47\": {\"Cl\": 1.0}, \"48\": {\"S\": 1.0}, \"49\": {\"S\": 1.0}, \"50\": {\"S\": 1.0}, \"51\": {\"S\": 1.0}}" charge=0 spin=0 energy=-429.65126601387607 free_energy=-429.65126601387607 stress="-0.0008276770359297728 -0.00013300920489431342 -0.0005386703334569056 -0.00013300920489431342 0.0026480544639468596 -0.0012467482924070007 -0.0005386703334569056 -0.0012467482924070007 0.0018576528289230869" pbc="T T T"
P        4.72792826       5.10623782       5.01334867        0      -0.00113817       0.00557277      -0.00674030
P       -0.17490098      10.03790305       4.95602901        1       0.01222760      -0.01003839      -0.01333797
P       -0.30306184       4.98851486       9.95217125        2       0.01248250       0.01626513       0.01660108
P        4.72654108       0.01270310       9.98963999        3       0.00011539      -0.00211058       0.00570192
S        5.80809879       6.37129884       6.18989534        4       0.00093348       0.00023571       0.00188990
S        0.91094693       1.21390846       6.20421227        5       0.00029485       0.00352312       0.00307590
S        0.72369452       6.31315649       1.09638197        6      -0.01310437      -0.01039420      -0.00830061
S        5.84052539       1.27213594       1.14153347        7       0.00236999       0.00086946       0.00054809
S        3.44767695       4.01074213       6.19581376        8      -0.00090468      -0.00273555      -0.00148138
S        8.58016096       9.07045669       6.42533788        9      -0.00032235       0.00176757       0.00117419
S        8.45781713       3.88124865       1.30946827       10       0.00084688      -0.00017299       0.00058272
S        3.56580945       8.83401567       1.11616822       11       0.00469846       0.00236382      -0.00089686
S        3.57664268       6.19474774       3.68155613       12       0.00676063      -0.00100275      -0.00009843
S        8.55577102       1.22836919       3.88580197       13       0.00015594       0.00126883       0.00249895
S        8.56741948       6.23030633       8.92786750       14       0.00195856       0.00025341       0.00200894
S        3.47671632       1.12297166       8.78806755       15      -0.00044160       0.00368682       0.00027154
S        5.93938832       3.82520242       3.94032749       16       0.00265517      -0.00023800      -0.00065687
S        0.92667429       8.86061151       3.74267973       17      -0.00993916       0.01207588       0.00710833
S        0.89171594       3.91930841       8.70627686       18       0.00212896      -0.00023607      -0.00369333
S        5.92027175       8.90169396       8.83220266       19      -0.00062655       0.00127341      -0.00196569
Li       7.55537720       9.90201542       2.01028514       21       0.00101852       0.00040245       0.00159999
Li       7.54460882       4.86930833       6.95664286       22      -0.00274605       0.00188633       0.00413556
Li       3.00980087       9.67051498       6.90576819       23       0.00299504       0.00011672       0.00268932
Li       9.47593474       8.02147600       1.98056358       24       0.00378664      -0.00027646       0.00270610
Li       2.51024441       2.87624592       0.12095915       25      -0.00385615      -0.00193232       0.00113344
Li       2.14798776       7.36330994       5.24098494       26       0.00205519       0.00286857      -0.00780560
Li       9.45562127       2.83664855       7.05905687       27      -0.00016525       0.00254047       0.00135918
Li       6.73724267       3.15303465       9.80748281       28       0.00049598      -0.00003628       0.00075420
Li       4.50184361       3.18792826      12.10251426       29      -0.00013218       0.00196379      -0.00102277
Li       2.73923813       2.19239505       4.76342700       30      -0.00459573       0.00373015      -0.00117702
Li       7.23442182       7.81583398       4.89025831       31       0.00161516       0.00042913       0.00184590
Li       2.78254836       5.54259196       8.11259788       32       0.00438663      -0.00388655      -0.01036137
Li       7.68012701       0.46900891       8.37872788       33      -0.00095093       0.00205838       0.00061042
Li       7.64301053       5.34364459       3.06963052       34       0.00037173       0.00087823      -0.00042217
Li       2.76100383       0.27405995       2.82788573       35      -0.00403702       0.00228896      -0.00149277
Li       1.76542973       4.81424309       2.72227490       36      -0.00122279       0.00284582      -0.00031520
Li       4.93651304       8.12714906       3.00471827       37       0.00247656       0.00188016       0.00200252
Li       4.85200439       2.97799690       7.89005982       38       0.00031271       0.00192193       0.00117423
Li       1.62044294       8.27949858       9.69183158       39       0.01808422      -0.02317685      -0.00125116
Li      -0.16198356       6.95379742       7.11777525       40       0.00680138      -0.00089389      -0.00074282
Li       6.49807225       1.76898379       5.37163131       41       0.00121902       0.00026767      -0.00059024
Li       6.58484518       7.12347634       0.30634092       42       0.00544423       0.00289112       0.00137798
Li       0.06445678       1.82427128       1.85448113       43      -0.00540515       0.00477518      -0.00203807
Cl       9.42628158       9.93024898      10.38134530       44       0.00146998      -0.00118338       0.00017962
Cl       4.62966462       4.47310684      -0.15373778       45       0.00275337       0.00301350      -0.00083206
Cl       4.36842162       0.20424627       4.80514849       46       0.00160826       0.00159670       0.00114140
Cl       9.73595315       4.84669975       5.49818974       47       0.00098510       0.00126062      -0.00012599
S        2.24774094       2.55203665       2.45229818       48      -0.00345924       0.00297069      -0.00034698
S        7.20856229       7.61217388       2.56410949       49       0.00379711       0.00067524       0.00173160
S        7.16185961       2.60771093       7.53786783       50      -0.00015531       0.00193809       0.00121862
S        2.01456544       7.63733151       7.49292074       51       0.00551129      -0.00375155      -0.00635295
P       14.75930161       5.12174552       4.95281901        0      -0.00305299      -0.00435355      -0.00227449
P        9.74921585      10.12113801       5.08864530        1      -0.00453217       0.00348617       0.00304655
P        9.68806749       5.00309584      10.16407533        2      -0.00182634      -0.00084380       0.00123946
P       14.86020960      -0.02140471      10.02416299        3      -0.00406419       0.00169915       0.00121844
S       15.84207226       6.34640884       6.20127619        4      -0.00005172       0.00303574       0.00043914
S       11.06022657       1.21922250       6.16464240        5       0.00034440      -0.00009746       0.00120598
S       10.87600876       6.17759799       1.30302148        6       0.00342993      -0.00263197       0.00042014
S       15.90548194       1.30672818       1.16966497        7      -0.00335270      -0.00093498      -0.00158274
S       13.52887331       3.97979842       6.16511547        8       0.00335039      -0.00347421       0.00075530
S       18.65692690       8.97444914       6.20253259        9      -0.00088742      -0.00274906       0.00361394
S       18.72713841       3.72287626       1.13628861       10      -0.00529591      -0.00077146      -0.00193290
S       13.68565577       8.87322296       1.25834441       11      -0.00159043      -0.00128255      -0.00147911
S       13.54238818       6.36134324       3.82216162       12      -0.00180402      -0.00413775       0.00191149
S       18.70542180       1.23545901       3.84013319       13      -0.00529994       0.00349868       0.00159985
S       18.43983318       6.12311719       8.89702135       14      -0.00271454       0.00487333      -0.00344448
S       13.63978338       1.09990634       8.77293788       15      -0.00314482      -0.00162576      -0.00043764
S       15.92139179       3.95056498       3.77611071       16       0.00054620       0.00070424       0.00022551
S       10.83402694       8.81845131       3.90337531       17      -0.00141102      -0.00036624      -0.00191594
S       10.82296420       3.75713536       8.99688235       18      -0.00061410      -0.00298892      -0.00119542
S       16.02513679       8.79284331       8.97278821       19      -0.00147059      -0.00065721      -0.00324104
Li      12.84161891       4.84484437       2.09657712       20      -0.00037723      -0.00335401       0.00040412
Li      17.68453965       9.86435067       2.03759965       21      -0.00383485       0.00080918       0.00269943
Li      17.53597573       4.75365893       7.01535866       22      -0.01056953       0.00236667       0.00720692
Li      12.98292761       9.62917122       6.92815365       23       0.00383375      -0.00536725       0.00041342
Li      18.77626430       7.69912793       0.74121723       24      -0.00189448       0.00913581      -0.00208690
Li      12.86403738       2.87269333       0.15922618       25      -0.00465504      -0.00340834       0.00082165
Li      11.76189413       7.05802943       5.31743616       26      -0.00405141      -0.00239551      -0.00165973
Li      19.19599480       2.90495163       5.73593867       27       0.00005339       0.00432842       0.00069461
Li      17.20492267       2.63223485       9.64006899       28      -0.00248865       0.00364143      -0.00103551
Li      12.60925143       7.16253141       9.88761112       29       0.00136263      -0.00556306      -0.00148489
Li      14.52073186       2.06396587       3.16470460       30       0.00544388      -0.00619489       0.00082564
Li      17.74921787       7.22498336       4.77856911       31      -0.00012545       0.00132704      -0.00196947
Li      13.92873428       5.94924089       7.71681899       32      -0.00175468      -0.00461998      -0.00175986
Li      19.06009974       0.69745480       7.99501418       33       0.00033121       0.00799804      -0.00019246
Li      17.78157074       5.28451607       2.79369352       34      -0.00101982       0.00236024      -0.00081261
Li      12.32683054       0.23244431       2.66946335       35      -0.00212384      -0.00308789      -0.00051708
Li      11.61630037       3.16802215       4.67286990       36       0.00025906      -0.00308480       0.00134343
Li      15.07625928       8.31380205       3.39310145       37      -0.00289930      -0.00334341      -0.00047460
Li      15.06304361       2.28066726       7.11049949       38      -0.00333489      -0.00102997       0.00593640
Li      10.04460810       8.40506888       8.41672984       39       0.00137503      -0.00145476       0.00014616
Li      10.66945292       5.65243806       7.49294773       40      -0.00061778      -0.00330400       0.00057946
Li      16.99306192       0.70520564       5.63784518       41       0.00530678      -0.00057861       0.00021439
Li      15.67602621       7.11488898       0.72810951       42      -0.00186755       0.00012162      -0.00023753
Li      10.01065808       2.01700192       1.81642160       43       0.00121758      -0.00716703       0.00348307
Cl      19.59836059       9.97374637      10.29304242       44       0.00107421       0.00368902       0.00035755
Cl      14.21280235       5.24822381       0.00602669       45      -0.00037417      -0.00109630       0.00018644
Cl      14.72583373       0.23865947       4.91962181       46      -0.00158689      -0.00173323      -0.00200937
Cl      19.25934003       5.28968105       5.18650451       47      -0.00013691       0.00160670      -0.00231035
S       12.26394447       2.55119864       2.45019095       48       0.00012730      -0.00313505       0.00088186
S       17.18216098       7.58342497       2.51874476       49      -0.00274412       0.00164648      -0.00151207
S       17.40854015       2.39494397       7.32241447       50      -0.00256560       0.00167907      -0.00000235
S       12.09556082       7.50559369       7.60643334       51       0.00046658      -0.00346385      -0.00137587
103
Lattice="20.110191271466377 0.0 0.0 0.0 10.055095635733188 0.0 0.0 0.0 10.055095635733188" Properties=species:S:1:pos:R:3:spacegroup_kinds:I:1:forces:R:3 spacegroup="P 1" unit_cell=conventional occupancy="_JSON {\"0\": {\"P\": 1.0}, \"1\": {\"P\": 1.0}, \"2\": {\"P\": 1.0}, \"3\": {\"P\": 1.0}, \"4\": {\"S\": 1.0}, \"5\": {\"S\": 1.0}, \"6\": {\"S\": 1.0}, \"7\": {\"S\": 1.0}, \"8\": {\"S\": 1.0}, \"9\": {\"S\": 1.0}, \"10\": {\"S\": 1.0}, \"11\": {\"S\": 1.0}, \"12\": {\"S\": 1.0}, \"13\": {\"S\": 1.0}, \"14\": {\"S\": 1.0}, \"15\": {\"S\": 1.0}, \"16\": {\"S\": 1.0}, \"17\": {\"S\": 1.0}, \"18\": {\"S\": 1.0}, \"19\": {\"S\": 1.0}, \"20\": {\"Li\": 1.0}, \"21\": {\"Li\": 1.0}, \"22\": {\"Li\": 1.0}, \"23\": {\"Li\": 1.0}, \"24\": {\"Li\": 1.0}, \"25\": {\"Li\": 1.0}, \"26\": {\"Li\": 1.0}, \"27\": {\"Li\": 1.0}, \"28\": {\"Li\": 1.0}, \"29\": {\"Li\": 1.0}, \"30\": {\"Li\": 1.0}, \"31\": {\"Li\": 1.0}, \"32\": {\"Li\": 1.0}, \"33\": {\"Li\": 1.0}, \"34\": {\"Li\": 1.0}, \"35\": {\"Li\": 1.0}, \"36\": {\"Li\": 1.0}, \"37\": {\"Li\": 1.0}, \"38\": {\"Li\": 1.0}, \"39\": {\"Li\": 1.0}, \"40\": {\"Li\": 1.0}, \"41\": {\"Li\": 1.0}, \"42\": {\"Li\": 1.0}, \"43\": {\"Li\": 1.0}, \"44\": {\"Cl\": 1.0}, \"45\": {\"Cl\": 1.0}, \"46\": {\"Cl\": 1.0}, \"47\": {\"Cl\": 1.0}, \"48\": {\"S\": 1.0}, \"49\": {\"S\": 1.0}, \"50\": {\"S\": 1.0}, \"51\": {\"S\": 1.0}}" charge=0 spin=0 energy=-429.65126601387607 free_energy=-429.65126601387607 stress="-0.0008276770359297728 -0.00013300920489431342 -0.0005386703334569056 -0.00013300920489431342 0.0026480544639468596 -0.0012467482924070007 -0.0005386703334569056 -0.0012467482924070007 0.0018576528289230869" pbc="T T T"
P        4.74883652       5.06514931       4.95953451        0      -0.00113817       0.00557277      -0.00674030
P       -0.18555638      10.06496872       4.93464475        1       0.01222760      -0.01003839      -0.01333797
P       -0.31285222       5.00439655       9.94840354        2       0.01248250       0.01626513       0.01660108
P        4.68844912       0.04882559       9.97508250        3       0.00011539      -0.00211058       0.00570192
S        5.92973085       6.37915781       5.98112644        4       0.00093348       0.00023571       0.00188990
S        0.90920185       1.23242716       6.17983930        5       0.00029485       0.00352312       0.00307590
S        0.77354556       6.28402518       1.09041663        6      -0.01310437      -0.01039420      -0.00830061
S        5.71861419       1.36356023       1.13389297        7       0.00236999       0.00086946       0.00054809
S        3.62217061       3.91922899       6.25049254        8      -0.00090468      -0.00273555      -0.00148138
S        8.68265670       8.91376201       6.29087523        9      -0.00032235       0.00176757       0.00117419
S        8.60635309       3.89043690       1.25909806       10       0.00084688      -0.00017299       0.00058272
S        3.61687632       8.81015108       1.12599755       11       0.00469846       0.00236382      -0.00089686
S        3.51917959       6.13425675       3.68771731       12       0.00676063      -0.00100275      -0.00009843
S        8.47672714       1.28642955       3.96944727       13       0.00015594       0.00126883       0.00249895
S        8.48509660       6.36102229       9.04312479       14       0.00195856       0.00025341       0.00200894
S        3.39598320       1.13312884       8.77953534       15      -0.00044160       0.00368682       0.00027154
S        5.85967995       3.77473970       3.78681667       16       0.00265517      -0.00023800      -0.00065687
S        0.90547276       8.91858571       3.68595453       17      -0.00993916       0.01207588       0.00710833
S        0.84506286       3.95394340       8.64920632       18       0.00212896      -0.00023607      -0.00369333
S        5.87668443       8.94412154       8.81657264       19      -0.00062655       0.00127341      -0.00196569
Li       7.41826733       9.95269264       2.18509283       21       0.00101852       0.00040245       0.00159999
Li       6.72522921       4.97375436       7.96852561       22      -0.00274605       0.00188633       0.00413556
Li       3.05550810       9.60933646       6.87970354       23       0.00299504       0.00011672       0.00268932
Li       8.95780003       7.91064812       1.00770358       24       0.00378664      -0.00027646       0.00270610
Li       2.06064062       2.54292365       0.12260480       25      -0.00385615      -0.00193232       0.00113344
Li       1.89261823       7.17107274       5.15973341       26       0.00205519       0.00286857      -0.00780560
Li       9.39553310       3.25449407       6.78916488       27      -0.00016525       0.00254047       0.00135918
Li       7.60770544       2.25121891       9.86783896       28       0.00049598      -0.00003628       0.00075420
Li       4.35716386       3.35075440      11.92351872       29      -0.00013218       0.00196379      -0.00102277
Li       2.77747448       2.20168490       4.75893664       30      -0.00459573       0.00373015      -0.00117702
Li       8.08401808       7.14176244       4.64847357       31       0.00161516       0.00042913       0.00184590
Li       2.87042930       5.47086052       8.04991621       32       0.00438663      -0.00388655      -0.01036137
Li       7.70016833       0.29436265       7.99646748       33      -0.00095093       0.00205838       0.00061042
Li       7.17844318       5.32867959       2.50935041       34       0.00037173       0.00087823      -0.00042217
Li       2.84523907       0.26904485       2.84167075       35      -0.00403702       0.00228896      -0.00149277
Li       1.42159165       4.75844140       2.99342554       36      -0.00122279       0.00284582      -0.00031520
Li       5.20690311       8.02045700       3.96027642       37       0.00247656       0.00188016       0.00200252
Li       4.94383505       2.88458585       8.13579909       38       0.00031271       0.00192193       0.00117423
Li       1.94493081       7.93403667       9.66409691       39       0.01808422      -0.02317685      -0.00125116
Li      -0.16273382       7.01402082       7.20157560       40       0.00680138      -0.00089389      -0.00074282
Li       6.47987751       1.93870065       5.37854895       41       0.00121902       0.00026767      -0.00059024
Li       5.58708320       7.27931193       0.61639274       42       0.00544423       0.00289112       0.00137798
Li      -0.02848525       1.83684010       2.00528173       43      -0.00540515       0.00477518      -0.00203807
Cl       9.17295747      10.32243290      10.40878811       44       0.00146998      -0.00118338       0.00017962
Cl       4.79217462       4.91425934      -0.33602332       45       0.00275337       0.00301350      -0.00083206
Cl       4.37120167       0.20371074       4.85005585       46       0.00160826       0.00159670       0.00114140
Cl       9.91757295       5.48832082       5.21098995       47       0.00098510       0.00126062      -0.00012599
S        2.17821206       2.54829710       2.45653534       48      -0.00345924       0.00297069      -0.00034698
S        7.09972402       7.62985707       2.50641174       49       0.00379711       0.00067524       0.00173160
S        7.22166495       2.61642176       7.56673758       50      -0.00015531       0.00193809       0.00121862
S        2.05442892       7.56187084       7.41491740       51       0.00551129      -0.00375155      -0.00635295
P       14.86989167       5.01802121       4.99173553        0      -0.00305299      -0.00435355      -0.00227449
P        9.76991911      10.14721214       5.04065994        1      -0.00453217       0.00348617       0.00304655
P        9.73612159       5.10613844      10.08729579        2      -0.00182634      -0.00084380       0.00123946
P       14.78627825       0.00534500      10.08172584        3      -0.00406419       0.00169915       0.00121844
S       15.98968355       6.29985343       6.15446640        4      -0.00005172       0.00303574       0.00043914
S       10.94884603       1.33621595       6.19365311        5       0.00034440      -0.00009746       0.00120598
S       10.86827960       6.29466977       1.26017232        6       0.00342993      -0.00263197       0.00042014
S       15.81217771       1.30826906       1.21087984        7      -0.00335270      -0.00093498      -0.00158274
S       13.74416929       3.78458732       6.21891478        8       0.00335039      -0.00347421       0.00075530
S       18.67680724       8.95373771       6.17797097        9      -0.00088742      -0.00274906       0.00361394
S       18.71399951       3.73982562       1.11685746       10      -0.00529591      -0.00077146      -0.00193290
S       13.69679096       8.79242318       1.27211069       11      -0.00159043      -0.00128255      -0.00147911
S       13.58034289       6.12626032       3.79803129       12      -0.00180402      -0.00413775       0.00191149
S       18.63962944       1.26523532       3.88894078       13      -0.00529994       0.00349868       0.00159985
S       18.43684166       6.20388109       8.94110337       14      -0.00271454       0.00487333      -0.00344448
S       13.47753654       1.11143856       8.90594055       15      -0.00314482      -0.00162576      -0.00043764
S       16.01509187       3.85444163       3.79038104       16       0.00054620       0.00070424       0.00022551
S       10.88793326       8.98446265       3.78642009       17      -0.00141102      -0.00036624      -0.00191594
S       10.85321870       3.95502892       8.80109098       18      -0.00061410      -0.00298892      -0.00119542
S       15.96576414       8.89175175       8.91038805       19      -0.00147059      -0.00065721      -0.00324104
Li      14.16752500       4.06866188       2.20102258       20      -0.00037723      -0.00335401       0.00040412
Li      17.54913543       9.88916774       2.12691734       21      -0.00383485       0.00080918       0.00269943
Li      17.01996346       4.64930444       7.67635120       22      -0.01056953       0.00236667       0.00720692
Li      14.52084714       8.23678739       6.97733290       23       0.00383375      -0.00536725       0.00041342
Li      18.92034670       7.77988747       0.85253591       24      -0.00189448       0.00913581      -0.00208690
Li      12.51763990       2.90508368       0.20500368       25      -0.00465504      -0.00340834       0.00082165
Li      11.86319317       7.17496529       5.23123689       26      -0.00405141      -0.00239551      -0.00165973
Li      19.17991799       3.06529055       5.83863186       27       0.00005339       0.00432842       0.00069461
Li      17.55332186       2.06712888       9.75463695       28      -0.00248865       0.00364143      -0.00103551
Li      12.67969500       7.12358011       9.88086758       29       0.00136263      -0.00556306      -0.00148489
Li      12.90385033       1.98935630       4.72666953       30       0.00544388      -0.00619489       0.00082564
Li      17.90816731       7.17763852       4.69666776       31      -0.00012545       0.00132704      -0.00196947
Li      12.85148330       5.24283436       7.91942687       32      -0.00175468      -0.00461998      -0.00175986
Li      19.17533693       0.68253447       7.88845958       33       0.00033121       0.00799804      -0.00019246
Li      17.79834609       5.26162500       2.78412874       34      -0.00101982       0.00236024      -0.00081261
Li      12.29328978       0.31010296       2.37119058       35      -0.00212384      -0.00308789      -0.00051708
Li      11.30140668       4.74365705       3.25143531       36       0.00025906      -0.00308480       0.00134343
Li      15.05624430       8.21016453       3.37799657       37      -0.00289930      -0.00334341      -0.00047460
Li      15.10301956       2.02552502       7.29632755       38      -0.00333489      -0.00102997       0.00593640
Li      11.83263853       9.76766285       7.77727907       39       0.00137503      -0.00145476       0.00014616
Li      10.01878633       6.98367711       7.26145047       40      -0.00061778      -0.00330400       0.00057946
Li      16.99196693       0.74025296       5.64869523       41       0.00530678      -0.00057861       0.00021439
Li      15.79589398       7.08334758       0.57937207       42      -0.00186755       0.00012162      -0.00023753
Li       9.92879447       2.01264307       2.08444003       43       0.00121758      -0.00716703       0.00348307
Cl      19.36666919      10.20636985      10.30216450       44       0.00107421       0.00368902       0.00035755
Cl      14.29323763       5.15811233      -0.02978105       45      -0.00037417      -0.00109630       0.00018644
Cl      14.75660998      -0.01298729       5.23020652       46      -0.00158689      -0.00173323      -0.00200937
Cl      19.64745125       5.32364949       4.81210369       47      -0.00013691       0.00160670      -0.00231035
S       12.20170694       2.63430065       2.51784760       48       0.00012730      -0.00313505       0.00088186
S       17.18428112       7.56511000       2.47760242       49      -0.00274412       0.00164648      -0.00151207
S       17.43897171       2.35165818       7.40983766       50      -0.00256560       0.00167907      -0.00000235
S       12.30994114       7.50696846       7.54683796       51       0.00046658      -0.00346385      -0.00137587
103
Lattice="20.110191271466377 0.0 0.0 0.0 10.055095635733188 0.0 0.0 0.0 10.055095635733188" Properties=species:S:1:pos:R:3:spacegroup_kinds:I:1:forces:R:3 spacegroup="P 1" unit_cell=conventional occupancy="_JSON {\"0\": {\"P\": 1.0}, \"1\": {\"P\": 1.0}, \"2\": {\"P\": 1.0}, \"3\": {\"P\": 1.0}, \"4\": {\"S\": 1.0}, \"5\": {\"S\": 1.0}, \"6\": {\"S\": 1.0}, \"7\": {\"S\": 1.0}, \"8\": {\"S\": 1.0}, \"9\": {\"S\": 1.0}, \"10\": {\"S\": 1.0}, \"11\": {\"S\": 1.0}, \"12\": {\"S\": 1.0}, \"13\": {\"S\": 1.0}, \"14\": {\"S\": 1.0}, \"15\": {\"S\": 1.0}, \"16\": {\"S\": 1.0}, \"17\": {\"S\": 1.0}, \"18\": {\"S\": 1.0}, \"19\": {\"S\": 1.0}, \"20\": {\"Li\": 1.0}, \"21\": {\"Li\": 1.0}, \"22\": {\"Li\": 1.0}, \"23\": {\"Li\": 1.0}, \"24\": {\"Li\": 1.0}, \"25\": {\"Li\": 1.0}, \"26\": {\"Li\": 1.0}, \"27\": {\"Li\": 1.0}, \"28\": {\"Li\": 1.0}, \"29\": {\"Li\": 1.0}, \"30\": {\"Li\": 1.0}, \"31\": {\"Li\": 1.0}, \"32\": {\"Li\": 1.0}, \"33\": {\"Li\": 1.0}, \"34\": {\"Li\": 1.0}, \"35\": {\"Li\": 1.0}, \"36\": {\"Li\": 1.0}, \"37\": {\"Li\": 1.0}, \"38\": {\"Li\": 1.0}, \"39\": {\"Li\": 1.0}, \"40\": {\"Li\": 1.0}, \"41\": {\"Li\": 1.0}, \"42\": {\"Li\": 1.0}, \"43\": {\"Li\": 1.0}, \"44\": {\"Cl\": 1.0}, \"45\": {\"Cl\": 1.0}, \"46\": {\"Cl\": 1.0}, \"47\": {\"Cl\": 1.0}, \"48\": {\"S\": 1.0}, \"49\": {\"S\": 1.0}, \"50\": {\"S\": 1.0}, \"51\": {\"S\": 1.0}}" charge=0 spin=0 energy=-429.65126601387607 free_energy=-429.65126601387607 stress="-0.0008276770359297728 -0.00013300920489431342 -0.0005386703334569056 -0.00013300920489431342 0.0026480544639468596 -0.0012467482924070007 -0.0005386703334569056 -0.0012467482924070007 0.0018576528289230869" pbc="T T T"
P        4.81392308       5.07707495       4.98355665        0      -0.00113817       0.00557277      -0.00674030
P       -0.10630553      10.04873571       5.00886349        1       0.01222760      -0.01003839      -0.01333797
P       -0.15261915       5.08386300      10.04333471        2       0.01248250       0.01626513       0.01660108
P        4.85754375       0.05845804       9.97705350        3       0.00011539      -0.00211058       0.00570192
S        6.05311284       6.35892534       5.97808095        4       0.00093348       0.00023571       0.00188990
S        1.07994937       1.12887078       6.25090501        5       0.00029485       0.00352312       0.00307590
S        0.95270470       6.28224520       1.19397420        6      -0.01310437      -0.01039420      -0.00830061
S        6.09632655       1.34475521       0.94546617        7       0.00236999       0.00086946       0.00054809
S        3.77991483       3.91205818       6.34075054        8      -0.00090468      -0.00273555      -0.00148138
S        8.68025858       8.69610880       5.99137945        9      -0.00032235       0.00176757       0.00117419
S        8.81934973       3.60722192       1.04274294       10       0.00084688      -0.00017299       0.00058272
S        3.74154170       9.00958891       1.27388497       11       0.00469846       0.00236382      -0.00089686
S        3.51414768       6.16284328       3.81241796       12       0.00676063      -0.00100275      -0.00009843
S        8.64624652       1.18190518       3.77594246       13       0.00015594       0.00126883       0.00249895
S        8.54321999       6.14721079       8.83646347       14       0.00195856       0.00025341       0.00200894
S        3.61835725       1.23277912       8.81141140       15      -0.00044160       0.00368682       0.00027154
S        5.82387427       3.78099808       3.74519152       16       0.00265517      -0.00023800      -0.00065687
S        1.03898461       8.89491491       3.79893805       17      -0.00993916       0.01207588       0.00710833
S        1.00027226       3.94885865       8.76742214       18       0.00212896      -0.00023607      -0.00369333
S        5.86941026       8.79396664       8.81379489       19      -0.00062655       0.00127341      -0.00196569
Li       7.13146659       9.79571367       2.48319949       21       0.00101852       0.00040245       0.00159999
Li       7.31932524       4.71846363       7.28343641       22      -0.00274605       0.00188633       0.00413556
Li       3.09958995       9.66777187       6.98392903       23       0.00299504       0.00011672       0.00268932
Li       8.79863796       7.73574879       0.78442967       24       0.00378664      -0.00027646       0.00270610
Li       2.35550161       2.63005675       0.25819264       25      -0.00385615      -0.00193232       0.00113344
Li       1.97724573       7.23242441       5.35623920       26       0.00205519       0.00286857      -0.00780560
Li       8.98707111       2.65129347       5.82758727       27      -0.00016525       0.00254047       0.00135918
Li       8.12032716       1.68716754       9.48558014       28       0.00049598      -0.00003628       0.00075420
Li       3.87175031       4.21540018      12.32052582       29      -0.00013218       0.00196379      -0.00102277
Li       2.11521355       2.84333494       4.90778537       30      -0.00459573       0.00373015      -0.00117702
Li       8.10828376       6.77086892       4.46251236       31       0.00161516       0.00042913       0.00184590
Li       2.98341836       5.46896374       8.20311360       32       0.00438663      -0.00388655      -0.01036137
Li       6.82244623       0.03059733       6.94220578       33      -0.00095093       0.00205838       0.00061042
Li       7.00878635       5.08041120       1.97429930       34       0.00037173       0.00087823      -0.00042217
Li       2.98585542       0.41286335       3.15422261       35      -0.00403702       0.00228896      -0.00149277
Li       0.60119322       4.45704102       2.81651953       36      -0.00122279       0.00284582      -0.00031520
Li       5.32060194       7.85936325       4.00399095       37       0.00247656       0.00188016       0.00200252
Li       5.45528974       2.86487294       8.96413092       38       0.00031271       0.00192193       0.00117423
Li       2.00749345       8.10127327       9.86510117       39       0.01808422      -0.02317685      -0.00125116
Li      -0.03108924       7.64190085       7.63989074       40       0.00680138      -0.00089389      -0.00074282
Li       5.53189442       2.25477527       5.66399931       41       0.00121902       0.00026767      -0.00059024
Li       5.42434139       7.26377318       0.65537528       42       0.00544423       0.00289112       0.00137798
Li       0.11576132       1.58492625       1.93634596       43      -0.00540515       0.00477518      -0.00203807
Cl       9.76476153       9.88941766      10.03068303       44       0.00146998      -0.00118338       0.00017962
Cl       4.74142364       4.92102747       0.09267602       45       0.00275337       0.00301350      -0.00083206
Cl       4.77263641       0.00669395       5.05324489       46       0.00160826       0.00159670       0.00114140
Cl       9.63543171       4.89873804       5.05706945       47       0.00098510       0.00126062      -0.00012599
S        2.15683907       2.60627005       2.58511402       48      -0.00345924       0.00297069      -0.00034698
S        7.08301868       7.43134244       2.40012488       49       0.00379711       0.00067524       0.00173160
S        7.20369740       2.37195928       7.37855943       50      -0.00015531       0.00193809       0.00121862
S        2.22879935       7.59006692       7.61380419       51       0.00551129      -0.00375155      -0.00635295
P       14.92695434       4.99333890       5.12575349        0      -0.00305299      -0.00435355      -0.00227449
P        9.85468027       9.95078838       4.83814332        1      -0.00453217       0.00348617       0.00304655
P        9.84367041       4.97916328       9.92463472        2      -0.00182634      -0.00084380       0.00123946
P       14.96887616      -0.00383236      10.15295485        3      -0.00406419       0.00169915       0.00121844
S       16.07944934       6.28226950       6.19278424        4      -0.00005172       0.00303574       0.00043914
S       10.93553255       1.06684818       6.17787097        5       0.00034440      -0.00009746       0.00120598
S       10.80590222       6.23496846       1.18195756        6       0.00342993      -0.00263197       0.00042014
S       15.96728088       1.24664884       1.36201985        7      -0.00335270      -0.00093498      -0.00158274
S       13.77898783       3.87358446       6.43146285        8       0.00335039      -0.00347421       0.00075530
S       18.70425843       8.90034379       6.14707285        9      -0.00088742      -0.00274906       0.00361394
S       18.87057397       3.78731495       1.19766941       10      -0.00529591      -0.00077146      -0.00193290
S       13.77845864       8.77732809       1.22872150       11      -0.00159043      -0.00128255      -0.00147911
S       13.61361960       5.97711000       3.86492752       12      -0.00180402      -0.00413775       0.00191149
S       18.79360476       1.20788609       3.85181064       13      -0.00529994       0.00349868       0.00159985
S       18.63042058       6.26706544       8.98573748       14      -0.00271454       0.00487333      -0.00344448
S       13.79867979       1.14636178       8.89486188       15      -0.00314482      -0.00162576      -0.00043764
S       15.98652819       3.71066381       3.90868423       16       0.00054620       0.00070424       0.00022551
S       11.02538633       8.87858953       3.58011886       17      -0.00141102      -0.00036624      -0.00191594
S       11.09241208       4.00977769       8.63231604       18      -0.00061410      -0.00298892      -0.00119542
S       16.17950176       8.84977772       9.01491125       19      -0.00147059      -0.00065721      -0.00324104
Li      14.13269662       4.02248613       2.32457355       20      -0.00037723      -0.00335401       0.00040412
Li      17.18450324       9.79300247       2.84284451       21      -0.00383485       0.00080918       0.00269943
Li      17.77516170       4.84886714       7.27274166       22      -0.01056953       0.00236667       0.00720692
Li      13.24213844       9.68981154       7.06561038       23       0.00383375      -0.00536725       0.00041342
Li      18.32485599       8.22454707       0.49111603       24      -0.00189448       0.00913581      -0.00208690
Li      12.63819891       2.89137241       0.18439146       25      -0.00465504      -0.00340834       0.00082165
Li      12.55799113       7.73723343       5.21420241       26      -0.00405141      -0.00239551      -0.00165973
Li      17.91267670       2.93703073       5.27063964       27       0.00005339       0.00432842       0.00069461
Li      17.76292060       1.95994436       9.92650763       28      -0.00248865       0.00364143      -0.00103551
Li      11.92049829       8.01981755       9.88205209       29       0.00136263      -0.00556306      -0.00148489
Li      12.37372691       2.63483857       4.86674386       30       0.00544388      -0.00619489       0.00082564
Li      17.97220846       7.09534967       4.67117491       31      -0.00012545       0.00132704      -0.00196947
Li      13.13144747       5.57673220       8.16710167       32      -0.00175468      -0.00461998      -0.00175986
Li      19.78290693       1.93159765       8.04816917       33       0.00033121       0.00799804      -0.00019246
Li      17.61602494       5.18383139       2.75770464       34      -0.00101982       0.00236024      -0.00081261
Li      13.04781075       0.33062326       3.01797758       35      -0.00212384      -0.00308789      -0.00051708
Li      10.63930241       4.33969616       2.81137177       36       0.00025906      -0.00308480       0.00134343
Li      15.05400657       7.87190364       3.43832516       37      -0.00289930      -0.00334341      -0.00047460
Li      15.28458795       3.06255218       8.22554269       38      -0.00333489      -0.00102997       0.00593640
Li      10.30111596       9.22630484       7.74448496       39       0.00137503      -0.00145476       0.00014616
Li      10.38608201       6.06845293       7.09306297       40      -0.00061778      -0.00330400       0.00057946
Li      16.98790894       0.27657644       7.19576971       41       0.00530678      -0.00057861       0.00021439
Li      15.58991754       7.00281528       0.62957985       42      -0.00186755       0.00012162      -0.00023753
Li      10.28977529       1.35248183       1.91795565       43       0.00121758      -0.00716703       0.00348307
Cl      19.64684463      10.34029192      10.04565440       44       0.00107421       0.00368902       0.00035755
Cl      14.56508646       4.80206935      -0.00425271       45      -0.00037417      -0.00109630       0.00018644
Cl      14.39057581      -0.41515655       4.93797225       46      -0.00158689      -0.00173323      -0.00200937
Cl      19.34864028       5.01593762       4.79154749       47      -0.00013691       0.00160670      -0.00231035
S       12.24919390       2.55026540       2.51426626       48       0.00012730      -0.00313505       0.00088186
S       17.15593376       7.48710310       2.45631554       49      -0.00274412       0.00164648      -0.00151207
S       17.51253369       2.52700809       7.60521875       50      -0.00256560       0.00167907      -0.00000235
S       12.11027146       7.66056468       7.55794768       51       0.00046658      -0.00346385      -0.00137587
