308
Lattice="10.055095635733188 0.0 0.0 0.0 20.110191271466377 0.0 0.0 0.0 45.736390209668734" Properties=species:S:1:pos:R:3 source=db/raw/wad_sese_4L_2026_09_25/li_outer_relaxed_final_coords.txt source_sha256=7e0b1daea3467b1f25e72d9689ca41f76646907ed74cbad1ad628507f66fcce5 charge=0 spin=0 pbc="T T F"
P        4.93424100       2.06296700       1.74074200
P       -0.09333100       7.09049800       1.74071000
P       -0.05861700       2.33843100       6.89456800
P        4.96889700       7.36598800       6.89456200
S        6.38173700       3.19542700       2.78569800
S        1.35412000       8.22300600       2.78566700
S        3.83039100       1.04514300       3.23778100
S        8.85793400       6.07265700       3.23775200
S        3.84486600       3.45948300       0.75102400
S        8.87236800       8.48697800       0.75097000
S        8.62861300       3.38523600       5.71638800
S        3.60106300       8.41278800       5.71634600
S        5.60408800       0.60552800       0.50001100
S        0.57656300       5.63307200       0.50000000
S        1.03570200       1.05818900       5.72973400
S        6.06321400       6.08567100       5.72979100
Li       8.23494000       1.96179800       3.79093200
Li       3.20730400       6.98939200       3.79092400
Li       1.83837300       4.03990700       1.90374300
Li       6.86586600      -0.98772200       1.90370600
Li       7.75457500       9.72559000       6.55907100
Li       2.72689300       4.69817800       6.55912000
Li       3.65770800       9.31565900       1.47235200
Li       8.68530100       4.28804100       1.47233100
Li       2.72110000       2.53970500       4.76521300
Li       7.74854800       7.56717200       4.76513500
Li      -0.43616800      -0.15905500       2.66847300
Li       4.59146800       4.86851500       2.66852900
Li       5.74171100       1.76388000       4.74593000
Li       0.71410500       6.79142300       4.74589500
Li       0.13204700       4.11372600       4.04707500
Li       5.15955100       9.14132200       4.04705600
Cl       9.40184600       7.51199100       6.73780500
Cl       4.95905700       7.42875800       2.28647400
Cl       9.98661400       2.40119300       2.28648900
S        7.40517200       9.86201100       4.20074200
S        2.37761500       4.83450900       4.20077300
P        4.99712949       2.63415228      11.67016467
P       -0.02516929       7.70815529      11.65480978
P       -0.00907034       2.85892829      16.35998288
P        5.05040537       7.50766800      16.35329837
S        6.19234619       3.81131059      12.85276921
S        1.17508270       8.91406972      12.80805224
S        0.99185400       3.69462600       7.99757100
S        6.01939100       8.72221400       7.99750400
S        3.63825435       1.61821965      12.84780944
S        8.71828446       6.65788931      12.84372824
S        8.85032600       1.16298100       8.18404200
S        3.82273400       6.19059600       8.18406300
S        3.85353147       3.87160009      10.45450492
S        8.82430718       8.93331168      10.48909464
S        8.60403044       4.05338978      15.52739156
S        3.55360889       8.75972587      15.67049844
S        6.01652437       1.32634949      10.50661333
S        0.97682973       6.43975054      10.43016522
S        1.06542347       1.76342666      14.99301936
S        6.16292317       6.70720880      14.83128445
Li       2.71711700       2.28922400       9.03005800
Li       7.74449400       7.31678800       9.03015300
Li       8.08643838       2.44997604      13.74765453
Li       3.00471276       7.48593844      13.68446646
Li       8.12815900       5.29686000       7.13461800
Li       3.10049600       0.26926500       7.13458800
Li       2.76406313       5.56085288      11.80271284
Li       7.75323371       0.37570618      11.93307142
Li       7.08856658      11.04692020      16.53252631
Li       2.15855971       6.34960865      16.30409484
Li       3.18771813       9.83050742      11.43015106
Li       8.22390008       4.75651961      11.46090260
Li       2.80281361       3.29603174      15.69577042
Li       7.82908108       8.20743065      15.66318910
Li       7.78185047       2.75978950       9.60219416
Li       2.78445965       7.83742403       9.56563360
Li       0.26849546       0.84246754      10.28746519
Li       5.32661644       5.88196459      10.26999972
Li       5.17651009       0.95945000      14.52979245
Li       0.12071868       5.71767899      14.48492908
Li       1.60069248       3.10496296      13.02827746
Li       6.70646232       8.16398563      12.97154825
Li       5.34231600       4.22634500       8.23440600
Li       0.31469700       9.25359700       8.23472000
Cl      10.02518595       7.48974236      16.17223060
Cl       4.37430000       2.48446500       6.73783600
Cl       4.44559769       7.63581656      11.67300886
Cl       9.49953085       2.60631802      11.71896767
S        2.25879102      10.09020957       9.30701571
S        7.30188200       5.02751300       9.34307300
S        7.46730097      10.16367201      14.20728085
S        2.44975613       5.17028865      14.09039449
S        1.28644741       4.10822656      17.39267252
S        6.31695513       8.68532159      17.53596308
S        9.19465068       1.43841054      17.60217613
S        4.29600753       5.88852991      17.34453052
Li       9.30123717       5.59368409      17.44151552
Li       4.27640581       0.47856028      17.47046732
Li       4.82258394       4.74465545      14.67518510
Li      -0.17963062       9.73566925      14.71968672
Cl       4.96359409       2.45656051      16.29009979
P        4.93424100      12.11806264       1.74074200
P       -0.09333100      17.14559364       1.74071000
P       -0.05861700      12.39352664       6.89456800
P        4.96889700      17.42108364       6.89456200
S        6.38173700      13.25052264       2.78569800
S        1.35412000      18.27810164       2.78566700
S        3.83039100      11.10023864       3.23778100
S        8.85793400      16.12775264       3.23775200
S        3.84486600      13.51457864       0.75102400
S        8.87236800      18.54207364       0.75097000
S        8.62861300      13.44033164       5.71638800
S        3.60106300      18.46788364       5.71634600
S        5.60408800      10.66062364       0.50001100
S        0.57656300      15.68816764       0.50000000
S        1.03570200      11.11328464       5.72973400
S        6.06321400      16.14076664       5.72979100
Li       8.23494000      12.01689364       3.79093200
Li       3.20730400      17.04448764       3.79092400
Li       1.83837300      14.09500264       1.90374300
Li       6.86586600       9.06737364       1.90370600
Li       7.75457500      19.78068564       6.55907100
Li       2.72689300      14.75327364       6.55912000
Li       3.65770800      19.37075464       1.47235200
Li       8.68530100      14.34313664       1.47233100
Li       2.72110000      12.59480064       4.76521300
Li       7.74854800      17.62226764       4.76513500
Li      -0.43616800       9.89604064       2.66847300
Li       4.59146800      14.92361064       2.66852900
Li       5.74171100      11.81897564       4.74593000
Li       0.71410500      16.84651864       4.74589500
Li       0.13204700      14.16882164       4.04707500
Li       5.15955100      19.19641764       4.04705600
Cl       9.40184600      17.56708664       6.73780500
Cl       4.95905700      17.48385364       2.28647400
Cl       9.98661400      12.45628864       2.28648900
S        7.40517200      19.91710664       4.20074200
S        2.37761500      14.88960464       4.20077300
P        4.99480051      12.70136483      11.71414860
P       -0.01510633      17.74431649      11.69378611
P        0.00866454      12.68232449      16.41311888
P        5.16146075      17.82067376      16.42215468
S        6.20480550      13.91263149      12.85372065
S        1.04843544      19.02113134      12.88918879
S        0.99185400      13.74972164       7.99757100
S        6.01939100      18.77730964       7.99750400
S        3.68700045      11.65905306      12.91939519
S        8.74796586      16.62366080      12.84947857
S        8.85032600      11.21807664       8.18404200
S        3.82273400      16.24569164       8.18406300
S        3.80356311      13.93029279      10.53725536
S        8.86387436      18.93437024      10.46384724
S        8.60877443      13.95020542      15.68311946
S        3.83734736      19.05665283      15.39613496
S        6.00282140      11.40720649      10.52206448
S        1.03223908      16.46781967      10.51039633
S        1.11046381      11.76085600      14.94445230
S        6.27493611      16.73581242      15.07485924
Li       2.71711700      12.34431964       9.03005800
Li       7.74449400      17.37188364       9.03015300
Li       7.95383867      12.50662384      13.87481488
Li       2.63140728      17.57170548      13.94078743
Li       8.12815900      15.35195564       7.13461800
Li       3.10049600      10.32436064       7.13458800
Li       2.80557168      15.67937827      11.93481591
Li       7.85622013      10.65017036      11.91917843
Li       7.06863001      21.26368325      16.48250459
Li       2.05551356      16.09737431      16.54509353
Li       3.02808745      19.82750765      11.49854925
Li       8.22297592      14.77543893      11.45089948
Li       2.88199618      13.19008023      15.77477223
Li       8.21658393      18.02381725      14.71511936
Li       7.75171714      12.81809206       9.55995639
Li       2.76075652      17.88297195       9.55560144
Li       0.28084726      10.92631260      10.26778292
Li       5.33190394      15.94988125      10.31086359
Li       5.08755641      10.58491355      14.57928963
Li       0.08326523      15.60021898      14.53025228
Li       1.66699237      13.14901587      13.04912573
Li       5.74752944      18.53869812      13.54901035
Li       5.34231600      14.28144064       8.23440600
Li       0.31469700      19.30869264       8.23472000
Cl      10.05111720      17.47136848      16.20283280
Cl       4.37430000      12.53956064       6.73783600
Cl       4.34740065      17.65391040      11.77863849
Cl       9.45990611      12.61523337      11.75564722
S        2.25829611      20.13782354       9.31585100
S        7.30188200      15.08260864       9.34307300
S        7.45286336      20.27846837      14.25052993
S        2.44051909      15.19317299      14.23697477
S        1.28264193      13.89155241      17.54805780
S        6.35991801      19.09158432      17.51994858
S        9.30217037      11.10331319      17.48846296
S        4.21152413      16.41393575      17.58493004
Li       9.07837365      15.64324830      17.51174841
Li       4.20111118      10.25823806      17.57181571
Li       4.79495981      14.98462494      14.48314393
Li      -0.33420347      20.01991130      15.58043521
Cl       4.96153863      12.18519967      16.36293425
Ag       8.58783906       5.76483191      19.98525017
Ag       8.63556467       8.62590490      19.92114195
Ag       8.56431975      11.53836707      19.90288190
Ag       8.55937341      14.41092333      19.96358597
Ag       8.59702705      17.24096151      19.92391770
Ag       8.58074735      20.09670916      20.01731063
Ag       8.56229539      23.00750342      19.88912627
Ag      11.09408218       7.21373108      19.87532800
Ag      11.13922468      10.08140383      19.84207040
Ag      11.12373906      12.95887848      19.97486380
Ag      11.07236602      15.84727085      19.95160898
Ag      11.08544706      18.69292012      19.91165766
Ag      11.12316772      21.53965408      19.91118679
Ag      11.09936445      24.44596141      19.93857741
Ag      13.62892056       5.80964283      19.87396571
Ag      13.59426264       8.68049801      19.92764380
Ag      13.62819602      11.52025379      19.95533503
Ag      13.63186322      14.37852070      19.98473292
Ag      13.57136166      17.28190373      19.92149125
Ag      13.57924392      20.14588442      20.00454920
Ag      13.63710035      22.98810800      19.88493637
Ag      16.17866483       7.21514906      19.90338408
Ag      16.11623960      10.11375256      19.94942670
Ag      16.11735561      12.96128354      19.89068592
Ag      16.15175942      15.81202655      19.87916150
Ag      16.11485280      18.70346367      20.00814938
Ag      16.10059798      21.58142765      19.95172509
Ag      16.15272646      24.44654414      19.86748353
Ag       9.47265875       7.20919039      22.28748015
Ag       9.47387717      10.09357596      22.24049347
Ag       9.46128958      12.95709595      22.27698914
Ag       9.46204280      15.82105969      22.32692042
Ag       9.44933288      18.68643499      22.31418199
Ag       9.46170802      21.58367218      22.28462665
Ag       9.47682090      24.42745924      22.27575451
Ag      11.99486123       5.77351680      22.22867095
Ag      11.96780941       8.64855226      22.25955606
Ag      11.96334169      11.52107884      22.27885003
Ag      11.97237717      14.39855161      22.30756923
Ag      11.98375996      17.26633888      22.28892936
Ag      11.93972779      20.12962169      22.31668340
Ag      11.97517296      23.00119261      22.25511543
Ag      14.50156315       7.21830900      22.23846586
Ag      14.50276473      10.07755952      22.30620779
Ag      14.48771703      12.95558195      22.30300269
Ag      14.49557868      15.84447974      22.27937656
Ag      14.47877615      18.69404118      22.31036098
Ag      14.48500075      21.57587084      22.31947724
Ag      14.48562470      24.45055811      22.22496595
Ag      16.98338430       5.77889463      22.27527760
Ag      17.01763357       8.64855990      22.26589228
Ag      17.02188735      11.52725867      22.26147060
Ag      16.97956125      14.39318438      22.28792974
Ag      16.99073297      17.26076250      22.29059823
Ag      16.98821503      20.14095845      22.32297718
Ag      17.01231631      23.01726015      22.26432372
Ag      10.34264365       5.76915888      24.59415349
Ag      10.32838845       8.65516957      24.60511049
Ag      10.32148308      11.51831558      24.62560551
Ag      10.32666283      14.38240007      24.64776914
Ag      10.32809454      17.26510094      24.64118842
Ag      10.30642402      20.13888187      24.65090457
Ag      10.33206368      23.00763786      24.63231012
Ag      12.84728270       7.20766133      24.58249254
Ag      12.83858439      10.08363895      24.60811162
Ag      12.83665788      12.95101245      24.63661463
Ag      12.84106672      15.82919092      24.63803813
Ag      12.83197231      18.70172031      24.64550405
Ag      12.82844794      21.57634370      24.62933174
Ag      12.84362854      24.44483588      24.58920083
Ag      15.34621889       5.77132605      24.60319638
Ag      15.36466673       8.63566980      24.61634265
Ag      15.36570958      11.52012605      24.61795928
Ag      15.34554199      14.39763628      24.63547446
Ag      15.34690366      17.26505481      24.65559545
Ag      15.34473517      20.13487631      24.65450548
Ag      15.35778613      23.02339279      24.60550092
Ag      17.87142269       7.20841265      24.61167273
Ag      17.87544376      10.08380431      24.60388537
Ag      17.86803168      12.95750107      24.61768320
Ag      17.85667472      15.82929340      24.63321203
Ag      17.85510188      18.69679618      24.65156750
Ag      17.86444295      21.57927412      24.63192807
Ag      17.87418452      24.45146844      24.60249507
Ag       8.67990407       5.77337135      26.96366861
Ag       8.67411440       8.64526473      26.97092057
Ag       8.66904640      11.51596658      26.98546454
Ag       8.66584532      14.38836418      26.99422448
Ag       8.66511641      17.26206776      27.00147698
Ag       8.66008744      20.14120668      27.01176488
Ag       8.66997482      23.01558765      26.98537050
Ag      11.19076299       7.20982028      26.95329932
Ag      11.18724711      10.07972485      26.98052995
Ag      11.18382693      12.94892040      27.00630273
Ag      11.18100159      15.82534337      27.00240674
Ag      11.17591853      18.70189608      27.00862383
Ag      11.18041125      21.57703998      27.00500872
Ag      11.19103660      24.45046566      26.97553995
Ag      13.69897750       5.77402411      26.96382587
Ag      13.70096968       8.64124556      26.96204380
Ag      13.70199266      11.51199203      26.97989189
Ag      13.69418638      14.38848042      27.00160641
Ag      13.69020371      17.26438370      27.01301044
Ag      13.68946687      20.14127603      27.00536599
Ag      13.69825478      23.01600163      26.97035846
Ag      16.21667454       7.20530710      26.97760355
Ag      16.21668871      10.07753927      26.97492317
Ag      16.21143872      12.95233201      26.98568241
Ag      16.20715559      15.82613149      27.00876925
Ag      16.20464476      18.70252146      27.02243198
Ag      16.20687333      21.58142087      26.98988616
Ag      16.21574441      24.45102681      26.96979155
